1 1
2 2
3 1
4 1
5 5
6 1
7 5
8 1
9 4
10 4
11 5
12 3
13 5
14 1
15 1
16 3
17 2
18 1
19 5
20 1
21 4
22 3
23 2
24 1
25 3
26 5
27 1
28 3
29 2
30 4
31 2
32 5
33 4
34 2
35 3
36 4
37 2
38 1
39 3
40 5
41 4
42 1
43 2
44 3
45 2
46 3
47 5
48 5
49 1
50 3
51 4
52 2
53 3
54 5
55 1
56 5
57 4
58 2
59 3
60 3
61 5
62 4
63 5
64 1
65 4
66 1
67 2
68 1
69 3
70 4
71 1
72 4
73 2
74 5
75 5
76 5
77 1
78 5
79 3
80 5
81 2
82 1
83 1
84 2
85 3
86 4
87 4
88 2
89 1
90 3
91 5
92 1
93 3
94 5
95 4
96 2
97 5
98 5
99 1
100 2
101 4
102 2
103 5
104 1
105 1
106 3
107 2
108 5
109 4
110 1
111 1
112 4
113 2
114 4
115 2
116 3
117 2
118 5
119 4
120 4
121 2
122 4
123 5
124 3
125 1
126 4
127 5
128 5
129 5
130 1
131 1
132 4
133 5
134 2
135 3
136 4
137 5
138 5
139 5
140 2
141 3
142 2
143 1
144 1
145 5
146 4
147 4
148 1
149 3
150 2
151 5
152 3
153 1
154 3
155 4
156 4
157 5
158 5
159 2
160 4
161 2
162 1
163 1
164 5
165 3
166 1
167 4
168 1
169 2
170 3
171 3
172 1
173 3
174 2
175 2
176 4
177 5
178 1
179 1
180 5
181 4
182 2
183 1
184 1
185 2
186 4
187 5
188 2
189 4
190 2
191 3
192 3
193 2
194 5
195 1
196 4
197 1
198 2
199 2
200 5
201 5
202 1
203 2
204 4
205 1
206 5
207 4
208 5
209 2
210 4
211 2
212 4
213 3
214 2
215 5
216 4
217 3
218 2
219 1
220 5
221 3
222 5
223 5
224 5
225 1
226 5
227 2
228 4
229 5
230 3
231 1
232 4
233 2
234 3
235 1
236 4
237 1
238 5
239 3
240 5
241 1
242 2
243 1
244 3
245 5
246 2
247 2
248 1
249 5
250 4
251 2
252 3
253 1
254 3
255 3
256 4
257 4
258 2
259 2
260 4
261 3
262 2
263 5
264 3
265 1
266 2
267 3
268 3
269 1
270 3
271 4
272 3
273 2
274 2
275 1
276 3
277 4
278 4
279 1
280 1
281 2
282 4
283 1
284 3
285 2
286 1
287 1
288 3
289 3
290 2
291 1
292 5
293 5
294 2
295 3
296 2
297 5
298 1
299 4
300 1
301 2
302 4
303 1
304 3
305 5
306 4
307 4
308 2
309 4
310 2
311 3
312 5
313 3
314 1
315 2
316 2
317 3
318 5
319 4
320 4
321 3
322 4
323 1
324 2
325 3
326 2
327 3
328 3
329 5
330 1
331 3
332 2
333 5
334 3
335 5
336 3
337 4
338 5
339 3
340 1
341 4
342 2
343 1
344 4
345 2
346 4
347 3
348 4
349 4
350 4
351 4
352 2
353 2
354 3
355 5
356 4
357 1
358 1
359 3
360 1
361 1
362 2
363 4
364 1
365 5
366 1
367 2
368 1
369 2
370 4
371 5
372 2
373 3
374 1
375 5
376 4
377 1
378 5
379 3
380 3
381 2
382 2
383 1
384 5
385 3
386 3
387 1
388 4
389 2
390 3
391 5
392 4
393 2
394 1
395 1
396 4
397 2
398 3
399 4
400 5
401 5
402 5
403 1
404 5
405 4
406 1
407 2
408 1
409 1
410 4
411 3
412 1
413 2
414 5
415 4
416 1
417 3
418 1
419 4
420 2
421 1
422 1
423 3
424 1
425 3
426 1
427 3
428 4
429 1
430 5
431 5
432 1
433 3
434 2
435 2
436 4
437 3
438 2
439 3
440 1
441 1
442 2
443 3
444 2
445 1
446 5
447 4
448 3
449 4
450 1
451 2
452 1
453 4
454 2
455 4
456 5
457 1
458 2
459 2
460 2
461 5
462 1
463 3
464 3
465 4
466 3
467 3
468 3
469 3
470 1
471 2
472 2
473 1
474 2
475 3
476 1
477 2
478 4
479 3
480 2
481 5
482 3
483 4
484 2
485 1
486 3
487 5
488 4
489 2
490 1
491 2
492 1
493 1
494 5
495 2
496 1
497 3
498 2
499 4
500 1
501 4
502 3
503 5
504 4
505 2
506 2
507 5
508 1
509 1
510 4
511 5
512 2
513 3
514 1
515 1
516 5
517 2
518 5
519 4
520 5
521 4
522 1
523 2
524 5
525 5
526 2
527 3
528 1
529 4
530 3
531 1
532 5
533 5
534 1
535 4
536 1
537 3
538 5
539 2
540 4
541 1
542 2
543 4
544 1
545 3
546 2
547 3
548 3
549 1
550 4
551 4
552 2
553 3
554 5
555 4
556 1
557 3
558 3
559 5
560 2
561 4
562 4
563 3
564 3
565 2
566 2
567 2
568 3
569 3
570 5
571 1
572 1
573 2
574 2
575 3
576 1
577 3
578 5
579 3
580 3
581 1
582 3
583 2
584 4
585 3
586 4
587 2
588 1
589 2
590 5
591 4
592 4
593 1
594 2
595 1
596 5
597 3
598 3
599 1
600 5
601 3
602 4
603 1
604 5
605 1
606 5
607 1
608 3
609 2
610 3
611 2
612 5
613 3
614 1
615 2
616 2
617 1
618 5
619 3
620 4
621 4
622 2
623 3
624 4
625 5
626 5
627 1
628 4
629 2
630 4
631 1
632 1
633 2
634 3
635 3
636 5
637 4
638 2
639 3
640 5
641 1
642 1
643 2
644 4
645 1
646 4
647 3
648 5
649 1
650 2
651 4
652 2
653 1
654 4
655 2
656 1
657 3
658 2
659 1
660 5
661 1
662 1
663 5
664 4
665 2
666 1
667 2
668 1
669 2
670 1
671 4
672 4
673 2
674 5
675 2
676 3
677 1
678 4
679 3
680 1
681 2
682 2
683 5
684 2
685 4
686 4
687 5
688 2
689 5
690 1
691 2
692 1
693 3
694 5
695 3
696 2
697 3
698 2
699 4
700 3
701 5
702 2
703 4
704 3
705 2
706 3
707 2
708 2
709 1
710 2
711 4
712 4
713 3
714 3
715 2
716 2
717 1
718 3
719 2
720 3
721 4
722 1
723 1
724 4
725 1
726 3
727 2
728 4
729 2
730 4
731 2
732 2
733 3
734 2
735 4
736 3
737 1
738 1
739 2
740 2
741 1
742 3
743 2
744 2
745 1
746 3
747 1
748 3
749 2
750 3
751 3
752 2
753 3
754 4
755 3
756 4
757 3
758 4
759 3
760 1
761 2
762 1
763 1
764 4
765 1
766 2
767 1
768 2
769 2
770 2
771 4
772 1
773 1
774 2
775 5
776 5
777 4
778 3
779 4
780 2
781 3
782 1
783 5
784 2
785 4
786 1
787 1
788 2
789 1
790 3
791 2
792 4
793 5
794 1
795 3
796 2
797 4
798 4
799 4
800 5
801 4
802 3
803 1
804 4
805 5
806 2
807 3
808 1
809 2
810 3
811 5
812 2
813 4
814 3
815 2
816 1
817 2
818 3
819 1
820 2
821 1
822 1
823 5
824 4
825 5
826 5
827 3
828 1
829 5
830 3
831 1
832 4
833 4
834 3
835 2
836 1
837 3
838 2
839 4
840 3
841 2
842 2
843 1
844 4
845 5
846 1
847 2
848 1
849 3
850 2
851 2
852 4
853 2
854 4
855 2
856 1
857 2
858 1
859 5
860 2
861 3
862 1
863 1
864 1
865 2
866 5
867 4
868 3
869 4
870 4
871 1
872 4
873 3
874 1
875 5
876 4
877 3
878 5
879 4
880 1
881 5
882 3
883 1
884 2
885 1
886 1
887 2
888 2
889 3
890 1
891 1
892 2
893 5
894 2
895 5
896 4
897 4
898 3
899 1
900 2
901 4
902 3
903 2
904 1
905 5
906 4
907 5
908 3
909 3
910 4
911 2
912 5
913 5
914 5
915 3
916 3
917 3
918 4
919 2
920 1
921 1
922 5
923 1
924 2
925 5
926 4
927 3
928 1
929 4
930 5
931 2
932 5
933 5
934 3
935 2
936 1
937 5
938 1
939 4
940 5
941 1
942 3
943 2
944 1
945 3
946 4
947 5
948 2
949 2
950 3
951 3
952 5
953 2
954 3
955 1
956 2
957 1
958 3
959 2
960 5
961 5
962 1
963 4
964 2
965 3
966 1
967 2
968 1
969 2
970 4
971 4
972 3
973 1
974 2
975 5
976 5
977 5
978 4
979 3
980 1
981 5
982 3
983 3
984 4
985 2
986 4
987 4
988 5
989 3
990 4
991 1
992 5
993 1
994 3
995 5
996 3
997 3
998 2
999 2
1000 5
1001 2
1002 3
1003 5
1004 1
1005 1
1006 4
1007 4
1008 5
1009 1
1010 4
1011 5
1012 3
1013 4
1014 5
1015 3
1016 1
1017 3
1018 1
1019 2
1020 3
1021 1
1022 3
1023 2
1024 4
1025 1
1026 4
1027 4
1028 5
1029 2
1030 2
1031 3
1032 5
1033 1
1034 5
1035 4
1036 1
1037 2
1038 3
1039 3
1040 1
1041 5
1042 3
1043 4
1044 3
1045 3
1046 5
1047 5
1048 2
1049 2
1050 1
1051 5
1052 1
1053 5
1054 3
1055 2
1056 4
1057 2
1058 5
1059 3
1060 1
1061 1
1062 3
1063 3
1064 5
1065 3
1066 2
1067 1
1068 4
1069 5
1070 3
1071 3
1072 5
1073 2
1074 5
1075 1
1076 4
1077 2
1078 2
1079 5
1080 3
1081 3
1082 1
1083 4
1084 2
1085 5
1086 3
1087 5
1088 1
1089 3
1090 2
1091 4
1092 2
1093 5
1094 4
1095 1
1096 4
1097 3
1098 4
1099 2
1100 1
1101 5
1102 2
1103 2
1104 3
1105 3
1106 1
1107 2
1108 2
1109 1
1110 3
1111 5
1112 1
1113 4
1114 4
1115 5
1116 1
1117 1
1118 1
1119 1
1120 2
1121 3
1122 3
1123 3
1124 1
1125 1
1126 4
1127 1
1128 5
1129 2
1130 2
1131 1
1132 1
1133 1
1134 5
1135 3
1136 3
1137 2
1138 3
1139 4
1140 3
1141 2
1142 1
1143 3
1144 2
1145 2
1146 1
1147 2
1148 3
1149 1
1150 3
1151 5
1152 3
1153 2
1154 4
1155 3
1156 3
1157 2
1158 1
1159 5
1160 3
1161 5
1162 1
1163 2
1164 4
1165 1
1166 3
1167 1
1168 4
1169 1
1170 4
1171 5
1172 2
1173 3
1174 5
1175 3
1176 4
1177 1
1178 4
1179 3
1180 5
1181 4
1182 3
1183 1
1184 2
1185 4
1186 5
1187 1
1188 3
1189 1
1190 2
1191 5
1192 1
1193 5
1194 4
1195 1
1196 3
1197 5
1198 2
1199 4
1200 2
1201 2
1202 5
1203 5
1204 2
1205 1
1206 3
1207 2
1208 1
1209 1
1210 1
1211 2
1212 2
1213 3
1214 5
1215 4
1216 1
1217 5
1218 2
1219 2
1220 2
1221 1
1222 5
1223 1
1224 2
1225 1
1226 1
1227 2
1228 5
1229 4
1230 1
1231 2
1232 2
1233 4
1234 1
1235 3
1236 3
1237 1
1238 4
1239 2
1240 1
1241 2
1242 4
1243 1
1244 5
1245 1
1246 3
1247 2
1248 1
1249 5
1250 4
1251 4
1252 1
1253 3
1254 4
1255 2
1256 3
1257 5
1258 2
1259 2
1260 4
1261 4
1262 1
1263 1
1264 2
1265 2
1266 3
1267 1
1268 4
1269 5
1270 4
1271 3
1272 2
1273 2
1274 4
1275 5
1276 2
1277 3
1278 1
1279 2
1280 3
1281 2
1282 4
1283 3
1284 2
1285 3
1286 2
1287 4
1288 4
1289 3
1290 2
1291 2
1292 3
1293 4
1294 1
1295 5
1296 2
1297 3
1298 3
1299 1
1300 5
1301 4
1302 4
1303 3
1304 5
1305 4
1306 4
1307 5
1308 3
1309 5
1310 1
1311 4
1312 5
1313 1
1314 1
1315 5
1316 4
1317 4
1318 1
1319 5
1320 2
1321 3
1322 5
1323 1
1324 4
1325 1
1326 1
1327 4
1328 3
1329 5
1330 4
1331 2
1332 3
1333 1
1334 5
1335 3
1336 5
1337 3
1338 1
1339 4
1340 4
1341 3
1342 1
1343 2
1344 5
1345 2
1346 2
1347 3
1348 2
1349 4
1350 1
1351 4
1352 5
1353 2
1354 1
1355 1
1356 1
1357 2
1358 3
1359 1
1360 4
1361 1
1362 5
1363 3
1364 2
1365 2
1366 2
1367 3
1368 5
1369 3
1370 4
1371 3
1372 2
1373 5
1374 5
1375 4
1376 1
1377 2
1378 1
1379 3
1380 4
1381 2
1382 1
1383 2
1384 3
1385 3
1386 5
1387 4
1388 1
1389 2
1390 4
1391 2
1392 2
1393 1
1394 4
1395 1
1396 1
1397 3
1398 4
1399 1
1400 1
1401 4
1402 2
1403 1
1404 4
1405 2
1406 2
1407 4
1408 2
1409 1
1410 3
1411 2
1412 1
1413 5
1414 1
1415 3
1416 2
1417 5
1418 3
1419 3
1420 1
1421 2
1422 2
1423 3
1424 4
1425 3
1426 2
1427 2
1428 4
1429 3
1430 2
1431 1
1432 1
1433 3
1434 1
1435 5
1436 4
1437 3
1438 2
1439 5
1440 3
1441 4
1442 3
1443 3
1444 5
1445 2
1446 1
1447 2
1448 1
1449 4
1450 3
1451 5
1452 3
1453 4
1454 1
1455 3
1456 1
1457 1
1458 3
1459 2
1460 3
1461 3
1462 4
1463 3
1464 3
1465 1
1466 2
1467 1
1468 4
1469 2
1470 3
1471 5
1472 2
1473 2
1474 5
1475 1
1476 3
1477 1
1478 5
1479 1
1480 4
1481 1
1482 1
1483 3
1484 2
1485 2
1486 3
1487 1
1488 1
1489 2
1490 1
1491 2
1492 3
1493 1
1494 1
1495 2
1496 3
1497 2
1498 3
1499 1
1500 3
1501 3
