p cnf 8524 52270
1 2 3 4 0
5 6 7 8 0
9 10 11 12 0
13 14 15 16 0
17 18 19 20 0
21 22 23 24 0
25 26 27 28 0
29 30 31 32 0
33 34 35 36 0
37 38 39 40 0
41 42 43 44 0
45 46 47 48 0
49 50 51 52 0
53 54 55 56 0
57 58 59 60 0
61 62 63 64 0
65 66 67 68 0
69 70 71 72 0
73 74 75 76 0
77 78 79 80 0
81 82 83 84 0
85 86 87 88 0
89 90 91 92 0
93 94 95 96 0
97 98 99 100 0
101 102 103 104 0
105 106 107 108 0
109 110 111 112 0
113 114 115 116 0
117 118 119 120 0
121 122 123 124 0
125 126 127 128 0
129 130 131 132 0
133 134 135 136 0
137 138 139 140 0
141 142 143 144 0
145 146 147 148 0
149 150 151 152 0
153 154 155 156 0
157 158 159 160 0
161 162 163 164 0
165 166 167 168 0
169 170 171 172 0
173 174 175 176 0
177 178 179 180 0
181 182 183 184 0
185 186 187 188 0
189 190 191 192 0
193 194 195 196 0
197 198 199 200 0
201 202 203 204 0
205 206 207 208 0
209 210 211 212 0
213 214 215 216 0
217 218 219 220 0
221 222 223 224 0
225 226 227 228 0
229 230 231 232 0
233 234 235 236 0
237 238 239 240 0
241 242 243 244 0
245 246 247 248 0
249 250 251 252 0
253 254 255 256 0
257 258 259 260 0
261 262 263 264 0
265 266 267 268 0
269 270 271 272 0
273 274 275 276 0
277 278 279 280 0
281 282 283 284 0
285 286 287 288 0
289 290 291 292 0
293 294 295 296 0
297 298 299 300 0
301 302 303 304 0
305 306 307 308 0
309 310 311 312 0
313 314 315 316 0
317 318 319 320 0
321 322 323 324 0
325 326 327 328 0
329 330 331 332 0
333 334 335 336 0
337 338 339 340 0
341 342 343 344 0
345 346 347 348 0
349 350 351 352 0
353 354 355 356 0
357 358 359 360 0
361 362 363 364 0
365 366 367 368 0
369 370 371 372 0
373 374 375 376 0
377 378 379 380 0
381 382 383 384 0
385 386 387 388 0
389 390 391 392 0
393 394 395 396 0
397 398 399 400 0
401 402 403 404 0
405 406 407 408 0
409 410 411 412 0
413 414 415 416 0
417 418 419 420 0
421 422 423 424 0
425 426 427 428 0
429 430 431 432 0
433 434 435 436 0
437 438 439 440 0
441 442 443 444 0
445 446 447 448 0
449 450 451 452 0
453 454 455 456 0
457 458 459 460 0
461 462 463 464 0
465 466 467 468 0
469 470 471 472 0
473 474 475 476 0
477 478 479 480 0
481 482 483 484 0
485 486 487 488 0
489 490 491 492 0
493 494 495 496 0
497 498 499 500 0
501 502 503 504 0
505 506 507 508 0
509 510 511 512 0
513 514 515 516 0
517 518 519 520 0
521 522 523 524 0
525 526 527 528 0
529 530 531 532 0
533 534 535 536 0
537 538 539 540 0
541 542 543 544 0
545 546 547 548 0
549 550 551 552 0
553 554 555 556 0
557 558 559 560 0
561 562 563 564 0
565 566 567 568 0
569 570 571 572 0
573 574 575 576 0
577 578 579 580 0
581 582 583 584 0
585 586 587 588 0
589 590 591 592 0
593 594 595 596 0
597 598 599 600 0
601 602 603 604 0
605 606 607 608 0
609 610 611 612 0
613 614 615 616 0
617 618 619 620 0
621 622 623 624 0
625 626 627 628 0
629 630 631 632 0
633 634 635 636 0
637 638 639 640 0
641 642 643 644 0
645 646 647 648 0
649 650 651 652 0
653 654 655 656 0
657 658 659 660 0
661 662 663 664 0
665 666 667 668 0
669 670 671 672 0
673 674 675 676 0
677 678 679 680 0
681 682 683 684 0
685 686 687 688 0
689 690 691 692 0
693 694 695 696 0
697 698 699 700 0
701 702 703 704 0
705 706 707 708 0
709 710 711 712 0
713 714 715 716 0
717 718 719 720 0
721 722 723 724 0
725 726 727 728 0
729 730 731 732 0
733 734 735 736 0
737 738 739 740 0
741 742 743 744 0
745 746 747 748 0
749 750 751 752 0
753 754 755 756 0
757 758 759 760 0
761 762 763 764 0
765 766 767 768 0
769 770 771 772 0
773 774 775 776 0
777 778 779 780 0
781 782 783 784 0
785 786 787 788 0
789 790 791 792 0
793 794 795 796 0
797 798 799 800 0
801 802 803 804 0
805 806 807 808 0
809 810 811 812 0
813 814 815 816 0
817 818 819 820 0
821 822 823 824 0
825 826 827 828 0
829 830 831 832 0
833 834 835 836 0
837 838 839 840 0
841 842 843 844 0
845 846 847 848 0
849 850 851 852 0
853 854 855 856 0
857 858 859 860 0
861 862 863 864 0
865 866 867 868 0
869 870 871 872 0
873 874 875 876 0
877 878 879 880 0
881 882 883 884 0
885 886 887 888 0
889 890 891 892 0
893 894 895 896 0
897 898 899 900 0
901 902 903 904 0
905 906 907 908 0
909 910 911 912 0
913 914 915 916 0
917 918 919 920 0
921 922 923 924 0
925 926 927 928 0
929 930 931 932 0
933 934 935 936 0
937 938 939 940 0
941 942 943 944 0
945 946 947 948 0
949 950 951 952 0
953 954 955 956 0
957 958 959 960 0
961 962 963 964 0
965 966 967 968 0
969 970 971 972 0
973 974 975 976 0
977 978 979 980 0
981 982 983 984 0
985 986 987 988 0
989 990 991 992 0
993 994 995 996 0
997 998 999 1000 0
1001 1002 1003 1004 0
1005 1006 1007 1008 0
1009 1010 1011 1012 0
1013 1014 1015 1016 0
1017 1018 1019 1020 0
1021 1022 1023 1024 0
1025 1026 1027 1028 0
1029 1030 1031 1032 0
1033 1034 1035 1036 0
1037 1038 1039 1040 0
1041 1042 1043 1044 0
1045 1046 1047 1048 0
1049 1050 1051 1052 0
1053 1054 1055 1056 0
1057 1058 1059 1060 0
1061 1062 1063 1064 0
1065 1066 1067 1068 0
1069 1070 1071 1072 0
1073 1074 1075 1076 0
1077 1078 1079 1080 0
1081 1082 1083 1084 0
1085 1086 1087 1088 0
1089 1090 1091 1092 0
1093 1094 1095 1096 0
1097 1098 1099 1100 0
1101 1102 1103 1104 0
1105 1106 1107 1108 0
1109 1110 1111 1112 0
1113 1114 1115 1116 0
1117 1118 1119 1120 0
1121 1122 1123 1124 0
1125 1126 1127 1128 0
1129 1130 1131 1132 0
1133 1134 1135 1136 0
1137 1138 1139 1140 0
1141 1142 1143 1144 0
1145 1146 1147 1148 0
1149 1150 1151 1152 0
1153 1154 1155 1156 0
1157 1158 1159 1160 0
1161 1162 1163 1164 0
1165 1166 1167 1168 0
1169 1170 1171 1172 0
1173 1174 1175 1176 0
1177 1178 1179 1180 0
1181 1182 1183 1184 0
1185 1186 1187 1188 0
1189 1190 1191 1192 0
1193 1194 1195 1196 0
1197 1198 1199 1200 0
1201 1202 1203 1204 0
1205 1206 1207 1208 0
1209 1210 1211 1212 0
1213 1214 1215 1216 0
1217 1218 1219 1220 0
1221 1222 1223 1224 0
1225 1226 1227 1228 0
1229 1230 1231 1232 0
1233 1234 1235 1236 0
1237 1238 1239 1240 0
1241 1242 1243 1244 0
1245 1246 1247 1248 0
1249 1250 1251 1252 0
1253 1254 1255 1256 0
1257 1258 1259 1260 0
1261 1262 1263 1264 0
1265 1266 1267 1268 0
1269 1270 1271 1272 0
1273 1274 1275 1276 0
1277 1278 1279 1280 0
1281 1282 1283 1284 0
1285 1286 1287 1288 0
1289 1290 1291 1292 0
1293 1294 1295 1296 0
1297 1298 1299 1300 0
1301 1302 1303 1304 0
1305 1306 1307 1308 0
1309 1310 1311 1312 0
1313 1314 1315 1316 0
1317 1318 1319 1320 0
1321 1322 1323 1324 0
1325 1326 1327 1328 0
1329 1330 1331 1332 0
1333 1334 1335 1336 0
1337 1338 1339 1340 0
1341 1342 1343 1344 0
1345 1346 1347 1348 0
1349 1350 1351 1352 0
1353 1354 1355 1356 0
1357 1358 1359 1360 0
1361 1362 1363 1364 0
1365 1366 1367 1368 0
1369 1370 1371 1372 0
1373 1374 1375 1376 0
1377 1378 1379 1380 0
1381 1382 1383 1384 0
1385 1386 1387 1388 0
1389 1390 1391 1392 0
1393 1394 1395 1396 0
1397 1398 1399 1400 0
1401 1402 1403 1404 0
1405 1406 1407 1408 0
1409 1410 1411 1412 0
1413 1414 1415 1416 0
1417 1418 1419 1420 0
1421 1422 1423 1424 0
1425 1426 1427 1428 0
1429 1430 1431 1432 0
1433 1434 1435 1436 0
1437 1438 1439 1440 0
1441 1442 1443 1444 0
1445 1446 1447 1448 0
1449 1450 1451 1452 0
1453 1454 1455 1456 0
1457 1458 1459 1460 0
1461 1462 1463 1464 0
1465 1466 1467 1468 0
1469 1470 1471 1472 0
1473 1474 1475 1476 0
1477 1478 1479 1480 0
1481 1482 1483 1484 0
1485 1486 1487 1488 0
1489 1490 1491 1492 0
1493 1494 1495 1496 0
1497 1498 1499 1500 0
1501 1502 1503 1504 0
1505 1506 1507 1508 0
1509 1510 1511 1512 0
1513 1514 1515 1516 0
1517 1518 1519 1520 0
1521 1522 1523 1524 0
1525 1526 1527 1528 0
1529 1530 1531 1532 0
1533 1534 1535 1536 0
1537 1538 1539 1540 0
1541 1542 1543 1544 0
1545 1546 1547 1548 0
1549 1550 1551 1552 0
1553 1554 1555 1556 0
1557 1558 1559 1560 0
1561 1562 1563 1564 0
1565 1566 1567 1568 0
1569 1570 1571 1572 0
1573 1574 1575 1576 0
1577 1578 1579 1580 0
1581 1582 1583 1584 0
1585 1586 1587 1588 0
1589 1590 1591 1592 0
1593 1594 1595 1596 0
1597 1598 1599 1600 0
1601 1602 1603 1604 0
1605 1606 1607 1608 0
1609 1610 1611 1612 0
1613 1614 1615 1616 0
1617 1618 1619 1620 0
1621 1622 1623 1624 0
1625 1626 1627 1628 0
1629 1630 1631 1632 0
1633 1634 1635 1636 0
1637 1638 1639 1640 0
1641 1642 1643 1644 0
1645 1646 1647 1648 0
1649 1650 1651 1652 0
1653 1654 1655 1656 0
1657 1658 1659 1660 0
1661 1662 1663 1664 0
1665 1666 1667 1668 0
1669 1670 1671 1672 0
1673 1674 1675 1676 0
1677 1678 1679 1680 0
1681 1682 1683 1684 0
1685 1686 1687 1688 0
1689 1690 1691 1692 0
1693 1694 1695 1696 0
1697 1698 1699 1700 0
1701 1702 1703 1704 0
1705 1706 1707 1708 0
1709 1710 1711 1712 0
1713 1714 1715 1716 0
1717 1718 1719 1720 0
1721 1722 1723 1724 0
1725 1726 1727 1728 0
1729 1730 1731 1732 0
1733 1734 1735 1736 0
1737 1738 1739 1740 0
1741 1742 1743 1744 0
1745 1746 1747 1748 0
1749 1750 1751 1752 0
1753 1754 1755 1756 0
1757 1758 1759 1760 0
1761 1762 1763 1764 0
1765 1766 1767 1768 0
1769 1770 1771 1772 0
1773 1774 1775 1776 0
1777 1778 1779 1780 0
1781 1782 1783 1784 0
1785 1786 1787 1788 0
1789 1790 1791 1792 0
1793 1794 1795 1796 0
1797 1798 1799 1800 0
1801 1802 1803 1804 0
1805 1806 1807 1808 0
1809 1810 1811 1812 0
1813 1814 1815 1816 0
1817 1818 1819 1820 0
1821 1822 1823 1824 0
1825 1826 1827 1828 0
1829 1830 1831 1832 0
1833 1834 1835 1836 0
1837 1838 1839 1840 0
1841 1842 1843 1844 0
1845 1846 1847 1848 0
1849 1850 1851 1852 0
1853 1854 1855 1856 0
1857 1858 1859 1860 0
1861 1862 1863 1864 0
1865 1866 1867 1868 0
1869 1870 1871 1872 0
1873 1874 1875 1876 0
1877 1878 1879 1880 0
1881 1882 1883 1884 0
1885 1886 1887 1888 0
1889 1890 1891 1892 0
1893 1894 1895 1896 0
1897 1898 1899 1900 0
1901 1902 1903 1904 0
1905 1906 1907 1908 0
1909 1910 1911 1912 0
1913 1914 1915 1916 0
1917 1918 1919 1920 0
1921 1922 1923 1924 0
1925 1926 1927 1928 0
1929 1930 1931 1932 0
1933 1934 1935 1936 0
1937 1938 1939 1940 0
1941 1942 1943 1944 0
1945 1946 1947 1948 0
1949 1950 1951 1952 0
1953 1954 1955 1956 0
1957 1958 1959 1960 0
1961 1962 1963 1964 0
1965 1966 1967 1968 0
1969 1970 1971 1972 0
1973 1974 1975 1976 0
1977 1978 1979 1980 0
1981 1982 1983 1984 0
1985 1986 1987 1988 0
1989 1990 1991 1992 0
1993 1994 1995 1996 0
1997 1998 1999 2000 0
2001 2002 2003 2004 0
2005 2006 2007 2008 0
2009 2010 2011 2012 0
2013 2014 2015 2016 0
2017 2018 2019 2020 0
2021 2022 2023 2024 0
2025 2026 2027 2028 0
2029 2030 2031 2032 0
2033 2034 2035 2036 0
2037 2038 2039 2040 0
2041 2042 2043 2044 0
2045 2046 2047 2048 0
2049 2050 2051 2052 0
2053 2054 2055 2056 0
2057 2058 2059 2060 0
2061 2062 2063 2064 0
2065 2066 2067 2068 0
2069 2070 2071 2072 0
2073 2074 2075 2076 0
2077 2078 2079 2080 0
2081 2082 2083 2084 0
2085 2086 2087 2088 0
2089 2090 2091 2092 0
2093 2094 2095 2096 0
2097 2098 2099 2100 0
2101 2102 2103 2104 0
2105 2106 2107 2108 0
2109 2110 2111 2112 0
2113 2114 2115 2116 0
2117 2118 2119 2120 0
2121 2122 2123 2124 0
2125 2126 2127 2128 0
2129 2130 2131 2132 0
2133 2134 2135 2136 0
2137 2138 2139 2140 0
2141 2142 2143 2144 0
2145 2146 2147 2148 0
2149 2150 2151 2152 0
2153 2154 2155 2156 0
2157 2158 2159 2160 0
2161 2162 2163 2164 0
2165 2166 2167 2168 0
2169 2170 2171 2172 0
2173 2174 2175 2176 0
2177 2178 2179 2180 0
2181 2182 2183 2184 0
2185 2186 2187 2188 0
2189 2190 2191 2192 0
2193 2194 2195 2196 0
2197 2198 2199 2200 0
2201 2202 2203 2204 0
2205 2206 2207 2208 0
2209 2210 2211 2212 0
2213 2214 2215 2216 0
2217 2218 2219 2220 0
2221 2222 2223 2224 0
2225 2226 2227 2228 0
2229 2230 2231 2232 0
2233 2234 2235 2236 0
2237 2238 2239 2240 0
2241 2242 2243 2244 0
2245 2246 2247 2248 0
2249 2250 2251 2252 0
2253 2254 2255 2256 0
2257 2258 2259 2260 0
2261 2262 2263 2264 0
2265 2266 2267 2268 0
2269 2270 2271 2272 0
2273 2274 2275 2276 0
2277 2278 2279 2280 0
2281 2282 2283 2284 0
2285 2286 2287 2288 0
2289 2290 2291 2292 0
2293 2294 2295 2296 0
2297 2298 2299 2300 0
2301 2302 2303 2304 0
2305 2306 2307 2308 0
2309 2310 2311 2312 0
2313 2314 2315 2316 0
2317 2318 2319 2320 0
2321 2322 2323 2324 0
2325 2326 2327 2328 0
2329 2330 2331 2332 0
2333 2334 2335 2336 0
2337 2338 2339 2340 0
2341 2342 2343 2344 0
2345 2346 2347 2348 0
2349 2350 2351 2352 0
2353 2354 2355 2356 0
2357 2358 2359 2360 0
2361 2362 2363 2364 0
2365 2366 2367 2368 0
2369 2370 2371 2372 0
2373 2374 2375 2376 0
2377 2378 2379 2380 0
2381 2382 2383 2384 0
2385 2386 2387 2388 0
2389 2390 2391 2392 0
2393 2394 2395 2396 0
2397 2398 2399 2400 0
2401 2402 2403 2404 0
2405 2406 2407 2408 0
2409 2410 2411 2412 0
2413 2414 2415 2416 0
2417 2418 2419 2420 0
2421 2422 2423 2424 0
2425 2426 2427 2428 0
2429 2430 2431 2432 0
2433 2434 2435 2436 0
2437 2438 2439 2440 0
2441 2442 2443 2444 0
2445 2446 2447 2448 0
2449 2450 2451 2452 0
2453 2454 2455 2456 0
2457 2458 2459 2460 0
2461 2462 2463 2464 0
2465 2466 2467 2468 0
2469 2470 2471 2472 0
2473 2474 2475 2476 0
2477 2478 2479 2480 0
2481 2482 2483 2484 0
2485 2486 2487 2488 0
2489 2490 2491 2492 0
2493 2494 2495 2496 0
2497 2498 2499 2500 0
2501 2502 2503 2504 0
2505 2506 2507 2508 0
2509 2510 2511 2512 0
2513 2514 2515 2516 0
2517 2518 2519 2520 0
2521 2522 2523 2524 0
2525 2526 2527 2528 0
2529 2530 2531 2532 0
2533 2534 2535 2536 0
2537 2538 2539 2540 0
2541 2542 2543 2544 0
2545 2546 2547 2548 0
2549 2550 2551 2552 0
2553 2554 2555 2556 0
2557 2558 2559 2560 0
2561 2562 2563 2564 0
2565 2566 2567 2568 0
2569 2570 2571 2572 0
2573 2574 2575 2576 0
2577 2578 2579 2580 0
2581 2582 2583 2584 0
2585 2586 2587 2588 0
2589 2590 2591 2592 0
2593 2594 2595 2596 0
2597 2598 2599 2600 0
2601 2602 2603 2604 0
2605 2606 2607 2608 0
2609 2610 2611 2612 0
2613 2614 2615 2616 0
2617 2618 2619 2620 0
2621 2622 2623 2624 0
2625 2626 2627 2628 0
2629 2630 2631 2632 0
2633 2634 2635 2636 0
2637 2638 2639 2640 0
2641 2642 2643 2644 0
2645 2646 2647 2648 0
2649 2650 2651 2652 0
2653 2654 2655 2656 0
2657 2658 2659 2660 0
2661 2662 2663 2664 0
2665 2666 2667 2668 0
2669 2670 2671 2672 0
2673 2674 2675 2676 0
2677 2678 2679 2680 0
2681 2682 2683 2684 0
2685 2686 2687 2688 0
2689 2690 2691 2692 0
2693 2694 2695 2696 0
2697 2698 2699 2700 0
2701 2702 2703 2704 0
2705 2706 2707 2708 0
2709 2710 2711 2712 0
2713 2714 2715 2716 0
2717 2718 2719 2720 0
2721 2722 2723 2724 0
2725 2726 2727 2728 0
2729 2730 2731 2732 0
2733 2734 2735 2736 0
2737 2738 2739 2740 0
2741 2742 2743 2744 0
2745 2746 2747 2748 0
2749 2750 2751 2752 0
2753 2754 2755 2756 0
2757 2758 2759 2760 0
2761 2762 2763 2764 0
2765 2766 2767 2768 0
2769 2770 2771 2772 0
2773 2774 2775 2776 0
2777 2778 2779 2780 0
2781 2782 2783 2784 0
2785 2786 2787 2788 0
2789 2790 2791 2792 0
2793 2794 2795 2796 0
2797 2798 2799 2800 0
2801 2802 2803 2804 0
2805 2806 2807 2808 0
2809 2810 2811 2812 0
2813 2814 2815 2816 0
2817 2818 2819 2820 0
2821 2822 2823 2824 0
2825 2826 2827 2828 0
2829 2830 2831 2832 0
2833 2834 2835 2836 0
2837 2838 2839 2840 0
2841 2842 2843 2844 0
2845 2846 2847 2848 0
2849 2850 2851 2852 0
2853 2854 2855 2856 0
2857 2858 2859 2860 0
2861 2862 2863 2864 0
2865 2866 2867 2868 0
2869 2870 2871 2872 0
2873 2874 2875 2876 0
2877 2878 2879 2880 0
2881 2882 2883 2884 0
2885 2886 2887 2888 0
2889 2890 2891 2892 0
2893 2894 2895 2896 0
2897 2898 2899 2900 0
2901 2902 2903 2904 0
2905 2906 2907 2908 0
2909 2910 2911 2912 0
2913 2914 2915 2916 0
2917 2918 2919 2920 0
2921 2922 2923 2924 0
2925 2926 2927 2928 0
2929 2930 2931 2932 0
2933 2934 2935 2936 0
2937 2938 2939 2940 0
2941 2942 2943 2944 0
2945 2946 2947 2948 0
2949 2950 2951 2952 0
2953 2954 2955 2956 0
2957 2958 2959 2960 0
2961 2962 2963 2964 0
2965 2966 2967 2968 0
2969 2970 2971 2972 0
2973 2974 2975 2976 0
2977 2978 2979 2980 0
2981 2982 2983 2984 0
2985 2986 2987 2988 0
2989 2990 2991 2992 0
2993 2994 2995 2996 0
2997 2998 2999 3000 0
3001 3002 3003 3004 0
3005 3006 3007 3008 0
3009 3010 3011 3012 0
3013 3014 3015 3016 0
3017 3018 3019 3020 0
3021 3022 3023 3024 0
3025 3026 3027 3028 0
3029 3030 3031 3032 0
3033 3034 3035 3036 0
3037 3038 3039 3040 0
3041 3042 3043 3044 0
3045 3046 3047 3048 0
3049 3050 3051 3052 0
3053 3054 3055 3056 0
3057 3058 3059 3060 0
3061 3062 3063 3064 0
3065 3066 3067 3068 0
3069 3070 3071 3072 0
3073 3074 3075 3076 0
3077 3078 3079 3080 0
3081 3082 3083 3084 0
3085 3086 3087 3088 0
3089 3090 3091 3092 0
3093 3094 3095 3096 0
3097 3098 3099 3100 0
3101 3102 3103 3104 0
3105 3106 3107 3108 0
3109 3110 3111 3112 0
3113 3114 3115 3116 0
3117 3118 3119 3120 0
3121 3122 3123 3124 0
3125 3126 3127 3128 0
3129 3130 3131 3132 0
3133 3134 3135 3136 0
3137 3138 3139 3140 0
3141 3142 3143 3144 0
3145 3146 3147 3148 0
3149 3150 3151 3152 0
3153 3154 3155 3156 0
3157 3158 3159 3160 0
3161 3162 3163 3164 0
3165 3166 3167 3168 0
3169 3170 3171 3172 0
3173 3174 3175 3176 0
3177 3178 3179 3180 0
3181 3182 3183 3184 0
3185 3186 3187 3188 0
3189 3190 3191 3192 0
3193 3194 3195 3196 0
3197 3198 3199 3200 0
3201 3202 3203 3204 0
3205 3206 3207 3208 0
3209 3210 3211 3212 0
3213 3214 3215 3216 0
3217 3218 3219 3220 0
3221 3222 3223 3224 0
3225 3226 3227 3228 0
3229 3230 3231 3232 0
3233 3234 3235 3236 0
3237 3238 3239 3240 0
3241 3242 3243 3244 0
3245 3246 3247 3248 0
3249 3250 3251 3252 0
3253 3254 3255 3256 0
3257 3258 3259 3260 0
3261 3262 3263 3264 0
3265 3266 3267 3268 0
3269 3270 3271 3272 0
3273 3274 3275 3276 0
3277 3278 3279 3280 0
3281 3282 3283 3284 0
3285 3286 3287 3288 0
3289 3290 3291 3292 0
3293 3294 3295 3296 0
3297 3298 3299 3300 0
3301 3302 3303 3304 0
3305 3306 3307 3308 0
3309 3310 3311 3312 0
3313 3314 3315 3316 0
3317 3318 3319 3320 0
3321 3322 3323 3324 0
3325 3326 3327 3328 0
3329 3330 3331 3332 0
3333 3334 3335 3336 0
3337 3338 3339 3340 0
3341 3342 3343 3344 0
3345 3346 3347 3348 0
3349 3350 3351 3352 0
3353 3354 3355 3356 0
3357 3358 3359 3360 0
3361 3362 3363 3364 0
3365 3366 3367 3368 0
3369 3370 3371 3372 0
3373 3374 3375 3376 0
3377 3378 3379 3380 0
3381 3382 3383 3384 0
3385 3386 3387 3388 0
3389 3390 3391 3392 0
3393 3394 3395 3396 0
3397 3398 3399 3400 0
3401 3402 3403 3404 0
3405 3406 3407 3408 0
3409 3410 3411 3412 0
3413 3414 3415 3416 0
3417 3418 3419 3420 0
3421 3422 3423 3424 0
3425 3426 3427 3428 0
3429 3430 3431 3432 0
3433 3434 3435 3436 0
3437 3438 3439 3440 0
3441 3442 3443 3444 0
3445 3446 3447 3448 0
3449 3450 3451 3452 0
3453 3454 3455 3456 0
3457 3458 3459 3460 0
3461 3462 3463 3464 0
3465 3466 3467 3468 0
3469 3470 3471 3472 0
3473 3474 3475 3476 0
3477 3478 3479 3480 0
3481 3482 3483 3484 0
3485 3486 3487 3488 0
3489 3490 3491 3492 0
3493 3494 3495 3496 0
3497 3498 3499 3500 0
3501 3502 3503 3504 0
3505 3506 3507 3508 0
3509 3510 3511 3512 0
3513 3514 3515 3516 0
3517 3518 3519 3520 0
3521 3522 3523 3524 0
3525 3526 3527 3528 0
3529 3530 3531 3532 0
3533 3534 3535 3536 0
3537 3538 3539 3540 0
3541 3542 3543 3544 0
3545 3546 3547 3548 0
3549 3550 3551 3552 0
3553 3554 3555 3556 0
3557 3558 3559 3560 0
3561 3562 3563 3564 0
3565 3566 3567 3568 0
3569 3570 3571 3572 0
3573 3574 3575 3576 0
3577 3578 3579 3580 0
3581 3582 3583 3584 0
3585 3586 3587 3588 0
3589 3590 3591 3592 0
3593 3594 3595 3596 0
3597 3598 3599 3600 0
3601 3602 3603 3604 0
3605 3606 3607 3608 0
3609 3610 3611 3612 0
3613 3614 3615 3616 0
3617 3618 3619 3620 0
3621 3622 3623 3624 0
3625 3626 3627 3628 0
3629 3630 3631 3632 0
3633 3634 3635 3636 0
3637 3638 3639 3640 0
3641 3642 3643 3644 0
3645 3646 3647 3648 0
3649 3650 3651 3652 0
3653 3654 3655 3656 0
3657 3658 3659 3660 0
3661 3662 3663 3664 0
3665 3666 3667 3668 0
3669 3670 3671 3672 0
3673 3674 3675 3676 0
3677 3678 3679 3680 0
3681 3682 3683 3684 0
3685 3686 3687 3688 0
3689 3690 3691 3692 0
3693 3694 3695 3696 0
3697 3698 3699 3700 0
3701 3702 3703 3704 0
3705 3706 3707 3708 0
3709 3710 3711 3712 0
3713 3714 3715 3716 0
3717 3718 3719 3720 0
3721 3722 3723 3724 0
3725 3726 3727 3728 0
3729 3730 3731 3732 0
3733 3734 3735 3736 0
3737 3738 3739 3740 0
3741 3742 3743 3744 0
3745 3746 3747 3748 0
3749 3750 3751 3752 0
3753 3754 3755 3756 0
3757 3758 3759 3760 0
3761 3762 3763 3764 0
3765 3766 3767 3768 0
3769 3770 3771 3772 0
3773 3774 3775 3776 0
3777 3778 3779 3780 0
3781 3782 3783 3784 0
3785 3786 3787 3788 0
3789 3790 3791 3792 0
3793 3794 3795 3796 0
3797 3798 3799 3800 0
3801 3802 3803 3804 0
3805 3806 3807 3808 0
3809 3810 3811 3812 0
3813 3814 3815 3816 0
3817 3818 3819 3820 0
3821 3822 3823 3824 0
3825 3826 3827 3828 0
3829 3830 3831 3832 0
3833 3834 3835 3836 0
3837 3838 3839 3840 0
3841 3842 3843 3844 0
3845 3846 3847 3848 0
3849 3850 3851 3852 0
3853 3854 3855 3856 0
3857 3858 3859 3860 0
3861 3862 3863 3864 0
3865 3866 3867 3868 0
3869 3870 3871 3872 0
3873 3874 3875 3876 0
3877 3878 3879 3880 0
3881 3882 3883 3884 0
3885 3886 3887 3888 0
3889 3890 3891 3892 0
3893 3894 3895 3896 0
3897 3898 3899 3900 0
3901 3902 3903 3904 0
3905 3906 3907 3908 0
3909 3910 3911 3912 0
3913 3914 3915 3916 0
3917 3918 3919 3920 0
3921 3922 3923 3924 0
3925 3926 3927 3928 0
3929 3930 3931 3932 0
3933 3934 3935 3936 0
3937 3938 3939 3940 0
3941 3942 3943 3944 0
3945 3946 3947 3948 0
3949 3950 3951 3952 0
3953 3954 3955 3956 0
3957 3958 3959 3960 0
3961 3962 3963 3964 0
3965 3966 3967 3968 0
3969 3970 3971 3972 0
3973 3974 3975 3976 0
3977 3978 3979 3980 0
3981 3982 3983 3984 0
3985 3986 3987 3988 0
3989 3990 3991 3992 0
3993 3994 3995 3996 0
3997 3998 3999 4000 0
4001 4002 4003 4004 0
4005 4006 4007 4008 0
4009 4010 4011 4012 0
4013 4014 4015 4016 0
4017 4018 4019 4020 0
4021 4022 4023 4024 0
4025 4026 4027 4028 0
4029 4030 4031 4032 0
4033 4034 4035 4036 0
4037 4038 4039 4040 0
4041 4042 4043 4044 0
4045 4046 4047 4048 0
4049 4050 4051 4052 0
4053 4054 4055 4056 0
4057 4058 4059 4060 0
4061 4062 4063 4064 0
4065 4066 4067 4068 0
4069 4070 4071 4072 0
4073 4074 4075 4076 0
4077 4078 4079 4080 0
4081 4082 4083 4084 0
4085 4086 4087 4088 0
4089 4090 4091 4092 0
4093 4094 4095 4096 0
4097 4098 4099 4100 0
4101 4102 4103 4104 0
4105 4106 4107 4108 0
4109 4110 4111 4112 0
4113 4114 4115 4116 0
4117 4118 4119 4120 0
4121 4122 4123 4124 0
4125 4126 4127 4128 0
4129 4130 4131 4132 0
4133 4134 4135 4136 0
4137 4138 4139 4140 0
4141 4142 4143 4144 0
4145 4146 4147 4148 0
4149 4150 4151 4152 0
4153 4154 4155 4156 0
4157 4158 4159 4160 0
4161 4162 4163 4164 0
4165 4166 4167 4168 0
4169 4170 4171 4172 0
4173 4174 4175 4176 0
4177 4178 4179 4180 0
4181 4182 4183 4184 0
4185 4186 4187 4188 0
4189 4190 4191 4192 0
4193 4194 4195 4196 0
4197 4198 4199 4200 0
4201 4202 4203 4204 0
4205 4206 4207 4208 0
4209 4210 4211 4212 0
4213 4214 4215 4216 0
4217 4218 4219 4220 0
4221 4222 4223 4224 0
4225 4226 4227 4228 0
4229 4230 4231 4232 0
4233 4234 4235 4236 0
4237 4238 4239 4240 0
4241 4242 4243 4244 0
4245 4246 4247 4248 0
4249 4250 4251 4252 0
4253 4254 4255 4256 0
4257 4258 4259 4260 0
4261 4262 4263 4264 0
4265 4266 4267 4268 0
4269 4270 4271 4272 0
4273 4274 4275 4276 0
4277 4278 4279 4280 0
4281 4282 4283 4284 0
4285 4286 4287 4288 0
4289 4290 4291 4292 0
4293 4294 4295 4296 0
4297 4298 4299 4300 0
4301 4302 4303 4304 0
4305 4306 4307 4308 0
4309 4310 4311 4312 0
4313 4314 4315 4316 0
4317 4318 4319 4320 0
4321 4322 4323 4324 0
4325 4326 4327 4328 0
4329 4330 4331 4332 0
4333 4334 4335 4336 0
4337 4338 4339 4340 0
4341 4342 4343 4344 0
4345 4346 4347 4348 0
4349 4350 4351 4352 0
4353 4354 4355 4356 0
4357 4358 4359 4360 0
4361 4362 4363 4364 0
4365 4366 4367 4368 0
4369 4370 4371 4372 0
4373 4374 4375 4376 0
4377 4378 4379 4380 0
4381 4382 4383 4384 0
4385 4386 4387 4388 0
4389 4390 4391 4392 0
4393 4394 4395 4396 0
4397 4398 4399 4400 0
4401 4402 4403 4404 0
4405 4406 4407 4408 0
4409 4410 4411 4412 0
4413 4414 4415 4416 0
4417 4418 4419 4420 0
4421 4422 4423 4424 0
4425 4426 4427 4428 0
4429 4430 4431 4432 0
4433 4434 4435 4436 0
4437 4438 4439 4440 0
4441 4442 4443 4444 0
4445 4446 4447 4448 0
4449 4450 4451 4452 0
4453 4454 4455 4456 0
4457 4458 4459 4460 0
4461 4462 4463 4464 0
4465 4466 4467 4468 0
4469 4470 4471 4472 0
4473 4474 4475 4476 0
4477 4478 4479 4480 0
4481 4482 4483 4484 0
4485 4486 4487 4488 0
4489 4490 4491 4492 0
4493 4494 4495 4496 0
4497 4498 4499 4500 0
4501 4502 4503 4504 0
4505 4506 4507 4508 0
4509 4510 4511 4512 0
4513 4514 4515 4516 0
4517 4518 4519 4520 0
4521 4522 4523 4524 0
4525 4526 4527 4528 0
4529 4530 4531 4532 0
4533 4534 4535 4536 0
4537 4538 4539 4540 0
4541 4542 4543 4544 0
4545 4546 4547 4548 0
4549 4550 4551 4552 0
4553 4554 4555 4556 0
4557 4558 4559 4560 0
4561 4562 4563 4564 0
4565 4566 4567 4568 0
4569 4570 4571 4572 0
4573 4574 4575 4576 0
4577 4578 4579 4580 0
4581 4582 4583 4584 0
4585 4586 4587 4588 0
4589 4590 4591 4592 0
4593 4594 4595 4596 0
4597 4598 4599 4600 0
4601 4602 4603 4604 0
4605 4606 4607 4608 0
4609 4610 4611 4612 0
4613 4614 4615 4616 0
4617 4618 4619 4620 0
4621 4622 4623 4624 0
4625 4626 4627 4628 0
4629 4630 4631 4632 0
4633 4634 4635 4636 0
4637 4638 4639 4640 0
4641 4642 4643 4644 0
4645 4646 4647 4648 0
4649 4650 4651 4652 0
4653 4654 4655 4656 0
4657 4658 4659 4660 0
4661 4662 4663 4664 0
4665 4666 4667 4668 0
4669 4670 4671 4672 0
4673 4674 4675 4676 0
4677 4678 4679 4680 0
4681 4682 4683 4684 0
4685 4686 4687 4688 0
4689 4690 4691 4692 0
4693 4694 4695 4696 0
4697 4698 4699 4700 0
4701 4702 4703 4704 0
4705 4706 4707 4708 0
4709 4710 4711 4712 0
4713 4714 4715 4716 0
4717 4718 4719 4720 0
4721 4722 4723 4724 0
4725 4726 4727 4728 0
4729 4730 4731 4732 0
4733 4734 4735 4736 0
4737 4738 4739 4740 0
4741 4742 4743 4744 0
4745 4746 4747 4748 0
4749 4750 4751 4752 0
4753 4754 4755 4756 0
4757 4758 4759 4760 0
4761 4762 4763 4764 0
4765 4766 4767 4768 0
4769 4770 4771 4772 0
4773 4774 4775 4776 0
4777 4778 4779 4780 0
4781 4782 4783 4784 0
4785 4786 4787 4788 0
4789 4790 4791 4792 0
4793 4794 4795 4796 0
4797 4798 4799 4800 0
4801 4802 4803 4804 0
4805 4806 4807 4808 0
4809 4810 4811 4812 0
4813 4814 4815 4816 0
4817 4818 4819 4820 0
4821 4822 4823 4824 0
4825 4826 4827 4828 0
4829 4830 4831 4832 0
4833 4834 4835 4836 0
4837 4838 4839 4840 0
4841 4842 4843 4844 0
4845 4846 4847 4848 0
4849 4850 4851 4852 0
4853 4854 4855 4856 0
4857 4858 4859 4860 0
4861 4862 4863 4864 0
4865 4866 4867 4868 0
4869 4870 4871 4872 0
4873 4874 4875 4876 0
4877 4878 4879 4880 0
4881 4882 4883 4884 0
4885 4886 4887 4888 0
4889 4890 4891 4892 0
4893 4894 4895 4896 0
4897 4898 4899 4900 0
4901 4902 4903 4904 0
4905 4906 4907 4908 0
4909 4910 4911 4912 0
4913 4914 4915 4916 0
4917 4918 4919 4920 0
4921 4922 4923 4924 0
4925 4926 4927 4928 0
4929 4930 4931 4932 0
4933 4934 4935 4936 0
4937 4938 4939 4940 0
4941 4942 4943 4944 0
4945 4946 4947 4948 0
4949 4950 4951 4952 0
4953 4954 4955 4956 0
4957 4958 4959 4960 0
4961 4962 4963 4964 0
4965 4966 4967 4968 0
4969 4970 4971 4972 0
4973 4974 4975 4976 0
4977 4978 4979 4980 0
4981 4982 4983 4984 0
4985 4986 4987 4988 0
4989 4990 4991 4992 0
4993 4994 4995 4996 0
4997 4998 4999 5000 0
5001 5002 5003 5004 0
5005 5006 5007 5008 0
5009 5010 5011 5012 0
5013 5014 5015 5016 0
5017 5018 5019 5020 0
5021 5022 5023 5024 0
5025 5026 5027 5028 0
5029 5030 5031 5032 0
5033 5034 5035 5036 0
5037 5038 5039 5040 0
5041 5042 5043 5044 0
5045 5046 5047 5048 0
5049 5050 5051 5052 0
5053 5054 5055 5056 0
5057 5058 5059 5060 0
5061 5062 5063 5064 0
5065 5066 5067 5068 0
5069 5070 5071 5072 0
5073 5074 5075 5076 0
5077 5078 5079 5080 0
5081 5082 5083 5084 0
5085 5086 5087 5088 0
5089 5090 5091 5092 0
5093 5094 5095 5096 0
5097 5098 5099 5100 0
5101 5102 5103 5104 0
5105 5106 5107 5108 0
5109 5110 5111 5112 0
5113 5114 5115 5116 0
5117 5118 5119 5120 0
5121 5122 5123 5124 0
5125 5126 5127 5128 0
5129 5130 5131 5132 0
5133 5134 5135 5136 0
5137 5138 5139 5140 0
5141 5142 5143 5144 0
5145 5146 5147 5148 0
5149 5150 5151 5152 0
5153 5154 5155 5156 0
5157 5158 5159 5160 0
5161 5162 5163 5164 0
5165 5166 5167 5168 0
5169 5170 5171 5172 0
5173 5174 5175 5176 0
5177 5178 5179 5180 0
5181 5182 5183 5184 0
5185 5186 5187 5188 0
5189 5190 5191 5192 0
5193 5194 5195 5196 0
5197 5198 5199 5200 0
5201 5202 5203 5204 0
5205 5206 5207 5208 0
5209 5210 5211 5212 0
5213 5214 5215 5216 0
5217 5218 5219 5220 0
5221 5222 5223 5224 0
5225 5226 5227 5228 0
5229 5230 5231 5232 0
5233 5234 5235 5236 0
5237 5238 5239 5240 0
5241 5242 5243 5244 0
5245 5246 5247 5248 0
5249 5250 5251 5252 0
5253 5254 5255 5256 0
5257 5258 5259 5260 0
5261 5262 5263 5264 0
5265 5266 5267 5268 0
5269 5270 5271 5272 0
5273 5274 5275 5276 0
5277 5278 5279 5280 0
5281 5282 5283 5284 0
5285 5286 5287 5288 0
5289 5290 5291 5292 0
5293 5294 5295 5296 0
5297 5298 5299 5300 0
5301 5302 5303 5304 0
5305 5306 5307 5308 0
5309 5310 5311 5312 0
5313 5314 5315 5316 0
5317 5318 5319 5320 0
5321 5322 5323 5324 0
5325 5326 5327 5328 0
5329 5330 5331 5332 0
5333 5334 5335 5336 0
5337 5338 5339 5340 0
5341 5342 5343 5344 0
5345 5346 5347 5348 0
5349 5350 5351 5352 0
5353 5354 5355 5356 0
5357 5358 5359 5360 0
5361 5362 5363 5364 0
5365 5366 5367 5368 0
5369 5370 5371 5372 0
5373 5374 5375 5376 0
5377 5378 5379 5380 0
5381 5382 5383 5384 0
5385 5386 5387 5388 0
5389 5390 5391 5392 0
5393 5394 5395 5396 0
5397 5398 5399 5400 0
5401 5402 5403 5404 0
5405 5406 5407 5408 0
5409 5410 5411 5412 0
5413 5414 5415 5416 0
5417 5418 5419 5420 0
5421 5422 5423 5424 0
5425 5426 5427 5428 0
5429 5430 5431 5432 0
5433 5434 5435 5436 0
5437 5438 5439 5440 0
5441 5442 5443 5444 0
5445 5446 5447 5448 0
5449 5450 5451 5452 0
5453 5454 5455 5456 0
5457 5458 5459 5460 0
5461 5462 5463 5464 0
5465 5466 5467 5468 0
5469 5470 5471 5472 0
5473 5474 5475 5476 0
5477 5478 5479 5480 0
5481 5482 5483 5484 0
5485 5486 5487 5488 0
5489 5490 5491 5492 0
5493 5494 5495 5496 0
5497 5498 5499 5500 0
5501 5502 5503 5504 0
5505 5506 5507 5508 0
5509 5510 5511 5512 0
5513 5514 5515 5516 0
5517 5518 5519 5520 0
5521 5522 5523 5524 0
5525 5526 5527 5528 0
5529 5530 5531 5532 0
5533 5534 5535 5536 0
5537 5538 5539 5540 0
5541 5542 5543 5544 0
5545 5546 5547 5548 0
5549 5550 5551 5552 0
5553 5554 5555 5556 0
5557 5558 5559 5560 0
5561 5562 5563 5564 0
5565 5566 5567 5568 0
5569 5570 5571 5572 0
5573 5574 5575 5576 0
5577 5578 5579 5580 0
5581 5582 5583 5584 0
5585 5586 5587 5588 0
5589 5590 5591 5592 0
5593 5594 5595 5596 0
5597 5598 5599 5600 0
5601 5602 5603 5604 0
5605 5606 5607 5608 0
5609 5610 5611 5612 0
5613 5614 5615 5616 0
5617 5618 5619 5620 0
5621 5622 5623 5624 0
5625 5626 5627 5628 0
5629 5630 5631 5632 0
5633 5634 5635 5636 0
5637 5638 5639 5640 0
5641 5642 5643 5644 0
5645 5646 5647 5648 0
5649 5650 5651 5652 0
5653 5654 5655 5656 0
5657 5658 5659 5660 0
5661 5662 5663 5664 0
5665 5666 5667 5668 0
5669 5670 5671 5672 0
5673 5674 5675 5676 0
5677 5678 5679 5680 0
5681 5682 5683 5684 0
5685 5686 5687 5688 0
5689 5690 5691 5692 0
5693 5694 5695 5696 0
5697 5698 5699 5700 0
5701 5702 5703 5704 0
5705 5706 5707 5708 0
5709 5710 5711 5712 0
5713 5714 5715 5716 0
5717 5718 5719 5720 0
5721 5722 5723 5724 0
5725 5726 5727 5728 0
5729 5730 5731 5732 0
5733 5734 5735 5736 0
5737 5738 5739 5740 0
5741 5742 5743 5744 0
5745 5746 5747 5748 0
5749 5750 5751 5752 0
5753 5754 5755 5756 0
5757 5758 5759 5760 0
5761 5762 5763 5764 0
5765 5766 5767 5768 0
5769 5770 5771 5772 0
5773 5774 5775 5776 0
5777 5778 5779 5780 0
5781 5782 5783 5784 0
5785 5786 5787 5788 0
5789 5790 5791 5792 0
5793 5794 5795 5796 0
5797 5798 5799 5800 0
5801 5802 5803 5804 0
5805 5806 5807 5808 0
5809 5810 5811 5812 0
5813 5814 5815 5816 0
5817 5818 5819 5820 0
5821 5822 5823 5824 0
5825 5826 5827 5828 0
5829 5830 5831 5832 0
5833 5834 5835 5836 0
5837 5838 5839 5840 0
5841 5842 5843 5844 0
5845 5846 5847 5848 0
5849 5850 5851 5852 0
5853 5854 5855 5856 0
5857 5858 5859 5860 0
5861 5862 5863 5864 0
5865 5866 5867 5868 0
5869 5870 5871 5872 0
5873 5874 5875 5876 0
5877 5878 5879 5880 0
5881 5882 5883 5884 0
5885 5886 5887 5888 0
5889 5890 5891 5892 0
5893 5894 5895 5896 0
5897 5898 5899 5900 0
5901 5902 5903 5904 0
5905 5906 5907 5908 0
5909 5910 5911 5912 0
5913 5914 5915 5916 0
5917 5918 5919 5920 0
5921 5922 5923 5924 0
5925 5926 5927 5928 0
5929 5930 5931 5932 0
5933 5934 5935 5936 0
5937 5938 5939 5940 0
5941 5942 5943 5944 0
5945 5946 5947 5948 0
5949 5950 5951 5952 0
5953 5954 5955 5956 0
5957 5958 5959 5960 0
5961 5962 5963 5964 0
5965 5966 5967 5968 0
5969 5970 5971 5972 0
5973 5974 5975 5976 0
5977 5978 5979 5980 0
5981 5982 5983 5984 0
5985 5986 5987 5988 0
5989 5990 5991 5992 0
5993 5994 5995 5996 0
5997 5998 5999 6000 0
6001 6002 6003 6004 0
6005 6006 6007 6008 0
6009 6010 6011 6012 0
6013 6014 6015 6016 0
6017 6018 6019 6020 0
6021 6022 6023 6024 0
6025 6026 6027 6028 0
6029 6030 6031 6032 0
6033 6034 6035 6036 0
6037 6038 6039 6040 0
6041 6042 6043 6044 0
6045 6046 6047 6048 0
6049 6050 6051 6052 0
6053 6054 6055 6056 0
6057 6058 6059 6060 0
6061 6062 6063 6064 0
6065 6066 6067 6068 0
6069 6070 6071 6072 0
6073 6074 6075 6076 0
6077 6078 6079 6080 0
6081 6082 6083 6084 0
6085 6086 6087 6088 0
6089 6090 6091 6092 0
6093 6094 6095 6096 0
6097 6098 6099 6100 0
6101 6102 6103 6104 0
6105 6106 6107 6108 0
6109 6110 6111 6112 0
6113 6114 6115 6116 0
6117 6118 6119 6120 0
6121 6122 6123 6124 0
6125 6126 6127 6128 0
6129 6130 6131 6132 0
6133 6134 6135 6136 0
6137 6138 6139 6140 0
6141 6142 6143 6144 0
6145 6146 6147 6148 0
6149 6150 6151 6152 0
6153 6154 6155 6156 0
6157 6158 6159 6160 0
6161 6162 6163 6164 0
6165 6166 6167 6168 0
6169 6170 6171 6172 0
6173 6174 6175 6176 0
6177 6178 6179 6180 0
6181 6182 6183 6184 0
6185 6186 6187 6188 0
6189 6190 6191 6192 0
6193 6194 6195 6196 0
6197 6198 6199 6200 0
6201 6202 6203 6204 0
6205 6206 6207 6208 0
6209 6210 6211 6212 0
6213 6214 6215 6216 0
6217 6218 6219 6220 0
6221 6222 6223 6224 0
6225 6226 6227 6228 0
6229 6230 6231 6232 0
6233 6234 6235 6236 0
6237 6238 6239 6240 0
6241 6242 6243 6244 0
6245 6246 6247 6248 0
6249 6250 6251 6252 0
6253 6254 6255 6256 0
6257 6258 6259 6260 0
6261 6262 6263 6264 0
6265 6266 6267 6268 0
6269 6270 6271 6272 0
6273 6274 6275 6276 0
6277 6278 6279 6280 0
6281 6282 6283 6284 0
6285 6286 6287 6288 0
6289 6290 6291 6292 0
6293 6294 6295 6296 0
6297 6298 6299 6300 0
6301 6302 6303 6304 0
6305 6306 6307 6308 0
6309 6310 6311 6312 0
6313 6314 6315 6316 0
6317 6318 6319 6320 0
6321 6322 6323 6324 0
6325 6326 6327 6328 0
6329 6330 6331 6332 0
6333 6334 6335 6336 0
6337 6338 6339 6340 0
6341 6342 6343 6344 0
6345 6346 6347 6348 0
6349 6350 6351 6352 0
6353 6354 6355 6356 0
6357 6358 6359 6360 0
6361 6362 6363 6364 0
6365 6366 6367 6368 0
6369 6370 6371 6372 0
6373 6374 6375 6376 0
6377 6378 6379 6380 0
6381 6382 6383 6384 0
6385 6386 6387 6388 0
6389 6390 6391 6392 0
6393 6394 6395 6396 0
6397 6398 6399 6400 0
6401 6402 6403 6404 0
6405 6406 6407 6408 0
6409 6410 6411 6412 0
6413 6414 6415 6416 0
6417 6418 6419 6420 0
6421 6422 6423 6424 0
6425 6426 6427 6428 0
6429 6430 6431 6432 0
6433 6434 6435 6436 0
6437 6438 6439 6440 0
6441 6442 6443 6444 0
6445 6446 6447 6448 0
6449 6450 6451 6452 0
6453 6454 6455 6456 0
6457 6458 6459 6460 0
6461 6462 6463 6464 0
6465 6466 6467 6468 0
6469 6470 6471 6472 0
6473 6474 6475 6476 0
6477 6478 6479 6480 0
6481 6482 6483 6484 0
6485 6486 6487 6488 0
6489 6490 6491 6492 0
6493 6494 6495 6496 0
6497 6498 6499 6500 0
6501 6502 6503 6504 0
6505 6506 6507 6508 0
6509 6510 6511 6512 0
6513 6514 6515 6516 0
6517 6518 6519 6520 0
6521 6522 6523 6524 0
6525 6526 6527 6528 0
6529 6530 6531 6532 0
6533 6534 6535 6536 0
6537 6538 6539 6540 0
6541 6542 6543 6544 0
6545 6546 6547 6548 0
6549 6550 6551 6552 0
6553 6554 6555 6556 0
6557 6558 6559 6560 0
6561 6562 6563 6564 0
6565 6566 6567 6568 0
6569 6570 6571 6572 0
6573 6574 6575 6576 0
6577 6578 6579 6580 0
6581 6582 6583 6584 0
6585 6586 6587 6588 0
6589 6590 6591 6592 0
6593 6594 6595 6596 0
6597 6598 6599 6600 0
6601 6602 6603 6604 0
6605 6606 6607 6608 0
6609 6610 6611 6612 0
6613 6614 6615 6616 0
6617 6618 6619 6620 0
6621 6622 6623 6624 0
6625 6626 6627 6628 0
6629 6630 6631 6632 0
6633 6634 6635 6636 0
6637 6638 6639 6640 0
6641 6642 6643 6644 0
6645 6646 6647 6648 0
6649 6650 6651 6652 0
6653 6654 6655 6656 0
6657 6658 6659 6660 0
6661 6662 6663 6664 0
6665 6666 6667 6668 0
6669 6670 6671 6672 0
6673 6674 6675 6676 0
6677 6678 6679 6680 0
6681 6682 6683 6684 0
6685 6686 6687 6688 0
6689 6690 6691 6692 0
6693 6694 6695 6696 0
6697 6698 6699 6700 0
6701 6702 6703 6704 0
6705 6706 6707 6708 0
6709 6710 6711 6712 0
6713 6714 6715 6716 0
6717 6718 6719 6720 0
6721 6722 6723 6724 0
6725 6726 6727 6728 0
6729 6730 6731 6732 0
6733 6734 6735 6736 0
6737 6738 6739 6740 0
6741 6742 6743 6744 0
6745 6746 6747 6748 0
6749 6750 6751 6752 0
6753 6754 6755 6756 0
6757 6758 6759 6760 0
6761 6762 6763 6764 0
6765 6766 6767 6768 0
6769 6770 6771 6772 0
6773 6774 6775 6776 0
6777 6778 6779 6780 0
6781 6782 6783 6784 0
6785 6786 6787 6788 0
6789 6790 6791 6792 0
6793 6794 6795 6796 0
6797 6798 6799 6800 0
6801 6802 6803 6804 0
6805 6806 6807 6808 0
6809 6810 6811 6812 0
6813 6814 6815 6816 0
6817 6818 6819 6820 0
6821 6822 6823 6824 0
6825 6826 6827 6828 0
6829 6830 6831 6832 0
6833 6834 6835 6836 0
6837 6838 6839 6840 0
6841 6842 6843 6844 0
6845 6846 6847 6848 0
6849 6850 6851 6852 0
6853 6854 6855 6856 0
6857 6858 6859 6860 0
6861 6862 6863 6864 0
6865 6866 6867 6868 0
6869 6870 6871 6872 0
6873 6874 6875 6876 0
6877 6878 6879 6880 0
6881 6882 6883 6884 0
6885 6886 6887 6888 0
6889 6890 6891 6892 0
6893 6894 6895 6896 0
6897 6898 6899 6900 0
6901 6902 6903 6904 0
6905 6906 6907 6908 0
6909 6910 6911 6912 0
6913 6914 6915 6916 0
6917 6918 6919 6920 0
6921 6922 6923 6924 0
6925 6926 6927 6928 0
6929 6930 6931 6932 0
6933 6934 6935 6936 0
6937 6938 6939 6940 0
6941 6942 6943 6944 0
6945 6946 6947 6948 0
6949 6950 6951 6952 0
6953 6954 6955 6956 0
6957 6958 6959 6960 0
6961 6962 6963 6964 0
6965 6966 6967 6968 0
6969 6970 6971 6972 0
6973 6974 6975 6976 0
6977 6978 6979 6980 0
6981 6982 6983 6984 0
6985 6986 6987 6988 0
6989 6990 6991 6992 0
6993 6994 6995 6996 0
6997 6998 6999 7000 0
7001 7002 7003 7004 0
7005 7006 7007 7008 0
7009 7010 7011 7012 0
7013 7014 7015 7016 0
7017 7018 7019 7020 0
7021 7022 7023 7024 0
7025 7026 7027 7028 0
7029 7030 7031 7032 0
7033 7034 7035 7036 0
7037 7038 7039 7040 0
7041 7042 7043 7044 0
7045 7046 7047 7048 0
7049 7050 7051 7052 0
7053 7054 7055 7056 0
7057 7058 7059 7060 0
7061 7062 7063 7064 0
7065 7066 7067 7068 0
7069 7070 7071 7072 0
7073 7074 7075 7076 0
7077 7078 7079 7080 0
7081 7082 7083 7084 0
7085 7086 7087 7088 0
7089 7090 7091 7092 0
7093 7094 7095 7096 0
7097 7098 7099 7100 0
7101 7102 7103 7104 0
7105 7106 7107 7108 0
7109 7110 7111 7112 0
7113 7114 7115 7116 0
7117 7118 7119 7120 0
7121 7122 7123 7124 0
7125 7126 7127 7128 0
7129 7130 7131 7132 0
7133 7134 7135 7136 0
7137 7138 7139 7140 0
7141 7142 7143 7144 0
7145 7146 7147 7148 0
7149 7150 7151 7152 0
7153 7154 7155 7156 0
7157 7158 7159 7160 0
7161 7162 7163 7164 0
7165 7166 7167 7168 0
7169 7170 7171 7172 0
7173 7174 7175 7176 0
7177 7178 7179 7180 0
7181 7182 7183 7184 0
7185 7186 7187 7188 0
7189 7190 7191 7192 0
7193 7194 7195 7196 0
7197 7198 7199 7200 0
7201 7202 7203 7204 0
7205 7206 7207 7208 0
7209 7210 7211 7212 0
7213 7214 7215 7216 0
7217 7218 7219 7220 0
7221 7222 7223 7224 0
7225 7226 7227 7228 0
7229 7230 7231 7232 0
7233 7234 7235 7236 0
7237 7238 7239 7240 0
7241 7242 7243 7244 0
7245 7246 7247 7248 0
7249 7250 7251 7252 0
7253 7254 7255 7256 0
7257 7258 7259 7260 0
7261 7262 7263 7264 0
7265 7266 7267 7268 0
7269 7270 7271 7272 0
7273 7274 7275 7276 0
7277 7278 7279 7280 0
7281 7282 7283 7284 0
7285 7286 7287 7288 0
7289 7290 7291 7292 0
7293 7294 7295 7296 0
7297 7298 7299 7300 0
7301 7302 7303 7304 0
7305 7306 7307 7308 0
7309 7310 7311 7312 0
7313 7314 7315 7316 0
7317 7318 7319 7320 0
7321 7322 7323 7324 0
7325 7326 7327 7328 0
7329 7330 7331 7332 0
7333 7334 7335 7336 0
7337 7338 7339 7340 0
7341 7342 7343 7344 0
7345 7346 7347 7348 0
7349 7350 7351 7352 0
7353 7354 7355 7356 0
7357 7358 7359 7360 0
7361 7362 7363 7364 0
7365 7366 7367 7368 0
7369 7370 7371 7372 0
7373 7374 7375 7376 0
7377 7378 7379 7380 0
7381 7382 7383 7384 0
7385 7386 7387 7388 0
7389 7390 7391 7392 0
7393 7394 7395 7396 0
7397 7398 7399 7400 0
7401 7402 7403 7404 0
7405 7406 7407 7408 0
7409 7410 7411 7412 0
7413 7414 7415 7416 0
7417 7418 7419 7420 0
7421 7422 7423 7424 0
7425 7426 7427 7428 0
7429 7430 7431 7432 0
7433 7434 7435 7436 0
7437 7438 7439 7440 0
7441 7442 7443 7444 0
7445 7446 7447 7448 0
7449 7450 7451 7452 0
7453 7454 7455 7456 0
7457 7458 7459 7460 0
7461 7462 7463 7464 0
7465 7466 7467 7468 0
7469 7470 7471 7472 0
7473 7474 7475 7476 0
7477 7478 7479 7480 0
7481 7482 7483 7484 0
7485 7486 7487 7488 0
7489 7490 7491 7492 0
7493 7494 7495 7496 0
7497 7498 7499 7500 0
7501 7502 7503 7504 0
7505 7506 7507 7508 0
7509 7510 7511 7512 0
7513 7514 7515 7516 0
7517 7518 7519 7520 0
7521 7522 7523 7524 0
7525 7526 7527 7528 0
7529 7530 7531 7532 0
7533 7534 7535 7536 0
7537 7538 7539 7540 0
7541 7542 7543 7544 0
7545 7546 7547 7548 0
7549 7550 7551 7552 0
7553 7554 7555 7556 0
7557 7558 7559 7560 0
7561 7562 7563 7564 0
7565 7566 7567 7568 0
7569 7570 7571 7572 0
7573 7574 7575 7576 0
7577 7578 7579 7580 0
7581 7582 7583 7584 0
7585 7586 7587 7588 0
7589 7590 7591 7592 0
7593 7594 7595 7596 0
7597 7598 7599 7600 0
7601 7602 7603 7604 0
7605 7606 7607 7608 0
7609 7610 7611 7612 0
7613 7614 7615 7616 0
7617 7618 7619 7620 0
7621 7622 7623 7624 0
7625 7626 7627 7628 0
7629 7630 7631 7632 0
7633 7634 7635 7636 0
7637 7638 7639 7640 0
7641 7642 7643 7644 0
7645 7646 7647 7648 0
7649 7650 7651 7652 0
7653 7654 7655 7656 0
7657 7658 7659 7660 0
7661 7662 7663 7664 0
7665 7666 7667 7668 0
7669 7670 7671 7672 0
7673 7674 7675 7676 0
7677 7678 7679 7680 0
7681 7682 7683 7684 0
7685 7686 7687 7688 0
7689 7690 7691 7692 0
7693 7694 7695 7696 0
7697 7698 7699 7700 0
7701 7702 7703 7704 0
7705 7706 7707 7708 0
7709 7710 7711 7712 0
7713 7714 7715 7716 0
7717 7718 7719 7720 0
7721 7722 7723 7724 0
7725 7726 7727 7728 0
7729 7730 7731 7732 0
7733 7734 7735 7736 0
7737 7738 7739 7740 0
7741 7742 7743 7744 0
7745 7746 7747 7748 0
7749 7750 7751 7752 0
7753 7754 7755 7756 0
7757 7758 7759 7760 0
7761 7762 7763 7764 0
7765 7766 7767 7768 0
7769 7770 7771 7772 0
7773 7774 7775 7776 0
7777 7778 7779 7780 0
7781 7782 7783 7784 0
7785 7786 7787 7788 0
7789 7790 7791 7792 0
7793 7794 7795 7796 0
7797 7798 7799 7800 0
7801 7802 7803 7804 0
7805 7806 7807 7808 0
7809 7810 7811 7812 0
7813 7814 7815 7816 0
7817 7818 7819 7820 0
7821 7822 7823 7824 0
7825 7826 7827 7828 0
7829 7830 7831 7832 0
7833 7834 7835 7836 0
7837 7838 7839 7840 0
7841 7842 7843 7844 0
7845 7846 7847 7848 0
7849 7850 7851 7852 0
7853 7854 7855 7856 0
7857 7858 7859 7860 0
7861 7862 7863 7864 0
7865 7866 7867 7868 0
7869 7870 7871 7872 0
7873 7874 7875 7876 0
7877 7878 7879 7880 0
7881 7882 7883 7884 0
7885 7886 7887 7888 0
7889 7890 7891 7892 0
7893 7894 7895 7896 0
7897 7898 7899 7900 0
7901 7902 7903 7904 0
7905 7906 7907 7908 0
7909 7910 7911 7912 0
7913 7914 7915 7916 0
7917 7918 7919 7920 0
7921 7922 7923 7924 0
7925 7926 7927 7928 0
7929 7930 7931 7932 0
7933 7934 7935 7936 0
7937 7938 7939 7940 0
7941 7942 7943 7944 0
7945 7946 7947 7948 0
7949 7950 7951 7952 0
7953 7954 7955 7956 0
7957 7958 7959 7960 0
7961 7962 7963 7964 0
7965 7966 7967 7968 0
7969 7970 7971 7972 0
7973 7974 7975 7976 0
7977 7978 7979 7980 0
7981 7982 7983 7984 0
7985 7986 7987 7988 0
7989 7990 7991 7992 0
7993 7994 7995 7996 0
7997 7998 7999 8000 0
8001 8002 8003 8004 0
8005 8006 8007 8008 0
8009 8010 8011 8012 0
8013 8014 8015 8016 0
8017 8018 8019 8020 0
8021 8022 8023 8024 0
8025 8026 8027 8028 0
8029 8030 8031 8032 0
8033 8034 8035 8036 0
8037 8038 8039 8040 0
8041 8042 8043 8044 0
8045 8046 8047 8048 0
8049 8050 8051 8052 0
8053 8054 8055 8056 0
8057 8058 8059 8060 0
8061 8062 8063 8064 0
8065 8066 8067 8068 0
8069 8070 8071 8072 0
8073 8074 8075 8076 0
8077 8078 8079 8080 0
8081 8082 8083 8084 0
8085 8086 8087 8088 0
8089 8090 8091 8092 0
8093 8094 8095 8096 0
8097 8098 8099 8100 0
8101 8102 8103 8104 0
8105 8106 8107 8108 0
8109 8110 8111 8112 0
8113 8114 8115 8116 0
8117 8118 8119 8120 0
8121 8122 8123 8124 0
8125 8126 8127 8128 0
8129 8130 8131 8132 0
8133 8134 8135 8136 0
8137 8138 8139 8140 0
8141 8142 8143 8144 0
8145 8146 8147 8148 0
8149 8150 8151 8152 0
8153 8154 8155 8156 0
8157 8158 8159 8160 0
8161 8162 8163 8164 0
8165 8166 8167 8168 0
8169 8170 8171 8172 0
8173 8174 8175 8176 0
8177 8178 8179 8180 0
8181 8182 8183 8184 0
8185 8186 8187 8188 0
8189 8190 8191 8192 0
8193 8194 8195 8196 0
8197 8198 8199 8200 0
8201 8202 8203 8204 0
8205 8206 8207 8208 0
8209 8210 8211 8212 0
8213 8214 8215 8216 0
8217 8218 8219 8220 0
8221 8222 8223 8224 0
8225 8226 8227 8228 0
8229 8230 8231 8232 0
8233 8234 8235 8236 0
8237 8238 8239 8240 0
8241 8242 8243 8244 0
8245 8246 8247 8248 0
8249 8250 8251 8252 0
8253 8254 8255 8256 0
8257 8258 8259 8260 0
8261 8262 8263 8264 0
8265 8266 8267 8268 0
8269 8270 8271 8272 0
8273 8274 8275 8276 0
8277 8278 8279 8280 0
8281 8282 8283 8284 0
8285 8286 8287 8288 0
8289 8290 8291 8292 0
8293 8294 8295 8296 0
8297 8298 8299 8300 0
8301 8302 8303 8304 0
8305 8306 8307 8308 0
8309 8310 8311 8312 0
8313 8314 8315 8316 0
8317 8318 8319 8320 0
8321 8322 8323 8324 0
8325 8326 8327 8328 0
8329 8330 8331 8332 0
8333 8334 8335 8336 0
8337 8338 8339 8340 0
8341 8342 8343 8344 0
8345 8346 8347 8348 0
8349 8350 8351 8352 0
8353 8354 8355 8356 0
8357 8358 8359 8360 0
8361 8362 8363 8364 0
8365 8366 8367 8368 0
8369 8370 8371 8372 0
8373 8374 8375 8376 0
8377 8378 8379 8380 0
8381 8382 8383 8384 0
8385 8386 8387 8388 0
8389 8390 8391 8392 0
8393 8394 8395 8396 0
8397 8398 8399 8400 0
8401 8402 8403 8404 0
8405 8406 8407 8408 0
8409 8410 8411 8412 0
8413 8414 8415 8416 0
8417 8418 8419 8420 0
8421 8422 8423 8424 0
8425 8426 8427 8428 0
8429 8430 8431 8432 0
8433 8434 8435 8436 0
8437 8438 8439 8440 0
8441 8442 8443 8444 0
8445 8446 8447 8448 0
8449 8450 8451 8452 0
8453 8454 8455 8456 0
8457 8458 8459 8460 0
8461 8462 8463 8464 0
8465 8466 8467 8468 0
8469 8470 8471 8472 0
8473 8474 8475 8476 0
8477 8478 8479 8480 0
8481 8482 8483 8484 0
8485 8486 8487 8488 0
8489 8490 8491 8492 0
8493 8494 8495 8496 0
8497 8498 8499 8500 0
8501 8502 8503 8504 0
8505 8506 8507 8508 0
8509 8510 8511 8512 0
8513 8514 8515 8516 0
8517 8518 8519 8520 0
8521 8522 8523 8524 0
-1 -37 0
-2 -38 0
-3 -39 0
-4 -40 0
-1 -85 0
-2 -86 0
-3 -87 0
-4 -88 0
-1 -189 0
-2 -190 0
-3 -191 0
-4 -192 0
-1 -213 0
-2 -214 0
-3 -215 0
-4 -216 0
-1 -249 0
-2 -250 0
-3 -251 0
-4 -252 0
-1 -257 0
-2 -258 0
-3 -259 0
-4 -260 0
-1 -277 0
-2 -278 0
-3 -279 0
-4 -280 0
-1 -281 0
-2 -282 0
-3 -283 0
-4 -284 0
-5 -9 0
-6 -10 0
-7 -11 0
-8 -12 0
-5 -21 0
-6 -22 0
-7 -23 0
-8 -24 0
-5 -109 0
-6 -110 0
-7 -111 0
-8 -112 0
-5 -165 0
-6 -166 0
-7 -167 0
-8 -168 0
-5 -377 0
-6 -378 0
-7 -379 0
-8 -380 0
-5 -405 0
-6 -406 0
-7 -407 0
-8 -408 0
-5 -541 0
-6 -542 0
-7 -543 0
-8 -544 0
-9 -29 0
-10 -30 0
-11 -31 0
-12 -32 0
-9 -73 0
-10 -74 0
-11 -75 0
-12 -76 0
-9 -121 0
-10 -122 0
-11 -123 0
-12 -124 0
-9 -169 0
-10 -170 0
-11 -171 0
-12 -172 0
-9 -393 0
-10 -394 0
-11 -395 0
-12 -396 0
-9 -405 0
-10 -406 0
-11 -407 0
-12 -408 0
-13 -45 0
-14 -46 0
-15 -47 0
-16 -48 0
-13 -137 0
-14 -138 0
-15 -139 0
-16 -140 0
-13 -177 0
-14 -178 0
-15 -179 0
-16 -180 0
-13 -341 0
-14 -342 0
-15 -343 0
-16 -344 0
-13 -425 0
-14 -426 0
-15 -427 0
-16 -428 0
-13 -493 0
-14 -494 0
-15 -495 0
-16 -496 0
-13 -737 0
-14 -738 0
-15 -739 0
-16 -740 0
-17 -41 0
-18 -42 0
-19 -43 0
-20 -44 0
-17 -97 0
-18 -98 0
-19 -99 0
-20 -100 0
-17 -237 0
-18 -238 0
-19 -239 0
-20 -240 0
-17 -377 0
-18 -378 0
-19 -379 0
-20 -380 0
-17 -437 0
-18 -438 0
-19 -439 0
-20 -440 0
-17 -453 0
-18 -454 0
-19 -455 0
-20 -456 0
-17 -801 0
-18 -802 0
-19 -803 0
-20 -804 0
-21 -25 0
-22 -26 0
-23 -27 0
-24 -28 0
-21 -29 0
-22 -30 0
-23 -31 0
-24 -32 0
-21 -217 0
-22 -218 0
-23 -219 0
-24 -220 0
-21 -305 0
-22 -306 0
-23 -307 0
-24 -308 0
-21 -585 0
-22 -586 0
-23 -587 0
-24 -588 0
-21 -653 0
-22 -654 0
-23 -655 0
-24 -656 0
-21 -685 0
-22 -686 0
-23 -687 0
-24 -688 0
-21 -905 0
-22 -906 0
-23 -907 0
-24 -908 0
-25 -33 0
-26 -34 0
-27 -35 0
-28 -36 0
-25 -65 0
-26 -66 0
-27 -67 0
-28 -68 0
-25 -133 0
-26 -134 0
-27 -135 0
-28 -136 0
-25 -309 0
-26 -310 0
-27 -311 0
-28 -312 0
-25 -437 0
-26 -438 0
-27 -439 0
-28 -440 0
-25 -585 0
-26 -586 0
-27 -587 0
-28 -588 0
-25 -593 0
-26 -594 0
-27 -595 0
-28 -596 0
-25 -657 0
-26 -658 0
-27 -659 0
-28 -660 0
-25 -721 0
-26 -722 0
-27 -723 0
-28 -724 0
-25 -913 0
-26 -914 0
-27 -915 0
-28 -916 0
-29 -33 0
-30 -34 0
-31 -35 0
-32 -36 0
-29 -73 0
-30 -74 0
-31 -75 0
-32 -76 0
-29 -313 0
-30 -314 0
-31 -315 0
-32 -316 0
-29 -597 0
-30 -598 0
-31 -599 0
-32 -600 0
-29 -685 0
-30 -686 0
-31 -687 0
-32 -688 0
-29 -757 0
-30 -758 0
-31 -759 0
-32 -760 0
-33 -77 0
-34 -78 0
-35 -79 0
-36 -80 0
-33 -185 0
-34 -186 0
-35 -187 0
-36 -188 0
-33 -213 0
-34 -214 0
-35 -215 0
-36 -216 0
-33 -317 0
-34 -318 0
-35 -319 0
-36 -320 0
-33 -469 0
-34 -470 0
-35 -471 0
-36 -472 0
-33 -597 0
-34 -598 0
-35 -599 0
-36 -600 0
-33 -601 0
-34 -602 0
-35 -603 0
-36 -604 0
-33 -721 0
-34 -722 0
-35 -723 0
-36 -724 0
-33 -761 0
-34 -762 0
-35 -763 0
-36 -764 0
-33 -925 0
-34 -926 0
-35 -927 0
-36 -928 0
-37 -101 0
-38 -102 0
-39 -103 0
-40 -104 0
-37 -149 0
-38 -150 0
-39 -151 0
-40 -152 0
-37 -321 0
-38 -322 0
-39 -323 0
-40 -324 0
-37 -529 0
-38 -530 0
-39 -531 0
-40 -532 0
-37 -685 0
-38 -686 0
-39 -687 0
-40 -688 0
-37 -721 0
-38 -722 0
-39 -723 0
-40 -724 0
-37 -1009 0
-38 -1010 0
-39 -1011 0
-40 -1012 0
-41 -45 0
-42 -46 0
-43 -47 0
-44 -48 0
-41 -49 0
-42 -50 0
-43 -51 0
-44 -52 0
-41 -97 0
-42 -98 0
-43 -99 0
-44 -100 0
-41 -353 0
-42 -354 0
-43 -355 0
-44 -356 0
-41 -553 0
-42 -554 0
-43 -555 0
-44 -556 0
-41 -661 0
-42 -662 0
-43 -663 0
-44 -664 0
-41 -685 0
-42 -686 0
-43 -687 0
-44 -688 0
-41 -829 0
-42 -830 0
-43 -831 0
-44 -832 0
-41 -1057 0
-42 -1058 0
-43 -1059 0
-44 -1060 0
-45 -53 0
-46 -54 0
-47 -55 0
-48 -56 0
-45 -273 0
-46 -274 0
-47 -275 0
-48 -276 0
-45 -293 0
-46 -294 0
-47 -295 0
-48 -296 0
-45 -357 0
-46 -358 0
-47 -359 0
-48 -360 0
-45 -557 0
-46 -558 0
-47 -559 0
-48 -560 0
-45 -665 0
-46 -666 0
-47 -667 0
-48 -668 0
-45 -721 0
-46 -722 0
-47 -723 0
-48 -724 0
-45 -829 0
-46 -830 0
-47 -831 0
-48 -832 0
-45 -837 0
-46 -838 0
-47 -839 0
-48 -840 0
-45 -1069 0
-46 -1070 0
-47 -1071 0
-48 -1072 0
-49 -53 0
-50 -54 0
-51 -55 0
-52 -56 0
-49 -113 0
-50 -114 0
-51 -115 0
-52 -116 0
-49 -369 0
-50 -370 0
-51 -371 0
-52 -372 0
-49 -561 0
-50 -562 0
-51 -563 0
-52 -564 0
-49 -685 0
-50 -686 0
-51 -687 0
-52 -688 0
-49 -749 0
-50 -750 0
-51 -751 0
-52 -752 0
-49 -841 0
-50 -842 0
-51 -843 0
-52 -844 0
-53 -89 0
-54 -90 0
-55 -91 0
-56 -92 0
-53 -117 0
-54 -118 0
-55 -119 0
-56 -120 0
-53 -277 0
-54 -278 0
-55 -279 0
-56 -280 0
-53 -565 0
-54 -566 0
-55 -567 0
-56 -568 0
-53 -721 0
-54 -722 0
-55 -723 0
-56 -724 0
-53 -753 0
-54 -754 0
-55 -755 0
-56 -756 0
-53 -841 0
-54 -842 0
-55 -843 0
-56 -844 0
-53 -845 0
-54 -846 0
-55 -847 0
-56 -848 0
-57 -61 0
-58 -62 0
-59 -63 0
-60 -64 0
-57 -69 0
-58 -70 0
-59 -71 0
-60 -72 0
-57 -109 0
-58 -110 0
-59 -111 0
-60 -112 0
-57 -217 0
-58 -218 0
-59 -219 0
-60 -220 0
-57 -425 0
-58 -426 0
-59 -427 0
-60 -428 0
-57 -637 0
-58 -638 0
-59 -639 0
-60 -640 0
-57 -929 0
-58 -930 0
-59 -931 0
-60 -932 0
-61 -69 0
-62 -70 0
-63 -71 0
-64 -72 0
-61 -169 0
-62 -170 0
-63 -171 0
-64 -172 0
-61 -429 0
-62 -430 0
-63 -431 0
-64 -432 0
-61 -641 0
-62 -642 0
-63 -643 0
-64 -644 0
-61 -933 0
-62 -934 0
-63 -935 0
-64 -936 0
-61 -1173 0
-62 -1174 0
-63 -1175 0
-64 -1176 0
-65 -69 0
-66 -70 0
-67 -71 0
-68 -72 0
-65 -73 0
-66 -74 0
-67 -75 0
-68 -76 0
-65 -133 0
-66 -134 0
-67 -135 0
-68 -136 0
-65 -269 0
-66 -270 0
-67 -271 0
-68 -272 0
-65 -661 0
-66 -662 0
-67 -663 0
-68 -664 0
-65 -937 0
-66 -938 0
-67 -939 0
-68 -940 0
-65 -941 0
-66 -942 0
-67 -943 0
-68 -944 0
-65 -1013 0
-66 -1014 0
-67 -1015 0
-68 -1016 0
-65 -1025 0
-66 -1026 0
-67 -1027 0
-68 -1028 0
-65 -1185 0
-66 -1186 0
-67 -1187 0
-68 -1188 0
-69 -125 0
-70 -126 0
-71 -127 0
-72 -128 0
-69 -177 0
-70 -178 0
-71 -179 0
-72 -180 0
-69 -433 0
-70 -434 0
-71 -435 0
-72 -436 0
-69 -685 0
-70 -686 0
-71 -687 0
-72 -688 0
-69 -945 0
-70 -946 0
-71 -947 0
-72 -948 0
-69 -949 0
-70 -950 0
-71 -951 0
-72 -952 0
-69 -1037 0
-70 -1038 0
-71 -1039 0
-72 -1040 0
-73 -77 0
-74 -78 0
-75 -79 0
-76 -80 0
-73 -153 0
-74 -154 0
-75 -155 0
-76 -156 0
-73 -261 0
-74 -262 0
-75 -263 0
-76 -264 0
-73 -289 0
-74 -290 0
-75 -291 0
-76 -292 0
-73 -385 0
-74 -386 0
-75 -387 0
-76 -388 0
-73 -481 0
-74 -482 0
-75 -483 0
-76 -484 0
-73 -997 0
-74 -998 0
-75 -999 0
-76 -1000 0
-73 -1053 0
-74 -1054 0
-75 -1055 0
-76 -1056 0
-73 -1073 0
-74 -1074 0
-75 -1075 0
-76 -1076 0
-73 -1277 0
-74 -1278 0
-75 -1279 0
-76 -1280 0
-77 -297 0
-78 -298 0
-79 -299 0
-80 -300 0
-77 -489 0
-78 -490 0
-79 -491 0
-80 -492 0
-77 -997 0
-78 -998 0
-79 -999 0
-80 -1000 0
-77 -1065 0
-78 -1066 0
-79 -1067 0
-80 -1068 0
-77 -1077 0
-78 -1078 0
-79 -1079 0
-80 -1080 0
-77 -1285 0
-78 -1286 0
-79 -1287 0
-80 -1288 0
-81 -105 0
-82 -106 0
-83 -107 0
-84 -108 0
-81 -281 0
-82 -282 0
-83 -283 0
-84 -284 0
-81 -409 0
-82 -410 0
-83 -411 0
-84 -412 0
-81 -865 0
-82 -866 0
-83 -867 0
-84 -868 0
-81 -1005 0
-82 -1006 0
-83 -1007 0
-84 -1008 0
-81 -1009 0
-82 -1010 0
-83 -1011 0
-84 -1012 0
-81 -1057 0
-82 -1058 0
-83 -1059 0
-84 -1060 0
-81 -1069 0
-82 -1070 0
-83 -1071 0
-84 -1072 0
-85 -89 0
-86 -90 0
-87 -91 0
-88 -92 0
-85 -109 0
-86 -110 0
-87 -111 0
-88 -112 0
-85 -113 0
-86 -114 0
-87 -115 0
-88 -116 0
-85 -321 0
-86 -322 0
-87 -323 0
-88 -324 0
-85 -501 0
-86 -502 0
-87 -503 0
-88 -504 0
-85 -581 0
-86 -582 0
-87 -583 0
-88 -584 0
-85 -933 0
-86 -934 0
-87 -935 0
-88 -936 0
-85 -1085 0
-86 -1086 0
-87 -1087 0
-88 -1088 0
-85 -1129 0
-86 -1130 0
-87 -1131 0
-88 -1132 0
-85 -1133 0
-86 -1134 0
-87 -1135 0
-88 -1136 0
-85 -1413 0
-86 -1414 0
-87 -1415 0
-88 -1416 0
-89 -93 0
-90 -94 0
-91 -95 0
-92 -96 0
-89 -229 0
-90 -230 0
-91 -231 0
-92 -232 0
-89 -325 0
-90 -326 0
-91 -327 0
-92 -328 0
-89 -445 0
-90 -446 0
-91 -447 0
-92 -448 0
-89 -949 0
-90 -950 0
-91 -951 0
-92 -952 0
-89 -957 0
-90 -958 0
-91 -959 0
-92 -960 0
-89 -1093 0
-90 -1094 0
-91 -1095 0
-92 -1096 0
-89 -1137 0
-90 -1138 0
-91 -1139 0
-92 -1140 0
-89 -1265 0
-90 -1266 0
-91 -1267 0
-92 -1268 0
-93 -177 0
-94 -178 0
-95 -179 0
-96 -180 0
-93 -233 0
-94 -234 0
-95 -235 0
-96 -236 0
-93 -333 0
-94 -334 0
-95 -335 0
-96 -336 0
-93 -453 0
-94 -454 0
-95 -455 0
-96 -456 0
-93 -965 0
-94 -966 0
-95 -967 0
-96 -968 0
-93 -1097 0
-94 -1098 0
-95 -1099 0
-96 -1100 0
-93 -1269 0
-94 -1270 0
-95 -1271 0
-96 -1272 0
-97 -101 0
-98 -102 0
-99 -103 0
-100 -104 0
-97 -109 0
-98 -110 0
-99 -111 0
-100 -112 0
-97 -345 0
-98 -346 0
-99 -347 0
-100 -348 0
-97 -629 0
-98 -630 0
-99 -631 0
-100 -632 0
-97 -1017 0
-98 -1018 0
-99 -1019 0
-100 -1020 0
-97 -1149 0
-98 -1150 0
-99 -1151 0
-100 -1152 0
-97 -1201 0
-98 -1202 0
-99 -1203 0
-100 -1204 0
-97 -1205 0
-98 -1206 0
-99 -1207 0
-100 -1208 0
-97 -1533 0
-98 -1534 0
-99 -1535 0
-100 -1536 0
-101 -105 0
-102 -106 0
-103 -107 0
-104 -108 0
-101 -121 0
-102 -122 0
-103 -123 0
-104 -124 0
-101 -349 0
-102 -350 0
-103 -351 0
-104 -352 0
-101 -1033 0
-102 -1034 0
-103 -1035 0
-104 -1036 0
-101 -1225 0
-102 -1226 0
-103 -1227 0
-104 -1228 0
-101 -1249 0
-102 -1250 0
-103 -1251 0
-104 -1252 0
-105 -121 0
-106 -122 0
-107 -123 0
-108 -124 0
-105 -141 0
-106 -142 0
-107 -143 0
-108 -144 0
-105 -281 0
-106 -282 0
-107 -283 0
-108 -284 0
-105 -645 0
-106 -646 0
-107 -647 0
-108 -648 0
-105 -1233 0
-106 -1234 0
-107 -1235 0
-108 -1236 0
-105 -1257 0
-106 -1258 0
-107 -1259 0
-108 -1260 0
-109 -113 0
-110 -114 0
-111 -115 0
-112 -116 0
-109 -121 0
-110 -122 0
-111 -123 0
-112 -124 0
-109 -125 0
-110 -126 0
-111 -127 0
-112 -128 0
-109 -217 0
-110 -218 0
-111 -219 0
-112 -220 0
-109 -721 0
-110 -722 0
-111 -723 0
-112 -724 0
-109 -1041 0
-110 -1042 0
-111 -1043 0
-112 -1044 0
-109 -1153 0
-110 -1154 0
-111 -1155 0
-112 -1156 0
-109 -1169 0
-110 -1170 0
-111 -1171 0
-112 -1172 0
-109 -1289 0
-110 -1290 0
-111 -1291 0
-112 -1292 0
-109 -1301 0
-110 -1302 0
-111 -1303 0
-112 -1304 0
-109 -1329 0
-110 -1330 0
-111 -1331 0
-112 -1332 0
-109 -1557 0
-110 -1558 0
-111 -1559 0
-112 -1560 0
-113 -117 0
-114 -118 0
-115 -119 0
-116 -120 0
-113 -221 0
-114 -222 0
-115 -223 0
-116 -224 0
-113 -373 0
-114 -374 0
-115 -375 0
-116 -376 0
-113 -561 0
-114 -562 0
-115 -563 0
-116 -564 0
-113 -741 0
-114 -742 0
-115 -743 0
-116 -744 0
-113 -1161 0
-114 -1162 0
-115 -1163 0
-116 -1164 0
-113 -1173 0
-114 -1174 0
-115 -1175 0
-116 -1176 0
-113 -1293 0
-114 -1294 0
-115 -1295 0
-116 -1296 0
-113 -1305 0
-114 -1306 0
-115 -1307 0
-116 -1308 0
-117 -229 0
-118 -230 0
-119 -231 0
-120 -232 0
-117 -381 0
-118 -382 0
-119 -383 0
-120 -384 0
-117 -565 0
-118 -566 0
-119 -567 0
-120 -568 0
-117 -1165 0
-118 -1166 0
-119 -1167 0
-120 -1168 0
-117 -1177 0
-118 -1178 0
-119 -1179 0
-120 -1180 0
-117 -1305 0
-118 -1306 0
-119 -1307 0
-120 -1308 0
-121 -169 0
-122 -170 0
-123 -171 0
-124 -172 0
-121 -385 0
-122 -386 0
-123 -387 0
-124 -388 0
-121 -761 0
-122 -762 0
-123 -763 0
-124 -764 0
-121 -1309 0
-122 -1310 0
-123 -1311 0
-124 -1312 0
-121 -1313 0
-122 -1314 0
-123 -1315 0
-124 -1316 0
-121 -1329 0
-122 -1330 0
-123 -1331 0
-124 -1332 0
-125 -293 0
-126 -294 0
-127 -295 0
-128 -296 0
-125 -777 0
-126 -778 0
-127 -779 0
-128 -780 0
-125 -781 0
-126 -782 0
-127 -783 0
-128 -784 0
-125 -1053 0
-126 -1054 0
-127 -1055 0
-128 -1056 0
-125 -1317 0
-126 -1318 0
-127 -1319 0
-128 -1320 0
-129 -153 0
-130 -154 0
-131 -155 0
-132 -156 0
-129 -165 0
-130 -166 0
-131 -167 0
-132 -168 0
-129 -209 0
-130 -210 0
-131 -211 0
-132 -212 0
-129 -453 0
-130 -454 0
-131 -455 0
-132 -456 0
-129 -577 0
-130 -578 0
-131 -579 0
-132 -580 0
-129 -1333 0
-130 -1334 0
-131 -1335 0
-132 -1336 0
-129 -1341 0
-130 -1342 0
-131 -1343 0
-132 -1344 0
-129 -1581 0
-130 -1582 0
-131 -1583 0
-132 -1584 0
-133 -149 0
-134 -150 0
-135 -151 0
-136 -152 0
-133 -153 0
-134 -154 0
-135 -155 0
-136 -156 0
-133 -329 0
-134 -330 0
-135 -331 0
-136 -332 0
-133 -421 0
-134 -422 0
-135 -423 0
-136 -424 0
-133 -1349 0
-134 -1350 0
-135 -1351 0
-136 -1352 0
-133 -1353 0
-134 -1354 0
-135 -1355 0
-136 -1356 0
-137 -141 0
-138 -142 0
-139 -143 0
-140 -144 0
-137 -145 0
-138 -146 0
-139 -147 0
-140 -148 0
-137 -157 0
-138 -158 0
-139 -159 0
-140 -160 0
-137 -273 0
-138 -274 0
-139 -275 0
-140 -276 0
-137 -685 0
-138 -686 0
-139 -687 0
-140 -688 0
-137 -1161 0
-138 -1162 0
-139 -1163 0
-140 -1164 0
-137 -1345 0
-138 -1346 0
-139 -1347 0
-140 -1348 0
-137 -1381 0
-138 -1382 0
-139 -1383 0
-140 -1384 0
-137 -1397 0
-138 -1398 0
-139 -1399 0
-140 -1400 0
-141 -161 0
-142 -162 0
-143 -163 0
-144 -164 0
-141 -165 0
-142 -166 0
-143 -167 0
-144 -168 0
-141 -169 0
-142 -170 0
-143 -171 0
-144 -172 0
-141 -301 0
-142 -302 0
-143 -303 0
-144 -304 0
-141 -437 0
-142 -438 0
-143 -439 0
-144 -440 0
-141 -645 0
-142 -646 0
-143 -647 0
-144 -648 0
-141 -697 0
-142 -698 0
-143 -699 0
-144 -700 0
-141 -1385 0
-142 -1386 0
-143 -1387 0
-144 -1388 0
-141 -1401 0
-142 -1402 0
-143 -1403 0
-144 -1404 0
-145 -277 0
-146 -278 0
-147 -279 0
-148 -280 0
-145 -445 0
-146 -446 0
-147 -447 0
-148 -448 0
-145 -749 0
-146 -750 0
-147 -751 0
-148 -752 0
-145 -1173 0
-146 -1174 0
-147 -1175 0
-148 -1176 0
-145 -1345 0
-146 -1346 0
-147 -1347 0
-148 -1348 0
-145 -1413 0
-146 -1414 0
-147 -1415 0
-148 -1416 0
-149 -153 0
-150 -154 0
-151 -155 0
-152 -156 0
-149 -157 0
-150 -158 0
-151 -159 0
-152 -160 0
-149 -349 0
-150 -350 0
-151 -351 0
-152 -352 0
-149 -1417 0
-150 -1418 0
-151 -1419 0
-152 -1420 0
-149 -1433 0
-150 -1434 0
-151 -1435 0
-152 -1436 0
-149 -1713 0
-150 -1714 0
-151 -1715 0
-152 -1716 0
-153 -165 0
-154 -166 0
-155 -167 0
-156 -168 0
-153 -261 0
-154 -262 0
-155 -263 0
-156 -264 0
-153 -705 0
-154 -706 0
-155 -707 0
-156 -708 0
-153 -1421 0
-154 -1422 0
-155 -1423 0
-156 -1424 0
-153 -1437 0
-154 -1438 0
-155 -1439 0
-156 -1440 0
-153 -1717 0
-154 -1718 0
-155 -1719 0
-156 -1720 0
-157 -165 0
-158 -166 0
-159 -167 0
-160 -168 0
-157 -213 0
-158 -214 0
-159 -215 0
-160 -216 0
-157 -353 0
-158 -354 0
-159 -355 0
-160 -356 0
-157 -709 0
-158 -710 0
-159 -711 0
-160 -712 0
-157 -769 0
-158 -770 0
-159 -771 0
-160 -772 0
-157 -869 0
-158 -870 0
-159 -871 0
-160 -872 0
-157 -1189 0
-158 -1190 0
-159 -1191 0
-160 -1192 0
-157 -1425 0
-158 -1426 0
-159 -1427 0
-160 -1428 0
-157 -1445 0
-158 -1446 0
-159 -1447 0
-160 -1448 0
-161 -165 0
-162 -166 0
-163 -167 0
-164 -168 0
-161 -177 0
-162 -178 0
-163 -179 0
-164 -180 0
-161 -185 0
-162 -186 0
-163 -187 0
-164 -188 0
-161 -285 0
-162 -286 0
-163 -287 0
-164 -288 0
-161 -369 0
-162 -370 0
-163 -371 0
-164 -372 0
-161 -477 0
-162 -478 0
-163 -479 0
-164 -480 0
-161 -625 0
-162 -626 0
-163 -627 0
-164 -628 0
-161 -717 0
-162 -718 0
-163 -719 0
-164 -720 0
-161 -873 0
-162 -874 0
-163 -875 0
-164 -876 0
-161 -1449 0
-162 -1450 0
-163 -1451 0
-164 -1452 0
-161 -1533 0
-162 -1534 0
-163 -1535 0
-164 -1536 0
-165 -181 0
-166 -182 0
-167 -183 0
-168 -184 0
-165 -189 0
-166 -190 0
-167 -191 0
-168 -192 0
-165 -265 0
-166 -266 0
-167 -267 0
-168 -268 0
-165 -305 0
-166 -306 0
-167 -307 0
-168 -308 0
-165 -541 0
-166 -542 0
-167 -543 0
-168 -544 0
-165 -721 0
-166 -722 0
-167 -723 0
-168 -724 0
-165 -877 0
-166 -878 0
-167 -879 0
-168 -880 0
-165 -1429 0
-166 -1430 0
-167 -1431 0
-168 -1432 0
-165 -1453 0
-166 -1454 0
-167 -1455 0
-168 -1456 0
-165 -1537 0
-166 -1538 0
-167 -1539 0
-168 -1540 0
-169 -173 0
-170 -174 0
-171 -175 0
-172 -176 0
-169 -177 0
-170 -178 0
-171 -179 0
-172 -180 0
-169 -181 0
-170 -182 0
-171 -183 0
-172 -184 0
-169 -313 0
-170 -314 0
-171 -315 0
-172 -316 0
-169 -481 0
-170 -482 0
-171 -483 0
-172 -484 0
-169 -641 0
-170 -642 0
-171 -643 0
-172 -644 0
-169 -897 0
-170 -898 0
-171 -899 0
-172 -900 0
-169 -1481 0
-170 -1482 0
-171 -1483 0
-172 -1484 0
-169 -1761 0
-170 -1762 0
-171 -1763 0
-172 -1764 0
-173 -193 0
-174 -194 0
-175 -195 0
-176 -196 0
-173 -197 0
-174 -198 0
-175 -199 0
-176 -200 0
-173 -317 0
-174 -318 0
-175 -319 0
-176 -320 0
-173 -489 0
-174 -490 0
-175 -491 0
-176 -492 0
-173 -649 0
-174 -650 0
-175 -651 0
-176 -652 0
-173 -1481 0
-174 -1482 0
-175 -1483 0
-176 -1484 0
-173 -1777 0
-174 -1778 0
-175 -1779 0
-176 -1780 0
-177 -181 0
-178 -182 0
-179 -183 0
-180 -184 0
-177 -185 0
-178 -186 0
-179 -187 0
-180 -188 0
-177 -193 0
-178 -194 0
-179 -195 0
-180 -196 0
-177 -205 0
-178 -206 0
-179 -207 0
-180 -208 0
-177 -293 0
-178 -294 0
-179 -295 0
-180 -296 0
-177 -333 0
-178 -334 0
-179 -335 0
-180 -336 0
-177 -341 0
-178 -342 0
-179 -343 0
-180 -344 0
-177 -509 0
-178 -510 0
-179 -511 0
-180 -512 0
-177 -685 0
-178 -686 0
-179 -687 0
-180 -688 0
-177 -921 0
-178 -922 0
-179 -923 0
-180 -924 0
-177 -1225 0
-178 -1226 0
-179 -1227 0
-180 -1228 0
-177 -1361 0
-178 -1362 0
-179 -1363 0
-180 -1364 0
-177 -1369 0
-178 -1370 0
-179 -1371 0
-180 -1372 0
-177 -1497 0
-178 -1498 0
-179 -1499 0
-180 -1500 0
-177 -1553 0
-178 -1554 0
-179 -1555 0
-180 -1556 0
-177 -1573 0
-178 -1574 0
-179 -1575 0
-180 -1576 0
-177 -1801 0
-178 -1802 0
-179 -1803 0
-180 -1804 0
-181 -189 0
-182 -190 0
-183 -191 0
-184 -192 0
-181 -197 0
-182 -198 0
-183 -199 0
-184 -200 0
-181 -561 0
-182 -562 0
-183 -563 0
-184 -564 0
-181 -689 0
-182 -690 0
-183 -691 0
-184 -692 0
-181 -793 0
-182 -794 0
-183 -795 0
-184 -796 0
-181 -1229 0
-182 -1230 0
-183 -1231 0
-184 -1232 0
-181 -1489 0
-182 -1490 0
-183 -1491 0
-184 -1492 0
-181 -1501 0
-182 -1502 0
-183 -1503 0
-184 -1504 0
-181 -1805 0
-182 -1806 0
-183 -1807 0
-184 -1808 0
-185 -189 0
-186 -190 0
-187 -191 0
-188 -192 0
-185 -201 0
-186 -202 0
-187 -203 0
-188 -204 0
-185 -225 0
-186 -226 0
-187 -227 0
-188 -228 0
-185 -297 0
-186 -298 0
-187 -299 0
-188 -300 0
-185 -401 0
-186 -402 0
-187 -403 0
-188 -404 0
-185 -525 0
-186 -526 0
-187 -527 0
-188 -528 0
-185 -693 0
-186 -694 0
-187 -695 0
-188 -696 0
-185 -925 0
-186 -926 0
-187 -927 0
-188 -928 0
-185 -929 0
-186 -930 0
-187 -931 0
-188 -932 0
-185 -1233 0
-186 -1234 0
-187 -1235 0
-188 -1236 0
-185 -1505 0
-186 -1506 0
-187 -1507 0
-188 -1508 0
-185 -1557 0
-186 -1558 0
-187 -1559 0
-188 -1560 0
-189 -393 0
-190 -394 0
-191 -395 0
-192 -396 0
-189 -529 0
-190 -530 0
-191 -531 0
-192 -532 0
-189 -797 0
-190 -798 0
-191 -799 0
-192 -800 0
-189 -933 0
-190 -934 0
-191 -935 0
-192 -936 0
-189 -1237 0
-190 -1238 0
-191 -1239 0
-192 -1240 0
-189 -1493 0
-190 -1494 0
-191 -1495 0
-192 -1496 0
-189 -1509 0
-190 -1510 0
-191 -1511 0
-192 -1512 0
-189 -1561 0
-190 -1562 0
-191 -1563 0
-192 -1564 0
-193 -197 0
-194 -198 0
-195 -199 0
-196 -200 0
-193 -201 0
-194 -202 0
-195 -203 0
-196 -204 0
-193 -513 0
-194 -514 0
-195 -515 0
-196 -516 0
-193 -721 0
-194 -722 0
-195 -723 0
-196 -724 0
-193 -1249 0
-194 -1250 0
-195 -1251 0
-196 -1252 0
-193 -1365 0
-194 -1366 0
-195 -1367 0
-196 -1368 0
-193 -1373 0
-194 -1374 0
-195 -1375 0
-196 -1376 0
-193 -1497 0
-194 -1498 0
-195 -1499 0
-196 -1500 0
-193 -1565 0
-194 -1566 0
-195 -1567 0
-196 -1568 0
-193 -1817 0
-194 -1818 0
-195 -1819 0
-196 -1820 0
-197 -565 0
-198 -566 0
-199 -567 0
-200 -568 0
-197 -725 0
-198 -726 0
-199 -727 0
-200 -728 0
-197 -1253 0
-198 -1254 0
-199 -1255 0
-200 -1256 0
-197 -1501 0
-198 -1502 0
-199 -1503 0
-200 -1504 0
-197 -1821 0
-198 -1822 0
-199 -1823 0
-200 -1824 0
-201 -233 0
-202 -234 0
-203 -235 0
-204 -236 0
-201 -729 0
-202 -730 0
-203 -731 0
-204 -732 0
-201 -1257 0
-202 -1258 0
-203 -1259 0
-204 -1260 0
-201 -1505 0
-202 -1506 0
-203 -1507 0
-204 -1508 0
-201 -1569 0
-202 -1570 0
-203 -1571 0
-204 -1572 0
-205 -245 0
-206 -246 0
-207 -247 0
-208 -248 0
-205 -361 0
-206 -362 0
-207 -363 0
-208 -364 0
-205 -389 0
-206 -390 0
-207 -391 0
-208 -392 0
-205 -545 0
-206 -546 0
-207 -547 0
-208 -548 0
-205 -805 0
-206 -806 0
-207 -807 0
-208 -808 0
-205 -1321 0
-206 -1322 0
-207 -1323 0
-208 -1324 0
-205 -1465 0
-206 -1466 0
-207 -1467 0
-208 -1468 0
-205 -1473 0
-206 -1474 0
-207 -1475 0
-208 -1476 0
-205 -1529 0
-206 -1530 0
-207 -1531 0
-208 -1532 0
-209 -213 0
-210 -214 0
-211 -215 0
-212 -216 0
-209 -261 0
-210 -262 0
-211 -263 0
-212 -264 0
-209 -265 0
-210 -266 0
-211 -267 0
-212 -268 0
-209 -685 0
-210 -686 0
-211 -687 0
-212 -688 0
-209 -893 0
-210 -894 0
-211 -895 0
-212 -896 0
-209 -1597 0
-210 -1598 0
-211 -1599 0
-212 -1600 0
-209 -1609 0
-210 -1610 0
-211 -1611 0
-212 -1612 0
-209 -1693 0
-210 -1694 0
-211 -1695 0
-212 -1696 0
-209 -1901 0
-210 -1902 0
-211 -1903 0
-212 -1904 0
-213 -469 0
-214 -470 0
-215 -471 0
-216 -472 0
-213 -693 0
-214 -694 0
-215 -695 0
-216 -696 0
-213 -1085 0
-214 -1086 0
-215 -1087 0
-216 -1088 0
-213 -1601 0
-214 -1602 0
-215 -1603 0
-216 -1604 0
-213 -1613 0
-214 -1614 0
-215 -1615 0
-216 -1616 0
-213 -1701 0
-214 -1702 0
-215 -1703 0
-216 -1704 0
-213 -1905 0
-214 -1906 0
-215 -1907 0
-216 -1908 0
-217 -221 0
-218 -222 0
-219 -223 0
-220 -224 0
-217 -269 0
-218 -270 0
-219 -271 0
-220 -272 0
-217 -1093 0
-218 -1094 0
-219 -1095 0
-220 -1096 0
-217 -1377 0
-218 -1378 0
-219 -1379 0
-220 -1380 0
-217 -1629 0
-218 -1630 0
-219 -1631 0
-220 -1632 0
-217 -1741 0
-218 -1742 0
-219 -1743 0
-220 -1744 0
-217 -1957 0
-218 -1958 0
-219 -1959 0
-220 -1960 0
-221 -225 0
-222 -226 0
-223 -227 0
-224 -228 0
-221 -229 0
-222 -230 0
-223 -231 0
-224 -232 0
-221 -249 0
-222 -250 0
-223 -251 0
-224 -252 0
-221 -269 0
-222 -270 0
-223 -271 0
-224 -272 0
-221 -373 0
-222 -374 0
-223 -375 0
-224 -376 0
-221 -413 0
-222 -414 0
-223 -415 0
-224 -416 0
-221 -605 0
-222 -606 0
-223 -607 0
-224 -608 0
-221 -945 0
-222 -946 0
-223 -947 0
-224 -948 0
-221 -1381 0
-222 -1382 0
-223 -1383 0
-224 -1384 0
-221 -1637 0
-222 -1638 0
-223 -1639 0
-224 -1640 0
-221 -1757 0
-222 -1758 0
-223 -1759 0
-224 -1760 0
-225 -233 0
-226 -234 0
-227 -235 0
-228 -236 0
-225 -249 0
-226 -250 0
-227 -251 0
-228 -252 0
-225 -377 0
-226 -378 0
-227 -379 0
-228 -380 0
-225 -585 0
-226 -586 0
-227 -587 0
-228 -588 0
-225 -609 0
-226 -610 0
-227 -611 0
-228 -612 0
-225 -929 0
-226 -930 0
-227 -931 0
-228 -932 0
-225 -1101 0
-226 -1102 0
-227 -1103 0
-228 -1104 0
-225 -1385 0
-226 -1386 0
-227 -1387 0
-228 -1388 0
-225 -1641 0
-226 -1642 0
-227 -1643 0
-228 -1644 0
-225 -1725 0
-226 -1726 0
-227 -1727 0
-228 -1728 0
-225 -1761 0
-226 -1762 0
-227 -1763 0
-228 -1764 0
-229 -233 0
-230 -234 0
-231 -235 0
-232 -236 0
-229 -257 0
-230 -258 0
-231 -259 0
-232 -260 0
-229 -381 0
-230 -382 0
-231 -383 0
-232 -384 0
-229 -417 0
-230 -418 0
-231 -419 0
-232 -420 0
-229 -493 0
-230 -494 0
-231 -495 0
-232 -496 0
-229 -613 0
-230 -614 0
-231 -615 0
-232 -616 0
-229 -949 0
-230 -950 0
-231 -951 0
-232 -952 0
-229 -1397 0
-230 -1398 0
-231 -1399 0
-232 -1400 0
-229 -1637 0
-230 -1638 0
-231 -1639 0
-232 -1640 0
-229 -1645 0
-230 -1646 0
-231 -1647 0
-232 -1648 0
-229 -1773 0
-230 -1774 0
-231 -1775 0
-232 -1776 0
-233 -257 0
-234 -258 0
-235 -259 0
-236 -260 0
-233 -341 0
-234 -342 0
-235 -343 0
-236 -344 0
-233 -593 0
-234 -594 0
-235 -595 0
-236 -596 0
-233 -617 0
-234 -618 0
-235 -619 0
-236 -620 0
-233 -881 0
-234 -882 0
-235 -883 0
-236 -884 0
-233 -1401 0
-234 -1402 0
-235 -1403 0
-236 -1404 0
-233 -1641 0
-234 -1642 0
-235 -1643 0
-236 -1644 0
-233 -1649 0
-234 -1650 0
-235 -1651 0
-236 -1652 0
-233 -1729 0
-234 -1730 0
-235 -1731 0
-236 -1732 0
-233 -1777 0
-234 -1778 0
-235 -1779 0
-236 -1780 0
-237 -253 0
-238 -254 0
-239 -255 0
-240 -256 0
-237 -257 0
-238 -258 0
-239 -259 0
-240 -260 0
-237 -285 0
-238 -286 0
-239 -287 0
-240 -288 0
-237 -353 0
-238 -354 0
-239 -355 0
-240 -356 0
-237 -629 0
-238 -630 0
-239 -631 0
-240 -632 0
-237 -801 0
-238 -802 0
-239 -803 0
-240 -804 0
-237 -969 0
-238 -970 0
-239 -971 0
-240 -972 0
-237 -981 0
-238 -982 0
-239 -983 0
-240 -984 0
-237 -1453 0
-238 -1454 0
-239 -1455 0
-240 -1456 0
-237 -1581 0
-238 -1582 0
-239 -1583 0
-240 -1584 0
-237 -1657 0
-238 -1658 0
-239 -1659 0
-240 -1660 0
-237 -1661 0
-238 -1662 0
-239 -1663 0
-240 -1664 0
-241 -257 0
-242 -258 0
-243 -259 0
-244 -260 0
-241 -441 0
-242 -442 0
-243 -443 0
-244 -444 0
-241 -665 0
-242 -666 0
-243 -667 0
-244 -668 0
-241 -833 0
-242 -834 0
-243 -835 0
-244 -836 0
-241 -997 0
-242 -998 0
-243 -999 0
-244 -1000 0
-241 -1613 0
-242 -1614 0
-243 -1615 0
-244 -1616 0
-241 -1829 0
-242 -1830 0
-243 -1831 0
-244 -1832 0
-241 -2049 0
-242 -2050 0
-243 -2051 0
-244 -2052 0
-245 -249 0
-246 -250 0
-247 -251 0
-248 -252 0
-245 -253 0
-246 -254 0
-247 -255 0
-248 -256 0
-245 -449 0
-246 -450 0
-247 -451 0
-248 -452 0
-245 -485 0
-246 -486 0
-247 -487 0
-248 -488 0
-245 -677 0
-246 -678 0
-247 -679 0
-248 -680 0
-245 -1489 0
-246 -1490 0
-247 -1491 0
-248 -1492 0
-245 -1597 0
-246 -1598 0
-247 -1599 0
-248 -1600 0
-245 -1665 0
-246 -1666 0
-247 -1667 0
-248 -1668 0
-249 -257 0
-250 -258 0
-251 -259 0
-252 -260 0
-249 -289 0
-250 -290 0
-251 -291 0
-252 -292 0
-249 -453 0
-250 -454 0
-251 -455 0
-252 -456 0
-249 -685 0
-250 -686 0
-251 -687 0
-252 -688 0
-249 -985 0
-250 -986 0
-251 -987 0
-252 -988 0
-249 -1117 0
-250 -1118 0
-251 -1119 0
-252 -1120 0
-249 -1129 0
-250 -1130 0
-251 -1131 0
-252 -1132 0
-249 -1493 0
-250 -1494 0
-251 -1495 0
-252 -1496 0
-249 -1601 0
-250 -1602 0
-251 -1603 0
-252 -1604 0
-249 -1669 0
-250 -1670 0
-251 -1671 0
-252 -1672 0
-249 -1833 0
-250 -1834 0
-251 -1835 0
-252 -1836 0
-249 -1841 0
-250 -1842 0
-251 -1843 0
-252 -1844 0
-253 -257 0
-254 -258 0
-255 -259 0
-256 -260 0
-253 -293 0
-254 -294 0
-255 -295 0
-256 -296 0
-253 -461 0
-254 -462 0
-255 -463 0
-256 -464 0
-253 -497 0
-254 -498 0
-255 -499 0
-256 -500 0
-253 -713 0
-254 -714 0
-255 -715 0
-256 -716 0
-253 -841 0
-254 -842 0
-255 -843 0
-256 -844 0
-253 -961 0
-254 -962 0
-255 -963 0
-256 -964 0
-253 -1501 0
-254 -1502 0
-255 -1503 0
-256 -1504 0
-253 -1609 0
-254 -1610 0
-255 -1611 0
-256 -1612 0
-253 -1621 0
-254 -1622 0
-255 -1623 0
-256 -1624 0
-253 -1665 0
-254 -1666 0
-255 -1667 0
-256 -1668 0
-253 -1673 0
-254 -1674 0
-255 -1675 0
-256 -1676 0
-253 -2069 0
-254 -2070 0
-255 -2071 0
-256 -2072 0
-257 -297 0
-258 -298 0
-259 -299 0
-260 -300 0
-257 -389 0
-258 -390 0
-259 -391 0
-260 -392 0
-257 -465 0
-258 -466 0
-259 -467 0
-260 -468 0
-257 -521 0
-258 -522 0
-259 -523 0
-260 -524 0
-257 -721 0
-258 -722 0
-259 -723 0
-260 -724 0
-257 -993 0
-258 -994 0
-259 -995 0
-260 -996 0
-257 -1001 0
-258 -1002 0
-259 -1003 0
-260 -1004 0
-257 -1125 0
-258 -1126 0
-259 -1127 0
-260 -1128 0
-257 -1133 0
-258 -1134 0
-259 -1135 0
-260 -1136 0
-257 -1509 0
-258 -1510 0
-259 -1511 0
-260 -1512 0
-257 -1513 0
-258 -1514 0
-259 -1515 0
-260 -1516 0
-257 -1613 0
-258 -1614 0
-259 -1615 0
-260 -1616 0
-257 -1669 0
-258 -1670 0
-259 -1671 0
-260 -1672 0
-257 -1677 0
-258 -1678 0
-259 -1679 0
-260 -1680 0
-257 -1837 0
-258 -1838 0
-259 -1839 0
-260 -1840 0
-257 -1845 0
-258 -1846 0
-259 -1847 0
-260 -1848 0
-257 -2073 0
-258 -2074 0
-259 -2075 0
-260 -2076 0
-261 -265 0
-262 -266 0
-263 -267 0
-264 -268 0
-261 -853 0
-262 -854 0
-263 -855 0
-264 -856 0
-261 -1781 0
-262 -1782 0
-263 -1783 0
-264 -1784 0
-261 -2097 0
-262 -2098 0
-263 -2099 0
-264 -2100 0
-265 -857 0
-266 -858 0
-267 -859 0
-268 -860 0
-265 -1025 0
-266 -1026 0
-267 -1027 0
-268 -1028 0
-265 -1157 0
-266 -1158 0
-267 -1159 0
-268 -1160 0
-265 -1789 0
-266 -1790 0
-267 -1791 0
-268 -1792 0
-269 -289 0
-270 -290 0
-271 -291 0
-272 -292 0
-269 -789 0
-270 -790 0
-271 -791 0
-272 -792 0
-269 -1185 0
-270 -1186 0
-271 -1187 0
-272 -1188 0
-269 -1857 0
-270 -1858 0
-271 -1859 0
-272 -1860 0
-273 -277 0
-274 -278 0
-275 -279 0
-276 -280 0
-273 -1053 0
-274 -1054 0
-275 -1055 0
-276 -1056 0
-273 -1545 0
-274 -1546 0
-275 -1547 0
-276 -1548 0
-273 -1701 0
-274 -1702 0
-275 -1703 0
-276 -1704 0
-273 -1825 0
-274 -1826 0
-275 -1827 0
-276 -1828 0
-273 -1829 0
-274 -1830 0
-275 -1831 0
-276 -1832 0
-277 -281 0
-278 -282 0
-279 -283 0
-280 -284 0
-277 -445 0
-278 -446 0
-279 -447 0
-280 -448 0
-277 -1561 0
-278 -1562 0
-279 -1563 0
-280 -1564 0
-277 -1701 0
-278 -1702 0
-279 -1703 0
-280 -1704 0
-277 -1833 0
-278 -1834 0
-279 -1835 0
-280 -1836 0
-277 -1837 0
-278 -1838 0
-279 -1839 0
-280 -1840 0
-281 -473 0
-282 -474 0
-283 -475 0
-284 -476 0
-281 -813 0
-282 -814 0
-283 -815 0
-284 -816 0
-281 -1841 0
-282 -1842 0
-283 -1843 0
-284 -1844 0
-281 -1845 0
-282 -1846 0
-283 -1847 0
-284 -1848 0
-285 -293 0
-286 -294 0
-287 -295 0
-288 -296 0
-285 -297 0
-286 -298 0
-287 -299 0
-288 -300 0
-285 -821 0
-286 -822 0
-287 -823 0
-288 -824 0
-285 -1061 0
-286 -1062 0
-287 -1063 0
-288 -1064 0
-285 -1205 0
-286 -1206 0
-287 -1207 0
-288 -1208 0
-285 -1717 0
-286 -1718 0
-287 -1719 0
-288 -1720 0
-289 -297 0
-290 -298 0
-291 -299 0
-292 -300 0
-289 -853 0
-290 -854 0
-291 -855 0
-292 -856 0
-289 -1277 0
-290 -1278 0
-291 -1279 0
-292 -1280 0
-289 -1289 0
-290 -1290 0
-291 -1291 0
-292 -1292 0
-289 -1849 0
-290 -1850 0
-291 -1851 0
-292 -1852 0
-293 -297 0
-294 -298 0
-295 -299 0
-296 -300 0
-293 -509 0
-294 -510 0
-295 -511 0
-296 -512 0
-293 -557 0
-294 -558 0
-295 -559 0
-296 -560 0
-293 -1053 0
-294 -1054 0
-295 -1055 0
-296 -1056 0
-293 -1281 0
-294 -1282 0
-295 -1283 0
-296 -1284 0
-293 -1297 0
-294 -1298 0
-295 -1299 0
-296 -1300 0
-293 -1781 0
-294 -1782 0
-295 -1783 0
-296 -1784 0
-293 -1797 0
-294 -1798 0
-295 -1799 0
-296 -1800 0
-293 -1853 0
-294 -1854 0
-295 -1855 0
-296 -1856 0
-293 -2145 0
-294 -2146 0
-295 -2147 0
-296 -2148 0
-297 -377 0
-298 -378 0
-299 -379 0
-300 -380 0
-297 -861 0
-298 -862 0
-299 -863 0
-300 -864 0
-297 -1285 0
-298 -1286 0
-299 -1287 0
-300 -1288 0
-297 -1301 0
-298 -1302 0
-299 -1303 0
-300 -1304 0
-297 -1849 0
-298 -1850 0
-299 -1851 0
-300 -1852 0
-301 -305 0
-302 -306 0
-303 -307 0
-304 -308 0
-301 -313 0
-302 -314 0
-303 -315 0
-304 -316 0
-301 -437 0
-302 -438 0
-303 -439 0
-304 -440 0
-301 -573 0
-302 -574 0
-303 -575 0
-304 -576 0
-301 -1877 0
-302 -1878 0
-303 -1879 0
-304 -1880 0
-301 -1885 0
-302 -1886 0
-303 -1887 0
-304 -1888 0
-305 -309 0
-306 -310 0
-307 -311 0
-308 -312 0
-305 -905 0
-306 -906 0
-307 -907 0
-308 -908 0
-305 -1093 0
-306 -1094 0
-307 -1095 0
-308 -1096 0
-305 -1865 0
-306 -1866 0
-307 -1867 0
-308 -1868 0
-305 -1889 0
-306 -1890 0
-307 -1891 0
-308 -1892 0
-305 -1901 0
-306 -1902 0
-307 -1903 0
-308 -1904 0
-309 -913 0
-310 -914 0
-311 -915 0
-312 -916 0
-309 -1105 0
-310 -1106 0
-311 -1107 0
-312 -1108 0
-309 -1865 0
-310 -1866 0
-311 -1867 0
-312 -1868 0
-309 -1893 0
-310 -1894 0
-311 -1895 0
-312 -1896 0
-309 -1913 0
-310 -1914 0
-311 -1915 0
-312 -1916 0
-313 -317 0
-314 -318 0
-315 -319 0
-316 -320 0
-313 -481 0
-314 -482 0
-315 -483 0
-316 -484 0
-313 -1869 0
-314 -1870 0
-315 -1871 0
-316 -1872 0
-313 -1917 0
-314 -1918 0
-315 -1919 0
-316 -1920 0
-313 -2161 0
-314 -2162 0
-315 -2163 0
-316 -2164 0
-317 -337 0
-318 -338 0
-319 -339 0
-320 -340 0
-317 -341 0
-318 -342 0
-319 -343 0
-320 -344 0
-317 -489 0
-318 -490 0
-319 -491 0
-320 -492 0
-317 -929 0
-318 -930 0
-319 -931 0
-320 -932 0
-317 -1085 0
-318 -1086 0
-319 -1087 0
-320 -1088 0
-317 -1869 0
-318 -1870 0
-319 -1871 0
-320 -1872 0
-317 -1925 0
-318 -1926 0
-319 -1927 0
-320 -1928 0
-317 -2177 0
-318 -2178 0
-319 -2179 0
-320 -2180 0
-321 -325 0
-322 -326 0
-323 -327 0
-324 -328 0
-321 -329 0
-322 -330 0
-323 -331 0
-324 -332 0
-321 -345 0
-322 -346 0
-323 -347 0
-324 -348 0
-321 -1917 0
-322 -1918 0
-323 -1919 0
-324 -1920 0
-321 -1925 0
-322 -1926 0
-323 -1927 0
-324 -1928 0
-321 -2245 0
-322 -2246 0
-323 -2247 0
-324 -2248 0
-325 -329 0
-326 -330 0
-327 -331 0
-328 -332 0
-325 -333 0
-326 -334 0
-327 -335 0
-328 -336 0
-325 -361 0
-326 -362 0
-327 -363 0
-328 -364 0
-325 -613 0
-326 -614 0
-327 -615 0
-328 -616 0
-325 -1145 0
-326 -1146 0
-327 -1147 0
-328 -1148 0
-325 -1689 0
-326 -1690 0
-327 -1691 0
-328 -1692 0
-325 -1949 0
-326 -1950 0
-327 -1951 0
-328 -1952 0
-325 -1973 0
-326 -1974 0
-327 -1975 0
-328 -1976 0
-329 -421 0
-330 -422 0
-331 -423 0
-332 -424 0
-329 -713 0
-330 -714 0
-331 -715 0
-332 -716 0
-329 -1693 0
-330 -1694 0
-331 -1695 0
-332 -1696 0
-329 -1953 0
-330 -1954 0
-331 -1955 0
-332 -1956 0
-329 -1977 0
-330 -1978 0
-331 -1979 0
-332 -1980 0
-333 -361 0
-334 -362 0
-335 -363 0
-336 -364 0
-333 -617 0
-334 -618 0
-335 -619 0
-336 -620 0
-333 -1149 0
-334 -1150 0
-335 -1151 0
-336 -1152 0
-333 -1965 0
-334 -1966 0
-335 -1967 0
-336 -1968 0
-333 -1989 0
-334 -1990 0
-335 -1991 0
-336 -1992 0
-337 -341 0
-338 -342 0
-339 -343 0
-340 -344 0
-337 -385 0
-338 -386 0
-339 -387 0
-340 -388 0
-337 -793 0
-338 -794 0
-339 -795 0
-340 -796 0
-337 -1153 0
-338 -1154 0
-339 -1155 0
-340 -1156 0
-337 -1365 0
-338 -1366 0
-339 -1367 0
-340 -1368 0
-337 -2109 0
-338 -2110 0
-339 -2111 0
-340 -2112 0
-337 -2277 0
-338 -2278 0
-339 -2279 0
-340 -2280 0
-341 -389 0
-342 -390 0
-343 -391 0
-344 -392 0
-341 -393 0
-342 -394 0
-343 -395 0
-344 -396 0
-341 -557 0
-342 -558 0
-343 -559 0
-344 -560 0
-341 -617 0
-342 -618 0
-343 -619 0
-344 -620 0
-341 -941 0
-342 -942 0
-343 -943 0
-344 -944 0
-341 -1161 0
-342 -1162 0
-343 -1163 0
-344 -1164 0
-341 -1733 0
-342 -1734 0
-343 -1735 0
-344 -1736 0
-341 -2009 0
-342 -2010 0
-343 -2011 0
-344 -2012 0
-341 -2113 0
-342 -2114 0
-343 -2115 0
-344 -2116 0
-341 -2285 0
-342 -2286 0
-343 -2287 0
-344 -2288 0
-345 -361 0
-346 -362 0
-347 -363 0
-348 -364 0
-345 -405 0
-346 -406 0
-347 -407 0
-348 -408 0
-345 -569 0
-346 -570 0
-347 -571 0
-348 -572 0
-345 -649 0
-346 -650 0
-347 -651 0
-348 -652 0
-345 -953 0
-346 -954 0
-347 -955 0
-348 -956 0
-345 -1753 0
-346 -1754 0
-347 -1755 0
-348 -1756 0
-345 -2013 0
-346 -2014 0
-347 -2015 0
-348 -2016 0
-345 -2021 0
-346 -2022 0
-347 -2023 0
-348 -2024 0
-345 -2301 0
-346 -2302 0
-347 -2303 0
-348 -2304 0
-349 -353 0
-350 -354 0
-351 -355 0
-352 -356 0
-349 -361 0
-350 -362 0
-351 -363 0
-352 -364 0
-349 -385 0
-350 -386 0
-351 -387 0
-352 -388 0
-349 -665 0
-350 -666 0
-351 -667 0
-352 -668 0
-349 -1049 0
-350 -1050 0
-351 -1051 0
-352 -1052 0
-349 -1781 0
-350 -1782 0
-351 -1783 0
-352 -1784 0
-349 -1897 0
-350 -1898 0
-351 -1899 0
-352 -1900 0
-349 -2033 0
-350 -2034 0
-351 -2035 0
-352 -2036 0
-349 -2037 0
-350 -2038 0
-351 -2039 0
-352 -2040 0
-349 -2309 0
-350 -2310 0
-351 -2311 0
-352 -2312 0
-353 -357 0
-354 -358 0
-355 -359 0
-356 -360 0
-353 -369 0
-354 -370 0
-355 -371 0
-356 -372 0
-353 -389 0
-354 -390 0
-355 -391 0
-356 -392 0
-353 -469 0
-354 -470 0
-355 -471 0
-356 -472 0
-353 -629 0
-354 -630 0
-355 -631 0
-356 -632 0
-353 -1057 0
-354 -1058 0
-355 -1059 0
-356 -1060 0
-353 -1241 0
-354 -1242 0
-355 -1243 0
-356 -1244 0
-353 -1273 0
-354 -1274 0
-355 -1275 0
-356 -1276 0
-353 -1789 0
-354 -1790 0
-355 -1791 0
-356 -1792 0
-353 -1901 0
-354 -1902 0
-355 -1903 0
-356 -1904 0
-353 -2045 0
-354 -2046 0
-355 -2047 0
-356 -2048 0
-357 -397 0
-358 -398 0
-359 -399 0
-360 -400 0
-357 -1069 0
-358 -1070 0
-359 -1071 0
-360 -1072 0
-357 -1281 0
-358 -1282 0
-359 -1283 0
-360 -1284 0
-357 -1913 0
-358 -1914 0
-359 -1915 0
-360 -1916 0
-357 -2045 0
-358 -2046 0
-359 -2047 0
-360 -2048 0
-361 -365 0
-362 -366 0
-363 -367 0
-364 -368 0
-361 -369 0
-362 -370 0
-363 -371 0
-364 -372 0
-361 -409 0
-362 -410 0
-363 -411 0
-364 -412 0
-361 -449 0
-362 -450 0
-363 -451 0
-364 -452 0
-361 -545 0
-362 -546 0
-363 -547 0
-364 -548 0
-361 -721 0
-362 -722 0
-363 -723 0
-364 -724 0
-361 -1197 0
-362 -1198 0
-363 -1199 0
-364 -1200 0
-361 -1797 0
-362 -1798 0
-363 -1799 0
-364 -1800 0
-361 -1897 0
-362 -1898 0
-363 -1899 0
-364 -1900 0
-361 -2053 0
-362 -2054 0
-363 -2055 0
-364 -2056 0
-361 -2057 0
-362 -2058 0
-363 -2059 0
-364 -2060 0
-365 -453 0
-366 -454 0
-367 -455 0
-368 -456 0
-365 -549 0
-366 -550 0
-367 -551 0
-368 -552 0
-365 -729 0
-366 -730 0
-367 -731 0
-368 -732 0
-365 -817 0
-366 -818 0
-367 -819 0
-368 -820 0
-365 -1405 0
-366 -1406 0
-367 -1407 0
-368 -1408 0
-365 -2065 0
-366 -2066 0
-367 -2067 0
-368 -2068 0
-369 -401 0
-370 -402 0
-371 -403 0
-372 -404 0
-369 -409 0
-370 -410 0
-371 -411 0
-372 -412 0
-369 -477 0
-370 -478 0
-371 -479 0
-372 -480 0
-369 -741 0
-370 -742 0
-371 -743 0
-372 -744 0
-369 -1265 0
-370 -1266 0
-371 -1267 0
-372 -1268 0
-369 -1805 0
-370 -1806 0
-371 -1807 0
-372 -1808 0
-369 -1901 0
-370 -1902 0
-371 -1903 0
-372 -1904 0
-369 -2069 0
-370 -2070 0
-371 -2071 0
-372 -2072 0
-373 -377 0
-374 -378 0
-375 -379 0
-376 -380 0
-373 -381 0
-374 -382 0
-375 -383 0
-376 -384 0
-373 -389 0
-374 -390 0
-375 -391 0
-376 -392 0
-373 -657 0
-374 -658 0
-375 -659 0
-376 -660 0
-373 -829 0
-374 -830 0
-375 -831 0
-376 -832 0
-373 -1013 0
-374 -1014 0
-375 -1015 0
-376 -1016 0
-373 -1445 0
-374 -1446 0
-375 -1447 0
-376 -1448 0
-373 -1825 0
-374 -1826 0
-375 -1827 0
-376 -1828 0
-373 -1937 0
-374 -1938 0
-375 -1939 0
-376 -1940 0
-373 -1961 0
-374 -1962 0
-375 -1963 0
-376 -1964 0
-373 -2077 0
-374 -2078 0
-375 -2079 0
-376 -2080 0
-373 -2125 0
-374 -2126 0
-375 -2127 0
-376 -2128 0
-373 -2357 0
-374 -2358 0
-375 -2359 0
-376 -2360 0
-377 -393 0
-378 -394 0
-379 -395 0
-380 -396 0
-377 -553 0
-378 -554 0
-379 -555 0
-380 -556 0
-377 -585 0
-378 -586 0
-379 -587 0
-380 -588 0
-377 -1017 0
-378 -1018 0
-379 -1019 0
-380 -1020 0
-377 -1301 0
-378 -1302 0
-379 -1303 0
-380 -1304 0
-377 -1453 0
-378 -1454 0
-379 -1455 0
-380 -1456 0
-377 -1941 0
-378 -1942 0
-379 -1943 0
-380 -1944 0
-377 -1969 0
-378 -1970 0
-379 -1971 0
-380 -1972 0
-377 -2081 0
-378 -2082 0
-379 -2083 0
-380 -2084 0
-377 -2133 0
-378 -2134 0
-379 -2135 0
-380 -2136 0
-377 -2361 0
-378 -2362 0
-379 -2363 0
-380 -2364 0
-381 -397 0
-382 -398 0
-383 -399 0
-384 -400 0
-381 -837 0
-382 -838 0
-383 -839 0
-384 -840 0
-381 -1317 0
-382 -1318 0
-383 -1319 0
-384 -1320 0
-381 -1829 0
-382 -1830 0
-383 -1831 0
-384 -1832 0
-381 -1945 0
-382 -1946 0
-383 -1947 0
-384 -1948 0
-381 -1985 0
-382 -1986 0
-383 -1987 0
-384 -1988 0
-381 -2077 0
-382 -2078 0
-383 -2079 0
-384 -2080 0
-381 -2137 0
-382 -2138 0
-383 -2139 0
-384 -2140 0
-385 -389 0
-386 -390 0
-387 -391 0
-388 -392 0
-385 -481 0
-386 -482 0
-387 -483 0
-388 -484 0
-385 -705 0
-386 -706 0
-387 -707 0
-388 -708 0
-385 -1469 0
-386 -1470 0
-387 -1471 0
-388 -1472 0
-385 -2085 0
-386 -2086 0
-387 -2087 0
-388 -2088 0
-385 -2121 0
-386 -2122 0
-387 -2123 0
-388 -2124 0
-385 -2377 0
-386 -2378 0
-387 -2379 0
-388 -2380 0
-389 -393 0
-390 -394 0
-391 -395 0
-392 -396 0
-389 -397 0
-390 -398 0
-391 -399 0
-392 -400 0
-389 -401 0
-390 -402 0
-391 -403 0
-392 -404 0
-389 -485 0
-390 -486 0
-391 -487 0
-392 -488 0
-389 -721 0
-390 -722 0
-391 -723 0
-392 -724 0
-389 -1025 0
-390 -1026 0
-391 -1027 0
-392 -1028 0
-389 -1221 0
-390 -1222 0
-391 -1223 0
-392 -1224 0
-389 -1321 0
-390 -1322 0
-391 -1323 0
-392 -1324 0
-389 -1477 0
-390 -1478 0
-391 -1479 0
-392 -1480 0
-389 -2001 0
-390 -2002 0
-391 -2003 0
-392 -2004 0
-389 -2089 0
-390 -2090 0
-391 -2091 0
-392 -2092 0
-389 -2125 0
-390 -2126 0
-391 -2127 0
-392 -2128 0
-389 -2389 0
-390 -2390 0
-391 -2391 0
-392 -2392 0
-393 -597 0
-394 -598 0
-395 -599 0
-396 -600 0
-393 -733 0
-394 -734 0
-395 -735 0
-396 -736 0
-393 -997 0
-394 -998 0
-395 -999 0
-396 -1000 0
-393 -1033 0
-394 -1034 0
-395 -1035 0
-396 -1036 0
-393 -1237 0
-394 -1238 0
-395 -1239 0
-396 -1240 0
-393 -1313 0
-394 -1314 0
-395 -1315 0
-396 -1316 0
-393 -1481 0
-394 -1482 0
-395 -1483 0
-396 -1484 0
-393 -2093 0
-394 -2094 0
-395 -2095 0
-396 -2096 0
-393 -2133 0
-394 -2134 0
-395 -2135 0
-396 -2136 0
-393 -2393 0
-394 -2394 0
-395 -2395 0
-396 -2396 0
-397 -497 0
-398 -498 0
-399 -499 0
-400 -500 0
-397 -745 0
-398 -746 0
-399 -747 0
-400 -748 0
-397 -1245 0
-398 -1246 0
-399 -1247 0
-400 -1248 0
-397 -1325 0
-398 -1326 0
-399 -1327 0
-400 -1328 0
-397 -2005 0
-398 -2006 0
-399 -2007 0
-400 -2008 0
-397 -2089 0
-398 -2090 0
-399 -2091 0
-400 -2092 0
-397 -2137 0
-398 -2138 0
-399 -2139 0
-400 -2140 0
-401 -753 0
-402 -754 0
-403 -755 0
-404 -756 0
-401 -849 0
-402 -850 0
-403 -851 0
-404 -852 0
-401 -1037 0
-402 -1038 0
-403 -1039 0
-404 -1040 0
-401 -1841 0
-402 -1842 0
-403 -1843 0
-404 -1844 0
-401 -2001 0
-402 -2002 0
-403 -2003 0
-404 -2004 0
-405 -409 0
-406 -410 0
-407 -411 0
-408 -412 0
-405 -685 0
-406 -686 0
-407 -687 0
-408 -688 0
-405 -1053 0
-406 -1054 0
-407 -1055 0
-408 -1056 0
-405 -1329 0
-406 -1330 0
-407 -1331 0
-408 -1332 0
-405 -1537 0
-406 -1538 0
-407 -1539 0
-408 -1540 0
-405 -2117 0
-406 -2118 0
-407 -2119 0
-408 -2120 0
-405 -2133 0
-406 -2134 0
-407 -2135 0
-408 -2136 0
-409 -537 0
-410 -538 0
-411 -539 0
-412 -540 0
-409 -765 0
-410 -766 0
-411 -767 0
-412 -768 0
-409 -865 0
-410 -866 0
-411 -867 0
-412 -868 0
-409 -1553 0
-410 -1554 0
-411 -1555 0
-412 -1556 0
-409 -2097 0
-410 -2098 0
-411 -2099 0
-412 -2100 0
-409 -2141 0
-410 -2142 0
-411 -2143 0
-412 -2144 0
-409 -2145 0
-410 -2146 0
-411 -2147 0
-412 -2148 0
-413 -417 0
-414 -418 0
-415 -419 0
-416 -420 0
-413 -425 0
-414 -426 0
-415 -427 0
-416 -428 0
-413 -445 0
-414 -446 0
-415 -447 0
-416 -448 0
-413 -453 0
-414 -454 0
-415 -455 0
-416 -456 0
-413 -605 0
-414 -606 0
-415 -607 0
-416 -608 0
-413 -657 0
-414 -658 0
-415 -659 0
-416 -660 0
-413 -873 0
-414 -874 0
-415 -875 0
-416 -876 0
-413 -1877 0
-414 -1878 0
-415 -1879 0
-416 -1880 0
-413 -2149 0
-414 -2150 0
-415 -2151 0
-416 -2152 0
-413 -2153 0
-414 -2154 0
-415 -2155 0
-416 -2156 0
-413 -2245 0
-414 -2246 0
-415 -2247 0
-416 -2248 0
-417 -457 0
-418 -458 0
-419 -459 0
-420 -460 0
-417 -465 0
-418 -466 0
-419 -467 0
-420 -468 0
-417 -613 0
-418 -614 0
-419 -615 0
-420 -616 0
-417 -885 0
-418 -886 0
-419 -887 0
-420 -888 0
-417 -1881 0
-418 -1882 0
-419 -1883 0
-420 -1884 0
-417 -2153 0
-418 -2154 0
-419 -2155 0
-420 -2156 0
-421 -429 0
-422 -430 0
-423 -431 0
-424 -432 0
-421 -529 0
-422 -530 0
-423 -531 0
-424 -532 0
-421 -1169 0
-422 -1170 0
-423 -1171 0
-424 -1172 0
-421 -2157 0
-422 -2158 0
-423 -2159 0
-424 -2160 0
-421 -2173 0
-422 -2174 0
-423 -2175 0
-424 -2176 0
-421 -2469 0
-422 -2470 0
-423 -2471 0
-424 -2472 0
-425 -429 0
-426 -430 0
-427 -431 0
-428 -432 0
-425 -433 0
-426 -434 0
-427 -435 0
-428 -436 0
-425 -473 0
-426 -474 0
-427 -475 0
-428 -476 0
-425 -477 0
-426 -478 0
-427 -479 0
-428 -480 0
-425 -525 0
-426 -526 0
-427 -527 0
-428 -528 0
-425 -721 0
-426 -722 0
-427 -723 0
-428 -724 0
-425 -1093 0
-426 -1094 0
-427 -1095 0
-428 -1096 0
-425 -1345 0
-426 -1346 0
-427 -1347 0
-428 -1348 0
-425 -1369 0
-426 -1370 0
-427 -1371 0
-428 -1372 0
-425 -1885 0
-426 -1886 0
-427 -1887 0
-428 -1888 0
-425 -2161 0
-426 -2162 0
-427 -2163 0
-428 -2164 0
-425 -2177 0
-426 -2178 0
-427 -2179 0
-428 -2180 0
-425 -2245 0
-426 -2246 0
-427 -2247 0
-428 -2248 0
-429 -433 0
-430 -434 0
-431 -435 0
-432 -436 0
-429 -529 0
-430 -530 0
-431 -531 0
-432 -532 0
-429 -725 0
-430 -726 0
-431 -727 0
-432 -728 0
-429 -897 0
-430 -898 0
-431 -899 0
-432 -900 0
-429 -1173 0
-430 -1174 0
-431 -1175 0
-432 -1176 0
-429 -2165 0
-430 -2166 0
-431 -2167 0
-432 -2168 0
-429 -2181 0
-430 -2182 0
-431 -2183 0
-432 -2184 0
-433 -777 0
-434 -778 0
-435 -779 0
-436 -780 0
-433 -921 0
-434 -922 0
-435 -923 0
-436 -924 0
-433 -1901 0
-434 -1902 0
-435 -1903 0
-436 -1904 0
-433 -2185 0
-434 -2186 0
-435 -2187 0
-436 -2188 0
-433 -2189 0
-434 -2190 0
-435 -2191 0
-436 -2192 0
-437 -441 0
-438 -442 0
-439 -443 0
-440 -444 0
-437 -453 0
-438 -454 0
-439 -455 0
-440 -456 0
-437 -469 0
-438 -470 0
-439 -471 0
-440 -472 0
-437 -481 0
-438 -482 0
-439 -483 0
-440 -484 0
-437 -661 0
-438 -662 0
-439 -663 0
-440 -664 0
-437 -961 0
-438 -962 0
-439 -963 0
-440 -964 0
-437 -1389 0
-438 -1390 0
-439 -1391 0
-440 -1392 0
-437 -1421 0
-438 -1422 0
-439 -1423 0
-440 -1424 0
-437 -1941 0
-438 -1942 0
-439 -1943 0
-440 -1944 0
-437 -2197 0
-438 -2198 0
-439 -2199 0
-440 -2200 0
-437 -2293 0
-438 -2294 0
-439 -2295 0
-440 -2296 0
-437 -2509 0
-438 -2510 0
-439 -2511 0
-440 -2512 0
-441 -465 0
-442 -466 0
-443 -467 0
-444 -468 0
-441 -489 0
-442 -490 0
-443 -491 0
-444 -492 0
-441 -665 0
-442 -666 0
-443 -667 0
-444 -668 0
-441 -973 0
-442 -974 0
-443 -975 0
-444 -976 0
-441 -1209 0
-442 -1210 0
-443 -1211 0
-444 -1212 0
-441 -1437 0
-442 -1438 0
-443 -1439 0
-444 -1440 0
-441 -2197 0
-442 -2198 0
-443 -2199 0
-444 -2200 0
-441 -2297 0
-442 -2298 0
-443 -2299 0
-444 -2300 0
-441 -2517 0
-442 -2518 0
-443 -2519 0
-444 -2520 0
-445 -453 0
-446 -454 0
-447 -455 0
-448 -456 0
-445 -457 0
-446 -458 0
-447 -459 0
-448 -460 0
-445 -473 0
-446 -474 0
-447 -475 0
-448 -476 0
-445 -673 0
-446 -674 0
-447 -675 0
-448 -676 0
-445 -957 0
-446 -958 0
-447 -959 0
-448 -960 0
-445 -1145 0
-446 -1146 0
-447 -1147 0
-448 -1148 0
-445 -1457 0
-446 -1458 0
-447 -1459 0
-448 -1460 0
-445 -1961 0
-446 -1962 0
-447 -1963 0
-448 -1964 0
-445 -2201 0
-446 -2202 0
-447 -2203 0
-448 -2204 0
-449 -453 0
-450 -454 0
-451 -455 0
-452 -456 0
-449 -461 0
-450 -462 0
-451 -463 0
-452 -464 0
-449 -501 0
-450 -502 0
-451 -503 0
-452 -504 0
-449 -537 0
-450 -538 0
-451 -539 0
-452 -540 0
-449 -677 0
-450 -678 0
-451 -679 0
-452 -680 0
-449 -877 0
-450 -878 0
-451 -879 0
-452 -880 0
-449 -2205 0
-450 -2206 0
-451 -2207 0
-452 -2208 0
-453 -465 0
-454 -466 0
-455 -467 0
-456 -468 0
-453 -477 0
-454 -478 0
-455 -479 0
-456 -480 0
-453 -501 0
-454 -502 0
-455 -503 0
-456 -504 0
-453 -541 0
-454 -542 0
-455 -543 0
-456 -544 0
-453 -685 0
-454 -686 0
-455 -687 0
-456 -688 0
-453 -881 0
-454 -882 0
-455 -883 0
-456 -884 0
-453 -965 0
-454 -966 0
-455 -967 0
-456 -968 0
-453 -1149 0
-454 -1150 0
-455 -1151 0
-456 -1152 0
-453 -1405 0
-454 -1406 0
-455 -1407 0
-456 -1408 0
-453 -1581 0
-454 -1582 0
-455 -1583 0
-456 -1584 0
-453 -1969 0
-454 -1970 0
-455 -1971 0
-456 -1972 0
-453 -2209 0
-454 -2210 0
-455 -2211 0
-456 -2212 0
-453 -2301 0
-454 -2302 0
-455 -2303 0
-456 -2304 0
-457 -465 0
-458 -466 0
-459 -467 0
-460 -468 0
-457 -709 0
-458 -710 0
-459 -711 0
-460 -712 0
-457 -969 0
-458 -970 0
-459 -971 0
-460 -972 0
-457 -1461 0
-458 -1462 0
-459 -1463 0
-460 -1464 0
-457 -1985 0
-458 -1986 0
-459 -1987 0
-460 -1988 0
-457 -2201 0
-458 -2202 0
-459 -2203 0
-460 -2204 0
-461 -465 0
-462 -466 0
-463 -467 0
-464 -468 0
-461 -505 0
-462 -506 0
-463 -507 0
-464 -508 0
-461 -713 0
-462 -714 0
-463 -715 0
-464 -716 0
-461 -889 0
-462 -890 0
-463 -891 0
-464 -892 0
-461 -2205 0
-462 -2206 0
-463 -2207 0
-464 -2208 0
-465 -505 0
-466 -506 0
-467 -507 0
-468 -508 0
-465 -721 0
-466 -722 0
-467 -723 0
-468 -724 0
-465 -977 0
-466 -978 0
-467 -979 0
-468 -980 0
-465 -1997 0
-466 -1998 0
-467 -1999 0
-468 -2000 0
-465 -2209 0
-466 -2210 0
-467 -2211 0
-468 -2212 0
-465 -2305 0
-466 -2306 0
-467 -2307 0
-468 -2308 0
-469 -477 0
-470 -478 0
-471 -479 0
-472 -480 0
-469 -1233 0
-470 -1234 0
-471 -1235 0
-472 -1236 0
-469 -2293 0
-470 -2294 0
-471 -2295 0
-472 -2296 0
-469 -2521 0
-470 -2522 0
-471 -2523 0
-472 -2524 0
-473 -477 0
-474 -478 0
-475 -479 0
-476 -480 0
-473 -549 0
-474 -550 0
-475 -551 0
-476 -552 0
-473 -573 0
-474 -574 0
-475 -575 0
-476 -576 0
-473 -813 0
-474 -814 0
-475 -815 0
-476 -816 0
-473 -1473 0
-474 -1474 0
-475 -1475 0
-476 -1476 0
-473 -2001 0
-474 -2002 0
-475 -2003 0
-476 -2004 0
-473 -2213 0
-474 -2214 0
-475 -2215 0
-476 -2216 0
-473 -2217 0
-474 -2218 0
-475 -2219 0
-476 -2220 0
-477 -757 0
-478 -758 0
-479 -759 0
-480 -760 0
-477 -821 0
-478 -822 0
-479 -823 0
-480 -824 0
-477 -901 0
-478 -902 0
-479 -903 0
-480 -904 0
-477 -1113 0
-478 -1114 0
-479 -1115 0
-480 -1116 0
-477 -2221 0
-478 -2222 0
-479 -2223 0
-480 -2224 0
-477 -2301 0
-478 -2302 0
-479 -2303 0
-480 -2304 0
-481 -485 0
-482 -486 0
-483 -487 0
-484 -488 0
-481 -489 0
-482 -490 0
-483 -491 0
-484 -492 0
-481 -501 0
-482 -502 0
-483 -503 0
-484 -504 0
-481 -509 0
-482 -510 0
-483 -511 0
-484 -512 0
-481 -553 0
-482 -554 0
-483 -555 0
-484 -556 0
-481 -1289 0
-482 -1290 0
-483 -1291 0
-484 -1292 0
-481 -1609 0
-482 -1610 0
-483 -1611 0
-484 -1612 0
-481 -2157 0
-482 -2158 0
-483 -2159 0
-484 -2160 0
-481 -2225 0
-482 -2226 0
-483 -2227 0
-484 -2228 0
-481 -2317 0
-482 -2318 0
-483 -2319 0
-484 -2320 0
-481 -2333 0
-482 -2334 0
-483 -2335 0
-484 -2336 0
-481 -2581 0
-482 -2582 0
-483 -2583 0
-484 -2584 0
-485 -497 0
-486 -498 0
-487 -499 0
-488 -500 0
-485 -553 0
-486 -554 0
-487 -555 0
-488 -556 0
-485 -877 0
-486 -878 0
-487 -879 0
-488 -880 0
-485 -1157 0
-486 -1158 0
-487 -1159 0
-488 -1160 0
-485 -1293 0
-486 -1294 0
-487 -1295 0
-488 -1296 0
-485 -1477 0
-486 -1478 0
-487 -1479 0
-488 -1480 0
-485 -1489 0
-486 -1490 0
-487 -1491 0
-488 -1492 0
-485 -2165 0
-486 -2166 0
-487 -2167 0
-488 -2168 0
-485 -2229 0
-486 -2230 0
-487 -2231 0
-488 -2232 0
-485 -2597 0
-486 -2598 0
-487 -2599 0
-488 -2600 0
-489 -497 0
-490 -498 0
-491 -499 0
-492 -500 0
-489 -505 0
-490 -506 0
-491 -507 0
-492 -508 0
-489 -513 0
-490 -514 0
-491 -515 0
-492 -516 0
-489 -557 0
-490 -558 0
-491 -559 0
-492 -560 0
-489 -1301 0
-490 -1302 0
-491 -1303 0
-492 -1304 0
-489 -1393 0
-490 -1394 0
-491 -1395 0
-492 -1396 0
-489 -2173 0
-490 -2174 0
-491 -2175 0
-492 -2176 0
-489 -2225 0
-490 -2226 0
-491 -2227 0
-492 -2228 0
-489 -2325 0
-490 -2326 0
-491 -2327 0
-492 -2328 0
-489 -2341 0
-490 -2342 0
-491 -2343 0
-492 -2344 0
-489 -2617 0
-490 -2618 0
-491 -2619 0
-492 -2620 0
-493 -497 0
-494 -498 0
-495 -499 0
-496 -500 0
-493 -517 0
-494 -518 0
-495 -519 0
-496 -520 0
-493 -521 0
-494 -522 0
-495 -523 0
-496 -524 0
-493 -837 0
-494 -838 0
-495 -839 0
-496 -840 0
-493 -885 0
-494 -886 0
-495 -887 0
-496 -888 0
-493 -1397 0
-494 -1398 0
-495 -1399 0
-496 -1400 0
-493 -1497 0
-494 -1498 0
-495 -1499 0
-496 -1500 0
-493 -2009 0
-494 -2010 0
-495 -2011 0
-496 -2012 0
-493 -2177 0
-494 -2178 0
-495 -2179 0
-496 -2180 0
-493 -2329 0
-494 -2330 0
-495 -2331 0
-496 -2332 0
-497 -517 0
-498 -518 0
-499 -519 0
-500 -520 0
-497 -557 0
-498 -558 0
-499 -559 0
-500 -560 0
-497 -889 0
-498 -890 0
-499 -891 0
-500 -892 0
-497 -1305 0
-498 -1306 0
-499 -1307 0
-500 -1308 0
-497 -1501 0
-498 -1502 0
-499 -1503 0
-500 -1504 0
-497 -2181 0
-498 -2182 0
-499 -2183 0
-500 -2184 0
-497 -2229 0
-498 -2230 0
-499 -2231 0
-500 -2232 0
-497 -2633 0
-498 -2634 0
-499 -2635 0
-500 -2636 0
-501 -505 0
-502 -506 0
-503 -507 0
-504 -508 0
-501 -561 0
-502 -562 0
-503 -563 0
-504 -564 0
-501 -785 0
-502 -786 0
-503 -787 0
-504 -788 0
-501 -933 0
-502 -934 0
-503 -935 0
-504 -936 0
-501 -1621 0
-502 -1622 0
-503 -1623 0
-504 -1624 0
-501 -2013 0
-502 -2014 0
-503 -2015 0
-504 -2016 0
-501 -2157 0
-502 -2158 0
-503 -2159 0
-504 -2160 0
-501 -2233 0
-502 -2234 0
-503 -2235 0
-504 -2236 0
-501 -2637 0
-502 -2638 0
-503 -2639 0
-504 -2640 0
-505 -565 0
-506 -566 0
-507 -567 0
-508 -568 0
-505 -793 0
-506 -794 0
-507 -795 0
-508 -796 0
-505 -1409 0
-506 -1410 0
-507 -1411 0
-508 -1412 0
-505 -1625 0
-506 -1626 0
-507 -1627 0
-508 -1628 0
-505 -2021 0
-506 -2022 0
-507 -2023 0
-508 -2024 0
-505 -2173 0
-506 -2174 0
-507 -2175 0
-508 -2176 0
-505 -2233 0
-506 -2234 0
-507 -2235 0
-508 -2236 0
-505 -2641 0
-506 -2642 0
-507 -2643 0
-508 -2644 0
-509 -513 0
-510 -514 0
-511 -515 0
-512 -516 0
-509 -941 0
-510 -942 0
-511 -943 0
-512 -944 0
-509 -1417 0
-510 -1418 0
-511 -1419 0
-512 -1420 0
-509 -2033 0
-510 -2034 0
-511 -2035 0
-512 -2036 0
-509 -2237 0
-510 -2238 0
-511 -2239 0
-512 -2240 0
-509 -2349 0
-510 -2350 0
-511 -2351 0
-512 -2352 0
-509 -2373 0
-510 -2374 0
-511 -2375 0
-512 -2376 0
-509 -2653 0
-510 -2654 0
-511 -2655 0
-512 -2656 0
-513 -517 0
-514 -518 0
-515 -519 0
-516 -520 0
-513 -589 0
-514 -590 0
-515 -591 0
-516 -592 0
-513 -1433 0
-514 -1434 0
-515 -1435 0
-516 -1436 0
-513 -2037 0
-514 -2038 0
-515 -2039 0
-516 -2040 0
-513 -2237 0
-514 -2238 0
-515 -2239 0
-516 -2240 0
-513 -2661 0
-514 -2662 0
-515 -2663 0
-516 -2664 0
-517 -601 0
-518 -602 0
-519 -603 0
-520 -604 0
-517 -917 0
-518 -918 0
-519 -919 0
-520 -920 0
-517 -1445 0
-518 -1446 0
-519 -1447 0
-520 -1448 0
-517 -2045 0
-518 -2046 0
-519 -2047 0
-520 -2048 0
-517 -2189 0
-518 -2190 0
-519 -2191 0
-520 -2192 0
-521 -977 0
-522 -978 0
-523 -979 0
-524 -980 0
-521 -1249 0
-522 -1250 0
-523 -1251 0
-524 -1252 0
-521 -1513 0
-522 -1514 0
-523 -1515 0
-524 -1516 0
-521 -2093 0
-522 -2094 0
-523 -2095 0
-524 -2096 0
-521 -2221 0
-522 -2222 0
-523 -2223 0
-524 -2224 0
-521 -2413 0
-522 -2414 0
-523 -2415 0
-524 -2416 0
-525 -529 0
-526 -530 0
-527 -531 0
-528 -532 0
-525 -549 0
-526 -550 0
-527 -551 0
-528 -552 0
-525 -609 0
-526 -610 0
-527 -611 0
-528 -612 0
-525 -861 0
-526 -862 0
-527 -863 0
-528 -864 0
-525 -1037 0
-526 -1038 0
-527 -1039 0
-528 -1040 0
-525 -1181 0
-526 -1182 0
-527 -1183 0
-528 -1184 0
-525 -1685 0
-526 -1686 0
-527 -1687 0
-528 -1688 0
-525 -2265 0
-526 -2266 0
-527 -2267 0
-528 -2268 0
-525 -2277 0
-526 -2278 0
-527 -2279 0
-528 -2280 0
-529 -1033 0
-530 -1034 0
-531 -1035 0
-532 -1036 0
-529 -2269 0
-530 -2270 0
-531 -2271 0
-532 -2272 0
-529 -2281 0
-530 -2282 0
-531 -2283 0
-532 -2284 0
-533 -545 0
-534 -546 0
-535 -547 0
-536 -548 0
-533 -549 0
-534 -550 0
-535 -551 0
-536 -552 0
-533 -621 0
-534 -622 0
-535 -623 0
-536 -624 0
-533 -1005 0
-534 -1006 0
-535 -1007 0
-536 -1008 0
-533 -1689 0
-534 -1690 0
-535 -1691 0
-536 -1692 0
-533 -2097 0
-534 -2098 0
-535 -2099 0
-536 -2100 0
-533 -2309 0
-534 -2310 0
-535 -2311 0
-536 -2312 0
-537 -541 0
-538 -542 0
-539 -543 0
-540 -544 0
-537 -561 0
-538 -562 0
-539 -563 0
-540 -564 0
-537 -697 0
-538 -698 0
-539 -699 0
-540 -700 0
-537 -1553 0
-538 -1554 0
-539 -1555 0
-540 -1556 0
-537 -2249 0
-538 -2250 0
-539 -2251 0
-540 -2252 0
-541 -561 0
-542 -562 0
-543 -563 0
-544 -564 0
-541 -857 0
-542 -858 0
-543 -859 0
-544 -860 0
-541 -905 0
-542 -906 0
-543 -907 0
-544 -908 0
-541 -1557 0
-542 -1558 0
-543 -1559 0
-544 -1560 0
-541 -1725 0
-542 -1726 0
-543 -1727 0
-544 -1728 0
-541 -2361 0
-542 -2362 0
-543 -2363 0
-544 -2364 0
-545 -549 0
-546 -550 0
-547 -551 0
-548 -552 0
-545 -677 0
-546 -678 0
-547 -679 0
-548 -680 0
-545 -1025 0
-546 -1026 0
-547 -1027 0
-548 -1028 0
-545 -2373 0
-546 -2374 0
-547 -2375 0
-548 -2376 0
-549 -685 0
-550 -686 0
-551 -687 0
-552 -688 0
-549 -1029 0
-550 -1030 0
-551 -1031 0
-552 -1032 0
-549 -1741 0
-550 -1742 0
-551 -1743 0
-552 -1744 0
-549 -2365 0
-550 -2366 0
-551 -2367 0
-552 -2368 0
-549 -2377 0
-550 -2378 0
-551 -2379 0
-552 -2380 0
-553 -557 0
-554 -558 0
-555 -559 0
-556 -560 0
-553 -561 0
-554 -562 0
-555 -563 0
-556 -564 0
-553 -937 0
-554 -938 0
-555 -939 0
-556 -940 0
-553 -1017 0
-554 -1018 0
-555 -1019 0
-556 -1020 0
-553 -1577 0
-554 -1578 0
-555 -1579 0
-556 -1580 0
-553 -1789 0
-554 -1790 0
-555 -1791 0
-556 -1792 0
-553 -2269 0
-554 -2270 0
-555 -2271 0
-556 -2272 0
-553 -2397 0
-554 -2398 0
-555 -2399 0
-556 -2400 0
-553 -2737 0
-554 -2738 0
-555 -2739 0
-556 -2740 0
-557 -565 0
-558 -566 0
-559 -567 0
-560 -568 0
-557 -941 0
-558 -942 0
-559 -943 0
-560 -944 0
-557 -1021 0
-558 -1022 0
-559 -1023 0
-560 -1024 0
-557 -1545 0
-558 -1546 0
-559 -1547 0
-560 -1548 0
-557 -2281 0
-558 -2282 0
-559 -2283 0
-560 -2284 0
-557 -2397 0
-558 -2398 0
-559 -2399 0
-560 -2400 0
-557 -2401 0
-558 -2402 0
-559 -2403 0
-560 -2404 0
-557 -2745 0
-558 -2746 0
-559 -2747 0
-560 -2748 0
-561 -565 0
-562 -566 0
-563 -567 0
-564 -568 0
-561 -945 0
-562 -946 0
-563 -947 0
-564 -948 0
-561 -1805 0
-562 -1806 0
-563 -1807 0
-564 -1808 0
-561 -2117 0
-562 -2118 0
-563 -2119 0
-564 -2120 0
-561 -2269 0
-562 -2270 0
-563 -2271 0
-564 -2272 0
-561 -2405 0
-562 -2406 0
-563 -2407 0
-564 -2408 0
-565 -949 0
-566 -950 0
-567 -951 0
-568 -952 0
-565 -1317 0
-566 -1318 0
-567 -1319 0
-568 -1320 0
-565 -1561 0
-566 -1562 0
-567 -1563 0
-568 -1564 0
-565 -1821 0
-566 -1822 0
-567 -1823 0
-568 -1824 0
-565 -2133 0
-566 -2134 0
-567 -2135 0
-568 -2136 0
-565 -2281 0
-566 -2282 0
-567 -2283 0
-568 -2284 0
-565 -2405 0
-566 -2406 0
-567 -2407 0
-568 -2408 0
-565 -2409 0
-566 -2410 0
-567 -2411 0
-568 -2412 0
-569 -573 0
-570 -574 0
-571 -575 0
-572 -576 0
-569 -577 0
-570 -578 0
-571 -579 0
-572 -580 0
-569 -669 0
-570 -670 0
-571 -671 0
-572 -672 0
-569 -685 0
-570 -686 0
-571 -687 0
-572 -688 0
-569 -953 0
-570 -954 0
-571 -955 0
-572 -956 0
-569 -1085 0
-570 -1086 0
-571 -1087 0
-572 -1088 0
-569 -2157 0
-570 -2158 0
-571 -2159 0
-572 -2160 0
-569 -2425 0
-570 -2426 0
-571 -2427 0
-572 -2428 0
-569 -2769 0
-570 -2770 0
-571 -2771 0
-572 -2772 0
-573 -581 0
-574 -582 0
-575 -583 0
-576 -584 0
-573 -685 0
-574 -686 0
-575 -687 0
-576 -688 0
-573 -701 0
-574 -702 0
-575 -703 0
-576 -704 0
-573 -961 0
-574 -962 0
-575 -963 0
-576 -964 0
-573 -2165 0
-574 -2166 0
-575 -2167 0
-576 -2168 0
-573 -2429 0
-574 -2430 0
-575 -2431 0
-576 -2432 0
-577 -581 0
-578 -582 0
-579 -583 0
-580 -584 0
-577 -705 0
-578 -706 0
-579 -707 0
-580 -708 0
-577 -721 0
-578 -722 0
-579 -723 0
-580 -724 0
-577 -893 0
-578 -894 0
-579 -895 0
-580 -896 0
-577 -1089 0
-578 -1090 0
-579 -1091 0
-580 -1092 0
-577 -1405 0
-578 -1406 0
-579 -1407 0
-580 -1408 0
-577 -2173 0
-578 -2174 0
-579 -2175 0
-580 -2176 0
-577 -2425 0
-578 -2426 0
-579 -2427 0
-580 -2428 0
-577 -2433 0
-578 -2434 0
-579 -2435 0
-580 -2436 0
-577 -2773 0
-578 -2774 0
-579 -2775 0
-580 -2776 0
-581 -721 0
-582 -722 0
-583 -723 0
-584 -724 0
-581 -741 0
-582 -742 0
-583 -743 0
-584 -744 0
-581 -973 0
-582 -974 0
-583 -975 0
-584 -976 0
-581 -1337 0
-582 -1338 0
-583 -1339 0
-584 -1340 0
-581 -1413 0
-582 -1414 0
-583 -1415 0
-584 -1416 0
-581 -1621 0
-582 -1622 0
-583 -1623 0
-584 -1624 0
-581 -2181 0
-582 -2182 0
-583 -2183 0
-584 -2184 0
-581 -2429 0
-582 -2430 0
-583 -2431 0
-584 -2432 0
-581 -2437 0
-582 -2438 0
-583 -2439 0
-584 -2440 0
-585 -593 0
-586 -594 0
-587 -595 0
-588 -596 0
-585 -597 0
-586 -598 0
-587 -599 0
-588 -600 0
-585 -937 0
-586 -938 0
-587 -939 0
-588 -940 0
-585 -1349 0
-586 -1350 0
-587 -1351 0
-588 -1352 0
-585 -1629 0
-586 -1630 0
-587 -1631 0
-588 -1632 0
-585 -1865 0
-586 -1866 0
-587 -1867 0
-588 -1868 0
-585 -2445 0
-586 -2446 0
-587 -2447 0
-588 -2448 0
-585 -2541 0
-586 -2542 0
-587 -2543 0
-588 -2544 0
-585 -2581 0
-586 -2582 0
-587 -2583 0
-588 -2584 0
-585 -2817 0
-586 -2818 0
-587 -2819 0
-588 -2820 0
-589 -593 0
-590 -594 0
-591 -595 0
-592 -596 0
-589 -1485 0
-590 -1486 0
-591 -1487 0
-592 -1488 0
-589 -1589 0
-590 -1590 0
-591 -1591 0
-592 -1592 0
-589 -2193 0
-590 -2194 0
-591 -2195 0
-592 -2196 0
-589 -2609 0
-590 -2610 0
-591 -2611 0
-592 -2612 0
-589 -2821 0
-590 -2822 0
-591 -2823 0
-592 -2824 0
-593 -601 0
-594 -602 0
-595 -603 0
-596 -604 0
-593 -941 0
-594 -942 0
-595 -943 0
-596 -944 0
-593 -1141 0
-594 -1142 0
-595 -1143 0
-596 -1144 0
-593 -1353 0
-594 -1354 0
-595 -1355 0
-596 -1356 0
-593 -1593 0
-594 -1594 0
-595 -1595 0
-596 -1596 0
-593 -2197 0
-594 -2198 0
-595 -2199 0
-596 -2200 0
-593 -2421 0
-594 -2422 0
-595 -2423 0
-596 -2424 0
-593 -2445 0
-594 -2446 0
-595 -2447 0
-596 -2448 0
-593 -2545 0
-594 -2546 0
-595 -2547 0
-596 -2548 0
-593 -2617 0
-594 -2618 0
-595 -2619 0
-596 -2620 0
-593 -2825 0
-594 -2826 0
-595 -2827 0
-596 -2828 0
-597 -601 0
-598 -602 0
-599 -603 0
-600 -604 0
-597 -997 0
-598 -998 0
-599 -999 0
-600 -1000 0
-597 -1097 0
-598 -1098 0
-599 -1099 0
-600 -1100 0
-597 -1361 0
-598 -1362 0
-599 -1363 0
-600 -1364 0
-597 -1601 0
-598 -1602 0
-599 -1603 0
-600 -1604 0
-597 -1869 0
-598 -1870 0
-599 -1871 0
-600 -1872 0
-597 -2449 0
-598 -2450 0
-599 -2451 0
-600 -2452 0
-597 -2581 0
-598 -2582 0
-599 -2583 0
-600 -2584 0
-597 -2645 0
-598 -2646 0
-599 -2647 0
-600 -2648 0
-597 -2833 0
-598 -2834 0
-599 -2835 0
-600 -2836 0
-601 -1109 0
-602 -1110 0
-603 -1111 0
-604 -1112 0
-601 -1365 0
-602 -1366 0
-603 -1367 0
-604 -1368 0
-601 -1505 0
-602 -1506 0
-603 -1507 0
-604 -1508 0
-601 -1613 0
-602 -1614 0
-603 -1615 0
-604 -1616 0
-601 -2449 0
-602 -2450 0
-603 -2451 0
-604 -2452 0
-601 -2617 0
-602 -2618 0
-603 -2619 0
-604 -2620 0
-601 -2649 0
-602 -2650 0
-603 -2651 0
-604 -2652 0
-601 -2837 0
-602 -2838 0
-603 -2839 0
-604 -2840 0
-605 -609 0
-606 -610 0
-607 -611 0
-608 -612 0
-605 -613 0
-606 -614 0
-607 -615 0
-608 -616 0
-605 -673 0
-606 -674 0
-607 -675 0
-608 -676 0
-605 -685 0
-606 -686 0
-607 -687 0
-608 -688 0
-605 -1013 0
-606 -1014 0
-607 -1015 0
-608 -1016 0
-605 -2477 0
-606 -2478 0
-607 -2479 0
-608 -2480 0
-609 -617 0
-610 -618 0
-611 -619 0
-612 -620 0
-609 -685 0
-610 -686 0
-611 -687 0
-612 -688 0
-609 -697 0
-610 -698 0
-611 -699 0
-612 -700 0
-609 -1017 0
-610 -1018 0
-611 -1019 0
-612 -1020 0
-609 -1349 0
-610 -1350 0
-611 -1351 0
-612 -1352 0
-609 -1685 0
-610 -1686 0
-611 -1687 0
-612 -1688 0
-609 -2485 0
-610 -2486 0
-611 -2487 0
-612 -2488 0
-613 -617 0
-614 -618 0
-615 -619 0
-616 -620 0
-613 -709 0
-614 -710 0
-615 -711 0
-616 -712 0
-613 -721 0
-614 -722 0
-615 -723 0
-616 -724 0
-613 -2241 0
-614 -2242 0
-615 -2243 0
-616 -2244 0
-613 -2477 0
-614 -2478 0
-615 -2479 0
-616 -2480 0
-613 -2489 0
-614 -2490 0
-615 -2491 0
-616 -2492 0
-617 -721 0
-618 -722 0
-619 -723 0
-620 -724 0
-617 -733 0
-618 -734 0
-619 -735 0
-620 -736 0
-617 -1021 0
-618 -1022 0
-619 -1023 0
-620 -1024 0
-617 -1353 0
-618 -1354 0
-619 -1355 0
-620 -1356 0
-617 -1681 0
-618 -1682 0
-619 -1683 0
-620 -1684 0
-617 -2485 0
-618 -2486 0
-619 -2487 0
-620 -2488 0
-617 -2493 0
-618 -2494 0
-619 -2495 0
-620 -2496 0
-621 -625 0
-622 -626 0
-623 -627 0
-624 -628 0
-621 -629 0
-622 -630 0
-623 -631 0
-624 -632 0
-621 -677 0
-622 -678 0
-623 -679 0
-624 -680 0
-621 -685 0
-622 -686 0
-623 -687 0
-624 -688 0
-621 -1689 0
-622 -1690 0
-623 -1691 0
-624 -1692 0
-621 -2249 0
-622 -2250 0
-623 -2251 0
-624 -2252 0
-621 -2505 0
-622 -2506 0
-623 -2507 0
-624 -2508 0
-625 -633 0
-626 -634 0
-627 -635 0
-628 -636 0
-625 -685 0
-626 -686 0
-627 -687 0
-628 -688 0
-625 -693 0
-626 -694 0
-627 -695 0
-628 -696 0
-625 -1697 0
-626 -1698 0
-627 -1699 0
-628 -1700 0
-625 -1877 0
-626 -1878 0
-627 -1879 0
-628 -1880 0
-625 -2509 0
-626 -2510 0
-627 -2511 0
-628 -2512 0
-629 -633 0
-630 -634 0
-631 -635 0
-632 -636 0
-629 -713 0
-630 -714 0
-631 -715 0
-632 -716 0
-629 -721 0
-630 -722 0
-631 -723 0
-632 -724 0
-629 -1533 0
-630 -1534 0
-631 -1535 0
-632 -1536 0
-629 -1705 0
-630 -1706 0
-631 -1707 0
-632 -1708 0
-629 -2257 0
-630 -2258 0
-631 -2259 0
-632 -2260 0
-629 -2505 0
-630 -2506 0
-631 -2507 0
-632 -2508 0
-629 -2513 0
-630 -2514 0
-631 -2515 0
-632 -2516 0
-633 -721 0
-634 -722 0
-635 -723 0
-636 -724 0
-633 -729 0
-634 -730 0
-635 -731 0
-636 -732 0
-633 -1005 0
-634 -1006 0
-635 -1007 0
-636 -1008 0
-633 -1709 0
-634 -1710 0
-635 -1711 0
-636 -1712 0
-633 -1717 0
-634 -1718 0
-635 -1719 0
-636 -1720 0
-633 -1881 0
-634 -1882 0
-635 -1883 0
-636 -1884 0
-633 -2509 0
-634 -2510 0
-635 -2511 0
-636 -2512 0
-633 -2517 0
-634 -2518 0
-635 -2519 0
-636 -2520 0
-637 -641 0
-638 -642 0
-639 -643 0
-640 -644 0
-637 -645 0
-638 -646 0
-639 -647 0
-640 -648 0
-637 -681 0
-638 -682 0
-639 -683 0
-640 -684 0
-637 -685 0
-638 -686 0
-639 -687 0
-640 -688 0
-637 -1041 0
-638 -1042 0
-639 -1043 0
-640 -1044 0
-637 -1377 0
-638 -1378 0
-639 -1379 0
-640 -1380 0
-637 -1885 0
-638 -1886 0
-639 -1887 0
-640 -1888 0
-637 -2525 0
-638 -2526 0
-639 -2527 0
-640 -2528 0
-641 -649 0
-642 -650 0
-643 -651 0
-644 -652 0
-641 -685 0
-642 -686 0
-643 -687 0
-644 -688 0
-641 -689 0
-642 -690 0
-643 -691 0
-644 -692 0
-641 -2529 0
-642 -2530 0
-643 -2531 0
-644 -2532 0
-641 -2893 0
-642 -2894 0
-643 -2895 0
-644 -2896 0
-645 -649 0
-646 -650 0
-647 -651 0
-648 -652 0
-645 -717 0
-646 -718 0
-647 -719 0
-648 -720 0
-645 -721 0
-646 -722 0
-647 -723 0
-648 -724 0
-645 -1045 0
-646 -1046 0
-647 -1047 0
-648 -1048 0
-645 -1389 0
-646 -1390 0
-647 -1391 0
-648 -1392 0
-645 -1749 0
-646 -1750 0
-647 -1751 0
-648 -1752 0
-645 -2525 0
-646 -2526 0
-647 -2527 0
-648 -2528 0
-645 -2533 0
-646 -2534 0
-647 -2535 0
-648 -2536 0
-649 -721 0
-650 -722 0
-651 -723 0
-652 -724 0
-649 -725 0
-650 -726 0
-651 -727 0
-652 -728 0
-649 -1085 0
-650 -1086 0
-651 -1087 0
-652 -1088 0
-649 -1393 0
-650 -1394 0
-651 -1395 0
-652 -1396 0
-649 -1753 0
-650 -1754 0
-651 -1755 0
-652 -1756 0
-649 -2529 0
-650 -2530 0
-651 -2531 0
-652 -2532 0
-649 -2537 0
-650 -2538 0
-651 -2539 0
-652 -2540 0
-649 -2897 0
-650 -2898 0
-651 -2899 0
-652 -2900 0
-653 -657 0
-654 -658 0
-655 -659 0
-656 -660 0
-653 -685 0
-654 -686 0
-655 -687 0
-656 -688 0
-653 -1201 0
-654 -1202 0
-655 -1203 0
-656 -1204 0
-653 -1889 0
-654 -1890 0
-655 -1891 0
-656 -1892 0
-653 -2541 0
-654 -2542 0
-655 -2543 0
-656 -2544 0
-653 -2713 0
-654 -2714 0
-655 -2715 0
-656 -2716 0
-657 -721 0
-658 -722 0
-659 -723 0
-660 -724 0
-657 -781 0
-658 -782 0
-659 -783 0
-660 -784 0
-657 -1013 0
-658 -1014 0
-659 -1015 0
-660 -1016 0
-657 -1205 0
-658 -1206 0
-659 -1207 0
-660 -1208 0
-657 -1409 0
-658 -1410 0
-659 -1411 0
-660 -1412 0
-657 -1893 0
-658 -1894 0
-659 -1895 0
-660 -1896 0
-657 -2453 0
-658 -2454 0
-659 -2455 0
-660 -2456 0
-657 -2541 0
-658 -2542 0
-659 -2543 0
-660 -2544 0
-657 -2545 0
-658 -2546 0
-659 -2547 0
-660 -2548 0
-657 -2717 0
-658 -2718 0
-659 -2719 0
-660 -2720 0
-661 -665 0
-662 -666 0
-663 -667 0
-664 -668 0
-661 -685 0
-662 -686 0
-663 -687 0
-664 -688 0
-661 -1217 0
-662 -1218 0
-663 -1219 0
-664 -1220 0
-661 -2457 0
-662 -2458 0
-663 -2459 0
-664 -2460 0
-661 -2549 0
-662 -2550 0
-663 -2551 0
-664 -2552 0
-661 -2901 0
-662 -2902 0
-663 -2903 0
-664 -2904 0
-665 -721 0
-666 -722 0
-667 -723 0
-668 -724 0
-665 -1541 0
-666 -1542 0
-667 -1543 0
-668 -1544 0
-665 -1781 0
-666 -1782 0
-667 -1783 0
-668 -1784 0
-665 -2461 0
-666 -2462 0
-667 -2463 0
-668 -2464 0
-665 -2549 0
-666 -2550 0
-667 -2551 0
-668 -2552 0
-665 -2553 0
-666 -2554 0
-667 -2555 0
-668 -2556 0
-665 -2905 0
-666 -2906 0
-667 -2907 0
-668 -2908 0
-669 -685 0
-670 -686 0
-671 -687 0
-672 -688 0
-669 -705 0
-670 -706 0
-671 -707 0
-672 -708 0
-669 -853 0
-670 -854 0
-671 -855 0
-672 -856 0
-669 -1153 0
-670 -1154 0
-671 -1155 0
-672 -1156 0
-669 -1897 0
-670 -1898 0
-671 -1899 0
-672 -1900 0
-669 -2561 0
-670 -2562 0
-671 -2563 0
-672 -2564 0
-669 -2909 0
-670 -2910 0
-671 -2911 0
-672 -2912 0
-673 -685 0
-674 -686 0
-675 -687 0
-676 -688 0
-673 -709 0
-674 -710 0
-675 -711 0
-676 -712 0
-673 -805 0
-674 -806 0
-675 -807 0
-676 -808 0
-673 -1145 0
-674 -1146 0
-675 -1147 0
-676 -1148 0
-673 -1213 0
-674 -1214 0
-675 -1215 0
-676 -1216 0
-673 -2569 0
-674 -2570 0
-675 -2571 0
-676 -2572 0
-677 -685 0
-678 -686 0
-679 -687 0
-680 -688 0
-677 -713 0
-678 -714 0
-679 -715 0
-680 -716 0
-677 -785 0
-678 -786 0
-679 -787 0
-680 -788 0
-677 -1157 0
-678 -1158 0
-679 -1159 0
-680 -1160 0
-677 -2573 0
-678 -2574 0
-679 -2575 0
-680 -2576 0
-681 -685 0
-682 -686 0
-683 -687 0
-684 -688 0
-681 -717 0
-682 -718 0
-683 -719 0
-684 -720 0
-681 -765 0
-682 -766 0
-683 -767 0
-684 -768 0
-681 -1049 0
-682 -1050 0
-683 -1051 0
-684 -1052 0
-681 -2265 0
-682 -2266 0
-683 -2267 0
-684 -2268 0
-681 -2577 0
-682 -2578 0
-683 -2579 0
-684 -2580 0
-685 -689 0
-686 -690 0
-687 -691 0
-688 -692 0
-685 -693 0
-686 -694 0
-687 -695 0
-688 -696 0
-685 -697 0
-686 -698 0
-687 -699 0
-688 -700 0
-685 -701 0
-686 -702 0
-687 -703 0
-688 -704 0
-685 -721 0
-686 -722 0
-687 -723 0
-688 -724 0
-685 -749 0
-686 -750 0
-687 -751 0
-688 -752 0
-685 -757 0
-686 -758 0
-687 -759 0
-688 -760 0
-685 -765 0
-686 -766 0
-687 -767 0
-688 -768 0
-685 -769 0
-686 -770 0
-687 -771 0
-688 -772 0
-685 -785 0
-686 -786 0
-687 -787 0
-688 -788 0
-685 -789 0
-686 -790 0
-687 -791 0
-688 -792 0
-685 -805 0
-686 -806 0
-687 -807 0
-688 -808 0
-685 -809 0
-686 -810 0
-687 -811 0
-688 -812 0
-685 -853 0
-686 -854 0
-687 -855 0
-688 -856 0
-685 -857 0
-686 -858 0
-687 -859 0
-688 -860 0
-685 -1053 0
-686 -1054 0
-687 -1055 0
-688 -1056 0
-685 -1149 0
-686 -1150 0
-687 -1151 0
-688 -1152 0
-685 -1161 0
-686 -1162 0
-687 -1163 0
-688 -1164 0
-685 -1225 0
-686 -1226 0
-687 -1227 0
-688 -1228 0
-685 -1417 0
-686 -1418 0
-687 -1419 0
-688 -1420 0
-685 -1741 0
-686 -1742 0
-687 -1743 0
-688 -1744 0
-685 -1901 0
-686 -1902 0
-687 -1903 0
-688 -1904 0
-685 -1917 0
-686 -1918 0
-687 -1919 0
-688 -1920 0
-685 -2269 0
-686 -2270 0
-687 -2271 0
-688 -2272 0
-685 -2457 0
-686 -2458 0
-687 -2459 0
-688 -2460 0
-685 -2465 0
-686 -2466 0
-687 -2467 0
-688 -2468 0
-685 -2557 0
-686 -2558 0
-687 -2559 0
-688 -2560 0
-685 -2581 0
-686 -2582 0
-687 -2583 0
-688 -2584 0
-685 -2713 0
-686 -2714 0
-687 -2715 0
-688 -2716 0
-685 -2721 0
-686 -2722 0
-687 -2723 0
-688 -2724 0
-685 -2917 0
-686 -2918 0
-687 -2919 0
-688 -2920 0
-685 -4285 0
-686 -4286 0
-687 -4287 0
-688 -4288 0
-685 -4293 0
-686 -4294 0
-687 -4295 0
-688 -4296 0
-685 -4301 0
-686 -4302 0
-687 -4303 0
-688 -4304 0
-685 -4305 0
-686 -4306 0
-687 -4307 0
-688 -4308 0
-685 -4313 0
-686 -4314 0
-687 -4315 0
-688 -4316 0
-685 -4333 0
-686 -4334 0
-687 -4335 0
-688 -4336 0
-685 -4401 0
-686 -4402 0
-687 -4403 0
-688 -4404 0
-685 -4441 0
-686 -4442 0
-687 -4443 0
-688 -4444 0
-685 -4473 0
-686 -4474 0
-687 -4475 0
-688 -4476 0
-685 -4513 0
-686 -4514 0
-687 -4515 0
-688 -4516 0
-685 -4669 0
-686 -4670 0
-687 -4671 0
-688 -4672 0
-685 -4717 0
-686 -4718 0
-687 -4719 0
-688 -4720 0
-685 -4813 0
-686 -4814 0
-687 -4815 0
-688 -4816 0
-685 -4833 0
-686 -4834 0
-687 -4835 0
-688 -4836 0
-685 -4837 0
-686 -4838 0
-687 -4839 0
-688 -4840 0
-685 -4869 0
-686 -4870 0
-687 -4871 0
-688 -4872 0
-685 -4873 0
-686 -4874 0
-687 -4875 0
-688 -4876 0
-685 -4885 0
-686 -4886 0
-687 -4887 0
-688 -4888 0
-685 -4889 0
-686 -4890 0
-687 -4891 0
-688 -4892 0
-685 -4901 0
-686 -4902 0
-687 -4903 0
-688 -4904 0
-685 -4905 0
-686 -4906 0
-687 -4907 0
-688 -4908 0
-685 -4917 0
-686 -4918 0
-687 -4919 0
-688 -4920 0
-685 -4925 0
-686 -4926 0
-687 -4927 0
-688 -4928 0
-685 -4933 0
-686 -4934 0
-687 -4935 0
-688 -4936 0
-685 -4937 0
-686 -4938 0
-687 -4939 0
-688 -4940 0
-685 -4941 0
-686 -4942 0
-687 -4943 0
-688 -4944 0
-685 -4945 0
-686 -4946 0
-687 -4947 0
-688 -4948 0
-685 -4949 0
-686 -4950 0
-687 -4951 0
-688 -4952 0
-685 -4953 0
-686 -4954 0
-687 -4955 0
-688 -4956 0
-685 -4957 0
-686 -4958 0
-687 -4959 0
-688 -4960 0
-685 -4961 0
-686 -4962 0
-687 -4963 0
-688 -4964 0
-685 -4981 0
-686 -4982 0
-687 -4983 0
-688 -4984 0
-685 -5009 0
-686 -5010 0
-687 -5011 0
-688 -5012 0
-685 -5017 0
-686 -5018 0
-687 -5019 0
-688 -5020 0
-685 -5025 0
-686 -5026 0
-687 -5027 0
-688 -5028 0
-685 -5029 0
-686 -5030 0
-687 -5031 0
-688 -5032 0
-685 -5045 0
-686 -5046 0
-687 -5047 0
-688 -5048 0
-685 -5049 0
-686 -5050 0
-687 -5051 0
-688 -5052 0
-685 -5065 0
-686 -5066 0
-687 -5067 0
-688 -5068 0
-685 -5069 0
-686 -5070 0
-687 -5071 0
-688 -5072 0
-685 -5113 0
-686 -5114 0
-687 -5115 0
-688 -5116 0
-685 -5117 0
-686 -5118 0
-687 -5119 0
-688 -5120 0
-685 -5313 0
-686 -5314 0
-687 -5315 0
-688 -5316 0
-685 -5409 0
-686 -5410 0
-687 -5411 0
-688 -5412 0
-685 -5421 0
-686 -5422 0
-687 -5423 0
-688 -5424 0
-685 -5485 0
-686 -5486 0
-687 -5487 0
-688 -5488 0
-685 -5677 0
-686 -5678 0
-687 -5679 0
-688 -5680 0
-685 -6001 0
-686 -6002 0
-687 -6003 0
-688 -6004 0
-685 -6161 0
-686 -6162 0
-687 -6163 0
-688 -6164 0
-685 -6177 0
-686 -6178 0
-687 -6179 0
-688 -6180 0
-685 -6529 0
-686 -6530 0
-687 -6531 0
-688 -6532 0
-685 -6717 0
-686 -6718 0
-687 -6719 0
-688 -6720 0
-685 -6725 0
-686 -6726 0
-687 -6727 0
-688 -6728 0
-685 -6817 0
-686 -6818 0
-687 -6819 0
-688 -6820 0
-685 -6841 0
-686 -6842 0
-687 -6843 0
-688 -6844 0
-685 -6973 0
-686 -6974 0
-687 -6975 0
-688 -6976 0
-685 -6981 0
-686 -6982 0
-687 -6983 0
-688 -6984 0
-685 -7177 0
-686 -7178 0
-687 -7179 0
-688 -7180 0
-689 -725 0
-690 -726 0
-691 -727 0
-692 -728 0
-689 -769 0
-690 -770 0
-691 -771 0
-692 -772 0
-689 -1229 0
-690 -1230 0
-691 -1231 0
-692 -1232 0
-689 -1745 0
-690 -1746 0
-691 -1747 0
-692 -1748 0
-689 -2585 0
-690 -2586 0
-691 -2587 0
-692 -2588 0
-693 -729 0
-694 -730 0
-695 -731 0
-696 -732 0
-693 -789 0
-694 -790 0
-695 -791 0
-696 -792 0
-693 -1233 0
-694 -1234 0
-695 -1235 0
-696 -1236 0
-693 -1905 0
-694 -1906 0
-695 -1907 0
-696 -1908 0
-693 -1921 0
-694 -1922 0
-695 -1923 0
-696 -1924 0
-693 -2589 0
-694 -2590 0
-695 -2591 0
-696 -2592 0
-697 -733 0
-698 -734 0
-699 -735 0
-700 -736 0
-697 -809 0
-698 -810 0
-699 -811 0
-700 -812 0
-697 -1421 0
-698 -1422 0
-699 -1423 0
-700 -1424 0
-697 -1749 0
-698 -1750 0
-699 -1751 0
-700 -1752 0
-697 -2593 0
-698 -2594 0
-699 -2595 0
-700 -2596 0
-701 -741 0
-702 -742 0
-703 -743 0
-704 -744 0
-701 -857 0
-702 -858 0
-703 -859 0
-704 -860 0
-701 -1425 0
-702 -1426 0
-703 -1427 0
-704 -1428 0
-701 -1757 0
-702 -1758 0
-703 -1759 0
-704 -1760 0
-701 -2597 0
-702 -2598 0
-703 -2599 0
-704 -2600 0
-705 -721 0
-706 -722 0
-707 -723 0
-708 -724 0
-705 -861 0
-706 -862 0
-707 -863 0
-708 -864 0
-705 -1909 0
-706 -1910 0
-707 -1911 0
-708 -1912 0
-705 -2561 0
-706 -2562 0
-707 -2563 0
-708 -2564 0
-705 -2601 0
-706 -2602 0
-707 -2603 0
-708 -2604 0
-705 -2921 0
-706 -2922 0
-707 -2923 0
-708 -2924 0
-709 -721 0
-710 -722 0
-711 -723 0
-712 -724 0
-709 -813 0
-710 -814 0
-711 -815 0
-712 -816 0
-709 -869 0
-710 -870 0
-711 -871 0
-712 -872 0
-709 -1241 0
-710 -1242 0
-711 -1243 0
-712 -1244 0
-709 -1793 0
-710 -1794 0
-711 -1795 0
-712 -1796 0
-709 -2273 0
-710 -2274 0
-711 -2275 0
-712 -2276 0
-709 -2569 0
-710 -2570 0
-711 -2571 0
-712 -2572 0
-709 -2605 0
-710 -2606 0
-711 -2607 0
-712 -2608 0
-713 -721 0
-714 -722 0
-715 -723 0
-716 -724 0
-713 -793 0
-714 -794 0
-715 -795 0
-716 -796 0
-713 -1553 0
-714 -1554 0
-715 -1555 0
-716 -1556 0
-713 -1693 0
-714 -1694 0
-715 -1695 0
-716 -1696 0
-713 -2573 0
-714 -2574 0
-715 -2575 0
-716 -2576 0
-713 -2609 0
-714 -2610 0
-715 -2611 0
-716 -2612 0
-717 -721 0
-718 -722 0
-719 -723 0
-720 -724 0
-717 -737 0
-718 -738 0
-719 -739 0
-720 -740 0
-717 -773 0
-718 -774 0
-719 -775 0
-720 -776 0
-717 -817 0
-718 -818 0
-719 -819 0
-720 -820 0
-717 -873 0
-718 -874 0
-719 -875 0
-720 -876 0
-717 -1061 0
-718 -1062 0
-719 -1063 0
-720 -1064 0
-717 -1265 0
-718 -1266 0
-719 -1267 0
-720 -1268 0
-717 -1697 0
-718 -1698 0
-719 -1699 0
-720 -1700 0
-717 -2277 0
-718 -2278 0
-719 -2279 0
-720 -2280 0
-717 -2577 0
-718 -2578 0
-719 -2579 0
-720 -2580 0
-717 -2613 0
-718 -2614 0
-719 -2615 0
-720 -2616 0
-721 -725 0
-722 -726 0
-723 -727 0
-724 -728 0
-721 -729 0
-722 -730 0
-723 -731 0
-724 -732 0
-721 -733 0
-722 -734 0
-723 -735 0
-724 -736 0
-721 -741 0
-722 -742 0
-723 -743 0
-724 -744 0
-721 -745 0
-722 -746 0
-723 -747 0
-724 -748 0
-721 -753 0
-722 -754 0
-723 -755 0
-724 -756 0
-721 -761 0
-722 -762 0
-723 -763 0
-724 -764 0
-721 -773 0
-722 -774 0
-723 -775 0
-724 -776 0
-721 -777 0
-722 -778 0
-723 -779 0
-724 -780 0
-721 -793 0
-722 -794 0
-723 -795 0
-724 -796 0
-721 -797 0
-722 -798 0
-723 -799 0
-724 -800 0
-721 -813 0
-722 -814 0
-723 -815 0
-724 -816 0
-721 -821 0
-722 -822 0
-723 -823 0
-724 -824 0
-721 -861 0
-722 -862 0
-723 -863 0
-724 -864 0
-721 -865 0
-722 -866 0
-723 -867 0
-724 -868 0
-721 -877 0
-722 -878 0
-723 -879 0
-724 -880 0
-721 -1025 0
-722 -1026 0
-723 -1027 0
-724 -1028 0
-721 -1065 0
-722 -1066 0
-723 -1067 0
-724 -1068 0
-721 -1093 0
-722 -1094 0
-723 -1095 0
-724 -1096 0
-721 -1165 0
-722 -1166 0
-723 -1167 0
-724 -1168 0
-721 -1249 0
-722 -1250 0
-723 -1251 0
-724 -1252 0
-721 -1433 0
-722 -1434 0
-723 -1435 0
-724 -1436 0
-721 -1557 0
-722 -1558 0
-723 -1559 0
-724 -1560 0
-721 -1701 0
-722 -1702 0
-723 -1703 0
-724 -1704 0
-721 -1765 0
-722 -1766 0
-723 -1767 0
-724 -1768 0
-721 -1797 0
-722 -1798 0
-723 -1799 0
-724 -1800 0
-721 -1913 0
-722 -1914 0
-723 -1915 0
-724 -1916 0
-721 -1925 0
-722 -1926 0
-723 -1927 0
-724 -1928 0
-721 -2281 0
-722 -2282 0
-723 -2283 0
-724 -2284 0
-721 -2293 0
-722 -2294 0
-723 -2295 0
-724 -2296 0
-721 -2461 0
-722 -2462 0
-723 -2463 0
-724 -2464 0
-721 -2469 0
-722 -2470 0
-723 -2471 0
-724 -2472 0
-721 -2581 0
-722 -2582 0
-723 -2583 0
-724 -2584 0
-721 -2617 0
-722 -2618 0
-723 -2619 0
-724 -2620 0
-721 -2717 0
-722 -2718 0
-723 -2719 0
-724 -2720 0
-721 -2725 0
-722 -2726 0
-723 -2727 0
-724 -2728 0
-721 -2925 0
-722 -2926 0
-723 -2927 0
-724 -2928 0
-725 -777 0
-726 -778 0
-727 -779 0
-728 -780 0
-725 -1253 0
-726 -1254 0
-727 -1255 0
-728 -1256 0
-725 -1561 0
-726 -1562 0
-727 -1563 0
-728 -1564 0
-725 -2585 0
-726 -2586 0
-727 -2587 0
-728 -2588 0
-725 -2621 0
-726 -2622 0
-727 -2623 0
-728 -2624 0
-729 -797 0
-730 -798 0
-731 -799 0
-732 -800 0
-729 -881 0
-730 -882 0
-731 -883 0
-732 -884 0
-729 -1029 0
-730 -1030 0
-731 -1031 0
-732 -1032 0
-729 -1257 0
-730 -1258 0
-731 -1259 0
-732 -1260 0
-729 -1929 0
-730 -1930 0
-731 -1931 0
-732 -1932 0
-729 -2589 0
-730 -2590 0
-731 -2591 0
-732 -2592 0
-729 -2625 0
-730 -2626 0
-731 -2627 0
-732 -2628 0
-733 -821 0
-734 -822 0
-735 -823 0
-736 -824 0
-733 -1033 0
-734 -1034 0
-735 -1035 0
-736 -1036 0
-733 -1097 0
-734 -1098 0
-735 -1099 0
-736 -1100 0
-733 -1437 0
-734 -1438 0
-735 -1439 0
-736 -1440 0
-733 -1769 0
-734 -1770 0
-735 -1771 0
-736 -1772 0
-733 -1933 0
-734 -1934 0
-735 -1935 0
-736 -1936 0
-733 -2593 0
-734 -2594 0
-735 -2595 0
-736 -2596 0
-733 -2629 0
-734 -2630 0
-735 -2631 0
-736 -2632 0
-737 -741 0
-738 -742 0
-739 -743 0
-740 -744 0
-737 -1069 0
-738 -1070 0
-739 -1071 0
-740 -1072 0
-737 -1441 0
-738 -1442 0
-739 -1443 0
-740 -1444 0
-737 -1801 0
-738 -1802 0
-739 -1803 0
-740 -1804 0
-737 -2285 0
-738 -2286 0
-739 -2287 0
-740 -2288 0
-741 -825 0
-742 -826 0
-743 -827 0
-744 -828 0
-741 -865 0
-742 -866 0
-743 -867 0
-744 -868 0
-741 -901 0
-742 -902 0
-743 -903 0
-744 -904 0
-741 -1445 0
-742 -1446 0
-743 -1447 0
-744 -1448 0
-741 -1773 0
-742 -1774 0
-743 -1775 0
-744 -1776 0
-741 -1805 0
-742 -1806 0
-743 -1807 0
-744 -1808 0
-741 -2597 0
-742 -2598 0
-743 -2599 0
-744 -2600 0
-741 -2633 0
-742 -2634 0
-743 -2635 0
-744 -2636 0
-745 -889 0
-746 -890 0
-747 -891 0
-748 -892 0
-745 -1105 0
-746 -1106 0
-747 -1107 0
-748 -1108 0
-745 -1569 0
-746 -1570 0
-747 -1571 0
-748 -1572 0
-745 -1813 0
-746 -1814 0
-747 -1815 0
-748 -1816 0
-745 -2297 0
-746 -2298 0
-747 -2299 0
-748 -2300 0
-745 -2617 0
-746 -2618 0
-747 -2619 0
-748 -2620 0
-745 -5005 0
-746 -5006 0
-747 -5007 0
-748 -5008 0
-749 -753 0
-750 -754 0
-751 -755 0
-752 -756 0
-749 -1173 0
-750 -1174 0
-751 -1175 0
-752 -1176 0
-749 -1457 0
-750 -1458 0
-751 -1459 0
-752 -1460 0
-749 -2465 0
-750 -2466 0
-751 -2467 0
-752 -2468 0
-749 -2637 0
-750 -2638 0
-751 -2639 0
-752 -2640 0
-753 -1037 0
-754 -1038 0
-755 -1039 0
-756 -1040 0
-753 -1177 0
-754 -1178 0
-755 -1179 0
-756 -1180 0
-753 -1269 0
-754 -1270 0
-755 -1271 0
-756 -1272 0
-753 -1461 0
-754 -1462 0
-755 -1463 0
-756 -1464 0
-753 -2301 0
-754 -2302 0
-755 -2303 0
-756 -2304 0
-753 -2469 0
-754 -2470 0
-755 -2471 0
-756 -2472 0
-753 -2637 0
-754 -2638 0
-755 -2639 0
-756 -2640 0
-753 -2641 0
-754 -2642 0
-755 -2643 0
-756 -2644 0
-757 -761 0
-758 -762 0
-759 -763 0
-760 -764 0
-757 -1073 0
-758 -1074 0
-759 -1075 0
-760 -1076 0
-757 -1465 0
-758 -1466 0
-759 -1467 0
-760 -1468 0
-757 -2645 0
-758 -2646 0
-759 -2647 0
-760 -2648 0
-757 -2721 0
-758 -2722 0
-759 -2723 0
-760 -2724 0
-761 -897 0
-762 -898 0
-763 -899 0
-764 -900 0
-761 -1077 0
-762 -1078 0
-763 -1079 0
-764 -1080 0
-761 -1469 0
-762 -1470 0
-763 -1471 0
-764 -1472 0
-761 -2645 0
-762 -2646 0
-763 -2647 0
-764 -2648 0
-761 -2649 0
-762 -2650 0
-763 -2651 0
-764 -2652 0
-761 -2725 0
-762 -2726 0
-763 -2727 0
-764 -2728 0
-765 -769 0
-766 -770 0
-767 -771 0
-768 -772 0
-765 -773 0
-766 -774 0
-767 -775 0
-768 -776 0
-765 -1185 0
-766 -1186 0
-767 -1187 0
-768 -1188 0
-765 -1473 0
-766 -1474 0
-767 -1475 0
-768 -1476 0
-765 -1949 0
-766 -1950 0
-767 -1951 0
-768 -1952 0
-765 -2653 0
-766 -2654 0
-767 -2655 0
-768 -2656 0
-769 -777 0
-770 -778 0
-771 -779 0
-772 -780 0
-769 -1189 0
-770 -1190 0
-771 -1191 0
-772 -1192 0
-769 -1273 0
-770 -1274 0
-771 -1275 0
-772 -1276 0
-769 -1793 0
-770 -1794 0
-771 -1795 0
-772 -1796 0
-769 -1953 0
-770 -1954 0
-771 -1955 0
-772 -1956 0
-769 -2657 0
-770 -2658 0
-771 -2659 0
-772 -2660 0
-773 -777 0
-774 -778 0
-775 -779 0
-776 -780 0
-773 -909 0
-774 -910 0
-775 -911 0
-776 -912 0
-773 -1193 0
-774 -1194 0
-775 -1195 0
-776 -1196 0
-773 -1713 0
-774 -1714 0
-775 -1715 0
-776 -1716 0
-773 -1973 0
-774 -1974 0
-775 -1975 0
-776 -1976 0
-773 -2289 0
-774 -2290 0
-775 -2291 0
-776 -2292 0
-773 -2309 0
-774 -2310 0
-775 -2311 0
-776 -2312 0
-773 -2653 0
-774 -2654 0
-775 -2655 0
-776 -2656 0
-773 -2661 0
-774 -2662 0
-775 -2663 0
-776 -2664 0
-777 -1281 0
-778 -1282 0
-779 -1283 0
-780 -1284 0
-777 -1809 0
-778 -1810 0
-779 -1811 0
-780 -1812 0
-777 -1977 0
-778 -1978 0
-779 -1979 0
-780 -1980 0
-777 -2313 0
-778 -2314 0
-779 -2315 0
-780 -2316 0
-777 -2657 0
-778 -2658 0
-779 -2659 0
-780 -2660 0
-777 -2665 0
-778 -2666 0
-779 -2667 0
-780 -2668 0
-781 -793 0
-782 -794 0
-783 -795 0
-784 -796 0
-781 -1297 0
-782 -1298 0
-783 -1299 0
-784 -1300 0
-781 -1977 0
-782 -1978 0
-783 -1979 0
-784 -1980 0
-781 -2317 0
-782 -2318 0
-783 -2319 0
-784 -2320 0
-781 -2937 0
-782 -2938 0
-783 -2939 0
-784 -2940 0
-785 -789 0
-786 -790 0
-787 -791 0
-788 -792 0
-785 -793 0
-786 -794 0
-787 -795 0
-788 -796 0
-785 -2669 0
-786 -2670 0
-787 -2671 0
-788 -2672 0
-785 -2965 0
-786 -2966 0
-787 -2967 0
-788 -2968 0
-789 -797 0
-790 -798 0
-791 -799 0
-792 -800 0
-789 -1169 0
-790 -1170 0
-791 -1171 0
-792 -1172 0
-789 -1309 0
-790 -1310 0
-791 -1311 0
-792 -1312 0
-789 -2001 0
-790 -2002 0
-791 -2003 0
-792 -2004 0
-789 -2673 0
-790 -2674 0
-791 -2675 0
-792 -2676 0
-793 -797 0
-794 -798 0
-795 -799 0
-796 -800 0
-793 -1745 0
-794 -1746 0
-795 -1747 0
-796 -1748 0
-793 -2333 0
-794 -2334 0
-795 -2335 0
-796 -2336 0
-793 -2497 0
-794 -2498 0
-795 -2499 0
-796 -2500 0
-793 -2669 0
-794 -2670 0
-795 -2671 0
-796 -2672 0
-793 -2677 0
-794 -2678 0
-795 -2679 0
-796 -2680 0
-793 -2969 0
-794 -2970 0
-795 -2971 0
-796 -2972 0
-797 -933 0
-798 -934 0
-799 -935 0
-800 -936 0
-797 -1313 0
-798 -1314 0
-799 -1315 0
-800 -1316 0
-797 -2005 0
-798 -2006 0
-799 -2007 0
-800 -2008 0
-797 -2337 0
-798 -2338 0
-799 -2339 0
-800 -2340 0
-797 -2673 0
-798 -2674 0
-799 -2675 0
-800 -2676 0
-797 -2681 0
-798 -2682 0
-799 -2683 0
-800 -2684 0
-797 -2973 0
-798 -2974 0
-799 -2975 0
-800 -2976 0
-801 -841 0
-802 -842 0
-803 -843 0
-804 -844 0
-801 -1057 0
-802 -1058 0
-803 -1059 0
-804 -1060 0
-801 -1533 0
-802 -1534 0
-803 -1535 0
-804 -1536 0
-801 -2361 0
-802 -2362 0
-803 -2363 0
-804 -2364 0
-801 -2509 0
-802 -2510 0
-803 -2511 0
-804 -2512 0
-805 -809 0
-806 -810 0
-807 -811 0
-808 -812 0
-805 -813 0
-806 -814 0
-807 -815 0
-808 -816 0
-805 -1197 0
-806 -1198 0
-807 -1199 0
-808 -1200 0
-805 -1221 0
-806 -1222 0
-807 -1223 0
-808 -1224 0
-805 -2369 0
-806 -2370 0
-807 -2371 0
-808 -2372 0
-805 -2689 0
-806 -2690 0
-807 -2691 0
-808 -2692 0
-809 -821 0
-810 -822 0
-811 -823 0
-812 -824 0
-809 -1237 0
-810 -1238 0
-811 -1239 0
-812 -1240 0
-809 -2013 0
-810 -2014 0
-811 -2015 0
-812 -2016 0
-809 -2693 0
-810 -2694 0
-811 -2695 0
-812 -2696 0
-813 -821 0
-814 -822 0
-815 -823 0
-816 -824 0
-813 -961 0
-814 -962 0
-815 -963 0
-816 -964 0
-813 -1245 0
-814 -1246 0
-815 -1247 0
-816 -1248 0
-813 -2381 0
-814 -2382 0
-815 -2383 0
-816 -2384 0
-813 -2689 0
-814 -2690 0
-815 -2691 0
-816 -2692 0
-813 -2697 0
-814 -2698 0
-815 -2699 0
-816 -2700 0
-817 -821 0
-818 -822 0
-819 -823 0
-820 -824 0
-817 -965 0
-818 -966 0
-819 -967 0
-820 -968 0
-817 -1257 0
-818 -1258 0
-819 -1259 0
-820 -1260 0
-817 -2017 0
-818 -2018 0
-819 -2019 0
-820 -2020 0
-817 -2385 0
-818 -2386 0
-819 -2387 0
-820 -2388 0
-821 -825 0
-822 -826 0
-823 -827 0
-824 -828 0
-821 -1073 0
-822 -1074 0
-823 -1075 0
-824 -1076 0
-821 -1113 0
-822 -1114 0
-823 -1115 0
-824 -1116 0
-821 -1261 0
-822 -1262 0
-823 -1263 0
-824 -1264 0
-821 -2021 0
-822 -2022 0
-823 -2023 0
-824 -2024 0
-821 -2693 0
-822 -2694 0
-823 -2695 0
-824 -2696 0
-821 -2701 0
-822 -2702 0
-823 -2703 0
-824 -2704 0
-825 -1117 0
-826 -1118 0
-827 -1119 0
-828 -1120 0
-825 -1521 0
-826 -1522 0
-827 -1523 0
-828 -1524 0
-825 -1537 0
-826 -1538 0
-827 -1539 0
-828 -1540 0
-825 -1845 0
-826 -1846 0
-827 -1847 0
-828 -1848 0
-825 -2029 0
-826 -2030 0
-827 -2031 0
-828 -2032 0
-829 -833 0
-830 -834 0
-831 -835 0
-832 -836 0
-829 -837 0
-830 -838 0
-831 -839 0
-832 -840 0
-829 -841 0
-830 -842 0
-831 -843 0
-832 -844 0
-829 -1205 0
-830 -1206 0
-831 -1207 0
-832 -1208 0
-829 -1525 0
-830 -1526 0
-831 -1527 0
-832 -1528 0
-829 -1825 0
-830 -1826 0
-831 -1827 0
-832 -1828 0
-829 -2045 0
-830 -2046 0
-831 -2047 0
-832 -2048 0
-829 -2397 0
-830 -2398 0
-831 -2399 0
-832 -2400 0
-829 -2549 0
-830 -2550 0
-831 -2551 0
-832 -2552 0
-829 -2581 0
-830 -2582 0
-831 -2583 0
-832 -2584 0
-829 -2705 0
-830 -2706 0
-831 -2707 0
-832 -2708 0
-829 -2749 0
-830 -2750 0
-831 -2751 0
-832 -2752 0
-829 -2989 0
-830 -2990 0
-831 -2991 0
-832 -2992 0
-833 -1209 0
-834 -1210 0
-835 -1211 0
-836 -1212 0
-833 -1541 0
-834 -1542 0
-835 -1543 0
-836 -1544 0
-833 -1849 0
-834 -1850 0
-835 -1851 0
-836 -1852 0
-833 -2049 0
-834 -2050 0
-835 -2051 0
-836 -2052 0
-833 -2589 0
-834 -2590 0
-835 -2591 0
-836 -2592 0
-837 -845 0
-838 -846 0
-839 -847 0
-840 -848 0
-837 -1829 0
-838 -1830 0
-839 -1831 0
-840 -1832 0
-837 -1853 0
-838 -1854 0
-839 -1855 0
-840 -1856 0
-837 -2401 0
-838 -2402 0
-839 -2403 0
-840 -2404 0
-837 -2553 0
-838 -2554 0
-839 -2555 0
-840 -2556 0
-837 -2617 0
-838 -2618 0
-839 -2619 0
-840 -2620 0
-837 -2705 0
-838 -2706 0
-839 -2707 0
-840 -2708 0
-841 -845 0
-842 -846 0
-843 -847 0
-844 -848 0
-841 -849 0
-842 -850 0
-843 -851 0
-844 -852 0
-841 -989 0
-842 -990 0
-843 -991 0
-844 -992 0
-841 -1305 0
-842 -1306 0
-843 -1307 0
-844 -1308 0
-841 -1553 0
-842 -1554 0
-843 -1555 0
-844 -1556 0
-841 -1833 0
-842 -1834 0
-843 -1835 0
-844 -1836 0
-841 -2069 0
-842 -2070 0
-843 -2071 0
-844 -2072 0
-841 -2405 0
-842 -2406 0
-843 -2407 0
-844 -2408 0
-841 -2581 0
-842 -2582 0
-843 -2583 0
-844 -2584 0
-841 -2637 0
-842 -2638 0
-843 -2639 0
-844 -2640 0
-841 -2709 0
-842 -2710 0
-843 -2711 0
-844 -2712 0
-845 -1081 0
-846 -1082 0
-847 -1083 0
-848 -1084 0
-845 -1137 0
-846 -1138 0
-847 -1139 0
-848 -1140 0
-845 -1565 0
-846 -1566 0
-847 -1567 0
-848 -1568 0
-845 -1837 0
-846 -1838 0
-847 -1839 0
-848 -1840 0
-845 -2409 0
-846 -2410 0
-847 -2411 0
-848 -2412 0
-845 -2413 0
-846 -2414 0
-847 -2415 0
-848 -2416 0
-845 -2617 0
-846 -2618 0
-847 -2619 0
-848 -2620 0
-845 -2641 0
-846 -2642 0
-847 -2643 0
-848 -2644 0
-845 -2709 0
-846 -2710 0
-847 -2711 0
-848 -2712 0
-849 -1269 0
-850 -1270 0
-851 -1271 0
-852 -1272 0
-849 -1529 0
-850 -1530 0
-851 -1531 0
-852 -1532 0
-849 -1573 0
-850 -1574 0
-851 -1575 0
-852 -1576 0
-849 -1841 0
-850 -1842 0
-851 -1843 0
-852 -1844 0
-849 -2645 0
-850 -2646 0
-851 -2647 0
-852 -2648 0
-853 -857 0
-854 -858 0
-855 -859 0
-856 -860 0
-853 -861 0
-854 -862 0
-855 -863 0
-856 -864 0
-853 -2097 0
-854 -2098 0
-855 -2099 0
-856 -2100 0
-853 -2733 0
-854 -2734 0
-855 -2735 0
-856 -2736 0
-857 -865 0
-858 -866 0
-859 -867 0
-860 -868 0
-857 -1857 0
-858 -1858 0
-859 -1859 0
-860 -1860 0
-857 -2105 0
-858 -2106 0
-859 -2107 0
-860 -2108 0
-857 -2737 0
-858 -2738 0
-859 -2739 0
-860 -2740 0
-861 -865 0
-862 -866 0
-863 -867 0
-864 -868 0
-861 -1017 0
-862 -1018 0
-863 -1019 0
-864 -1020 0
-861 -1181 0
-862 -1182 0
-863 -1183 0
-864 -1184 0
-861 -2101 0
-862 -2102 0
-863 -2103 0
-864 -2104 0
-861 -2109 0
-862 -2110 0
-863 -2111 0
-864 -2112 0
-861 -2733 0
-862 -2734 0
-863 -2735 0
-864 -2736 0
-861 -2741 0
-862 -2742 0
-863 -2743 0
-864 -2744 0
-865 -1185 0
-866 -1186 0
-867 -1187 0
-868 -1188 0
-865 -1861 0
-866 -1862 0
-867 -1863 0
-868 -1864 0
-865 -2113 0
-866 -2114 0
-867 -2115 0
-868 -2116 0
-865 -2737 0
-866 -2738 0
-867 -2739 0
-868 -2740 0
-865 -2745 0
-866 -2746 0
-867 -2747 0
-868 -2748 0
-869 -877 0
-870 -878 0
-871 -879 0
-872 -880 0
-869 -961 0
-870 -962 0
-871 -963 0
-872 -964 0
-869 -1013 0
-870 -1014 0
-871 -1015 0
-872 -1016 0
-869 -1085 0
-870 -1086 0
-871 -1087 0
-872 -1088 0
-869 -1953 0
-870 -1954 0
-871 -1955 0
-872 -1956 0
-869 -2481 0
-870 -2482 0
-871 -2483 0
-872 -2484 0
-873 -877 0
-874 -878 0
-875 -879 0
-876 -880 0
-873 -885 0
-874 -886 0
-875 -887 0
-876 -888 0
-873 -909 0
-874 -910 0
-875 -911 0
-876 -912 0
-873 -929 0
-874 -930 0
-875 -931 0
-876 -932 0
-873 -957 0
-874 -958 0
-875 -959 0
-876 -960 0
-873 -965 0
-874 -966 0
-875 -967 0
-876 -968 0
-873 -1205 0
-874 -1206 0
-875 -1207 0
-876 -1208 0
-873 -1585 0
-874 -1586 0
-875 -1587 0
-876 -1588 0
-873 -1877 0
-874 -1878 0
-875 -1879 0
-876 -1880 0
-873 -1965 0
-874 -1966 0
-875 -1967 0
-876 -1968 0
-873 -2485 0
-874 -2486 0
-875 -2487 0
-876 -2488 0
-873 -2785 0
-874 -2786 0
-875 -2787 0
-876 -2788 0
-877 -881 0
-878 -882 0
-879 -883 0
-880 -884 0
-877 -889 0
-878 -890 0
-879 -891 0
-880 -892 0
-877 -897 0
-878 -898 0
-879 -899 0
-880 -900 0
-877 -909 0
-878 -910 0
-879 -911 0
-880 -912 0
-877 -933 0
-878 -934 0
-879 -935 0
-880 -936 0
-877 -961 0
-878 -962 0
-879 -963 0
-880 -964 0
-877 -1017 0
-878 -1018 0
-879 -1019 0
-880 -1020 0
-877 -1157 0
-878 -1158 0
-879 -1159 0
-880 -1160 0
-877 -1589 0
-878 -1590 0
-879 -1591 0
-880 -1592 0
-877 -1725 0
-878 -1726 0
-879 -1727 0
-880 -1728 0
-877 -1925 0
-878 -1926 0
-879 -1927 0
-880 -1928 0
-877 -2789 0
-878 -2790 0
-879 -2791 0
-880 -2792 0
-877 -3053 0
-878 -3054 0
-879 -3055 0
-880 -3056 0
-881 -901 0
-882 -902 0
-883 -903 0
-884 -904 0
-881 -913 0
-882 -914 0
-883 -915 0
-884 -916 0
-881 -933 0
-882 -934 0
-883 -935 0
-884 -936 0
-881 -1161 0
-882 -1162 0
-883 -1163 0
-884 -1164 0
-881 -1401 0
-882 -1402 0
-883 -1403 0
-884 -1404 0
-881 -1593 0
-882 -1594 0
-883 -1595 0
-884 -1596 0
-881 -1681 0
-882 -1682 0
-883 -1683 0
-884 -1684 0
-881 -1929 0
-882 -1930 0
-883 -1931 0
-884 -1932 0
-881 -1969 0
-882 -1970 0
-883 -1971 0
-884 -1972 0
-881 -2793 0
-882 -2794 0
-883 -2795 0
-884 -2796 0
-881 -2897 0
-882 -2898 0
-883 -2899 0
-884 -2900 0
-885 -889 0
-886 -890 0
-887 -891 0
-888 -892 0
-885 -917 0
-886 -918 0
-887 -919 0
-888 -920 0
-885 -969 0
-886 -970 0
-887 -971 0
-888 -972 0
-885 -977 0
-886 -978 0
-887 -979 0
-888 -980 0
-885 -1881 0
-886 -1882 0
-887 -1883 0
-888 -1884 0
-885 -1989 0
-886 -1990 0
-887 -1991 0
-888 -1992 0
-885 -2493 0
-886 -2494 0
-887 -2495 0
-888 -2496 0
-885 -2785 0
-886 -2786 0
-887 -2787 0
-888 -2788 0
-889 -917 0
-890 -918 0
-891 -919 0
-892 -920 0
-889 -973 0
-890 -974 0
-891 -975 0
-892 -976 0
-889 -1021 0
-890 -1022 0
-891 -1023 0
-892 -1024 0
-889 -1729 0
-890 -1730 0
-891 -1731 0
-892 -1732 0
-889 -2789 0
-890 -2790 0
-891 -2791 0
-892 -2792 0
-893 -1025 0
-894 -1026 0
-895 -1027 0
-896 -1028 0
-893 -1741 0
-894 -1742 0
-895 -1743 0
-896 -1744 0
-893 -2497 0
-894 -2498 0
-895 -2499 0
-896 -2500 0
-893 -2797 0
-894 -2798 0
-895 -2799 0
-896 -2800 0
-893 -3061 0
-894 -3062 0
-895 -3063 0
-896 -3064 0
-897 -901 0
-898 -902 0
-899 -903 0
-900 -904 0
-897 -921 0
-898 -922 0
-899 -923 0
-900 -924 0
-897 -1033 0
-898 -1034 0
-899 -1035 0
-900 -1036 0
-897 -1253 0
-898 -1254 0
-899 -1255 0
-900 -1256 0
-897 -1609 0
-898 -1610 0
-899 -1611 0
-900 -1612 0
-897 -1761 0
-898 -1762 0
-899 -1763 0
-900 -1764 0
-897 -2809 0
-898 -2810 0
-899 -2811 0
-900 -2812 0
-901 -925 0
-902 -926 0
-903 -927 0
-904 -928 0
-901 -1261 0
-902 -1262 0
-903 -1263 0
-904 -1264 0
-901 -1613 0
-902 -1614 0
-903 -1615 0
-904 -1616 0
-901 -2897 0
-902 -2898 0
-903 -2899 0
-904 -2900 0
-905 -913 0
-906 -914 0
-907 -915 0
-908 -916 0
-905 -945 0
-906 -946 0
-907 -947 0
-908 -948 0
-905 -1957 0
-906 -1958 0
-907 -1959 0
-908 -1960 0
-905 -2149 0
-906 -2150 0
-907 -2151 0
-908 -2152 0
-905 -2817 0
-906 -2818 0
-907 -2819 0
-908 -2820 0
-905 -2917 0
-906 -2918 0
-907 -2919 0
-908 -2920 0
-909 -913 0
-910 -914 0
-911 -915 0
-912 -916 0
-909 -917 0
-910 -918 0
-911 -919 0
-912 -920 0
-909 -921 0
-910 -922 0
-911 -923 0
-912 -924 0
-909 -949 0
-910 -950 0
-911 -951 0
-912 -952 0
-909 -981 0
-910 -982 0
-911 -983 0
-912 -984 0
-909 -1097 0
-910 -1098 0
-911 -1099 0
-912 -1100 0
-909 -1357 0
-910 -1358 0
-911 -1359 0
-912 -1360 0
-909 -1621 0
-910 -1622 0
-911 -1623 0
-912 -1624 0
-909 -1889 0
-910 -1890 0
-911 -1891 0
-912 -1892 0
-909 -1973 0
-910 -1974 0
-911 -1975 0
-912 -1976 0
-909 -2501 0
-910 -2502 0
-911 -2503 0
-912 -2504 0
-909 -2505 0
-910 -2506 0
-911 -2507 0
-912 -2508 0
-909 -2813 0
-910 -2814 0
-911 -2815 0
-912 -2816 0
-909 -2821 0
-910 -2822 0
-911 -2823 0
-912 -2824 0
-913 -925 0
-914 -926 0
-915 -927 0
-916 -928 0
-913 -949 0
-914 -950 0
-915 -951 0
-916 -952 0
-913 -1185 0
-914 -1186 0
-915 -1187 0
-916 -1188 0
-913 -1449 0
-914 -1450 0
-915 -1451 0
-916 -1452 0
-913 -1981 0
-914 -1982 0
-915 -1983 0
-916 -1984 0
-913 -2153 0
-914 -2154 0
-915 -2155 0
-916 -2156 0
-913 -2509 0
-914 -2510 0
-915 -2511 0
-916 -2512 0
-913 -2817 0
-914 -2818 0
-915 -2819 0
-916 -2820 0
-913 -2825 0
-914 -2826 0
-915 -2827 0
-916 -2828 0
-913 -2925 0
-914 -2926 0
-915 -2927 0
-916 -2928 0
-917 -1109 0
-918 -1110 0
-919 -1111 0
-920 -1112 0
-917 -1625 0
-918 -1626 0
-919 -1627 0
-920 -1628 0
-917 -1893 0
-918 -1894 0
-919 -1895 0
-920 -1896 0
-917 -2513 0
-918 -2514 0
-919 -2515 0
-920 -2516 0
-917 -2821 0
-918 -2822 0
-919 -2823 0
-920 -2824 0
-921 -925 0
-922 -926 0
-923 -927 0
-924 -928 0
-921 -1281 0
-922 -1282 0
-923 -1283 0
-924 -1284 0
-921 -1801 0
-922 -1802 0
-923 -1803 0
-924 -1804 0
-921 -1901 0
-922 -1902 0
-923 -1903 0
-924 -1904 0
-925 -1101 0
-926 -1102 0
-927 -1103 0
-928 -1104 0
-925 -1285 0
-926 -1286 0
-927 -1287 0
-928 -1288 0
-925 -1905 0
-926 -1906 0
-927 -1907 0
-928 -1908 0
-925 -2177 0
-926 -2178 0
-927 -2179 0
-928 -2180 0
-925 -2521 0
-926 -2522 0
-927 -2523 0
-928 -2524 0
-925 -2833 0
-926 -2834 0
-927 -2835 0
-928 -2836 0
-925 -2837 0
-926 -2838 0
-927 -2839 0
-928 -2840 0
-925 -2925 0
-926 -2926 0
-927 -2927 0
-928 -2928 0
-929 -933 0
-930 -934 0
-931 -935 0
-932 -936 0
-929 -949 0
-930 -950 0
-931 -951 0
-932 -952 0
-929 -985 0
-930 -986 0
-931 -987 0
-932 -988 0
-929 -989 0
-930 -990 0
-931 -991 0
-932 -992 0
-929 -1301 0
-930 -1302 0
-931 -1303 0
-932 -1304 0
-929 -1629 0
-930 -1630 0
-931 -1631 0
-932 -1632 0
-929 -1685 0
-930 -1686 0
-931 -1687 0
-932 -1688 0
-929 -1921 0
-930 -1922 0
-931 -1923 0
-932 -1924 0
-929 -2177 0
-930 -2178 0
-931 -2179 0
-932 -2180 0
-929 -2525 0
-930 -2526 0
-931 -2527 0
-932 -2528 0
-929 -2841 0
-930 -2842 0
-931 -2843 0
-932 -2844 0
-933 -949 0
-934 -950 0
-935 -951 0
-936 -952 0
-933 -1481 0
-934 -1482 0
-935 -1483 0
-936 -1484 0
-933 -1633 0
-934 -1634 0
-935 -1635 0
-936 -1636 0
-933 -2181 0
-934 -2182 0
-935 -2183 0
-936 -2184 0
-933 -2529 0
-934 -2530 0
-935 -2531 0
-936 -2532 0
-933 -2845 0
-934 -2846 0
-935 -2847 0
-936 -2848 0
-933 -3105 0
-934 -3106 0
-935 -3107 0
-936 -3108 0
-937 -941 0
-938 -942 0
-939 -943 0
-940 -944 0
-937 -945 0
-938 -946 0
-939 -947 0
-940 -948 0
-937 -1349 0
-938 -1350 0
-939 -1351 0
-940 -1352 0
-937 -2941 0
-938 -2942 0
-939 -2943 0
-940 -2944 0
-941 -949 0
-942 -950 0
-943 -951 0
-944 -952 0
-941 -997 0
-942 -998 0
-943 -999 0
-944 -1000 0
-941 -1353 0
-942 -1354 0
-943 -1355 0
-944 -1356 0
-941 -1653 0
-942 -1654 0
-943 -1655 0
-944 -1656 0
-941 -1937 0
-942 -1938 0
-943 -1939 0
-944 -1940 0
-941 -2549 0
-942 -2550 0
-943 -2551 0
-944 -2552 0
-941 -2757 0
-942 -2758 0
-943 -2759 0
-944 -2760 0
-941 -2849 0
-942 -2850 0
-943 -2851 0
-944 -2852 0
-941 -2929 0
-942 -2930 0
-943 -2931 0
-944 -2932 0
-941 -2953 0
-942 -2954 0
-943 -2955 0
-944 -2956 0
-941 -3113 0
-942 -3114 0
-943 -3115 0
-944 -3116 0
-945 -949 0
-946 -950 0
-947 -951 0
-948 -952 0
-945 -2185 0
-946 -2186 0
-947 -2187 0
-948 -2188 0
-945 -2557 0
-946 -2558 0
-947 -2559 0
-948 -2560 0
-945 -2853 0
-946 -2854 0
-947 -2855 0
-948 -2856 0
-945 -2965 0
-946 -2966 0
-947 -2967 0
-948 -2968 0
-949 -1001 0
-950 -1002 0
-951 -1003 0
-952 -1004 0
-949 -1317 0
-950 -1318 0
-951 -1319 0
-952 -1320 0
-949 -1497 0
-950 -1498 0
-951 -1499 0
-952 -1500 0
-949 -1961 0
-950 -1962 0
-951 -1963 0
-952 -1964 0
-949 -2189 0
-950 -2190 0
-951 -2191 0
-952 -2192 0
-949 -2581 0
-950 -2582 0
-951 -2583 0
-952 -2584 0
-949 -2757 0
-950 -2758 0
-951 -2759 0
-952 -2760 0
-949 -2853 0
-950 -2854 0
-951 -2855 0
-952 -2856 0
-949 -2857 0
-950 -2858 0
-951 -2859 0
-952 -2860 0
-949 -2937 0
-950 -2938 0
-951 -2939 0
-952 -2940 0
-949 -2969 0
-950 -2970 0
-951 -2971 0
-952 -2972 0
-953 -961 0
-954 -962 0
-955 -963 0
-956 -964 0
-953 -1053 0
-954 -1054 0
-955 -1055 0
-956 -1056 0
-953 -1393 0
-954 -1394 0
-955 -1395 0
-956 -1396 0
-953 -2565 0
-954 -2566 0
-955 -2567 0
-956 -2568 0
-953 -3117 0
-954 -3118 0
-955 -3119 0
-956 -3120 0
-957 -961 0
-958 -962 0
-959 -963 0
-960 -964 0
-957 -965 0
-958 -966 0
-959 -967 0
-960 -968 0
-957 -969 0
-958 -970 0
-959 -971 0
-960 -972 0
-957 -985 0
-958 -986 0
-959 -987 0
-960 -988 0
-957 -1049 0
-958 -1050 0
-959 -1051 0
-960 -1052 0
-957 -1057 0
-958 -1058 0
-959 -1059 0
-960 -1060 0
-957 -1213 0
-958 -1214 0
-959 -1215 0
-960 -1216 0
-957 -1397 0
-958 -1398 0
-959 -1399 0
-960 -1400 0
-957 -1689 0
-958 -1690 0
-959 -1691 0
-960 -1692 0
-957 -2053 0
-958 -2054 0
-959 -2055 0
-960 -2056 0
-957 -2581 0
-958 -2582 0
-959 -2583 0
-960 -2584 0
-957 -2761 0
-958 -2762 0
-959 -2763 0
-960 -2764 0
-957 -2769 0
-958 -2770 0
-959 -2771 0
-960 -2772 0
-957 -2865 0
-958 -2866 0
-959 -2867 0
-960 -2868 0
-961 -973 0
-962 -974 0
-963 -975 0
-964 -976 0
-961 -1053 0
-962 -1054 0
-963 -1055 0
-964 -1056 0
-961 -1217 0
-962 -1218 0
-963 -1219 0
-964 -1220 0
-961 -1693 0
-962 -1694 0
-963 -1695 0
-964 -1696 0
-961 -1833 0
-962 -1834 0
-963 -1835 0
-964 -1836 0
-961 -2585 0
-962 -2586 0
-963 -2587 0
-964 -2588 0
-961 -2869 0
-962 -2870 0
-963 -2871 0
-964 -2872 0
-961 -3121 0
-962 -3122 0
-963 -3123 0
-964 -3124 0
-965 -977 0
-966 -978 0
-967 -979 0
-968 -980 0
-965 -981 0
-966 -982 0
-967 -983 0
-968 -984 0
-965 -989 0
-966 -990 0
-967 -991 0
-968 -992 0
-965 -1225 0
-966 -1226 0
-967 -1227 0
-968 -1228 0
-965 -1401 0
-966 -1402 0
-967 -1403 0
-968 -1404 0
-965 -2017 0
-966 -2018 0
-967 -2019 0
-968 -2020 0
-965 -2593 0
-966 -2594 0
-967 -2595 0
-968 -2596 0
-965 -2873 0
-966 -2874 0
-967 -2875 0
-968 -2876 0
-969 -973 0
-970 -974 0
-971 -975 0
-972 -976 0
-969 -977 0
-970 -978 0
-971 -979 0
-972 -980 0
-969 -993 0
-970 -994 0
-971 -995 0
-972 -996 0
-969 -1061 0
-970 -1062 0
-971 -1063 0
-972 -1064 0
-969 -1069 0
-970 -1070 0
-971 -1071 0
-972 -1072 0
-969 -1241 0
-970 -1242 0
-971 -1243 0
-972 -1244 0
-969 -1705 0
-970 -1706 0
-971 -1707 0
-972 -1708 0
-969 -2057 0
-970 -2058 0
-971 -2059 0
-972 -2060 0
-969 -2617 0
-970 -2618 0
-971 -2619 0
-972 -2620 0
-969 -2765 0
-970 -2766 0
-971 -2767 0
-972 -2768 0
-969 -2773 0
-970 -2774 0
-971 -2775 0
-972 -2776 0
-969 -2865 0
-970 -2866 0
-971 -2867 0
-972 -2868 0
-973 -1065 0
-974 -1066 0
-975 -1067 0
-976 -1068 0
-973 -1337 0
-974 -1338 0
-975 -1339 0
-976 -1340 0
-973 -1837 0
-974 -1838 0
-975 -1839 0
-976 -1840 0
-973 -2061 0
-974 -2062 0
-975 -2063 0
-976 -2064 0
-973 -2621 0
-974 -2622 0
-975 -2623 0
-976 -2624 0
-973 -2869 0
-974 -2870 0
-975 -2871 0
-976 -2872 0
-977 -1249 0
-978 -1250 0
-979 -1251 0
-980 -1252 0
-977 -2629 0
-978 -2630 0
-979 -2631 0
-980 -2632 0
-977 -2873 0
-978 -2874 0
-979 -2875 0
-980 -2876 0
-981 -1001 0
-982 -1002 0
-983 -1003 0
-984 -1004 0
-981 -1273 0
-982 -1274 0
-983 -1275 0
-984 -1276 0
-981 -1453 0
-982 -1454 0
-983 -1455 0
-984 -1456 0
-981 -2057 0
-982 -2058 0
-983 -2059 0
-984 -2060 0
-981 -2205 0
-982 -2206 0
-983 -2207 0
-984 -2208 0
-985 -989 0
-986 -990 0
-987 -991 0
-988 -992 0
-985 -993 0
-986 -994 0
-987 -995 0
-988 -996 0
-985 -1129 0
-986 -1130 0
-987 -1131 0
-988 -1132 0
-985 -1405 0
-986 -1406 0
-987 -1407 0
-988 -1408 0
-985 -1741 0
-986 -1742 0
-987 -1743 0
-988 -1744 0
-985 -2217 0
-986 -2218 0
-987 -2219 0
-988 -2220 0
-985 -2673 0
-986 -2674 0
-987 -2675 0
-988 -2676 0
-985 -2877 0
-986 -2878 0
-987 -2879 0
-988 -2880 0
-989 -1001 0
-990 -1002 0
-991 -1003 0
-992 -1004 0
-989 -1309 0
-990 -1310 0
-991 -1311 0
-992 -1312 0
-989 -1749 0
-990 -1750 0
-991 -1751 0
-992 -1752 0
-989 -2221 0
-990 -2222 0
-991 -2223 0
-992 -2224 0
-989 -2881 0
-990 -2882 0
-991 -2883 0
-992 -2884 0
-993 -1133 0
-994 -1134 0
-995 -1135 0
-996 -1136 0
-993 -1765 0
-994 -1766 0
-995 -1767 0
-996 -1768 0
-993 -2681 0
-994 -2682 0
-995 -2683 0
-996 -2684 0
-993 -2685 0
-994 -2686 0
-995 -2687 0
-996 -2688 0
-993 -2801 0
-994 -2802 0
-995 -2803 0
-996 -2804 0
-993 -2877 0
-994 -2878 0
-995 -2879 0
-996 -2880 0
-997 -1001 0
-998 -1002 0
-999 -1003 0
-1000 -1004 0
-997 -1437 0
-998 -1438 0
-999 -1439 0
-1000 -1440 0
-997 -1781 0
-998 -1782 0
-999 -1783 0
-1000 -1784 0
-997 -1849 0
-998 -1850 0
-999 -1851 0
-1000 -1852 0
-997 -2085 0
-998 -2086 0
-999 -2087 0
-1000 -2088 0
-997 -2225 0
-998 -2226 0
-999 -2227 0
-1000 -2228 0
-997 -2829 0
-998 -2830 0
-999 -2831 0
-1000 -2832 0
-997 -2985 0
-998 -2986 0
-999 -2987 0
-1000 -2988 0
-997 -3001 0
-998 -3002 0
-999 -3003 0
-1000 -3004 0
-997 -3181 0
-998 -3182 0
-999 -3183 0
-1000 -3184 0
-1001 -1321 0
-1002 -1322 0
-1003 -1323 0
-1004 -1324 0
-1001 -1509 0
-1002 -1510 0
-1003 -1511 0
-1004 -1512 0
-1001 -1797 0
-1002 -1798 0
-1003 -1799 0
-1004 -1800 0
-1001 -2233 0
-1002 -2234 0
-1003 -2235 0
-1004 -2236 0
-1001 -2693 0
-1002 -2694 0
-1003 -2695 0
-1004 -2696 0
-1001 -2829 0
-1002 -2830 0
-1003 -2831 0
-1004 -2832 0
-1001 -2885 0
-1002 -2886 0
-1003 -2887 0
-1004 -2888 0
-1005 -1009 0
-1006 -1010 0
-1007 -1011 0
-1008 -1012 0
-1005 -1025 0
-1006 -1026 0
-1007 -1027 0
-1008 -1028 0
-1005 -1029 0
-1006 -1030 0
-1007 -1031 0
-1008 -1032 0
-1005 -2097 0
-1006 -2098 0
-1007 -2099 0
-1008 -2100 0
-1005 -2241 0
-1006 -2242 0
-1007 -2243 0
-1008 -2244 0
-1005 -2901 0
-1006 -2902 0
-1007 -2903 0
-1008 -2904 0
-1005 -2905 0
-1006 -2906 0
-1007 -2907 0
-1008 -2908 0
-1009 -1037 0
-1010 -1038 0
-1011 -1039 0
-1012 -1040 0
-1009 -1713 0
-1010 -1714 0
-1011 -1715 0
-1012 -1716 0
-1009 -2245 0
-1010 -2246 0
-1011 -2247 0
-1012 -2248 0
-1009 -2917 0
-1010 -2918 0
-1011 -2919 0
-1012 -2920 0
-1009 -2925 0
-1010 -2926 0
-1011 -2927 0
-1012 -2928 0
-1013 -1017 0
-1014 -1018 0
-1015 -1019 0
-1016 -1020 0
-1013 -1025 0
-1014 -1026 0
-1015 -1027 0
-1016 -1028 0
-1013 -1053 0
-1014 -1054 0
-1015 -1055 0
-1016 -1056 0
-1013 -1153 0
-1014 -1154 0
-1015 -1155 0
-1016 -1156 0
-1013 -1745 0
-1014 -1746 0
-1015 -1747 0
-1016 -1748 0
-1013 -2253 0
-1014 -2254 0
-1015 -2255 0
-1016 -2256 0
-1013 -2929 0
-1014 -2930 0
-1015 -2931 0
-1016 -2932 0
-1017 -1021 0
-1018 -1022 0
-1019 -1023 0
-1020 -1024 0
-1017 -1033 0
-1018 -1034 0
-1019 -1035 0
-1020 -1036 0
-1017 -1053 0
-1018 -1054 0
-1019 -1055 0
-1020 -1056 0
-1017 -1349 0
-1018 -1350 0
-1019 -1351 0
-1020 -1352 0
-1017 -1753 0
-1018 -1754 0
-1019 -1755 0
-1020 -1756 0
-1017 -2109 0
-1018 -2110 0
-1019 -2111 0
-1020 -2112 0
-1017 -2257 0
-1018 -2258 0
-1019 -2259 0
-1020 -2260 0
-1017 -2933 0
-1018 -2934 0
-1019 -2935 0
-1020 -2936 0
-1021 -1065 0
-1022 -1066 0
-1023 -1067 0
-1024 -1068 0
-1021 -1353 0
-1022 -1354 0
-1023 -1355 0
-1024 -1356 0
-1021 -2933 0
-1022 -2934 0
-1023 -2935 0
-1024 -2936 0
-1025 -1029 0
-1026 -1030 0
-1027 -1031 0
-1028 -1032 0
-1025 -1033 0
-1026 -1034 0
-1027 -1035 0
-1028 -1036 0
-1025 -1037 0
-1026 -1038 0
-1027 -1039 0
-1028 -1040 0
-1025 -1073 0
-1026 -1074 0
-1027 -1075 0
-1028 -1076 0
-1025 -1157 0
-1026 -1158 0
-1027 -1159 0
-1028 -1160 0
-1025 -1857 0
-1026 -1858 0
-1027 -1859 0
-1028 -1860 0
-1025 -2941 0
-1026 -2942 0
-1027 -2943 0
-1028 -2944 0
-1025 -2953 0
-1026 -2954 0
-1027 -2955 0
-1028 -2956 0
-1029 -1161 0
-1030 -1162 0
-1031 -1163 0
-1032 -1164 0
-1029 -2261 0
-1030 -2262 0
-1031 -2263 0
-1032 -2264 0
-1029 -2945 0
-1030 -2946 0
-1031 -2947 0
-1032 -2948 0
-1029 -2957 0
-1030 -2958 0
-1031 -2959 0
-1032 -2960 0
-1033 -1073 0
-1034 -1074 0
-1035 -1075 0
-1036 -1076 0
-1033 -1361 0
-1034 -1362 0
-1035 -1363 0
-1036 -1364 0
-1033 -1781 0
-1034 -1782 0
-1035 -1783 0
-1036 -1784 0
-1033 -2949 0
-1034 -2950 0
-1035 -2951 0
-1036 -2952 0
-1033 -2961 0
-1034 -2962 0
-1035 -2963 0
-1036 -2964 0
-1037 -1573 0
-1038 -1574 0
-1039 -1575 0
-1040 -1576 0
-1037 -1793 0
-1038 -1794 0
-1039 -1795 0
-1040 -1796 0
-1037 -2721 0
-1038 -2722 0
-1039 -2723 0
-1040 -2724 0
-1037 -2965 0
-1038 -2966 0
-1039 -2967 0
-1040 -2968 0
-1037 -2969 0
-1038 -2970 0
-1039 -2971 0
-1040 -2972 0
-1041 -1045 0
-1042 -1046 0
-1043 -1047 0
-1044 -1048 0
-1041 -1049 0
-1042 -1050 0
-1043 -1051 0
-1044 -1052 0
-1041 -1053 0
-1042 -1054 0
-1043 -1055 0
-1044 -1056 0
-1041 -1377 0
-1042 -1378 0
-1043 -1379 0
-1044 -1380 0
-1041 -2293 0
-1042 -2294 0
-1043 -2295 0
-1044 -2296 0
-1041 -2889 0
-1042 -2890 0
-1043 -2891 0
-1044 -2892 0
-1041 -2977 0
-1042 -2978 0
-1043 -2979 0
-1044 -2980 0
-1045 -1061 0
-1046 -1062 0
-1047 -1063 0
-1048 -1064 0
-1045 -1065 0
-1046 -1066 0
-1047 -1067 0
-1048 -1068 0
-1045 -1389 0
-1046 -1390 0
-1047 -1391 0
-1048 -1392 0
-1045 -2297 0
-1046 -2298 0
-1047 -2299 0
-1048 -2300 0
-1045 -2977 0
-1046 -2978 0
-1047 -2979 0
-1048 -2980 0
-1049 -1053 0
-1050 -1054 0
-1051 -1055 0
-1052 -1056 0
-1049 -1057 0
-1050 -1058 0
-1051 -1059 0
-1052 -1060 0
-1049 -1061 0
-1050 -1062 0
-1051 -1063 0
-1052 -1064 0
-1049 -1201 0
-1050 -1202 0
-1051 -1203 0
-1052 -1204 0
-1049 -1541 0
-1050 -1542 0
-1051 -1543 0
-1052 -1544 0
-1049 -2309 0
-1050 -2310 0
-1051 -2311 0
-1052 -2312 0
-1049 -2733 0
-1050 -2734 0
-1051 -2735 0
-1052 -2736 0
-1049 -2909 0
-1050 -2910 0
-1051 -2911 0
-1052 -2912 0
-1049 -2981 0
-1050 -2982 0
-1051 -2983 0
-1052 -2984 0
-1053 -1065 0
-1054 -1066 0
-1055 -1067 0
-1056 -1068 0
-1053 -1073 0
-1054 -1074 0
-1055 -1075 0
-1056 -1076 0
-1053 -1417 0
-1054 -1418 0
-1055 -1419 0
-1056 -1420 0
-1053 -1545 0
-1054 -1546 0
-1055 -1547 0
-1056 -1548 0
-1053 -2121 0
-1054 -2122 0
-1055 -2123 0
-1056 -2124 0
-1053 -2313 0
-1054 -2314 0
-1055 -2315 0
-1056 -2316 0
-1053 -2317 0
-1054 -2318 0
-1055 -2319 0
-1056 -2320 0
-1053 -2913 0
-1054 -2914 0
-1055 -2915 0
-1056 -2916 0
-1053 -2985 0
-1054 -2986 0
-1055 -2987 0
-1056 -2988 0
-1053 -3217 0
-1054 -3218 0
-1055 -3219 0
-1056 -3220 0
-1057 -1069 0
-1058 -1070 0
-1059 -1071 0
-1060 -1072 0
-1057 -1233 0
-1058 -1234 0
-1059 -1235 0
-1060 -1236 0
-1057 -1533 0
-1058 -1534 0
-1059 -1535 0
-1060 -1536 0
-1057 -1841 0
-1058 -1842 0
-1059 -1843 0
-1060 -1844 0
-1057 -2141 0
-1058 -2142 0
-1059 -2143 0
-1060 -2144 0
-1057 -2737 0
-1058 -2738 0
-1059 -2739 0
-1060 -2740 0
-1057 -2901 0
-1058 -2902 0
-1059 -2903 0
-1060 -2904 0
-1057 -2917 0
-1058 -2918 0
-1059 -2919 0
-1060 -2920 0
-1057 -2989 0
-1058 -2990 0
-1059 -2991 0
-1060 -2992 0
-1061 -1065 0
-1062 -1066 0
-1063 -1067 0
-1064 -1068 0
-1061 -1069 0
-1062 -1070 0
-1063 -1071 0
-1064 -1072 0
-1061 -1205 0
-1062 -1206 0
-1063 -1207 0
-1064 -1208 0
-1061 -1549 0
-1062 -1550 0
-1063 -1551 0
-1064 -1552 0
-1061 -2741 0
-1062 -2742 0
-1063 -2743 0
-1064 -2744 0
-1061 -2921 0
-1062 -2922 0
-1063 -2923 0
-1064 -2924 0
-1061 -2981 0
-1062 -2982 0
-1063 -2983 0
-1064 -2984 0
-1065 -1077 0
-1066 -1078 0
-1067 -1079 0
-1068 -1080 0
-1065 -1433 0
-1066 -1434 0
-1067 -1435 0
-1068 -1436 0
-1065 -2325 0
-1066 -2326 0
-1067 -2327 0
-1068 -2328 0
-1065 -2985 0
-1066 -2986 0
-1067 -2987 0
-1068 -2988 0
-1065 -3221 0
-1066 -3222 0
-1067 -3223 0
-1068 -3224 0
-1069 -1081 0
-1070 -1082 0
-1071 -1083 0
-1072 -1084 0
-1069 -1257 0
-1070 -1258 0
-1071 -1259 0
-1072 -1260 0
-1069 -1441 0
-1070 -1442 0
-1071 -1443 0
-1072 -1444 0
-1069 -1845 0
-1070 -1846 0
-1071 -1847 0
-1072 -1848 0
-1069 -2145 0
-1070 -2146 0
-1071 -2147 0
-1072 -2148 0
-1069 -2329 0
-1070 -2330 0
-1071 -2331 0
-1072 -2332 0
-1069 -2745 0
-1070 -2746 0
-1071 -2747 0
-1072 -2748 0
-1069 -2905 0
-1070 -2906 0
-1071 -2907 0
-1072 -2908 0
-1069 -2925 0
-1070 -2926 0
-1071 -2927 0
-1072 -2928 0
-1069 -2989 0
-1070 -2990 0
-1071 -2991 0
-1072 -2992 0
-1073 -1077 0
-1074 -1078 0
-1075 -1079 0
-1076 -1080 0
-1073 -1229 0
-1074 -1230 0
-1075 -1231 0
-1076 -1232 0
-1073 -1465 0
-1074 -1466 0
-1075 -1467 0
-1076 -1468 0
-1073 -2333 0
-1074 -2334 0
-1075 -2335 0
-1076 -2336 0
-1073 -2997 0
-1074 -2998 0
-1075 -2999 0
-1076 -3000 0
-1073 -3001 0
-1074 -3002 0
-1075 -3003 0
-1076 -3004 0
-1077 -1253 0
-1078 -1254 0
-1079 -1255 0
-1080 -1256 0
-1077 -1469 0
-1078 -1470 0
-1079 -1471 0
-1080 -1472 0
-1077 -2341 0
-1078 -2342 0
-1079 -2343 0
-1080 -2344 0
-1077 -3001 0
-1078 -3002 0
-1079 -3003 0
-1080 -3004 0
-1081 -1313 0
-1082 -1314 0
-1083 -1315 0
-1084 -1316 0
-1081 -1565 0
-1082 -1566 0
-1083 -1567 0
-1084 -1568 0
-1081 -2125 0
-1082 -2126 0
-1083 -2127 0
-1084 -2128 0
-1081 -2749 0
-1082 -2750 0
-1083 -2751 0
-1084 -2752 0
-1081 -2953 0
-1082 -2954 0
-1083 -2955 0
-1084 -2956 0
-1081 -2969 0
-1082 -2970 0
-1083 -2971 0
-1084 -2972 0
-1085 -1089 0
-1086 -1090 0
-1087 -1091 0
-1088 -1092 0
-1085 -1093 0
-1086 -1094 0
-1087 -1095 0
-1088 -1096 0
-1085 -1153 0
-1086 -1154 0
-1087 -1155 0
-1088 -1156 0
-1085 -1161 0
-1086 -1162 0
-1087 -1163 0
-1088 -1164 0
-1085 -1393 0
-1086 -1394 0
-1087 -1395 0
-1088 -1396 0
-1085 -1921 0
-1086 -1922 0
-1087 -1923 0
-1088 -1924 0
-1085 -2157 0
-1086 -2158 0
-1087 -2159 0
-1088 -2160 0
-1085 -3005 0
-1086 -3006 0
-1087 -3007 0
-1088 -3008 0
-1085 -3241 0
-1086 -3242 0
-1087 -3243 0
-1088 -3244 0
-1089 -1105 0
-1090 -1106 0
-1091 -1107 0
-1092 -1108 0
-1089 -1165 0
-1090 -1166 0
-1091 -1167 0
-1092 -1168 0
-1089 -1929 0
-1090 -1930 0
-1091 -1931 0
-1092 -1932 0
-1089 -2173 0
-1090 -2174 0
-1091 -2175 0
-1092 -2176 0
-1089 -3005 0
-1090 -3006 0
-1091 -3007 0
-1092 -3008 0
-1093 -1097 0
-1094 -1098 0
-1095 -1099 0
-1096 -1100 0
-1093 -1105 0
-1094 -1106 0
-1095 -1107 0
-1096 -1108 0
-1093 -1113 0
-1094 -1114 0
-1095 -1115 0
-1096 -1116 0
-1093 -1181 0
-1094 -1182 0
-1095 -1183 0
-1096 -1184 0
-1093 -1185 0
-1094 -1186 0
-1095 -1187 0
-1096 -1188 0
-1093 -1433 0
-1094 -1434 0
-1095 -1435 0
-1096 -1436 0
-1093 -1605 0
-1094 -1606 0
-1095 -1607 0
-1096 -1608 0
-1093 -1957 0
-1094 -1958 0
-1095 -1959 0
-1096 -1960 0
-1093 -2757 0
-1094 -2758 0
-1095 -2759 0
-1096 -2760 0
-1093 -2761 0
-1094 -2762 0
-1095 -2763 0
-1096 -2764 0
-1093 -3013 0
-1094 -3014 0
-1095 -3015 0
-1096 -3016 0
-1093 -3045 0
-1094 -3046 0
-1095 -3047 0
-1096 -3048 0
-1093 -3061 0
-1094 -3062 0
-1095 -3063 0
-1096 -3064 0
-1097 -1101 0
-1098 -1102 0
-1099 -1103 0
-1100 -1104 0
-1097 -1109 0
-1098 -1110 0
-1099 -1111 0
-1100 -1112 0
-1097 -1113 0
-1098 -1114 0
-1099 -1115 0
-1100 -1116 0
-1097 -1361 0
-1098 -1362 0
-1099 -1363 0
-1100 -1364 0
-1097 -1437 0
-1098 -1438 0
-1099 -1439 0
-1100 -1440 0
-1097 -1621 0
-1098 -1622 0
-1099 -1623 0
-1100 -1624 0
-1097 -2169 0
-1098 -2170 0
-1099 -2171 0
-1100 -2172 0
-1097 -2417 0
-1098 -2418 0
-1099 -2419 0
-1100 -2420 0
-1097 -3009 0
-1098 -3010 0
-1099 -3011 0
-1100 -3012 0
-1097 -3021 0
-1098 -3022 0
-1099 -3023 0
-1100 -3024 0
-1097 -3049 0
-1098 -3050 0
-1099 -3051 0
-1100 -3052 0
-1097 -3065 0
-1098 -3066 0
-1099 -3067 0
-1100 -3068 0
-1101 -1117 0
-1102 -1118 0
-1103 -1119 0
-1104 -1120 0
-1101 -1453 0
-1102 -1454 0
-1103 -1455 0
-1104 -1456 0
-1101 -1865 0
-1102 -1866 0
-1103 -1867 0
-1104 -1868 0
-1101 -2177 0
-1102 -2178 0
-1103 -2179 0
-1104 -2180 0
-1101 -3053 0
-1102 -3054 0
-1103 -3055 0
-1104 -3056 0
-1105 -1109 0
-1106 -1110 0
-1107 -1111 0
-1108 -1112 0
-1105 -1121 0
-1106 -1122 0
-1107 -1123 0
-1108 -1124 0
-1105 -1193 0
-1106 -1194 0
-1107 -1195 0
-1108 -1196 0
-1105 -1981 0
-1106 -1982 0
-1107 -1983 0
-1108 -1984 0
-1105 -2765 0
-1106 -2766 0
-1107 -2767 0
-1108 -2768 0
-1105 -3013 0
-1106 -3014 0
-1107 -3015 0
-1108 -3016 0
-1109 -1121 0
-1110 -1122 0
-1111 -1123 0
-1112 -1124 0
-1109 -1365 0
-1110 -1366 0
-1111 -1367 0
-1112 -1368 0
-1109 -1625 0
-1110 -1626 0
-1111 -1627 0
-1112 -1628 0
-1109 -1993 0
-1110 -1994 0
-1111 -1995 0
-1112 -1996 0
-1109 -3021 0
-1110 -3022 0
-1111 -3023 0
-1112 -3024 0
-1113 -1117 0
-1114 -1118 0
-1115 -1119 0
-1116 -1120 0
-1113 -1121 0
-1114 -1122 0
-1115 -1123 0
-1116 -1124 0
-1113 -1277 0
-1114 -1278 0
-1115 -1279 0
-1116 -1280 0
-1113 -1333 0
-1114 -1334 0
-1115 -1335 0
-1116 -1336 0
-1113 -1465 0
-1114 -1466 0
-1115 -1467 0
-1116 -1468 0
-1113 -1613 0
-1114 -1614 0
-1115 -1615 0
-1116 -1616 0
-1113 -1897 0
-1114 -1898 0
-1115 -1899 0
-1116 -1900 0
-1113 -2425 0
-1114 -2426 0
-1115 -2427 0
-1116 -2428 0
-1113 -2829 0
-1114 -2830 0
-1115 -2831 0
-1116 -2832 0
-1113 -3025 0
-1114 -3026 0
-1115 -3027 0
-1116 -3028 0
-1113 -3117 0
-1114 -3118 0
-1115 -3119 0
-1116 -3120 0
-1117 -1125 0
-1118 -1126 0
-1119 -1127 0
-1120 -1128 0
-1117 -1277 0
-1118 -1278 0
-1119 -1279 0
-1120 -1280 0
-1117 -1521 0
-1118 -1522 0
-1119 -1523 0
-1120 -1524 0
-1117 -1581 0
-1118 -1582 0
-1119 -1583 0
-1120 -1584 0
-1117 -1901 0
-1118 -1902 0
-1119 -1903 0
-1120 -1904 0
-1117 -2217 0
-1118 -2218 0
-1119 -2219 0
-1120 -2220 0
-1117 -2429 0
-1118 -2430 0
-1119 -2431 0
-1120 -2432 0
-1117 -3029 0
-1118 -3030 0
-1119 -3031 0
-1120 -3032 0
-1117 -3121 0
-1118 -3122 0
-1119 -3123 0
-1120 -3124 0
-1121 -1125 0
-1122 -1126 0
-1123 -1127 0
-1124 -1128 0
-1121 -1285 0
-1122 -1286 0
-1123 -1287 0
-1124 -1288 0
-1121 -1341 0
-1122 -1342 0
-1123 -1343 0
-1124 -1344 0
-1121 -1469 0
-1122 -1470 0
-1123 -1471 0
-1124 -1472 0
-1121 -1909 0
-1122 -1910 0
-1123 -1911 0
-1124 -1912 0
-1121 -2065 0
-1122 -2066 0
-1123 -2067 0
-1124 -2068 0
-1121 -2433 0
-1122 -2434 0
-1123 -2435 0
-1124 -2436 0
-1121 -3025 0
-1122 -3026 0
-1123 -3027 0
-1124 -3028 0
-1125 -1285 0
-1126 -1286 0
-1127 -1287 0
-1128 -1288 0
-1125 -1913 0
-1126 -1914 0
-1127 -1915 0
-1128 -1916 0
-1125 -2073 0
-1126 -2074 0
-1127 -2075 0
-1128 -2076 0
-1125 -2437 0
-1126 -2438 0
-1127 -2439 0
-1128 -2440 0
-1125 -3029 0
-1126 -3030 0
-1127 -3031 0
-1128 -3032 0
-1129 -1133 0
-1130 -1134 0
-1131 -1135 0
-1132 -1136 0
-1129 -1289 0
-1130 -1290 0
-1131 -1291 0
-1132 -1292 0
-1129 -1293 0
-1130 -1294 0
-1131 -1295 0
-1132 -1296 0
-1129 -1917 0
-1130 -1918 0
-1131 -1919 0
-1132 -1920 0
-1129 -2429 0
-1130 -2430 0
-1131 -2431 0
-1132 -2432 0
-1129 -3033 0
-1130 -3034 0
-1131 -3035 0
-1132 -3036 0
-1133 -1137 0
-1134 -1138 0
-1135 -1139 0
-1136 -1140 0
-1133 -1141 0
-1134 -1142 0
-1135 -1143 0
-1136 -1144 0
-1133 -1301 0
-1134 -1302 0
-1135 -1303 0
-1136 -1304 0
-1133 -1305 0
-1134 -1306 0
-1135 -1307 0
-1136 -1308 0
-1133 -1477 0
-1134 -1478 0
-1135 -1479 0
-1136 -1480 0
-1133 -1925 0
-1134 -1926 0
-1135 -1927 0
-1136 -1928 0
-1133 -2233 0
-1134 -2234 0
-1135 -2235 0
-1136 -2236 0
-1133 -2437 0
-1134 -2438 0
-1135 -2439 0
-1136 -2440 0
-1133 -2845 0
-1134 -2846 0
-1135 -2847 0
-1136 -2848 0
-1133 -2861 0
-1134 -2862 0
-1135 -2863 0
-1136 -2864 0
-1133 -3005 0
-1134 -3006 0
-1135 -3007 0
-1136 -3008 0
-1133 -3033 0
-1134 -3034 0
-1135 -3035 0
-1136 -3036 0
-1133 -3301 0
-1134 -3302 0
-1135 -3303 0
-1136 -3304 0
-1137 -1141 0
-1138 -1142 0
-1139 -1143 0
-1140 -1144 0
-1137 -1645 0
-1138 -1646 0
-1139 -1647 0
-1140 -1648 0
-1137 -1973 0
-1138 -1974 0
-1139 -1975 0
-1140 -1976 0
-1137 -2201 0
-1138 -2202 0
-1139 -2203 0
-1140 -2204 0
-1137 -2857 0
-1138 -2858 0
-1139 -2859 0
-1140 -2860 0
-1137 -2865 0
-1138 -2866 0
-1139 -2867 0
-1140 -2868 0
-1137 -3013 0
-1138 -3014 0
-1139 -3015 0
-1140 -3016 0
-1141 -1317 0
-1142 -1318 0
-1143 -1319 0
-1144 -1320 0
-1141 -1673 0
-1142 -1674 0
-1143 -1675 0
-1144 -1676 0
-1141 -1977 0
-1142 -1978 0
-1143 -1979 0
-1144 -1980 0
-1141 -2869 0
-1142 -2870 0
-1143 -2871 0
-1144 -2872 0
-1141 -3017 0
-1142 -3018 0
-1143 -3019 0
-1144 -3020 0
-1145 -1149 0
-1146 -1150 0
-1147 -1151 0
-1148 -1152 0
-1145 -1197 0
-1146 -1198 0
-1147 -1199 0
-1148 -1200 0
-1145 -1689 0
-1146 -1690 0
-1147 -1691 0
-1148 -1692 0
-1145 -3045 0
-1146 -3046 0
-1147 -3047 0
-1148 -3048 0
-1149 -1169 0
-1150 -1170 0
-1151 -1171 0
-1152 -1172 0
-1149 -1197 0
-1150 -1198 0
-1151 -1199 0
-1152 -1200 0
-1149 -1681 0
-1150 -1682 0
-1151 -1683 0
-1152 -1684 0
-1149 -3041 0
-1150 -3042 0
-1151 -3043 0
-1152 -3044 0
-1149 -3049 0
-1150 -3050 0
-1151 -3051 0
-1152 -3052 0
-1153 -1161 0
-1154 -1162 0
-1155 -1163 0
-1156 -1164 0
-1153 -1169 0
-1154 -1170 0
-1155 -1171 0
-1156 -1172 0
-1153 -1181 0
-1154 -1182 0
-1155 -1183 0
-1156 -1184 0
-1153 -1745 0
-1154 -1746 0
-1155 -1747 0
-1156 -1748 0
-1153 -2461 0
-1154 -2462 0
-1155 -2463 0
-1156 -2464 0
-1153 -3073 0
-1154 -3074 0
-1155 -3075 0
-1156 -3076 0
-1153 -3365 0
-1154 -3366 0
-1155 -3367 0
-1156 -3368 0
-1157 -1161 0
-1158 -1162 0
-1159 -1163 0
-1160 -1164 0
-1157 -1217 0
-1158 -1218 0
-1159 -1219 0
-1160 -1220 0
-1157 -1229 0
-1158 -1230 0
-1159 -1231 0
-1160 -1232 0
-1157 -2105 0
-1158 -2106 0
-1159 -2107 0
-1160 -2108 0
-1157 -3077 0
-1158 -3078 0
-1159 -3079 0
-1160 -3080 0
-1161 -1165 0
-1162 -1166 0
-1163 -1167 0
-1164 -1168 0
-1161 -1173 0
-1162 -1174 0
-1163 -1175 0
-1164 -1176 0
-1161 -1185 0
-1162 -1186 0
-1163 -1187 0
-1164 -1188 0
-1161 -1189 0
-1162 -1190 0
-1163 -1191 0
-1164 -1192 0
-1161 -1221 0
-1162 -1222 0
-1163 -1223 0
-1164 -1224 0
-1161 -1237 0
-1162 -1238 0
-1163 -1239 0
-1164 -1240 0
-1161 -1545 0
-1162 -1546 0
-1163 -1547 0
-1164 -1548 0
-1161 -1681 0
-1162 -1682 0
-1163 -1683 0
-1164 -1684 0
-1161 -1733 0
-1162 -1734 0
-1163 -1735 0
-1164 -1736 0
-1161 -1937 0
-1162 -1938 0
-1163 -1939 0
-1164 -1940 0
-1161 -2261 0
-1162 -2262 0
-1163 -2263 0
-1164 -2264 0
-1161 -2269 0
-1162 -2270 0
-1163 -2271 0
-1164 -2272 0
-1161 -3085 0
-1162 -3086 0
-1163 -3087 0
-1164 -3088 0
-1165 -1177 0
-1166 -1178 0
-1167 -1179 0
-1168 -1180 0
-1165 -1193 0
-1166 -1194 0
-1167 -1195 0
-1168 -1196 0
-1165 -1245 0
-1166 -1246 0
-1167 -1247 0
-1168 -1248 0
-1165 -1261 0
-1166 -1262 0
-1167 -1263 0
-1168 -1264 0
-1165 -1737 0
-1166 -1738 0
-1167 -1739 0
-1168 -1740 0
-1165 -1945 0
-1166 -1946 0
-1167 -1947 0
-1168 -1948 0
-1165 -2281 0
-1166 -2282 0
-1167 -2283 0
-1168 -2284 0
-1165 -3085 0
-1166 -3086 0
-1167 -3087 0
-1168 -3088 0
-1169 -1173 0
-1170 -1174 0
-1171 -1175 0
-1172 -1176 0
-1169 -1749 0
-1170 -1750 0
-1171 -1751 0
-1172 -1752 0
-1169 -2469 0
-1170 -2470 0
-1171 -2471 0
-1172 -2472 0
-1169 -2889 0
-1170 -2890 0
-1171 -2891 0
-1172 -2892 0
-1169 -3089 0
-1170 -3090 0
-1171 -3091 0
-1172 -3092 0
-1169 -3097 0
-1170 -3098 0
-1171 -3099 0
-1172 -3100 0
-1173 -1177 0
-1174 -1178 0
-1175 -1179 0
-1176 -1180 0
-1173 -1561 0
-1174 -1562 0
-1175 -1563 0
-1176 -1564 0
-1173 -1761 0
-1174 -1762 0
-1175 -1763 0
-1176 -1764 0
-1173 -1961 0
-1174 -1962 0
-1175 -1963 0
-1176 -1964 0
-1173 -2893 0
-1174 -2894 0
-1175 -2895 0
-1176 -2896 0
-1173 -3105 0
-1174 -3106 0
-1175 -3107 0
-1176 -3108 0
-1177 -1777 0
-1178 -1778 0
-1179 -1779 0
-1180 -1780 0
-1177 -1985 0
-1178 -1986 0
-1179 -1987 0
-1180 -1988 0
-1177 -2897 0
-1178 -2898 0
-1179 -2899 0
-1180 -2900 0
-1177 -3105 0
-1178 -3106 0
-1179 -3107 0
-1180 -3108 0
-1181 -1185 0
-1182 -1186 0
-1183 -1187 0
-1184 -1188 0
-1181 -1349 0
-1182 -1350 0
-1183 -1351 0
-1184 -1352 0
-1181 -1793 0
-1182 -1794 0
-1183 -1795 0
-1184 -1796 0
-1181 -2473 0
-1182 -2474 0
-1183 -2475 0
-1184 -2476 0
-1185 -1189 0
-1186 -1190 0
-1187 -1191 0
-1188 -1192 0
-1185 -1193 0
-1186 -1194 0
-1187 -1195 0
-1188 -1196 0
-1185 -1277 0
-1186 -1278 0
-1187 -1279 0
-1188 -1280 0
-1185 -1785 0
-1186 -1786 0
-1187 -1787 0
-1188 -1788 0
-1185 -2001 0
-1186 -2002 0
-1187 -2003 0
-1188 -2004 0
-1185 -2477 0
-1186 -2478 0
-1187 -2479 0
-1188 -2480 0
-1185 -2901 0
-1186 -2902 0
-1187 -2903 0
-1188 -2904 0
-1185 -3113 0
-1186 -3114 0
-1187 -3115 0
-1188 -3116 0
-1189 -1789 0
-1190 -1790 0
-1191 -1791 0
-1192 -1792 0
-1189 -2273 0
-1190 -2274 0
-1191 -2275 0
-1192 -2276 0
-1189 -2481 0
-1190 -2482 0
-1191 -2483 0
-1192 -2484 0
-1193 -1285 0
-1194 -1286 0
-1195 -1287 0
-1196 -1288 0
-1193 -1357 0
-1194 -1358 0
-1195 -1359 0
-1196 -1360 0
-1193 -2005 0
-1194 -2006 0
-1195 -2007 0
-1196 -2008 0
-1193 -2289 0
-1194 -2290 0
-1195 -2291 0
-1196 -2292 0
-1193 -2489 0
-1194 -2490 0
-1195 -2491 0
-1196 -2492 0
-1193 -2905 0
-1194 -2906 0
-1195 -2907 0
-1196 -2908 0
-1193 -3113 0
-1194 -3114 0
-1195 -3115 0
-1196 -3116 0
-1197 -1701 0
-1198 -1702 0
-1199 -1703 0
-1200 -1704 0
-1197 -2913 0
-1198 -2914 0
-1199 -2915 0
-1200 -2916 0
-1197 -3117 0
-1198 -3118 0
-1199 -3119 0
-1200 -3120 0
-1201 -1205 0
-1202 -1206 0
-1203 -1207 0
-1204 -1208 0
-1201 -1225 0
-1202 -1226 0
-1203 -1227 0
-1204 -1228 0
-1201 -1289 0
-1202 -1290 0
-1203 -1291 0
-1204 -1292 0
-1201 -2013 0
-1202 -2014 0
-1203 -2015 0
-1204 -2016 0
-1201 -2505 0
-1202 -2506 0
-1203 -2507 0
-1204 -2508 0
-1201 -3041 0
-1202 -3042 0
-1203 -3043 0
-1204 -3044 0
-1201 -3125 0
-1202 -3126 0
-1203 -3127 0
-1204 -3128 0
-1205 -1209 0
-1206 -1210 0
-1207 -1211 0
-1208 -1212 0
-1205 -1249 0
-1206 -1250 0
-1207 -1251 0
-1208 -1252 0
-1205 -1297 0
-1206 -1298 0
-1207 -1299 0
-1208 -1300 0
-1205 -1301 0
-1206 -1302 0
-1207 -1303 0
-1208 -1304 0
-1205 -1585 0
-1206 -1586 0
-1207 -1587 0
-1208 -1588 0
-1205 -1721 0
-1206 -1722 0
-1207 -1723 0
-1208 -1724 0
-1205 -2021 0
-1206 -2022 0
-1207 -2023 0
-1208 -2024 0
-1205 -2513 0
-1206 -2514 0
-1207 -2515 0
-1208 -2516 0
-1205 -2933 0
-1206 -2934 0
-1207 -2935 0
-1208 -2936 0
-1205 -3037 0
-1206 -3038 0
-1207 -3039 0
-1208 -3040 0
-1205 -3049 0
-1206 -3050 0
-1207 -3051 0
-1208 -3052 0
-1205 -3125 0
-1206 -3126 0
-1207 -3127 0
-1208 -3128 0
-1205 -3129 0
-1206 -3130 0
-1207 -3131 0
-1208 -3132 0
-1205 -3213 0
-1206 -3214 0
-1207 -3215 0
-1208 -3216 0
-1209 -1257 0
-1210 -1258 0
-1211 -1259 0
-1212 -1260 0
-1209 -1301 0
-1210 -1302 0
-1211 -1303 0
-1212 -1304 0
-1209 -1541 0
-1210 -1542 0
-1211 -1543 0
-1212 -1544 0
-1209 -1837 0
-1210 -1838 0
-1211 -1839 0
-1212 -1840 0
-1209 -2517 0
-1210 -2518 0
-1211 -2519 0
-1212 -2520 0
-1213 -1217 0
-1214 -1218 0
-1215 -1219 0
-1216 -1220 0
-1213 -1225 0
-1214 -1226 0
-1215 -1227 0
-1216 -1228 0
-1213 -1241 0
-1214 -1242 0
-1215 -1243 0
-1216 -1244 0
-1213 -1689 0
-1214 -1690 0
-1215 -1691 0
-1216 -1692 0
-1213 -2941 0
-1214 -2942 0
-1215 -2943 0
-1216 -2944 0
-1213 -3133 0
-1214 -3134 0
-1215 -3135 0
-1216 -3136 0
-1217 -1221 0
-1218 -1222 0
-1219 -1223 0
-1220 -1224 0
-1217 -1229 0
-1218 -1230 0
-1219 -1231 0
-1220 -1232 0
-1217 -1693 0
-1218 -1694 0
-1219 -1695 0
-1220 -1696 0
-1221 -1237 0
-1222 -1238 0
-1223 -1239 0
-1224 -1240 0
-1221 -1245 0
-1222 -1246 0
-1223 -1247 0
-1224 -1248 0
-1221 -1701 0
-1222 -1702 0
-1223 -1703 0
-1224 -1704 0
-1221 -2369 0
-1222 -2370 0
-1223 -2371 0
-1224 -2372 0
-1221 -3137 0
-1222 -3138 0
-1223 -3139 0
-1224 -3140 0
-1225 -1229 0
-1226 -1230 0
-1227 -1231 0
-1228 -1232 0
-1225 -1233 0
-1226 -1234 0
-1227 -1235 0
-1228 -1236 0
-1225 -1249 0
-1226 -1250 0
-1227 -1251 0
-1228 -1252 0
-1225 -1273 0
-1226 -1274 0
-1227 -1275 0
-1228 -1276 0
-1225 -1309 0
-1226 -1310 0
-1227 -1311 0
-1228 -1312 0
-1225 -1733 0
-1226 -1734 0
-1227 -1735 0
-1228 -1736 0
-1225 -2033 0
-1226 -2034 0
-1227 -2035 0
-1228 -2036 0
-1225 -2949 0
-1226 -2950 0
-1227 -2951 0
-1228 -2952 0
-1225 -3057 0
-1226 -3058 0
-1227 -3059 0
-1228 -3060 0
-1225 -3141 0
-1226 -3142 0
-1227 -3143 0
-1228 -3144 0
-1229 -1237 0
-1230 -1238 0
-1231 -1239 0
-1232 -1240 0
-1229 -1253 0
-1230 -1254 0
-1231 -1255 0
-1232 -1256 0
-1229 -1273 0
-1230 -1274 0
-1231 -1275 0
-1232 -1276 0
-1229 -1597 0
-1230 -1598 0
-1231 -1599 0
-1232 -1600 0
-1229 -2117 0
-1230 -2118 0
-1231 -2119 0
-1232 -2120 0
-1229 -2333 0
-1230 -2334 0
-1231 -2335 0
-1232 -2336 0
-1229 -3145 0
-1230 -3146 0
-1231 -3147 0
-1232 -3148 0
-1233 -1237 0
-1234 -1238 0
-1235 -1239 0
-1236 -1240 0
-1233 -1257 0
-1234 -1258 0
-1235 -1259 0
-1236 -1260 0
-1233 -1277 0
-1234 -1278 0
-1235 -1279 0
-1236 -1280 0
-1233 -1309 0
-1234 -1310 0
-1235 -1311 0
-1236 -1312 0
-1233 -1385 0
-1234 -1386 0
-1235 -1387 0
-1236 -1388 0
-1233 -1841 0
-1234 -1842 0
-1235 -1843 0
-1236 -1844 0
-1233 -2521 0
-1234 -2522 0
-1235 -2523 0
-1236 -2524 0
-1233 -2525 0
-1234 -2526 0
-1235 -2527 0
-1236 -2528 0
-1233 -3149 0
-1234 -3150 0
-1235 -3151 0
-1236 -3152 0
-1237 -1261 0
-1238 -1262 0
-1239 -1263 0
-1240 -1264 0
-1237 -1277 0
-1238 -1278 0
-1239 -1279 0
-1240 -1280 0
-1237 -1601 0
-1238 -1602 0
-1239 -1603 0
-1240 -1604 0
-1237 -2337 0
-1238 -2338 0
-1239 -2339 0
-1240 -2340 0
-1237 -2529 0
-1238 -2530 0
-1239 -2531 0
-1240 -2532 0
-1237 -3153 0
-1238 -3154 0
-1239 -3155 0
-1240 -3156 0
-1241 -1249 0
-1242 -1250 0
-1243 -1251 0
-1244 -1252 0
-1241 -1265 0
-1242 -1266 0
-1243 -1267 0
-1244 -1268 0
-1241 -1705 0
-1242 -1706 0
-1243 -1707 0
-1244 -1708 0
-1241 -2373 0
-1242 -2374 0
-1243 -2375 0
-1244 -2376 0
-1241 -2953 0
-1242 -2954 0
-1243 -2955 0
-1244 -2956 0
-1241 -3061 0
-1242 -3062 0
-1243 -3063 0
-1244 -3064 0
-1241 -3133 0
-1242 -3134 0
-1243 -3135 0
-1244 -3136 0
-1245 -1261 0
-1246 -1262 0
-1247 -1263 0
-1248 -1264 0
-1245 -2381 0
-1246 -2382 0
-1247 -2383 0
-1248 -2384 0
-1245 -3137 0
-1246 -3138 0
-1247 -3139 0
-1248 -3140 0
-1249 -1253 0
-1250 -1254 0
-1251 -1255 0
-1252 -1256 0
-1249 -1257 0
-1250 -1258 0
-1251 -1259 0
-1252 -1260 0
-1249 -1269 0
-1250 -1270 0
-1251 -1271 0
-1252 -1272 0
-1249 -1281 0
-1250 -1282 0
-1251 -1283 0
-1252 -1284 0
-1249 -1313 0
-1250 -1314 0
-1251 -1315 0
-1252 -1316 0
-1249 -1605 0
-1250 -1606 0
-1251 -1607 0
-1252 -1608 0
-1249 -1737 0
-1250 -1738 0
-1251 -1739 0
-1252 -1740 0
-1249 -2037 0
-1250 -2038 0
-1251 -2039 0
-1252 -2040 0
-1249 -2129 0
-1250 -2130 0
-1251 -2131 0
-1252 -2132 0
-1249 -2293 0
-1250 -2294 0
-1251 -2295 0
-1252 -2296 0
-1249 -2961 0
-1250 -2962 0
-1251 -2963 0
-1252 -2964 0
-1249 -3065 0
-1250 -3066 0
-1251 -3067 0
-1252 -3068 0
-1249 -3141 0
-1250 -3142 0
-1251 -3143 0
-1252 -3144 0
-1249 -3157 0
-1250 -3158 0
-1251 -3159 0
-1252 -3160 0
-1249 -3213 0
-1250 -3214 0
-1251 -3215 0
-1252 -3216 0
-1249 -3401 0
-1250 -3402 0
-1251 -3403 0
-1252 -3404 0
-1253 -1261 0
-1254 -1262 0
-1255 -1263 0
-1256 -1264 0
-1253 -1281 0
-1254 -1282 0
-1255 -1283 0
-1256 -1284 0
-1253 -1609 0
-1254 -1610 0
-1255 -1611 0
-1256 -1612 0
-1253 -2133 0
-1254 -2134 0
-1255 -2135 0
-1256 -2136 0
-1253 -2341 0
-1254 -2342 0
-1255 -2343 0
-1256 -2344 0
-1253 -3145 0
-1254 -3146 0
-1255 -3147 0
-1256 -3148 0
-1253 -3161 0
-1254 -3162 0
-1255 -3163 0
-1256 -3164 0
-1253 -3405 0
-1254 -3406 0
-1255 -3407 0
-1256 -3408 0
-1257 -1261 0
-1258 -1262 0
-1259 -1263 0
-1260 -1264 0
-1257 -1285 0
-1258 -1286 0
-1259 -1287 0
-1260 -1288 0
-1257 -1313 0
-1258 -1314 0
-1259 -1315 0
-1260 -1316 0
-1257 -1401 0
-1258 -1402 0
-1259 -1403 0
-1260 -1404 0
-1257 -1845 0
-1258 -1846 0
-1259 -1847 0
-1260 -1848 0
-1257 -2041 0
-1258 -2042 0
-1259 -2043 0
-1260 -2044 0
-1257 -2385 0
-1258 -2386 0
-1259 -2387 0
-1260 -2388 0
-1257 -2533 0
-1258 -2534 0
-1259 -2535 0
-1260 -2536 0
-1257 -3149 0
-1258 -3150 0
-1259 -3151 0
-1260 -3152 0
-1261 -1285 0
-1262 -1286 0
-1263 -1287 0
-1264 -1288 0
-1261 -1613 0
-1262 -1614 0
-1263 -1615 0
-1264 -1616 0
-1261 -2345 0
-1262 -2346 0
-1263 -2347 0
-1264 -2348 0
-1261 -2537 0
-1262 -2538 0
-1263 -2539 0
-1264 -2540 0
-1261 -3153 0
-1262 -3154 0
-1263 -3155 0
-1264 -3156 0
-1265 -1269 0
-1266 -1270 0
-1267 -1271 0
-1268 -1272 0
-1265 -1773 0
-1266 -1774 0
-1267 -1775 0
-1268 -1776 0
-1265 -2969 0
-1266 -2970 0
-1267 -2971 0
-1268 -2972 0
-1265 -3061 0
-1266 -3062 0
-1267 -3063 0
-1268 -3064 0
-1269 -1573 0
-1270 -1574 0
-1271 -1575 0
-1272 -1576 0
-1269 -1617 0
-1270 -1618 0
-1271 -1619 0
-1272 -1620 0
-1269 -1777 0
-1270 -1778 0
-1271 -1779 0
-1272 -1780 0
-1269 -2057 0
-1270 -2058 0
-1271 -2059 0
-1272 -2060 0
-1269 -2301 0
-1270 -2302 0
-1271 -2303 0
-1272 -2304 0
-1269 -3065 0
-1270 -3066 0
-1271 -3067 0
-1272 -3068 0
-1269 -3165 0
-1270 -3166 0
-1271 -3167 0
-1272 -3168 0
-1269 -3169 0
-1270 -3170 0
-1271 -3171 0
-1272 -3172 0
-1273 -1277 0
-1274 -1278 0
-1275 -1279 0
-1276 -1280 0
-1273 -1281 0
-1274 -1282 0
-1275 -1283 0
-1276 -1284 0
-1273 -1321 0
-1274 -1322 0
-1275 -1323 0
-1276 -1324 0
-1273 -1789 0
-1274 -1790 0
-1275 -1791 0
-1276 -1792 0
-1273 -2141 0
-1274 -2142 0
-1275 -2143 0
-1276 -2144 0
-1273 -2373 0
-1274 -2374 0
-1275 -2375 0
-1276 -2376 0
-1273 -2573 0
-1274 -2574 0
-1275 -2575 0
-1276 -2576 0
-1273 -3177 0
-1274 -3178 0
-1275 -3179 0
-1276 -3180 0
-1277 -1285 0
-1278 -1286 0
-1279 -1287 0
-1280 -1288 0
-1277 -1321 0
-1278 -1322 0
-1279 -1323 0
-1280 -1324 0
-1277 -1429 0
-1278 -1430 0
-1279 -1431 0
-1280 -1432 0
-1277 -1717 0
-1278 -1718 0
-1279 -1719 0
-1280 -1720 0
-1277 -2097 0
-1278 -2098 0
-1279 -2099 0
-1280 -2100 0
-1277 -2377 0
-1278 -2378 0
-1279 -2379 0
-1280 -2380 0
-1277 -2581 0
-1278 -2582 0
-1279 -2583 0
-1280 -2584 0
-1277 -3181 0
-1278 -3182 0
-1279 -3183 0
-1280 -3184 0
-1277 -3217 0
-1278 -3218 0
-1279 -3219 0
-1280 -3220 0
-1281 -1285 0
-1282 -1286 0
-1283 -1287 0
-1284 -1288 0
-1281 -1325 0
-1282 -1326 0
-1283 -1327 0
-1284 -1328 0
-1281 -2145 0
-1282 -2146 0
-1283 -2147 0
-1284 -2148 0
-1281 -2313 0
-1282 -2314 0
-1283 -2315 0
-1284 -2316 0
-1281 -2609 0
-1282 -2610 0
-1283 -2611 0
-1284 -2612 0
-1281 -3177 0
-1282 -3178 0
-1283 -3179 0
-1284 -3180 0
-1281 -3185 0
-1282 -3186 0
-1283 -3187 0
-1284 -3188 0
-1285 -1325 0
-1286 -1326 0
-1287 -1327 0
-1288 -1328 0
-1285 -1453 0
-1286 -1454 0
-1287 -1455 0
-1288 -1456 0
-1285 -2101 0
-1286 -2102 0
-1287 -2103 0
-1288 -2104 0
-1285 -2617 0
-1286 -2618 0
-1287 -2619 0
-1288 -2620 0
-1285 -3181 0
-1286 -3182 0
-1287 -3183 0
-1288 -3184 0
-1285 -3221 0
-1286 -3222 0
-1287 -3223 0
-1288 -3224 0
-1289 -1293 0
-1290 -1294 0
-1291 -1295 0
-1292 -1296 0
-1289 -1301 0
-1290 -1302 0
-1291 -1303 0
-1292 -1304 0
-1289 -1309 0
-1290 -1310 0
-1291 -1311 0
-1292 -1312 0
-1289 -2581 0
-1290 -2582 0
-1291 -2583 0
-1292 -2584 0
-1289 -3089 0
-1290 -3090 0
-1291 -3091 0
-1292 -3092 0
-1289 -3189 0
-1290 -3190 0
-1291 -3191 0
-1292 -3192 0
-1289 -3225 0
-1290 -3226 0
-1291 -3227 0
-1292 -3228 0
-1293 -1305 0
-1294 -1306 0
-1295 -1307 0
-1296 -1308 0
-1293 -1725 0
-1294 -1726 0
-1295 -1727 0
-1296 -1728 0
-1293 -2105 0
-1294 -2106 0
-1295 -2107 0
-1296 -2108 0
-1293 -2597 0
-1294 -2598 0
-1295 -2599 0
-1296 -2600 0
-1293 -3193 0
-1294 -3194 0
-1295 -3195 0
-1296 -3196 0
-1297 -1301 0
-1298 -1302 0
-1299 -1303 0
-1300 -1304 0
-1297 -2317 0
-1298 -2318 0
-1299 -2319 0
-1300 -2320 0
-1297 -2609 0
-1298 -2610 0
-1299 -2611 0
-1300 -2612 0
-1297 -3069 0
-1298 -3070 0
-1299 -3071 0
-1300 -3072 0
-1297 -3093 0
-1298 -3094 0
-1299 -3095 0
-1300 -3096 0
-1297 -3417 0
-1298 -3418 0
-1299 -3419 0
-1300 -3420 0
-1301 -1305 0
-1302 -1306 0
-1303 -1307 0
-1304 -1308 0
-1301 -1313 0
-1302 -1314 0
-1303 -1315 0
-1304 -1316 0
-1301 -1317 0
-1302 -1318 0
-1303 -1319 0
-1304 -1320 0
-1301 -1577 0
-1302 -1578 0
-1303 -1579 0
-1304 -1580 0
-1301 -1629 0
-1302 -1630 0
-1303 -1631 0
-1304 -1632 0
-1301 -2109 0
-1302 -2110 0
-1303 -2111 0
-1304 -2112 0
-1301 -2321 0
-1302 -2322 0
-1303 -2323 0
-1304 -2324 0
-1301 -2617 0
-1302 -2618 0
-1303 -2619 0
-1304 -2620 0
-1301 -2977 0
-1302 -2978 0
-1303 -2979 0
-1304 -2980 0
-1301 -3073 0
-1302 -3074 0
-1303 -3075 0
-1304 -3076 0
-1301 -3097 0
-1302 -3098 0
-1303 -3099 0
-1304 -3100 0
-1301 -3189 0
-1302 -3190 0
-1303 -3191 0
-1304 -3192 0
-1301 -3197 0
-1302 -3198 0
-1303 -3199 0
-1304 -3200 0
-1301 -3229 0
-1302 -3230 0
-1303 -3231 0
-1304 -3232 0
-1301 -3421 0
-1302 -3422 0
-1303 -3423 0
-1304 -3424 0
-1305 -1637 0
-1306 -1638 0
-1307 -1639 0
-1308 -1640 0
-1305 -1729 0
-1306 -1730 0
-1307 -1731 0
-1308 -1732 0
-1305 -2077 0
-1306 -2078 0
-1307 -2079 0
-1308 -2080 0
-1305 -2113 0
-1306 -2114 0
-1307 -2115 0
-1308 -2116 0
-1305 -2405 0
-1306 -2406 0
-1307 -2407 0
-1308 -2408 0
-1305 -2633 0
-1306 -2634 0
-1307 -2635 0
-1308 -2636 0
-1305 -3085 0
-1306 -3086 0
-1307 -3087 0
-1308 -3088 0
-1305 -3105 0
-1306 -3106 0
-1307 -3107 0
-1308 -3108 0
-1305 -3193 0
-1306 -3194 0
-1307 -3195 0
-1308 -3196 0
-1309 -1313 0
-1310 -1314 0
-1311 -1315 0
-1312 -1316 0
-1309 -1321 0
-1310 -1322 0
-1311 -1323 0
-1312 -1324 0
-1309 -1749 0
-1310 -1750 0
-1311 -1751 0
-1312 -1752 0
-1309 -2645 0
-1310 -2646 0
-1311 -2647 0
-1312 -2648 0
-1309 -3201 0
-1310 -3202 0
-1311 -3203 0
-1312 -3204 0
-1309 -3225 0
-1310 -3226 0
-1311 -3227 0
-1312 -3228 0
-1313 -1325 0
-1314 -1326 0
-1315 -1327 0
-1316 -1328 0
-1313 -1481 0
-1314 -1482 0
-1315 -1483 0
-1316 -1484 0
-1313 -1769 0
-1314 -1770 0
-1315 -1771 0
-1316 -1772 0
-1313 -2085 0
-1314 -2086 0
-1315 -2087 0
-1316 -2088 0
-1313 -2337 0
-1314 -2338 0
-1315 -2339 0
-1316 -2340 0
-1313 -2649 0
-1314 -2650 0
-1315 -2651 0
-1316 -2652 0
-1313 -3201 0
-1314 -3202 0
-1315 -3203 0
-1316 -3204 0
-1313 -3205 0
-1314 -3206 0
-1315 -3207 0
-1316 -3208 0
-1313 -3229 0
-1314 -3230 0
-1315 -3231 0
-1316 -3232 0
-1313 -3429 0
-1314 -3430 0
-1315 -3431 0
-1316 -3432 0
-1317 -1325 0
-1318 -1326 0
-1319 -1327 0
-1320 -1328 0
-1317 -1853 0
-1318 -1854 0
-1319 -1855 0
-1320 -1856 0
-1317 -2665 0
-1318 -2666 0
-1319 -2667 0
-1320 -2668 0
-1317 -2985 0
-1318 -2986 0
-1319 -2987 0
-1320 -2988 0
-1317 -3109 0
-1318 -3110 0
-1319 -3111 0
-1320 -3112 0
-1317 -3233 0
-1318 -3234 0
-1319 -3235 0
-1320 -3236 0
-1321 -1325 0
-1322 -1326 0
-1323 -1327 0
-1324 -1328 0
-1321 -1489 0
-1322 -1490 0
-1323 -1491 0
-1324 -1492 0
-1321 -1797 0
-1322 -1798 0
-1323 -1799 0
-1324 -1800 0
-1321 -2369 0
-1322 -2370 0
-1323 -2371 0
-1324 -2372 0
-1321 -2669 0
-1322 -2670 0
-1323 -2671 0
-1324 -2672 0
-1321 -2997 0
-1322 -2998 0
-1323 -2999 0
-1324 -3000 0
-1321 -3209 0
-1322 -3210 0
-1323 -3211 0
-1324 -3212 0
-1325 -1501 0
-1326 -1502 0
-1327 -1503 0
-1328 -1504 0
-1325 -1813 0
-1326 -1814 0
-1327 -1815 0
-1328 -1816 0
-1325 -2381 0
-1326 -2382 0
-1327 -2383 0
-1328 -2384 0
-1325 -2677 0
-1326 -2678 0
-1327 -2679 0
-1328 -2680 0
-1325 -3001 0
-1326 -3002 0
-1327 -3003 0
-1328 -3004 0
-1325 -3209 0
-1326 -3210 0
-1327 -3211 0
-1328 -3212 0
-1325 -3233 0
-1326 -3234 0
-1327 -3235 0
-1328 -3236 0
-1329 -1741 0
-1330 -1742 0
-1331 -1743 0
-1332 -1744 0
-1329 -2121 0
-1330 -2122 0
-1331 -2123 0
-1332 -2124 0
-1329 -2725 0
-1330 -2726 0
-1331 -2727 0
-1332 -2728 0
-1329 -3225 0
-1330 -3226 0
-1331 -3227 0
-1332 -3228 0
-1329 -3229 0
-1330 -3230 0
-1331 -3231 0
-1332 -3232 0
-1333 -1341 0
-1334 -1342 0
-1335 -1343 0
-1336 -1344 0
-1333 -1421 0
-1334 -1422 0
-1335 -1423 0
-1336 -1424 0
-1333 -1429 0
-1334 -1430 0
-1335 -1431 0
-1336 -1432 0
-1333 -1597 0
-1334 -1598 0
-1335 -1599 0
-1336 -1600 0
-1333 -2425 0
-1334 -2426 0
-1335 -2427 0
-1336 -2428 0
-1337 -1341 0
-1338 -1342 0
-1339 -1343 0
-1340 -1344 0
-1337 -1433 0
-1338 -1434 0
-1339 -1435 0
-1340 -1436 0
-1337 -1445 0
-1338 -1446 0
-1339 -1447 0
-1340 -1448 0
-1337 -2201 0
-1338 -2202 0
-1339 -2203 0
-1340 -2204 0
-1337 -2441 0
-1338 -2442 0
-1339 -2443 0
-1340 -2444 0
-1337 -3017 0
-1338 -3018 0
-1339 -3019 0
-1340 -3020 0
-1341 -1437 0
-1342 -1438 0
-1343 -1439 0
-1344 -1440 0
-1341 -1453 0
-1342 -1454 0
-1343 -1455 0
-1344 -1456 0
-1341 -1609 0
-1342 -1610 0
-1343 -1611 0
-1344 -1612 0
-1341 -2209 0
-1342 -2210 0
-1343 -2211 0
-1344 -2212 0
-1341 -2433 0
-1342 -2434 0
-1343 -2435 0
-1344 -2436 0
-1341 -3265 0
-1342 -3266 0
-1343 -3267 0
-1344 -3268 0
-1345 -1701 0
-1346 -1702 0
-1347 -1703 0
-1348 -1704 0
-1345 -1885 0
-1346 -1886 0
-1347 -1887 0
-1348 -1888 0
-1345 -2465 0
-1346 -2466 0
-1347 -2467 0
-1348 -2468 0
-1345 -3241 0
-1346 -3242 0
-1347 -3243 0
-1348 -3244 0
-1349 -1353 0
-1350 -1354 0
-1351 -1355 0
-1352 -1356 0
-1349 -1361 0
-1350 -1362 0
-1351 -1363 0
-1352 -1364 0
-1349 -1417 0
-1350 -1418 0
-1351 -1419 0
-1352 -1420 0
-1349 -1421 0
-1350 -1422 0
-1351 -1423 0
-1352 -1424 0
-1349 -1953 0
-1350 -1954 0
-1351 -1955 0
-1352 -1956 0
-1349 -2157 0
-1350 -2158 0
-1351 -2159 0
-1352 -2160 0
-1349 -2473 0
-1350 -2474 0
-1351 -2475 0
-1352 -2476 0
-1349 -3253 0
-1350 -3254 0
-1351 -3255 0
-1352 -3256 0
-1349 -3361 0
-1350 -3362 0
-1351 -3363 0
-1352 -3364 0
-1353 -1357 0
-1354 -1358 0
-1355 -1359 0
-1356 -1360 0
-1353 -1365 0
-1354 -1366 0
-1355 -1367 0
-1356 -1368 0
-1353 -1433 0
-1354 -1434 0
-1355 -1435 0
-1356 -1436 0
-1353 -1437 0
-1354 -1438 0
-1355 -1439 0
-1356 -1440 0
-1353 -1977 0
-1354 -1978 0
-1355 -1979 0
-1356 -1980 0
-1353 -2173 0
-1354 -2174 0
-1355 -2175 0
-1356 -2176 0
-1353 -2453 0
-1354 -2454 0
-1355 -2455 0
-1356 -2456 0
-1353 -3037 0
-1354 -3038 0
-1355 -3039 0
-1356 -3040 0
-1353 -3253 0
-1354 -3254 0
-1355 -3255 0
-1356 -3256 0
-1353 -3369 0
-1354 -3370 0
-1355 -3371 0
-1356 -3372 0
-1353 -3469 0
-1354 -3470 0
-1355 -3471 0
-1356 -3472 0
-1357 -1445 0
-1358 -1446 0
-1359 -1447 0
-1360 -1448 0
-1357 -1453 0
-1358 -1454 0
-1359 -1455 0
-1360 -1456 0
-1357 -2181 0
-1358 -2182 0
-1359 -2183 0
-1360 -2184 0
-1357 -2489 0
-1358 -2490 0
-1359 -2491 0
-1360 -2492 0
-1357 -2501 0
-1358 -2502 0
-1359 -2503 0
-1360 -2504 0
-1361 -1365 0
-1362 -1366 0
-1363 -1367 0
-1364 -1368 0
-1361 -1369 0
-1362 -1370 0
-1363 -1371 0
-1364 -1372 0
-1361 -1465 0
-1362 -1466 0
-1363 -1467 0
-1364 -1468 0
-1361 -1781 0
-1362 -1782 0
-1363 -1783 0
-1364 -1784 0
-1361 -2265 0
-1362 -2266 0
-1363 -2267 0
-1364 -2268 0
-1361 -2457 0
-1362 -2458 0
-1363 -2459 0
-1364 -2460 0
-1361 -3257 0
-1362 -3258 0
-1363 -3259 0
-1364 -3260 0
-1361 -3361 0
-1362 -3362 0
-1363 -3363 0
-1364 -3364 0
-1365 -1373 0
-1366 -1374 0
-1367 -1375 0
-1368 -1376 0
-1365 -1469 0
-1366 -1470 0
-1367 -1471 0
-1368 -1472 0
-1365 -2277 0
-1366 -2278 0
-1367 -2279 0
-1368 -2280 0
-1365 -2461 0
-1366 -2462 0
-1367 -2463 0
-1368 -2464 0
-1365 -3257 0
-1366 -3258 0
-1367 -3259 0
-1368 -3260 0
-1365 -3369 0
-1366 -3370 0
-1367 -3371 0
-1368 -3372 0
-1369 -1373 0
-1370 -1374 0
-1371 -1375 0
-1372 -1376 0
-1369 -1473 0
-1370 -1474 0
-1371 -1475 0
-1372 -1476 0
-1369 -1797 0
-1370 -1798 0
-1371 -1799 0
-1372 -1800 0
-1369 -2465 0
-1370 -2466 0
-1371 -2467 0
-1372 -2468 0
-1369 -3057 0
-1370 -3058 0
-1371 -3059 0
-1372 -3060 0
-1369 -3261 0
-1370 -3262 0
-1371 -3263 0
-1372 -3264 0
-1373 -1813 0
-1374 -1814 0
-1375 -1815 0
-1376 -1816 0
-1373 -2469 0
-1374 -2470 0
-1375 -2471 0
-1376 -2472 0
-1373 -3065 0
-1374 -3066 0
-1375 -3067 0
-1376 -3068 0
-1373 -3261 0
-1374 -3262 0
-1375 -3263 0
-1376 -3264 0
-1377 -1381 0
-1378 -1382 0
-1379 -1383 0
-1380 -1384 0
-1377 -1389 0
-1378 -1390 0
-1379 -1391 0
-1380 -1392 0
-1377 -1417 0
-1378 -1418 0
-1379 -1419 0
-1380 -1420 0
-1377 -2761 0
-1378 -2762 0
-1379 -2763 0
-1380 -2764 0
-1377 -3269 0
-1378 -3270 0
-1379 -3271 0
-1380 -3272 0
-1377 -3485 0
-1378 -3486 0
-1379 -3487 0
-1380 -3488 0
-1381 -1385 0
-1382 -1386 0
-1383 -1387 0
-1384 -1388 0
-1381 -1397 0
-1382 -1398 0
-1383 -1399 0
-1384 -1400 0
-1381 -1425 0
-1382 -1426 0
-1383 -1427 0
-1384 -1428 0
-1381 -1825 0
-1382 -1826 0
-1383 -1827 0
-1384 -1828 0
-1381 -1877 0
-1382 -1878 0
-1383 -1879 0
-1384 -1880 0
-1381 -2557 0
-1382 -2558 0
-1383 -2559 0
-1384 -2560 0
-1381 -3277 0
-1382 -3278 0
-1383 -3279 0
-1384 -3280 0
-1385 -1401 0
-1386 -1402 0
-1387 -1403 0
-1388 -1404 0
-1385 -1429 0
-1386 -1430 0
-1387 -1431 0
-1388 -1432 0
-1385 -2525 0
-1386 -2526 0
-1387 -2527 0
-1388 -2528 0
-1389 -1393 0
-1390 -1394 0
-1391 -1395 0
-1392 -1396 0
-1389 -1397 0
-1390 -1398 0
-1391 -1399 0
-1392 -1400 0
-1389 -1405 0
-1390 -1406 0
-1391 -1407 0
-1392 -1408 0
-1389 -1433 0
-1390 -1434 0
-1391 -1435 0
-1392 -1436 0
-1389 -1541 0
-1390 -1542 0
-1391 -1543 0
-1392 -1544 0
-1389 -2561 0
-1390 -2562 0
-1391 -2563 0
-1392 -2564 0
-1389 -2765 0
-1390 -2766 0
-1391 -2767 0
-1392 -2768 0
-1389 -3073 0
-1390 -3074 0
-1391 -3075 0
-1392 -3076 0
-1389 -3269 0
-1390 -3270 0
-1391 -3271 0
-1392 -3272 0
-1389 -3281 0
-1390 -3282 0
-1391 -3283 0
-1392 -3284 0
-1389 -3501 0
-1390 -3502 0
-1391 -3503 0
-1392 -3504 0
-1393 -1409 0
-1394 -1410 0
-1395 -1411 0
-1396 -1412 0
-1393 -1433 0
-1394 -1434 0
-1395 -1435 0
-1396 -1436 0
-1393 -1545 0
-1394 -1546 0
-1395 -1547 0
-1396 -1548 0
-1393 -2321 0
-1394 -2322 0
-1395 -2323 0
-1396 -2324 0
-1393 -2565 0
-1394 -2566 0
-1395 -2567 0
-1396 -2568 0
-1393 -3273 0
-1394 -3274 0
-1395 -3275 0
-1396 -3276 0
-1393 -3285 0
-1394 -3286 0
-1395 -3287 0
-1396 -3288 0
-1393 -3505 0
-1394 -3506 0
-1395 -3507 0
-1396 -3508 0
-1397 -1401 0
-1398 -1402 0
-1399 -1403 0
-1400 -1404 0
-1397 -1413 0
-1398 -1414 0
-1399 -1415 0
-1400 -1416 0
-1397 -1441 0
-1398 -1442 0
-1399 -1443 0
-1400 -1444 0
-1397 -1445 0
-1398 -1446 0
-1399 -1447 0
-1400 -1448 0
-1397 -1477 0
-1398 -1478 0
-1399 -1479 0
-1400 -1480 0
-1397 -1513 0
-1398 -1514 0
-1399 -1515 0
-1400 -1516 0
-1397 -1541 0
-1398 -1542 0
-1399 -1543 0
-1400 -1544 0
-1397 -1829 0
-1398 -1830 0
-1399 -1831 0
-1400 -1832 0
-1397 -1881 0
-1398 -1882 0
-1399 -1883 0
-1400 -1884 0
-1397 -2241 0
-1398 -2242 0
-1399 -2243 0
-1400 -2244 0
-1397 -2581 0
-1398 -2582 0
-1399 -2583 0
-1400 -2584 0
-1397 -3085 0
-1398 -3086 0
-1399 -3087 0
-1400 -3088 0
-1397 -3241 0
-1398 -3242 0
-1399 -3243 0
-1400 -3244 0
-1397 -3277 0
-1398 -3278 0
-1399 -3279 0
-1400 -3280 0
-1397 -3289 0
-1398 -3290 0
-1399 -3291 0
-1400 -3292 0
-1401 -1449 0
-1402 -1450 0
-1403 -1451 0
-1404 -1452 0
-1401 -1453 0
-1402 -1454 0
-1403 -1455 0
-1404 -1456 0
-1401 -1481 0
-1402 -1482 0
-1403 -1483 0
-1404 -1484 0
-1401 -1513 0
-1402 -1514 0
-1403 -1515 0
-1404 -1516 0
-1401 -1733 0
-1402 -1734 0
-1403 -1735 0
-1404 -1736 0
-1401 -2029 0
-1402 -2030 0
-1403 -2031 0
-1404 -2032 0
-1401 -2197 0
-1402 -2198 0
-1403 -2199 0
-1404 -2200 0
-1401 -2533 0
-1402 -2534 0
-1403 -2535 0
-1404 -2536 0
-1401 -2593 0
-1402 -2594 0
-1403 -2595 0
-1404 -2596 0
-1401 -3293 0
-1402 -3294 0
-1403 -3295 0
-1404 -3296 0
-1405 -1409 0
-1406 -1410 0
-1407 -1411 0
-1408 -1412 0
-1405 -1413 0
-1406 -1414 0
-1407 -1415 0
-1408 -1416 0
-1405 -1461 0
-1406 -1462 0
-1407 -1463 0
-1408 -1464 0
-1405 -1557 0
-1406 -1558 0
-1407 -1559 0
-1408 -1560 0
-1405 -1741 0
-1406 -1742 0
-1407 -1743 0
-1408 -1744 0
-1405 -1929 0
-1406 -1930 0
-1407 -1931 0
-1408 -1932 0
-1405 -2017 0
-1406 -2018 0
-1407 -2019 0
-1408 -2020 0
-1405 -2773 0
-1406 -2774 0
-1407 -2775 0
-1408 -2776 0
-1405 -3097 0
-1406 -3098 0
-1407 -3099 0
-1408 -3100 0
-1405 -3297 0
-1406 -3298 0
-1407 -3299 0
-1408 -3300 0
-1409 -1461 0
-1410 -1462 0
-1411 -1463 0
-1412 -1464 0
-1409 -1561 0
-1410 -1562 0
-1411 -1563 0
-1412 -1564 0
-1409 -1745 0
-1410 -1746 0
-1411 -1747 0
-1412 -1748 0
-1409 -2021 0
-1410 -2022 0
-1411 -2023 0
-1412 -2024 0
-1413 -1557 0
-1414 -1558 0
-1415 -1559 0
-1416 -1560 0
-1413 -1757 0
-1414 -1758 0
-1415 -1759 0
-1416 -1760 0
-1413 -1837 0
-1414 -1838 0
-1415 -1839 0
-1416 -1840 0
-1413 -2025 0
-1414 -2026 0
-1415 -2027 0
-1416 -2028 0
-1413 -2201 0
-1414 -2202 0
-1415 -2203 0
-1416 -2204 0
-1413 -2245 0
-1414 -2246 0
-1415 -2247 0
-1416 -2248 0
-1413 -2637 0
-1414 -2638 0
-1415 -2639 0
-1416 -2640 0
-1413 -3105 0
-1414 -3106 0
-1415 -3107 0
-1416 -3108 0
-1413 -3241 0
-1414 -3242 0
-1415 -3243 0
-1416 -3244 0
-1413 -3301 0
-1414 -3302 0
-1415 -3303 0
-1416 -3304 0
-1417 -1421 0
-1418 -1422 0
-1419 -1423 0
-1420 -1424 0
-1417 -1425 0
-1418 -1426 0
-1419 -1427 0
-1420 -1428 0
-1417 -1433 0
-1418 -1434 0
-1419 -1435 0
-1420 -1436 0
-1417 -1457 0
-1418 -1458 0
-1419 -1459 0
-1420 -1460 0
-1417 -1465 0
-1418 -1466 0
-1419 -1467 0
-1420 -1468 0
-1417 -1937 0
-1418 -1938 0
-1419 -1939 0
-1420 -1940 0
-1417 -2033 0
-1418 -2034 0
-1419 -2035 0
-1420 -2036 0
-1417 -3305 0
-1418 -3306 0
-1419 -3307 0
-1420 -3308 0
-1417 -3385 0
-1418 -3386 0
-1419 -3387 0
-1420 -3388 0
-1417 -3513 0
-1418 -3514 0
-1419 -3515 0
-1420 -3516 0
-1421 -1429 0
-1422 -1430 0
-1423 -1431 0
-1424 -1432 0
-1421 -1437 0
-1422 -1438 0
-1423 -1439 0
-1424 -1440 0
-1421 -1941 0
-1422 -1942 0
-1423 -1943 0
-1424 -1944 0
-1421 -2561 0
-1422 -2562 0
-1423 -2563 0
-1424 -2564 0
-1421 -3309 0
-1422 -3310 0
-1423 -3311 0
-1424 -3312 0
-1421 -3389 0
-1422 -3390 0
-1423 -3391 0
-1424 -3392 0
-1425 -1429 0
-1426 -1430 0
-1427 -1431 0
-1428 -1432 0
-1425 -1445 0
-1426 -1446 0
-1427 -1447 0
-1428 -1448 0
-1425 -1601 0
-1426 -1602 0
-1427 -1603 0
-1428 -1604 0
-1425 -1889 0
-1426 -1890 0
-1427 -1891 0
-1428 -1892 0
-1425 -2569 0
-1426 -2570 0
-1427 -2571 0
-1428 -2572 0
-1425 -3313 0
-1426 -3314 0
-1427 -3315 0
-1428 -3316 0
-1429 -1453 0
-1430 -1454 0
-1431 -1455 0
-1432 -1456 0
-1429 -1489 0
-1430 -1490 0
-1431 -1491 0
-1432 -1492 0
-1429 -1493 0
-1430 -1494 0
-1431 -1495 0
-1432 -1496 0
-1429 -2249 0
-1430 -2250 0
-1431 -2251 0
-1432 -2252 0
-1429 -2581 0
-1430 -2582 0
-1431 -2583 0
-1432 -2584 0
-1429 -3317 0
-1430 -3318 0
-1431 -3319 0
-1432 -3320 0
-1433 -1437 0
-1434 -1438 0
-1435 -1439 0
-1436 -1440 0
-1433 -1445 0
-1434 -1446 0
-1435 -1447 0
-1436 -1448 0
-1433 -1461 0
-1434 -1462 0
-1435 -1463 0
-1436 -1464 0
-1433 -1469 0
-1434 -1470 0
-1435 -1471 0
-1436 -1472 0
-1433 -1589 0
-1434 -1590 0
-1435 -1591 0
-1436 -1592 0
-1433 -1945 0
-1434 -1946 0
-1435 -1947 0
-1436 -1948 0
-1433 -2037 0
-1434 -2038 0
-1435 -2039 0
-1436 -2040 0
-1433 -2353 0
-1434 -2354 0
-1435 -2355 0
-1436 -2356 0
-1433 -2777 0
-1434 -2778 0
-1435 -2779 0
-1436 -2780 0
-1433 -3109 0
-1434 -3110 0
-1435 -3111 0
-1436 -3112 0
-1433 -3305 0
-1434 -3306 0
-1435 -3307 0
-1436 -3308 0
-1433 -3321 0
-1434 -3322 0
-1435 -3323 0
-1436 -3324 0
-1433 -3393 0
-1434 -3394 0
-1435 -3395 0
-1436 -3396 0
-1433 -3517 0
-1434 -3518 0
-1435 -3519 0
-1436 -3520 0
-1437 -1453 0
-1438 -1454 0
-1439 -1455 0
-1440 -1456 0
-1437 -1781 0
-1438 -1782 0
-1439 -1783 0
-1440 -1784 0
-1437 -2061 0
-1438 -2062 0
-1439 -2063 0
-1440 -2064 0
-1437 -2601 0
-1438 -2602 0
-1439 -2603 0
-1440 -2604 0
-1437 -2781 0
-1438 -2782 0
-1439 -2783 0
-1440 -2784 0
-1437 -3309 0
-1438 -3310 0
-1439 -3311 0
-1440 -3312 0
-1437 -3325 0
-1438 -3326 0
-1439 -3327 0
-1440 -3328 0
-1437 -3397 0
-1438 -3398 0
-1439 -3399 0
-1440 -3400 0
-1437 -3521 0
-1438 -3522 0
-1439 -3523 0
-1440 -3524 0
-1441 -1445 0
-1442 -1446 0
-1443 -1447 0
-1444 -1448 0
-1441 -1449 0
-1442 -1450 0
-1443 -1451 0
-1444 -1452 0
-1441 -1517 0
-1442 -1518 0
-1443 -1519 0
-1444 -1520 0
-1441 -2217 0
-1442 -2218 0
-1443 -2219 0
-1444 -2220 0
-1441 -2653 0
-1442 -2654 0
-1443 -2655 0
-1444 -2656 0
-1441 -3113 0
-1442 -3114 0
-1443 -3115 0
-1444 -3116 0
-1445 -1453 0
-1446 -1454 0
-1447 -1455 0
-1448 -1456 0
-1445 -1521 0
-1446 -1522 0
-1447 -1523 0
-1448 -1524 0
-1445 -1613 0
-1446 -1614 0
-1447 -1615 0
-1448 -1616 0
-1445 -1893 0
-1446 -1894 0
-1447 -1895 0
-1448 -1896 0
-1445 -2045 0
-1446 -2046 0
-1447 -2047 0
-1448 -2048 0
-1445 -2253 0
-1446 -2254 0
-1447 -2255 0
-1448 -2256 0
-1445 -2357 0
-1446 -2358 0
-1447 -2359 0
-1448 -2360 0
-1445 -2605 0
-1446 -2606 0
-1447 -2607 0
-1448 -2608 0
-1445 -2657 0
-1446 -2658 0
-1447 -2659 0
-1448 -2660 0
-1445 -3313 0
-1446 -3314 0
-1447 -3315 0
-1448 -3316 0
-1445 -3329 0
-1446 -3330 0
-1447 -3331 0
-1448 -3332 0
-1449 -1453 0
-1450 -1454 0
-1451 -1455 0
-1452 -1456 0
-1449 -1497 0
-1450 -1498 0
-1451 -1499 0
-1452 -1500 0
-1449 -1505 0
-1450 -1506 0
-1451 -1507 0
-1452 -1508 0
-1449 -1517 0
-1450 -1518 0
-1451 -1519 0
-1452 -1520 0
-1449 -1785 0
-1450 -1786 0
-1451 -1787 0
-1452 -1788 0
-1449 -2069 0
-1450 -2070 0
-1451 -2071 0
-1452 -2072 0
-1449 -2221 0
-1450 -2222 0
-1451 -2223 0
-1452 -2224 0
-1449 -2509 0
-1450 -2510 0
-1451 -2511 0
-1452 -2512 0
-1449 -2613 0
-1450 -2614 0
-1451 -2615 0
-1452 -2616 0
-1449 -2785 0
-1450 -2786 0
-1451 -2787 0
-1452 -2788 0
-1449 -3401 0
-1450 -3402 0
-1451 -3403 0
-1452 -3404 0
-1453 -1501 0
-1454 -1502 0
-1455 -1503 0
-1456 -1504 0
-1453 -1509 0
-1454 -1510 0
-1455 -1511 0
-1456 -1512 0
-1453 -1521 0
-1454 -1522 0
-1455 -1523 0
-1456 -1524 0
-1453 -1789 0
-1454 -1790 0
-1455 -1791 0
-1456 -1792 0
-1453 -1865 0
-1454 -1866 0
-1455 -1867 0
-1456 -1868 0
-1453 -2257 0
-1454 -2258 0
-1455 -2259 0
-1456 -2260 0
-1453 -2361 0
-1454 -2362 0
-1455 -2363 0
-1456 -2364 0
-1453 -2617 0
-1454 -2618 0
-1455 -2619 0
-1456 -2620 0
-1453 -2789 0
-1454 -2790 0
-1455 -2791 0
-1456 -2792 0
-1453 -3317 0
-1454 -3318 0
-1455 -3319 0
-1456 -3320 0
-1453 -3333 0
-1454 -3334 0
-1455 -3335 0
-1456 -3336 0
-1453 -3405 0
-1454 -3406 0
-1455 -3407 0
-1456 -3408 0
-1457 -1461 0
-1458 -1462 0
-1459 -1463 0
-1460 -1464 0
-1457 -1473 0
-1458 -1474 0
-1459 -1475 0
-1460 -1476 0
-1457 -1961 0
-1458 -1962 0
-1459 -1963 0
-1460 -1964 0
-1457 -2053 0
-1458 -2054 0
-1459 -2055 0
-1460 -2056 0
-1457 -3337 0
-1458 -3338 0
-1459 -3339 0
-1460 -3340 0
-1461 -1793 0
-1462 -1794 0
-1463 -1795 0
-1464 -1796 0
-1461 -1985 0
-1462 -1986 0
-1463 -1987 0
-1464 -1988 0
-1461 -2057 0
-1462 -2058 0
-1463 -2059 0
-1464 -2060 0
-1461 -3117 0
-1462 -3118 0
-1463 -3119 0
-1464 -3120 0
-1461 -3337 0
-1462 -3338 0
-1463 -3339 0
-1464 -3340 0
-1465 -1469 0
-1466 -1470 0
-1467 -1471 0
-1468 -1472 0
-1465 -1473 0
-1466 -1474 0
-1467 -1475 0
-1468 -1476 0
-1465 -1597 0
-1466 -1598 0
-1467 -1599 0
-1468 -1600 0
-1465 -1897 0
-1466 -1898 0
-1467 -1899 0
-1468 -1900 0
-1465 -2365 0
-1466 -2366 0
-1467 -2367 0
-1468 -2368 0
-1465 -3341 0
-1466 -3342 0
-1467 -3343 0
-1468 -3344 0
-1465 -3385 0
-1466 -3386 0
-1467 -3387 0
-1468 -3388 0
-1469 -1609 0
-1470 -1610 0
-1471 -1611 0
-1472 -1612 0
-1469 -1909 0
-1470 -1910 0
-1471 -1911 0
-1472 -1912 0
-1469 -2377 0
-1470 -2378 0
-1471 -2379 0
-1472 -2380 0
-1469 -2797 0
-1470 -2798 0
-1471 -2799 0
-1472 -2800 0
-1469 -3341 0
-1470 -3342 0
-1471 -3343 0
-1472 -3344 0
-1469 -3345 0
-1470 -3346 0
-1471 -3347 0
-1472 -3348 0
-1469 -3393 0
-1470 -3394 0
-1471 -3395 0
-1472 -3396 0
-1473 -2001 0
-1474 -2002 0
-1475 -2003 0
-1476 -2004 0
-1477 -1481 0
-1478 -1482 0
-1479 -1483 0
-1480 -1484 0
-1477 -1525 0
-1478 -1526 0
-1479 -1527 0
-1480 -1528 0
-1477 -1577 0
-1478 -1578 0
-1479 -1579 0
-1480 -1580 0
-1477 -1925 0
-1478 -1926 0
-1479 -1927 0
-1480 -1928 0
-1477 -2669 0
-1478 -2670 0
-1479 -2671 0
-1480 -2672 0
-1477 -3249 0
-1478 -3250 0
-1479 -3251 0
-1480 -3252 0
-1477 -3349 0
-1478 -3350 0
-1479 -3351 0
-1480 -3352 0
-1477 -3545 0
-1478 -3546 0
-1479 -3547 0
-1480 -3548 0
-1481 -1497 0
-1482 -1498 0
-1483 -1499 0
-1484 -1500 0
-1481 -1501 0
-1482 -1502 0
-1483 -1503 0
-1484 -1504 0
-1481 -1525 0
-1482 -1526 0
-1483 -1527 0
-1484 -1528 0
-1481 -1869 0
-1482 -1870 0
-1483 -1871 0
-1484 -1872 0
-1481 -1933 0
-1482 -1934 0
-1483 -1935 0
-1484 -1936 0
-1481 -2225 0
-1482 -2226 0
-1483 -2227 0
-1484 -2228 0
-1481 -2529 0
-1482 -2530 0
-1483 -2531 0
-1484 -2532 0
-1481 -2809 0
-1482 -2810 0
-1483 -2811 0
-1484 -2812 0
-1481 -3549 0
-1482 -3550 0
-1483 -3551 0
-1484 -3552 0
-1485 -1497 0
-1486 -1498 0
-1487 -1499 0
-1488 -1500 0
-1485 -2233 0
-1486 -2234 0
-1487 -2235 0
-1488 -2236 0
-1485 -2541 0
-1486 -2542 0
-1487 -2543 0
-1488 -2544 0
-1485 -2821 0
-1486 -2822 0
-1487 -2823 0
-1488 -2824 0
-1485 -3125 0
-1486 -3126 0
-1487 -3127 0
-1488 -3128 0
-1485 -3253 0
-1486 -3254 0
-1487 -3255 0
-1488 -3256 0
-1485 -3417 0
-1486 -3418 0
-1487 -3419 0
-1488 -3420 0
-1489 -1493 0
-1490 -1494 0
-1491 -1495 0
-1492 -1496 0
-1489 -1501 0
-1490 -1502 0
-1491 -1503 0
-1492 -1504 0
-1489 -2669 0
-1490 -2670 0
-1491 -2671 0
-1492 -2672 0
-1489 -3353 0
-1490 -3354 0
-1491 -3355 0
-1492 -3356 0
-1493 -1509 0
-1494 -1510 0
-1495 -1511 0
-1496 -1512 0
-1493 -1969 0
-1494 -1970 0
-1495 -1971 0
-1496 -1972 0
-1493 -2269 0
-1494 -2270 0
-1495 -2271 0
-1496 -2272 0
-1493 -2673 0
-1494 -2674 0
-1495 -2675 0
-1496 -2676 0
-1493 -3357 0
-1494 -3358 0
-1495 -3359 0
-1496 -3360 0
-1497 -1501 0
-1498 -1502 0
-1499 -1503 0
-1500 -1504 0
-1497 -1505 0
-1498 -1506 0
-1499 -1507 0
-1500 -1508 0
-1497 -1529 0
-1498 -1530 0
-1499 -1531 0
-1500 -1532 0
-1497 -1853 0
-1498 -1854 0
-1499 -1855 0
-1500 -1856 0
-1497 -1989 0
-1498 -1990 0
-1499 -1991 0
-1500 -1992 0
-1497 -2009 0
-1498 -2010 0
-1499 -2011 0
-1500 -2012 0
-1497 -2237 0
-1498 -2238 0
-1499 -2239 0
-1500 -2240 0
-1497 -2581 0
-1498 -2582 0
-1499 -2583 0
-1500 -2584 0
-1497 -3141 0
-1498 -3142 0
-1499 -3143 0
-1500 -3144 0
-1497 -3257 0
-1498 -3258 0
-1499 -3259 0
-1500 -3260 0
-1497 -3261 0
-1498 -3262 0
-1499 -3263 0
-1500 -3264 0
-1497 -3417 0
-1498 -3418 0
-1499 -3419 0
-1500 -3420 0
-1497 -3573 0
-1498 -3574 0
-1499 -3575 0
-1500 -3576 0
-1501 -1509 0
-1502 -1510 0
-1503 -1511 0
-1504 -1512 0
-1501 -2405 0
-1502 -2406 0
-1503 -2407 0
-1504 -2408 0
-1501 -2585 0
-1502 -2586 0
-1503 -2587 0
-1504 -2588 0
-1501 -2677 0
-1502 -2678 0
-1503 -2679 0
-1504 -2680 0
-1501 -3145 0
-1502 -3146 0
-1503 -3147 0
-1504 -3148 0
-1501 -3353 0
-1502 -3354 0
-1503 -3355 0
-1504 -3356 0
-1501 -3577 0
-1502 -3578 0
-1503 -3579 0
-1504 -3580 0
-1505 -1509 0
-1506 -1510 0
-1507 -1511 0
-1508 -1512 0
-1505 -1641 0
-1506 -1642 0
-1507 -1643 0
-1508 -1644 0
-1505 -1993 0
-1506 -1994 0
-1507 -1995 0
-1508 -1996 0
-1505 -2277 0
-1506 -2278 0
-1507 -2279 0
-1508 -2280 0
-1505 -2589 0
-1506 -2590 0
-1507 -2591 0
-1508 -2592 0
-1505 -2837 0
-1506 -2838 0
-1507 -2839 0
-1508 -2840 0
-1505 -2841 0
-1506 -2842 0
-1507 -2843 0
-1508 -2844 0
-1505 -3149 0
-1506 -3150 0
-1507 -3151 0
-1508 -3152 0
-1505 -3421 0
-1506 -3422 0
-1507 -3423 0
-1508 -3424 0
-1505 -3429 0
-1506 -3430 0
-1507 -3431 0
-1508 -3432 0
-1509 -1873 0
-1510 -1874 0
-1511 -1875 0
-1512 -1876 0
-1509 -1997 0
-1510 -1998 0
-1511 -1999 0
-1512 -2000 0
-1509 -2093 0
-1510 -2094 0
-1511 -2095 0
-1512 -2096 0
-1509 -2281 0
-1510 -2282 0
-1511 -2283 0
-1512 -2284 0
-1509 -2681 0
-1510 -2682 0
-1511 -2683 0
-1512 -2684 0
-1509 -2845 0
-1510 -2846 0
-1511 -2847 0
-1512 -2848 0
-1509 -3153 0
-1510 -3154 0
-1511 -3155 0
-1512 -3156 0
-1509 -3357 0
-1510 -3358 0
-1511 -3359 0
-1512 -3360 0
-1509 -3425 0
-1510 -3426 0
-1511 -3427 0
-1512 -3428 0
-1509 -3433 0
-1510 -3434 0
-1511 -3435 0
-1512 -3436 0
-1513 -1517 0
-1514 -1518 0
-1515 -1519 0
-1516 -1520 0
-1513 -1521 0
-1514 -1522 0
-1515 -1523 0
-1516 -1524 0
-1513 -1525 0
-1514 -1526 0
-1515 -1527 0
-1516 -1528 0
-1513 -2293 0
-1514 -2294 0
-1515 -2295 0
-1516 -2296 0
-1513 -2685 0
-1514 -2686 0
-1515 -2687 0
-1516 -2688 0
-1513 -2693 0
-1514 -2694 0
-1515 -2695 0
-1516 -2696 0
-1513 -2861 0
-1514 -2862 0
-1515 -2863 0
-1516 -2864 0
-1513 -3153 0
-1514 -3154 0
-1515 -3155 0
-1516 -3156 0
-1517 -1521 0
-1518 -1522 0
-1519 -1523 0
-1520 -1524 0
-1517 -1529 0
-1518 -1530 0
-1519 -1531 0
-1520 -1532 0
-1517 -1657 0
-1518 -1658 0
-1519 -1659 0
-1520 -1660 0
-1517 -2049 0
-1518 -2050 0
-1519 -2051 0
-1520 -2052 0
-1517 -2309 0
-1518 -2310 0
-1519 -2311 0
-1520 -2312 0
-1517 -2865 0
-1518 -2866 0
-1519 -2867 0
-1520 -2868 0
-1517 -3181 0
-1518 -3182 0
-1519 -3183 0
-1520 -3184 0
-1521 -2313 0
-1522 -2314 0
-1523 -2315 0
-1524 -2316 0
-1521 -2697 0
-1522 -2698 0
-1523 -2699 0
-1524 -2700 0
-1521 -2869 0
-1522 -2870 0
-1523 -2871 0
-1524 -2872 0
-1525 -1529 0
-1526 -1530 0
-1527 -1531 0
-1528 -1532 0
-1525 -2021 0
-1526 -2022 0
-1527 -2023 0
-1528 -2024 0
-1525 -2333 0
-1526 -2334 0
-1527 -2335 0
-1528 -2336 0
-1525 -3593 0
-1526 -3594 0
-1527 -3595 0
-1528 -3596 0
-1529 -1665 0
-1530 -1666 0
-1531 -1667 0
-1532 -1668 0
-1529 -2057 0
-1530 -2058 0
-1531 -2059 0
-1532 -2060 0
-1529 -2089 0
-1530 -2090 0
-1531 -2091 0
-1532 -2092 0
-1529 -2373 0
-1530 -2374 0
-1531 -2375 0
-1532 -2376 0
-1529 -2689 0
-1530 -2690 0
-1531 -2691 0
-1532 -2692 0
-1529 -3209 0
-1530 -3210 0
-1531 -3211 0
-1532 -3212 0
-1529 -3341 0
-1530 -3342 0
-1531 -3343 0
-1532 -3344 0
-1533 -1553 0
-1534 -1554 0
-1535 -1555 0
-1536 -1556 0
-1533 -1557 0
-1534 -1558 0
-1535 -1559 0
-1536 -1560 0
-1533 -2301 0
-1534 -2302 0
-1535 -2303 0
-1536 -2304 0
-1537 -1901 0
-1538 -1902 0
-1539 -1903 0
-1540 -1904 0
-1537 -2313 0
-1538 -2314 0
-1539 -2315 0
-1540 -2316 0
-1537 -2725 0
-1538 -2726 0
-1539 -2727 0
-1540 -2728 0
-1537 -3405 0
-1538 -3406 0
-1539 -3407 0
-1540 -3408 0
-1541 -1545 0
-1542 -1546 0
-1543 -1547 0
-1544 -1548 0
-1541 -1549 0
-1542 -1550 0
-1543 -1551 0
-1544 -1552 0
-1541 -1557 0
-1542 -1558 0
-1543 -1559 0
-1544 -1560 0
-1541 -1577 0
-1542 -1578 0
-1543 -1579 0
-1544 -1580 0
-1541 -2125 0
-1542 -2126 0
-1543 -2127 0
-1544 -2128 0
-1541 -2337 0
-1542 -2338 0
-1543 -2339 0
-1544 -2340 0
-1541 -2733 0
-1542 -2734 0
-1543 -2735 0
-1544 -2736 0
-1541 -2905 0
-1542 -2906 0
-1543 -2907 0
-1544 -2908 0
-1541 -3365 0
-1542 -3366 0
-1543 -3367 0
-1544 -3368 0
-1541 -3409 0
-1542 -3410 0
-1543 -3411 0
-1544 -3412 0
-1541 -3413 0
-1542 -3414 0
-1543 -3415 0
-1544 -3416 0
-1545 -1561 0
-1546 -1562 0
-1547 -1563 0
-1548 -1564 0
-1545 -1937 0
-1546 -1938 0
-1547 -1939 0
-1548 -1940 0
-1549 -1569 0
-1550 -1570 0
-1551 -1571 0
-1552 -1572 0
-1549 -1721 0
-1550 -1722 0
-1551 -1723 0
-1552 -1724 0
-1549 -2137 0
-1550 -2138 0
-1551 -2139 0
-1552 -2140 0
-1549 -2345 0
-1550 -2346 0
-1551 -2347 0
-1552 -2348 0
-1549 -2741 0
-1550 -2742 0
-1551 -2743 0
-1552 -2744 0
-1549 -3373 0
-1550 -3374 0
-1551 -3375 0
-1552 -3376 0
-1549 -3413 0
-1550 -3414 0
-1551 -3415 0
-1552 -3416 0
-1553 -1557 0
-1554 -1558 0
-1555 -1559 0
-1556 -1560 0
-1553 -1565 0
-1554 -1566 0
-1555 -1567 0
-1556 -1568 0
-1553 -1573 0
-1554 -1574 0
-1555 -1575 0
-1556 -1576 0
-1553 -1749 0
-1554 -1750 0
-1555 -1751 0
-1556 -1752 0
-1553 -1949 0
-1554 -1950 0
-1555 -1951 0
-1556 -1952 0
-1553 -2113 0
-1554 -2114 0
-1555 -2115 0
-1556 -2116 0
-1553 -2349 0
-1554 -2350 0
-1555 -2351 0
-1556 -2352 0
-1553 -2713 0
-1554 -2714 0
-1555 -2715 0
-1556 -2716 0
-1553 -3361 0
-1554 -3362 0
-1555 -3363 0
-1556 -3364 0
-1553 -3417 0
-1554 -3418 0
-1555 -3419 0
-1556 -3420 0
-1557 -1561 0
-1558 -1562 0
-1559 -1563 0
-1560 -1564 0
-1557 -1569 0
-1558 -1570 0
-1559 -1571 0
-1560 -1572 0
-1557 -1725 0
-1558 -1726 0
-1559 -1727 0
-1560 -1728 0
-1557 -1857 0
-1558 -1858 0
-1559 -1859 0
-1560 -1860 0
-1557 -1957 0
-1558 -1958 0
-1559 -1959 0
-1560 -1960 0
-1557 -2129 0
-1558 -2130 0
-1559 -2131 0
-1560 -2132 0
-1557 -2353 0
-1558 -2354 0
-1559 -2355 0
-1560 -2356 0
-1557 -2925 0
-1558 -2926 0
-1559 -2927 0
-1560 -2928 0
-1557 -3365 0
-1558 -3366 0
-1559 -3367 0
-1560 -3368 0
-1557 -3421 0
-1558 -3422 0
-1559 -3423 0
-1560 -3424 0
-1561 -1961 0
-1562 -1962 0
-1563 -1963 0
-1564 -1964 0
-1561 -2133 0
-1562 -2134 0
-1563 -2135 0
-1564 -2136 0
-1561 -3425 0
-1562 -3426 0
-1563 -3427 0
-1564 -3428 0
-1565 -1569 0
-1566 -1570 0
-1567 -1571 0
-1568 -1572 0
-1565 -1769 0
-1566 -1770 0
-1567 -1771 0
-1568 -1772 0
-1565 -1973 0
-1566 -1974 0
-1567 -1975 0
-1568 -1976 0
-1565 -2717 0
-1566 -2718 0
-1567 -2719 0
-1568 -2720 0
-1565 -3213 0
-1566 -3214 0
-1567 -3215 0
-1568 -3216 0
-1565 -3369 0
-1566 -3370 0
-1567 -3371 0
-1568 -3372 0
-1565 -3417 0
-1566 -3418 0
-1567 -3419 0
-1568 -3420 0
-1569 -1729 0
-1570 -1730 0
-1571 -1731 0
-1572 -1732 0
-1569 -1861 0
-1570 -1862 0
-1571 -1863 0
-1572 -1864 0
-1569 -1981 0
-1570 -1982 0
-1571 -1983 0
-1572 -1984 0
-1569 -3373 0
-1570 -3374 0
-1571 -3375 0
-1572 -3376 0
-1569 -3421 0
-1570 -3422 0
-1571 -3423 0
-1572 -3424 0
-1573 -2373 0
-1574 -2374 0
-1575 -2375 0
-1576 -2376 0
-1573 -2721 0
-1574 -2722 0
-1575 -2723 0
-1576 -2724 0
-1577 -2109 0
-1578 -2110 0
-1579 -2111 0
-1580 -2112 0
-1577 -2953 0
-1578 -2954 0
-1579 -2955 0
-1580 -2956 0
-1577 -3377 0
-1578 -3378 0
-1579 -3379 0
-1580 -3380 0
-1577 -3597 0
-1578 -3598 0
-1579 -3599 0
-1580 -3600 0
-1581 -1621 0
-1582 -1622 0
-1583 -1623 0
-1584 -1624 0
-1581 -1717 0
-1582 -1718 0
-1583 -1719 0
-1584 -1720 0
-1581 -1901 0
-1582 -1902 0
-1583 -1903 0
-1584 -1904 0
-1581 -2773 0
-1582 -2774 0
-1583 -2775 0
-1584 -2776 0
-1585 -1589 0
-1586 -1590 0
-1587 -1591 0
-1588 -1592 0
-1585 -1605 0
-1586 -1606 0
-1587 -1607 0
-1588 -1608 0
-1585 -1629 0
-1586 -1630 0
-1587 -1631 0
-1588 -1632 0
-1585 -2425 0
-1586 -2426 0
-1587 -2427 0
-1588 -2428 0
-1585 -3253 0
-1586 -3254 0
-1587 -3255 0
-1588 -3256 0
-1585 -3493 0
-1586 -3494 0
-1587 -3495 0
-1588 -3496 0
-1589 -1593 0
-1590 -1594 0
-1591 -1595 0
-1592 -1596 0
-1589 -1609 0
-1590 -1610 0
-1591 -1611 0
-1592 -1612 0
-1589 -1633 0
-1590 -1634 0
-1591 -1635 0
-1592 -1636 0
-1589 -2193 0
-1590 -2194 0
-1591 -2195 0
-1592 -2196 0
-1589 -2541 0
-1590 -2542 0
-1591 -2543 0
-1592 -2544 0
-1589 -2777 0
-1590 -2778 0
-1591 -2779 0
-1592 -2780 0
-1589 -3497 0
-1590 -3498 0
-1591 -3499 0
-1592 -3500 0
-1589 -3617 0
-1590 -3618 0
-1591 -3619 0
-1592 -3620 0
-1593 -1613 0
-1594 -1614 0
-1595 -1615 0
-1596 -1616 0
-1593 -1633 0
-1594 -1634 0
-1595 -1635 0
-1596 -1636 0
-1593 -1937 0
-1594 -1938 0
-1595 -1939 0
-1596 -1940 0
-1593 -2197 0
-1594 -2198 0
-1595 -2199 0
-1596 -2200 0
-1593 -2453 0
-1594 -2454 0
-1595 -2455 0
-1596 -2456 0
-1593 -3505 0
-1594 -3506 0
-1595 -3507 0
-1596 -3508 0
-1597 -1601 0
-1598 -1602 0
-1599 -1603 0
-1600 -1604 0
-1597 -1609 0
-1598 -1610 0
-1599 -1611 0
-1600 -1612 0
-1597 -2557 0
-1598 -2558 0
-1599 -2559 0
-1600 -2560 0
-1597 -3437 0
-1598 -3438 0
-1599 -3439 0
-1600 -3440 0
-1597 -3481 0
-1598 -3482 0
-1599 -3483 0
-1600 -3484 0
-1601 -1613 0
-1602 -1614 0
-1603 -1615 0
-1604 -1616 0
-1601 -2457 0
-1602 -2458 0
-1603 -2459 0
-1604 -2460 0
-1601 -3441 0
-1602 -3442 0
-1603 -3443 0
-1604 -3444 0
-1601 -3489 0
-1602 -3490 0
-1603 -3491 0
-1604 -3492 0
-1605 -1609 0
-1606 -1610 0
-1607 -1611 0
-1608 -1612 0
-1605 -1617 0
-1606 -1618 0
-1607 -1619 0
-1608 -1620 0
-1605 -1785 0
-1606 -1786 0
-1607 -1787 0
-1608 -1788 0
-1605 -2037 0
-1606 -2038 0
-1607 -2039 0
-1608 -2040 0
-1605 -2577 0
-1606 -2578 0
-1607 -2579 0
-1608 -2580 0
-1605 -2761 0
-1606 -2762 0
-1607 -2763 0
-1608 -2764 0
-1605 -3257 0
-1606 -3258 0
-1607 -3259 0
-1608 -3260 0
-1605 -3445 0
-1606 -3446 0
-1607 -3447 0
-1608 -3448 0
-1605 -3493 0
-1606 -3494 0
-1607 -3495 0
-1608 -3496 0
-1609 -1613 0
-1610 -1614 0
-1611 -1615 0
-1612 -1616 0
-1609 -1621 0
-1610 -1622 0
-1611 -1623 0
-1612 -1624 0
-1609 -1653 0
-1610 -1654 0
-1611 -1655 0
-1612 -1656 0
-1609 -1781 0
-1610 -1782 0
-1611 -1783 0
-1612 -1784 0
-1609 -1789 0
-1610 -1790 0
-1611 -1791 0
-1612 -1792 0
-1609 -2581 0
-1610 -2582 0
-1611 -2583 0
-1612 -2584 0
-1609 -2797 0
-1610 -2798 0
-1611 -2799 0
-1612 -2800 0
-1609 -3437 0
-1610 -3438 0
-1611 -3439 0
-1612 -3440 0
-1609 -3449 0
-1610 -3450 0
-1611 -3451 0
-1612 -3452 0
-1609 -3497 0
-1610 -3498 0
-1611 -3499 0
-1612 -3500 0
-1609 -3629 0
-1610 -3630 0
-1611 -3631 0
-1612 -3632 0
-1613 -1653 0
-1614 -1654 0
-1615 -1655 0
-1616 -1656 0
-1613 -2461 0
-1614 -2462 0
-1615 -2463 0
-1616 -2464 0
-1613 -2589 0
-1614 -2590 0
-1615 -2591 0
-1616 -2592 0
-1613 -2801 0
-1614 -2802 0
-1615 -2803 0
-1616 -2804 0
-1613 -2829 0
-1614 -2830 0
-1615 -2831 0
-1616 -2832 0
-1613 -3005 0
-1614 -3006 0
-1615 -3007 0
-1616 -3008 0
-1613 -3441 0
-1614 -3442 0
-1615 -3443 0
-1616 -3444 0
-1613 -3453 0
-1614 -3454 0
-1615 -3455 0
-1616 -3456 0
-1613 -3505 0
-1614 -3506 0
-1615 -3507 0
-1616 -3508 0
-1613 -3509 0
-1614 -3510 0
-1615 -3511 0
-1616 -3512 0
-1617 -1621 0
-1618 -1622 0
-1619 -1623 0
-1620 -1624 0
-1617 -1801 0
-1618 -1802 0
-1619 -1803 0
-1620 -1804 0
-1617 -2057 0
-1618 -2058 0
-1619 -2059 0
-1620 -2060 0
-1617 -2177 0
-1618 -2178 0
-1619 -2179 0
-1620 -2180 0
-1617 -2769 0
-1618 -2770 0
-1619 -2771 0
-1620 -2772 0
-1617 -3261 0
-1618 -3262 0
-1619 -3263 0
-1620 -3264 0
-1621 -1625 0
-1622 -1626 0
-1623 -1627 0
-1624 -1628 0
-1621 -1797 0
-1622 -1798 0
-1623 -1799 0
-1624 -1800 0
-1621 -1805 0
-1622 -1806 0
-1623 -1807 0
-1624 -1808 0
-1621 -2061 0
-1622 -2062 0
-1623 -2063 0
-1624 -2064 0
-1621 -2181 0
-1622 -2182 0
-1623 -2183 0
-1624 -2184 0
-1621 -2441 0
-1622 -2442 0
-1623 -2443 0
-1624 -2444 0
-1621 -2637 0
-1622 -2638 0
-1623 -2639 0
-1624 -2640 0
-1621 -3457 0
-1622 -3458 0
-1623 -3459 0
-1624 -3460 0
-1621 -3461 0
-1622 -3462 0
-1623 -3463 0
-1624 -3464 0
-1625 -1813 0
-1626 -1814 0
-1627 -1815 0
-1628 -1816 0
-1625 -1821 0
-1626 -1822 0
-1627 -1823 0
-1628 -1824 0
-1625 -2641 0
-1626 -2642 0
-1627 -2643 0
-1628 -2644 0
-1625 -3265 0
-1626 -3266 0
-1627 -3267 0
-1628 -3268 0
-1625 -3461 0
-1626 -3462 0
-1627 -3463 0
-1628 -3464 0
-1629 -1633 0
-1630 -1634 0
-1631 -1635 0
-1632 -1636 0
-1629 -1637 0
-1630 -1638 0
-1631 -1639 0
-1632 -1640 0
-1629 -2473 0
-1630 -2474 0
-1631 -2475 0
-1632 -2476 0
-1629 -3013 0
-1630 -3014 0
-1631 -3015 0
-1632 -3016 0
-1629 -3269 0
-1630 -3270 0
-1631 -3271 0
-1632 -3272 0
-1629 -3533 0
-1630 -3534 0
-1631 -3535 0
-1632 -3536 0
-1629 -3665 0
-1630 -3666 0
-1631 -3667 0
-1632 -3668 0
-1633 -1653 0
-1634 -1654 0
-1635 -1655 0
-1636 -1656 0
-1633 -2225 0
-1634 -2226 0
-1635 -2227 0
-1636 -2228 0
-1633 -3017 0
-1634 -3018 0
-1635 -3019 0
-1636 -3020 0
-1633 -3273 0
-1634 -3274 0
-1635 -3275 0
-1636 -3276 0
-1633 -3537 0
-1634 -3538 0
-1635 -3539 0
-1636 -3540 0
-1633 -3669 0
-1634 -3670 0
-1635 -3671 0
-1636 -3672 0
-1637 -1641 0
-1638 -1642 0
-1639 -1643 0
-1640 -1644 0
-1637 -1645 0
-1638 -1646 0
-1639 -1647 0
-1640 -1648 0
-1637 -1669 0
-1638 -1670 0
-1639 -1671 0
-1640 -1672 0
-1637 -2077 0
-1638 -2078 0
-1639 -2079 0
-1640 -2080 0
-1637 -2153 0
-1638 -2154 0
-1639 -2155 0
-1640 -2156 0
-1637 -2477 0
-1638 -2478 0
-1639 -2479 0
-1640 -2480 0
-1637 -2853 0
-1638 -2854 0
-1639 -2855 0
-1640 -2856 0
-1637 -3277 0
-1638 -3278 0
-1639 -3279 0
-1640 -3280 0
-1637 -3545 0
-1638 -3546 0
-1639 -3547 0
-1640 -3548 0
-1641 -1649 0
-1642 -1650 0
-1643 -1651 0
-1644 -1652 0
-1641 -1669 0
-1642 -1670 0
-1643 -1671 0
-1644 -1672 0
-1641 -2081 0
-1642 -2082 0
-1643 -2083 0
-1644 -2084 0
-1641 -2445 0
-1642 -2446 0
-1643 -2447 0
-1644 -2448 0
-1641 -2485 0
-1642 -2486 0
-1643 -2487 0
-1644 -2488 0
-1641 -2841 0
-1642 -2842 0
-1643 -2843 0
-1644 -2844 0
-1641 -3525 0
-1642 -3526 0
-1643 -3527 0
-1644 -3528 0
-1641 -3549 0
-1642 -3550 0
-1643 -3551 0
-1644 -3552 0
-1645 -1649 0
-1646 -1650 0
-1647 -1651 0
-1648 -1652 0
-1645 -1677 0
-1646 -1678 0
-1647 -1679 0
-1648 -1680 0
-1645 -2489 0
-1646 -2490 0
-1647 -2491 0
-1648 -2492 0
-1645 -2857 0
-1646 -2858 0
-1647 -2859 0
-1648 -2860 0
-1645 -3289 0
-1646 -3290 0
-1647 -3291 0
-1648 -3292 0
-1649 -1677 0
-1650 -1678 0
-1651 -1679 0
-1652 -1680 0
-1649 -2009 0
-1650 -2010 0
-1651 -2011 0
-1652 -2012 0
-1649 -2493 0
-1650 -2494 0
-1651 -2495 0
-1652 -2496 0
-1649 -2793 0
-1650 -2794 0
-1651 -2795 0
-1652 -2796 0
-1649 -3293 0
-1650 -3294 0
-1651 -3295 0
-1652 -3296 0
-1653 -2173 0
-1654 -2174 0
-1655 -2175 0
-1656 -2176 0
-1653 -2497 0
-1654 -2498 0
-1655 -2499 0
-1656 -2500 0
-1653 -2673 0
-1654 -2674 0
-1655 -2675 0
-1656 -2676 0
-1653 -3537 0
-1654 -3538 0
-1655 -3539 0
-1656 -3540 0
-1653 -3685 0
-1654 -3686 0
-1655 -3687 0
-1656 -3688 0
-1657 -1661 0
-1658 -1662 0
-1659 -1663 0
-1660 -1664 0
-1657 -1665 0
-1658 -1666 0
-1659 -1667 0
-1660 -1668 0
-1657 -1669 0
-1658 -1670 0
-1659 -1671 0
-1660 -1672 0
-1657 -2505 0
-1658 -2506 0
-1659 -2507 0
-1660 -2508 0
-1657 -2865 0
-1658 -2866 0
-1659 -2867 0
-1660 -2868 0
-1657 -3317 0
-1658 -3318 0
-1659 -3319 0
-1660 -3320 0
-1661 -1673 0
-1662 -1674 0
-1663 -1675 0
-1664 -1676 0
-1661 -1677 0
-1662 -1678 0
-1663 -1679 0
-1664 -1680 0
-1661 -2045 0
-1662 -2046 0
-1663 -2047 0
-1664 -2048 0
-1661 -2513 0
-1662 -2514 0
-1663 -2515 0
-1664 -2516 0
-1661 -3333 0
-1662 -3334 0
-1663 -3335 0
-1664 -3336 0
-1665 -1669 0
-1666 -1670 0
-1667 -1671 0
-1668 -1672 0
-1665 -1673 0
-1666 -1674 0
-1667 -1675 0
-1668 -1676 0
-1665 -2205 0
-1666 -2206 0
-1667 -2207 0
-1668 -2208 0
-1665 -2229 0
-1666 -2230 0
-1667 -2231 0
-1668 -2232 0
-1665 -2573 0
-1666 -2574 0
-1667 -2575 0
-1668 -2576 0
-1665 -3353 0
-1666 -3354 0
-1667 -3355 0
-1668 -3356 0
-1665 -3437 0
-1666 -3438 0
-1667 -3439 0
-1668 -3440 0
-1665 -3457 0
-1666 -3458 0
-1667 -3459 0
-1668 -3460 0
-1669 -1677 0
-1670 -1678 0
-1671 -1679 0
-1672 -1680 0
-1669 -1849 0
-1670 -1850 0
-1671 -1851 0
-1672 -1852 0
-1669 -2209 0
-1670 -2210 0
-1671 -2211 0
-1672 -2212 0
-1669 -2581 0
-1670 -2582 0
-1671 -2583 0
-1672 -2584 0
-1669 -2877 0
-1670 -2878 0
-1671 -2879 0
-1672 -2880 0
-1669 -3029 0
-1670 -3030 0
-1671 -3031 0
-1672 -3032 0
-1669 -3033 0
-1670 -3034 0
-1671 -3035 0
-1672 -3036 0
-1669 -3357 0
-1670 -3358 0
-1671 -3359 0
-1672 -3360 0
-1669 -3441 0
-1670 -3442 0
-1671 -3443 0
-1672 -3444 0
-1669 -3581 0
-1670 -3582 0
-1671 -3583 0
-1672 -3584 0
-1669 -3593 0
-1670 -3594 0
-1671 -3595 0
-1672 -3596 0
-1673 -1677 0
-1674 -1678 0
-1675 -1679 0
-1676 -1680 0
-1673 -1853 0
-1674 -1854 0
-1675 -1855 0
-1676 -1856 0
-1673 -2609 0
-1674 -2610 0
-1675 -2611 0
-1676 -2612 0
-1673 -2709 0
-1674 -2710 0
-1675 -2711 0
-1676 -2712 0
-1673 -2869 0
-1674 -2870 0
-1675 -2871 0
-1676 -2872 0
-1673 -3449 0
-1674 -3450 0
-1675 -3451 0
-1676 -3452 0
-1673 -3461 0
-1674 -3462 0
-1675 -3463 0
-1676 -3464 0
-1677 -2089 0
-1678 -2090 0
-1679 -2091 0
-1680 -2092 0
-1677 -2617 0
-1678 -2618 0
-1679 -2619 0
-1680 -2620 0
-1677 -2885 0
-1678 -2886 0
-1679 -2887 0
-1680 -2888 0
-1677 -3453 0
-1678 -3454 0
-1679 -3455 0
-1680 -3456 0
-1677 -3585 0
-1678 -3586 0
-1679 -3587 0
-1680 -3588 0
-1681 -1701 0
-1682 -1702 0
-1683 -1703 0
-1684 -1704 0
-1681 -2453 0
-1682 -2454 0
-1683 -2455 0
-1684 -2456 0
-1681 -3465 0
-1682 -3466 0
-1683 -3467 0
-1684 -3468 0
-1685 -1741 0
-1686 -1742 0
-1687 -1743 0
-1688 -1744 0
-1685 -1749 0
-1686 -1750 0
-1687 -1751 0
-1688 -1752 0
-1685 -2109 0
-1686 -2110 0
-1687 -2111 0
-1688 -2112 0
-1685 -2473 0
-1686 -2474 0
-1687 -2475 0
-1688 -2476 0
-1689 -1693 0
-1690 -1694 0
-1691 -1695 0
-1692 -1696 0
-1689 -1697 0
-1690 -1698 0
-1691 -1699 0
-1692 -1700 0
-1689 -1705 0
-1690 -1706 0
-1691 -1707 0
-1692 -1708 0
-1689 -1741 0
-1690 -1742 0
-1691 -1743 0
-1692 -1744 0
-1689 -2241 0
-1690 -2242 0
-1691 -2243 0
-1692 -2244 0
-1689 -3361 0
-1690 -3362 0
-1691 -3363 0
-1692 -3364 0
-1689 -3493 0
-1690 -3494 0
-1691 -3495 0
-1692 -3496 0
-1693 -1701 0
-1694 -1702 0
-1695 -1703 0
-1696 -1704 0
-1693 -1745 0
-1694 -1746 0
-1695 -1747 0
-1696 -1748 0
-1693 -2713 0
-1694 -2714 0
-1695 -2715 0
-1696 -2716 0
-1693 -3481 0
-1694 -3482 0
-1695 -3483 0
-1696 -3484 0
-1693 -3497 0
-1694 -3498 0
-1695 -3499 0
-1696 -3500 0
-1697 -1701 0
-1698 -1702 0
-1699 -1703 0
-1700 -1704 0
-1697 -1709 0
-1698 -1710 0
-1699 -1711 0
-1700 -1712 0
-1697 -1713 0
-1698 -1714 0
-1699 -1715 0
-1700 -1716 0
-1697 -1741 0
-1698 -1742 0
-1699 -1743 0
-1700 -1744 0
-1697 -1877 0
-1698 -1878 0
-1699 -1879 0
-1700 -1880 0
-1697 -2909 0
-1698 -2910 0
-1699 -2911 0
-1700 -2912 0
-1697 -3365 0
-1698 -3366 0
-1699 -3367 0
-1700 -3368 0
-1697 -3485 0
-1698 -3486 0
-1699 -3487 0
-1700 -3488 0
-1697 -3501 0
-1698 -3502 0
-1699 -3503 0
-1700 -3504 0
-1701 -1713 0
-1702 -1714 0
-1703 -1715 0
-1704 -1716 0
-1701 -1745 0
-1702 -1746 0
-1703 -1747 0
-1704 -1748 0
-1701 -2293 0
-1702 -2294 0
-1703 -2295 0
-1704 -2296 0
-1701 -2913 0
-1702 -2914 0
-1703 -2915 0
-1704 -2916 0
-1701 -3489 0
-1702 -3490 0
-1703 -3491 0
-1704 -3492 0
-1701 -3505 0
-1702 -3506 0
-1703 -3507 0
-1704 -3508 0
-1705 -1709 0
-1706 -1710 0
-1707 -1711 0
-1708 -1712 0
-1705 -1765 0
-1706 -1766 0
-1707 -1767 0
-1708 -1768 0
-1705 -3369 0
-1706 -3370 0
-1707 -3371 0
-1708 -3372 0
-1705 -3493 0
-1706 -3494 0
-1707 -3495 0
-1708 -3496 0
-1709 -1765 0
-1710 -1766 0
-1711 -1767 0
-1712 -1768 0
-1709 -1881 0
-1710 -1882 0
-1711 -1883 0
-1712 -1884 0
-1709 -2921 0
-1710 -2922 0
-1711 -2923 0
-1712 -2924 0
-1709 -3373 0
-1710 -3374 0
-1711 -3375 0
-1712 -3376 0
-1709 -3501 0
-1710 -3502 0
-1711 -3503 0
-1712 -3504 0
-1713 -1717 0
-1714 -1718 0
-1715 -1719 0
-1716 -1720 0
-1713 -1793 0
-1714 -1794 0
-1715 -1795 0
-1716 -1796 0
-1713 -1889 0
-1714 -1890 0
-1715 -1891 0
-1716 -1892 0
-1713 -2309 0
-1714 -2310 0
-1715 -2311 0
-1716 -2312 0
-1713 -3045 0
-1714 -3046 0
-1715 -3047 0
-1716 -3048 0
-1713 -3513 0
-1714 -3514 0
-1715 -3515 0
-1716 -3516 0
-1713 -3517 0
-1714 -3518 0
-1715 -3519 0
-1716 -3520 0
-1717 -1797 0
-1718 -1798 0
-1719 -1799 0
-1720 -1800 0
-1717 -2097 0
-1718 -2098 0
-1719 -2099 0
-1720 -2100 0
-1717 -2921 0
-1718 -2922 0
-1719 -2923 0
-1720 -2924 0
-1717 -3049 0
-1718 -3050 0
-1719 -3051 0
-1720 -3052 0
-1717 -3521 0
-1718 -3522 0
-1719 -3523 0
-1720 -3524 0
-1721 -1729 0
-1722 -1730 0
-1723 -1731 0
-1724 -1732 0
-1721 -1737 0
-1722 -1738 0
-1723 -1739 0
-1724 -1740 0
-1721 -1829 0
-1722 -1830 0
-1723 -1831 0
-1724 -1832 0
-1721 -2537 0
-1722 -2538 0
-1723 -2539 0
-1724 -2540 0
-1721 -2933 0
-1722 -2934 0
-1723 -2935 0
-1724 -2936 0
-1721 -3465 0
-1722 -3466 0
-1723 -3467 0
-1724 -3468 0
-1725 -1729 0
-1726 -1730 0
-1727 -1731 0
-1728 -1732 0
-1725 -1761 0
-1726 -1762 0
-1727 -1763 0
-1728 -1764 0
-1725 -1833 0
-1726 -1834 0
-1727 -1835 0
-1728 -1836 0
-1725 -2105 0
-1726 -2106 0
-1727 -2107 0
-1728 -2108 0
-1725 -2149 0
-1726 -2150 0
-1727 -2151 0
-1728 -2152 0
-1725 -2541 0
-1726 -2542 0
-1727 -2543 0
-1728 -2544 0
-1725 -3053 0
-1726 -3054 0
-1727 -3055 0
-1728 -3056 0
-1725 -3525 0
-1726 -3526 0
-1727 -3527 0
-1728 -3528 0
-1729 -1777 0
-1730 -1778 0
-1731 -1779 0
-1732 -1780 0
-1729 -1837 0
-1730 -1838 0
-1731 -1839 0
-1732 -1840 0
-1729 -2113 0
-1730 -2114 0
-1731 -2115 0
-1732 -2116 0
-1729 -2153 0
-1730 -2154 0
-1731 -2155 0
-1732 -2156 0
-1729 -2545 0
-1730 -2546 0
-1731 -2547 0
-1732 -2548 0
-1729 -3465 0
-1730 -3466 0
-1731 -3467 0
-1732 -3468 0
-1729 -3525 0
-1730 -3526 0
-1731 -3527 0
-1732 -3528 0
-1733 -1737 0
-1734 -1738 0
-1735 -1739 0
-1736 -1740 0
-1733 -1761 0
-1734 -1762 0
-1735 -1763 0
-1736 -1764 0
-1733 -1785 0
-1734 -1786 0
-1735 -1787 0
-1736 -1788 0
-1733 -1789 0
-1734 -1790 0
-1735 -1791 0
-1736 -1792 0
-1733 -2549 0
-1734 -2550 0
-1735 -2551 0
-1736 -2552 0
-1733 -2949 0
-1734 -2950 0
-1735 -2951 0
-1736 -2952 0
-1733 -3529 0
-1734 -3530 0
-1735 -3531 0
-1736 -3532 0
-1737 -1777 0
-1738 -1778 0
-1739 -1779 0
-1740 -1780 0
-1737 -2553 0
-1738 -2554 0
-1739 -2555 0
-1740 -2556 0
-1737 -2729 0
-1738 -2730 0
-1739 -2731 0
-1740 -2732 0
-1737 -2961 0
-1738 -2962 0
-1739 -2963 0
-1740 -2964 0
-1737 -3529 0
-1738 -3530 0
-1739 -3531 0
-1740 -3532 0
-1741 -1745 0
-1742 -1746 0
-1743 -1747 0
-1744 -1748 0
-1741 -1749 0
-1742 -1750 0
-1743 -1751 0
-1744 -1752 0
-1741 -1757 0
-1742 -1758 0
-1743 -1759 0
-1744 -1760 0
-1741 -1765 0
-1742 -1766 0
-1743 -1767 0
-1744 -1768 0
-1741 -1793 0
-1742 -1794 0
-1743 -1795 0
-1744 -1796 0
-1741 -1857 0
-1742 -1858 0
-1743 -1859 0
-1744 -1860 0
-1741 -1917 0
-1742 -1918 0
-1743 -1919 0
-1744 -1920 0
-1741 -2121 0
-1742 -2122 0
-1743 -2123 0
-1744 -2124 0
-1741 -2261 0
-1742 -2262 0
-1743 -2263 0
-1744 -2264 0
-1741 -3061 0
-1742 -3062 0
-1743 -3063 0
-1744 -3064 0
-1741 -3377 0
-1742 -3378 0
-1743 -3379 0
-1744 -3380 0
-1741 -3533 0
-1742 -3534 0
-1743 -3535 0
-1744 -3536 0
-1745 -1753 0
-1746 -1754 0
-1747 -1755 0
-1748 -1756 0
-1745 -1793 0
-1746 -1794 0
-1747 -1795 0
-1748 -1796 0
-1745 -2333 0
-1746 -2334 0
-1747 -2335 0
-1748 -2336 0
-1745 -3537 0
-1746 -3538 0
-1747 -3539 0
-1748 -3540 0
-1749 -1753 0
-1750 -1754 0
-1751 -1755 0
-1752 -1756 0
-1749 -1761 0
-1750 -1762 0
-1751 -1763 0
-1752 -1764 0
-1749 -1769 0
-1750 -1770 0
-1751 -1771 0
-1752 -1772 0
-1749 -1797 0
-1750 -1798 0
-1751 -1799 0
-1752 -1800 0
-1749 -2561 0
-1750 -2562 0
-1751 -2563 0
-1752 -2564 0
-1749 -2889 0
-1750 -2890 0
-1751 -2891 0
-1752 -2892 0
-1749 -3065 0
-1750 -3066 0
-1751 -3067 0
-1752 -3068 0
-1749 -3541 0
-1750 -3542 0
-1751 -3543 0
-1752 -3544 0
-1753 -1797 0
-1754 -1798 0
-1755 -1799 0
-1756 -1800 0
-1753 -2157 0
-1754 -2158 0
-1755 -2159 0
-1756 -2160 0
-1753 -2565 0
-1754 -2566 0
-1755 -2567 0
-1756 -2568 0
-1757 -1761 0
-1758 -1762 0
-1759 -1763 0
-1760 -1764 0
-1757 -1773 0
-1758 -1774 0
-1759 -1775 0
-1760 -1776 0
-1757 -1841 0
-1758 -1842 0
-1759 -1843 0
-1760 -1844 0
-1757 -1857 0
-1758 -1858 0
-1759 -1859 0
-1760 -1860 0
-1757 -2125 0
-1758 -2126 0
-1759 -2127 0
-1760 -2128 0
-1757 -2245 0
-1758 -2246 0
-1759 -2247 0
-1760 -2248 0
-1757 -2569 0
-1758 -2570 0
-1759 -2571 0
-1760 -2572 0
-1757 -2965 0
-1758 -2966 0
-1759 -2967 0
-1760 -2968 0
-1757 -3545 0
-1758 -3546 0
-1759 -3547 0
-1760 -3548 0
-1761 -1777 0
-1762 -1778 0
-1763 -1779 0
-1764 -1780 0
-1761 -1801 0
-1762 -1802 0
-1763 -1803 0
-1764 -1804 0
-1761 -1805 0
-1762 -1806 0
-1763 -1807 0
-1764 -1808 0
-1761 -1841 0
-1762 -1842 0
-1763 -1843 0
-1764 -1844 0
-1761 -2133 0
-1762 -2134 0
-1763 -2135 0
-1764 -2136 0
-1761 -2161 0
-1762 -2162 0
-1763 -2163 0
-1764 -2164 0
-1761 -2581 0
-1762 -2582 0
-1763 -2583 0
-1764 -2584 0
-1761 -2893 0
-1762 -2894 0
-1763 -2895 0
-1764 -2896 0
-1761 -3549 0
-1762 -3550 0
-1763 -3551 0
-1764 -3552 0
-1765 -1769 0
-1766 -1770 0
-1767 -1771 0
-1768 -1772 0
-1765 -1773 0
-1766 -1774 0
-1767 -1775 0
-1768 -1776 0
-1765 -1809 0
-1766 -1810 0
-1767 -1811 0
-1768 -1812 0
-1765 -1861 0
-1766 -1862 0
-1767 -1863 0
-1768 -1864 0
-1765 -1925 0
-1766 -1926 0
-1767 -1927 0
-1768 -1928 0
-1765 -3381 0
-1766 -3382 0
-1767 -3383 0
-1768 -3384 0
-1765 -3533 0
-1766 -3534 0
-1767 -3535 0
-1768 -3536 0
-1769 -1777 0
-1770 -1778 0
-1771 -1779 0
-1772 -1780 0
-1769 -1813 0
-1770 -1814 0
-1771 -1815 0
-1772 -1816 0
-1769 -1933 0
-1770 -1934 0
-1771 -1935 0
-1772 -1936 0
-1769 -2169 0
-1770 -2170 0
-1771 -2171 0
-1772 -2172 0
-1769 -2601 0
-1770 -2602 0
-1771 -2603 0
-1772 -2604 0
-1769 -3541 0
-1770 -3542 0
-1771 -3543 0
-1772 -3544 0
-1773 -1777 0
-1774 -1778 0
-1775 -1779 0
-1776 -1780 0
-1773 -1845 0
-1774 -1846 0
-1775 -1847 0
-1776 -1848 0
-1773 -1861 0
-1774 -1862 0
-1775 -1863 0
-1776 -1864 0
-1773 -2137 0
-1774 -2138 0
-1775 -2139 0
-1776 -2140 0
-1773 -2605 0
-1774 -2606 0
-1775 -2607 0
-1776 -2608 0
-1773 -2969 0
-1774 -2970 0
-1775 -2971 0
-1776 -2972 0
-1773 -3545 0
-1774 -3546 0
-1775 -3547 0
-1776 -3548 0
-1777 -1817 0
-1778 -1818 0
-1779 -1819 0
-1780 -1820 0
-1777 -1821 0
-1778 -1822 0
-1779 -1823 0
-1780 -1824 0
-1777 -1845 0
-1778 -1846 0
-1779 -1847 0
-1780 -1848 0
-1777 -2177 0
-1778 -2178 0
-1779 -2179 0
-1780 -2180 0
-1777 -2617 0
-1778 -2618 0
-1779 -2619 0
-1780 -2620 0
-1777 -2897 0
-1778 -2898 0
-1779 -2899 0
-1780 -2900 0
-1777 -3549 0
-1778 -3550 0
-1779 -3551 0
-1780 -3552 0
-1781 -1789 0
-1782 -1790 0
-1783 -1791 0
-1784 -1792 0
-1781 -1797 0
-1782 -1798 0
-1783 -1799 0
-1784 -1800 0
-1781 -2733 0
-1782 -2734 0
-1783 -2735 0
-1784 -2736 0
-1781 -3069 0
-1782 -3070 0
-1783 -3071 0
-1784 -3072 0
-1781 -3553 0
-1782 -3554 0
-1783 -3555 0
-1784 -3556 0
-1781 -3721 0
-1782 -3722 0
-1783 -3723 0
-1784 -3724 0
-1785 -1789 0
-1786 -1790 0
-1787 -1791 0
-1788 -1792 0
-1785 -1801 0
-1786 -1802 0
-1787 -1803 0
-1788 -1804 0
-1785 -2645 0
-1786 -2646 0
-1787 -2647 0
-1788 -2648 0
-1785 -2901 0
-1786 -2902 0
-1787 -2903 0
-1788 -2904 0
-1785 -3557 0
-1786 -3558 0
-1787 -3559 0
-1788 -3560 0
-1789 -1805 0
-1790 -1806 0
-1791 -1807 0
-1792 -1808 0
-1789 -2257 0
-1790 -2258 0
-1791 -2259 0
-1792 -2260 0
-1789 -2737 0
-1790 -2738 0
-1791 -2739 0
-1792 -2740 0
-1789 -2953 0
-1790 -2954 0
-1791 -2955 0
-1792 -2956 0
-1789 -3077 0
-1790 -3078 0
-1791 -3079 0
-1792 -3080 0
-1789 -3561 0
-1790 -3562 0
-1791 -3563 0
-1792 -3564 0
-1793 -1797 0
-1794 -1798 0
-1795 -1799 0
-1796 -1800 0
-1793 -1809 0
-1794 -1810 0
-1795 -1811 0
-1796 -1812 0
-1793 -1953 0
-1794 -1954 0
-1795 -1955 0
-1796 -1956 0
-1793 -2273 0
-1794 -2274 0
-1795 -2275 0
-1796 -2276 0
-1793 -2373 0
-1794 -2374 0
-1795 -2375 0
-1796 -2376 0
-1793 -3385 0
-1794 -3386 0
-1795 -3387 0
-1796 -3388 0
-1793 -3565 0
-1794 -3566 0
-1795 -3567 0
-1796 -3568 0
-1797 -1805 0
-1798 -1806 0
-1799 -1807 0
-1800 -1808 0
-1797 -1813 0
-1798 -1814 0
-1799 -1815 0
-1800 -1816 0
-1797 -2281 0
-1798 -2282 0
-1799 -2283 0
-1800 -2284 0
-1797 -2913 0
-1798 -2914 0
-1799 -2915 0
-1800 -2916 0
-1797 -3093 0
-1798 -3094 0
-1799 -3095 0
-1800 -3096 0
-1797 -3389 0
-1798 -3390 0
-1799 -3391 0
-1800 -3392 0
-1797 -3569 0
-1798 -3570 0
-1799 -3571 0
-1800 -3572 0
-1801 -1805 0
-1802 -1806 0
-1803 -1807 0
-1804 -1808 0
-1801 -1817 0
-1802 -1818 0
-1803 -1819 0
-1804 -1820 0
-1801 -2145 0
-1802 -2146 0
-1803 -2147 0
-1804 -2148 0
-1801 -2285 0
-1802 -2286 0
-1803 -2287 0
-1804 -2288 0
-1801 -2653 0
-1802 -2654 0
-1803 -2655 0
-1804 -2656 0
-1801 -2917 0
-1802 -2918 0
-1803 -2919 0
-1804 -2920 0
-1801 -3573 0
-1802 -3574 0
-1803 -3575 0
-1804 -3576 0
-1805 -1821 0
-1806 -1822 0
-1807 -1823 0
-1808 -1824 0
-1805 -2185 0
-1806 -2186 0
-1807 -2187 0
-1808 -2188 0
-1805 -2657 0
-1806 -2658 0
-1807 -2659 0
-1808 -2660 0
-1805 -2969 0
-1806 -2970 0
-1807 -2971 0
-1808 -2972 0
-1805 -3101 0
-1806 -3102 0
-1807 -3103 0
-1808 -3104 0
-1805 -3577 0
-1806 -3578 0
-1807 -3579 0
-1808 -3580 0
-1809 -1813 0
-1810 -1814 0
-1811 -1815 0
-1812 -1816 0
-1809 -1977 0
-1810 -1978 0
-1811 -1979 0
-1812 -1980 0
-1809 -3393 0
-1810 -3394 0
-1811 -3395 0
-1812 -3396 0
-1809 -3565 0
-1810 -3566 0
-1811 -3567 0
-1812 -3568 0
-1813 -1821 0
-1814 -1822 0
-1815 -1823 0
-1816 -1824 0
-1813 -3397 0
-1814 -3398 0
-1815 -3399 0
-1816 -3400 0
-1813 -3569 0
-1814 -3570 0
-1815 -3571 0
-1816 -3572 0
-1817 -1821 0
-1818 -1822 0
-1819 -1823 0
-1820 -1824 0
-1817 -2661 0
-1818 -2662 0
-1819 -2663 0
-1820 -2664 0
-1817 -2925 0
-1818 -2926 0
-1819 -2927 0
-1820 -2928 0
-1817 -3401 0
-1818 -3402 0
-1819 -3403 0
-1820 -3404 0
-1817 -3573 0
-1818 -3574 0
-1819 -3575 0
-1820 -3576 0
-1821 -2189 0
-1822 -2190 0
-1823 -2191 0
-1824 -2192 0
-1821 -2665 0
-1822 -2666 0
-1823 -2667 0
-1824 -2668 0
-1821 -3405 0
-1822 -3406 0
-1823 -3407 0
-1824 -3408 0
-1821 -3577 0
-1822 -3578 0
-1823 -3579 0
-1824 -3580 0
-1825 -1829 0
-1826 -1830 0
-1827 -1831 0
-1828 -1832 0
-1825 -1833 0
-1826 -1834 0
-1827 -1835 0
-1828 -1836 0
-1825 -3489 0
-1826 -3490 0
-1827 -3491 0
-1828 -3492 0
-1829 -1837 0
-1830 -1838 0
-1831 -1839 0
-1832 -1840 0
-1829 -2985 0
-1830 -2986 0
-1831 -2987 0
-1832 -2988 0
-1829 -3505 0
-1830 -3506 0
-1831 -3507 0
-1832 -3508 0
-1833 -1837 0
-1834 -1838 0
-1835 -1839 0
-1836 -1840 0
-1833 -1841 0
-1834 -1842 0
-1835 -1843 0
-1836 -1844 0
-1833 -2713 0
-1834 -2714 0
-1835 -2715 0
-1836 -2716 0
-1833 -3121 0
-1834 -3122 0
-1835 -3123 0
-1836 -3124 0
-1833 -3489 0
-1834 -3490 0
-1835 -3491 0
-1836 -3492 0
-1833 -3581 0
-1834 -3582 0
-1835 -3583 0
-1836 -3584 0
-1837 -1845 0
-1838 -1846 0
-1839 -1847 0
-1840 -1848 0
-1837 -2125 0
-1838 -2126 0
-1839 -2127 0
-1840 -2128 0
-1837 -2201 0
-1838 -2202 0
-1839 -2203 0
-1840 -2204 0
-1837 -2413 0
-1838 -2414 0
-1839 -2415 0
-1840 -2416 0
-1837 -2717 0
-1838 -2718 0
-1839 -2719 0
-1840 -2720 0
-1837 -3425 0
-1838 -3426 0
-1839 -3427 0
-1840 -3428 0
-1837 -3505 0
-1838 -3506 0
-1839 -3507 0
-1840 -3508 0
-1837 -3581 0
-1838 -3582 0
-1839 -3583 0
-1840 -3584 0
-1837 -3585 0
-1838 -3586 0
-1839 -3587 0
-1840 -3588 0
-1841 -1845 0
-1842 -1846 0
-1843 -1847 0
-1844 -1848 0
-1841 -2213 0
-1842 -2214 0
-1843 -2215 0
-1844 -2216 0
-1841 -2301 0
-1842 -2302 0
-1843 -2303 0
-1844 -2304 0
-1841 -2689 0
-1842 -2690 0
-1843 -2691 0
-1844 -2692 0
-1841 -2721 0
-1842 -2722 0
-1843 -2723 0
-1844 -2724 0
-1841 -3593 0
-1842 -3594 0
-1843 -3595 0
-1844 -3596 0
-1845 -2029 0
-1846 -2030 0
-1847 -2031 0
-1848 -2032 0
-1845 -2217 0
-1846 -2218 0
-1847 -2219 0
-1848 -2220 0
-1845 -2305 0
-1846 -2306 0
-1847 -2307 0
-1848 -2308 0
-1845 -2697 0
-1846 -2698 0
-1847 -2699 0
-1848 -2700 0
-1845 -2725 0
-1846 -2726 0
-1847 -2727 0
-1848 -2728 0
-1845 -3433 0
-1846 -3434 0
-1847 -3435 0
-1848 -3436 0
-1845 -3509 0
-1846 -3510 0
-1847 -3511 0
-1848 -3512 0
-1845 -3593 0
-1846 -3594 0
-1847 -3595 0
-1848 -3596 0
-1849 -2733 0
-1850 -2734 0
-1851 -2735 0
-1852 -2736 0
-1849 -3181 0
-1850 -3182 0
-1851 -3183 0
-1852 -3184 0
-1849 -3189 0
-1850 -3190 0
-1851 -3191 0
-1852 -3192 0
-1853 -2237 0
-1854 -2238 0
-1855 -2239 0
-1856 -2240 0
-1853 -2401 0
-1854 -2402 0
-1855 -2403 0
-1856 -2404 0
-1853 -2985 0
-1854 -2986 0
-1855 -2987 0
-1856 -2988 0
-1853 -3185 0
-1854 -3186 0
-1855 -3187 0
-1856 -3188 0
-1853 -3553 0
-1854 -3554 0
-1855 -3555 0
-1856 -3556 0
-1853 -3569 0
-1854 -3570 0
-1855 -3571 0
-1856 -3572 0
-1853 -3757 0
-1854 -3758 0
-1855 -3759 0
-1856 -3760 0
-1857 -1861 0
-1858 -1862 0
-1859 -1863 0
-1860 -1864 0
-1857 -2105 0
-1858 -2106 0
-1859 -2107 0
-1860 -2108 0
-1857 -3597 0
-1858 -3598 0
-1859 -3599 0
-1860 -3600 0
-1861 -2113 0
-1862 -2114 0
-1863 -2115 0
-1864 -2116 0
-1861 -3597 0
-1862 -3598 0
-1863 -3599 0
-1864 -3600 0
-1865 -1873 0
-1866 -1874 0
-1867 -1875 0
-1868 -1876 0
-1865 -2817 0
-1866 -2818 0
-1867 -2819 0
-1868 -2820 0
-1865 -3013 0
-1866 -3014 0
-1867 -3015 0
-1868 -3016 0
-1865 -3617 0
-1866 -3618 0
-1867 -3619 0
-1868 -3620 0
-1865 -3629 0
-1866 -3630 0
-1867 -3631 0
-1868 -3632 0
-1869 -2225 0
-1870 -2226 0
-1871 -2227 0
-1872 -2228 0
-1869 -2417 0
-1870 -2418 0
-1871 -2419 0
-1872 -2420 0
-1869 -3633 0
-1870 -3634 0
-1871 -3635 0
-1872 -3636 0
-1869 -3773 0
-1870 -3774 0
-1871 -3775 0
-1872 -3776 0
-1873 -2421 0
-1874 -2422 0
-1875 -2423 0
-1876 -2424 0
-1873 -2449 0
-1874 -2450 0
-1875 -2451 0
-1876 -2452 0
-1873 -2757 0
-1874 -2758 0
-1875 -2759 0
-1876 -2760 0
-1873 -3441 0
-1874 -3442 0
-1875 -3443 0
-1876 -3444 0
-1873 -3669 0
-1874 -3670 0
-1875 -3671 0
-1876 -3672 0
-1873 -3685 0
-1874 -3686 0
-1875 -3687 0
-1876 -3688 0
-1877 -1881 0
-1878 -1882 0
-1879 -1883 0
-1880 -1884 0
-1877 -1885 0
-1878 -1886 0
-1879 -1887 0
-1880 -1888 0
-1877 -1889 0
-1878 -1890 0
-1879 -1891 0
-1880 -1892 0
-1877 -1917 0
-1878 -1918 0
-1879 -1919 0
-1880 -1920 0
-1877 -1921 0
-1878 -1922 0
-1879 -1923 0
-1880 -1924 0
-1877 -3041 0
-1878 -3042 0
-1879 -3043 0
-1880 -3044 0
-1877 -3605 0
-1878 -3606 0
-1879 -3607 0
-1880 -3608 0
-1881 -1893 0
-1882 -1894 0
-1883 -1895 0
-1884 -1896 0
-1881 -1925 0
-1882 -1926 0
-1883 -1927 0
-1884 -1928 0
-1881 -1929 0
-1882 -1930 0
-1883 -1931 0
-1884 -1932 0
-1881 -2241 0
-1882 -2242 0
-1883 -2243 0
-1884 -2244 0
-1881 -3049 0
-1882 -3050 0
-1883 -3051 0
-1884 -3052 0
-1881 -3465 0
-1882 -3466 0
-1883 -3467 0
-1884 -3468 0
-1881 -3605 0
-1882 -3606 0
-1883 -3607 0
-1884 -3608 0
-1881 -3609 0
-1882 -3610 0
-1883 -3611 0
-1884 -3612 0
-1885 -1901 0
-1886 -1902 0
-1887 -1903 0
-1888 -1904 0
-1885 -2293 0
-1886 -2294 0
-1887 -2295 0
-1888 -2296 0
-1885 -2761 0
-1886 -2762 0
-1887 -2763 0
-1888 -2764 0
-1885 -3057 0
-1886 -3058 0
-1887 -3059 0
-1888 -3060 0
-1885 -3613 0
-1886 -3614 0
-1887 -3615 0
-1888 -3616 0
-1889 -1893 0
-1890 -1894 0
-1891 -1895 0
-1892 -1896 0
-1889 -1901 0
-1890 -1902 0
-1891 -1903 0
-1892 -1904 0
-1889 -1953 0
-1890 -1954 0
-1891 -1955 0
-1892 -1956 0
-1889 -1961 0
-1890 -1962 0
-1891 -1963 0
-1892 -1964 0
-1889 -2505 0
-1890 -2506 0
-1891 -2507 0
-1892 -2508 0
-1889 -3045 0
-1890 -3046 0
-1891 -3047 0
-1892 -3048 0
-1889 -3617 0
-1890 -3618 0
-1891 -3619 0
-1892 -3620 0
-1893 -1913 0
-1894 -1914 0
-1895 -1915 0
-1896 -1916 0
-1893 -1977 0
-1894 -1978 0
-1895 -1979 0
-1896 -1980 0
-1893 -1985 0
-1894 -1986 0
-1895 -1987 0
-1896 -1988 0
-1893 -2253 0
-1894 -2254 0
-1895 -2255 0
-1896 -2256 0
-1893 -2513 0
-1894 -2514 0
-1895 -2515 0
-1896 -2516 0
-1893 -3617 0
-1894 -3618 0
-1895 -3619 0
-1896 -3620 0
-1897 -1901 0
-1898 -1902 0
-1899 -1903 0
-1900 -1904 0
-1897 -1909 0
-1898 -1910 0
-1899 -1911 0
-1900 -1912 0
-1897 -2097 0
-1898 -2098 0
-1899 -2099 0
-1900 -2100 0
-1897 -2461 0
-1898 -2462 0
-1899 -2463 0
-1900 -2464 0
-1897 -2909 0
-1898 -2910 0
-1899 -2911 0
-1900 -2912 0
-1897 -3621 0
-1898 -3622 0
-1899 -3623 0
-1900 -3624 0
-1897 -3625 0
-1898 -3626 0
-1899 -3627 0
-1900 -3628 0
-1901 -1905 0
-1902 -1906 0
-1903 -1907 0
-1904 -1908 0
-1901 -1913 0
-1902 -1914 0
-1903 -1915 0
-1904 -1916 0
-1901 -2001 0
-1902 -2002 0
-1903 -2003 0
-1904 -2004 0
-1901 -2097 0
-1902 -2098 0
-1903 -2099 0
-1904 -2100 0
-1901 -2313 0
-1902 -2314 0
-1903 -2315 0
-1904 -2316 0
-1901 -2917 0
-1902 -2918 0
-1903 -2919 0
-1904 -2920 0
-1901 -3061 0
-1902 -3062 0
-1903 -3063 0
-1904 -3064 0
-1901 -3237 0
-1902 -3238 0
-1903 -3239 0
-1904 -3240 0
-1901 -3629 0
-1902 -3630 0
-1903 -3631 0
-1904 -3632 0
-1905 -2001 0
-1906 -2002 0
-1907 -2003 0
-1908 -2004 0
-1905 -2521 0
-1906 -2522 0
-1907 -2523 0
-1908 -2524 0
-1905 -3241 0
-1906 -3242 0
-1907 -3243 0
-1908 -3244 0
-1909 -1913 0
-1910 -1914 0
-1911 -1915 0
-1912 -1916 0
-1909 -2101 0
-1910 -2102 0
-1911 -2103 0
-1912 -2104 0
-1909 -2921 0
-1910 -2922 0
-1911 -2923 0
-1912 -2924 0
-1909 -3625 0
-1910 -3626 0
-1911 -3627 0
-1912 -3628 0
-1913 -2005 0
-1914 -2006 0
-1915 -2007 0
-1916 -2008 0
-1913 -2101 0
-1914 -2102 0
-1915 -2103 0
-1916 -2104 0
-1913 -2925 0
-1914 -2926 0
-1915 -2927 0
-1916 -2928 0
-1913 -3245 0
-1914 -3246 0
-1915 -3247 0
-1916 -3248 0
-1913 -3629 0
-1914 -3630 0
-1915 -3631 0
-1916 -3632 0
-1917 -1921 0
-1918 -1922 0
-1919 -1923 0
-1920 -1924 0
-1917 -1925 0
-1918 -1926 0
-1919 -1927 0
-1920 -1928 0
-1917 -1949 0
-1918 -1950 0
-1919 -1951 0
-1920 -1952 0
-1917 -1953 0
-1918 -1954 0
-1919 -1955 0
-1920 -1956 0
-1917 -2013 0
-1918 -2014 0
-1919 -2015 0
-1920 -2016 0
-1917 -2105 0
-1918 -2106 0
-1919 -2107 0
-1920 -2108 0
-1917 -2317 0
-1918 -2318 0
-1919 -2319 0
-1920 -2320 0
-1917 -3237 0
-1918 -3238 0
-1919 -3239 0
-1920 -3240 0
-1917 -3633 0
-1918 -3634 0
-1919 -3635 0
-1920 -3636 0
-1917 -3797 0
-1918 -3798 0
-1919 -3799 0
-1920 -3800 0
-1921 -1929 0
-1922 -1930 0
-1923 -1931 0
-1924 -1932 0
-1921 -1957 0
-1922 -1958 0
-1923 -1959 0
-1924 -1960 0
-1921 -1961 0
-1922 -1962 0
-1923 -1963 0
-1924 -1964 0
-1921 -2321 0
-1922 -2322 0
-1923 -2323 0
-1924 -2324 0
-1921 -2525 0
-1922 -2526 0
-1923 -2527 0
-1924 -2528 0
-1921 -3089 0
-1922 -3090 0
-1923 -3091 0
-1924 -3092 0
-1921 -3241 0
-1922 -3242 0
-1923 -3243 0
-1924 -3244 0
-1921 -3637 0
-1922 -3638 0
-1923 -3639 0
-1924 -3640 0
-1925 -1929 0
-1926 -1930 0
-1927 -1931 0
-1928 -1932 0
-1925 -1933 0
-1926 -1934 0
-1927 -1935 0
-1928 -1936 0
-1925 -1973 0
-1926 -1974 0
-1927 -1975 0
-1928 -1976 0
-1925 -1977 0
-1926 -1978 0
-1927 -1979 0
-1928 -1980 0
-1925 -2021 0
-1926 -2022 0
-1927 -2023 0
-1928 -2024 0
-1925 -2109 0
-1926 -2110 0
-1927 -2111 0
-1928 -2112 0
-1925 -2113 0
-1926 -2114 0
-1927 -2115 0
-1928 -2116 0
-1925 -2325 0
-1926 -2326 0
-1927 -2327 0
-1928 -2328 0
-1925 -2777 0
-1926 -2778 0
-1927 -2779 0
-1928 -2780 0
-1925 -3093 0
-1926 -3094 0
-1927 -3095 0
-1928 -3096 0
-1925 -3245 0
-1926 -3246 0
-1927 -3247 0
-1928 -3248 0
-1925 -3473 0
-1926 -3474 0
-1927 -3475 0
-1928 -3476 0
-1925 -3633 0
-1926 -3634 0
-1927 -3635 0
-1928 -3636 0
-1925 -3641 0
-1926 -3642 0
-1927 -3643 0
-1928 -3644 0
-1925 -3801 0
-1926 -3802 0
-1927 -3803 0
-1928 -3804 0
-1929 -1981 0
-1930 -1982 0
-1931 -1983 0
-1932 -1984 0
-1929 -1985 0
-1930 -1986 0
-1931 -1987 0
-1932 -1988 0
-1929 -2261 0
-1930 -2262 0
-1931 -2263 0
-1932 -2264 0
-1929 -2533 0
-1930 -2534 0
-1931 -2535 0
-1932 -2536 0
-1929 -3097 0
-1930 -3098 0
-1931 -3099 0
-1932 -3100 0
-1929 -3637 0
-1930 -3638 0
-1931 -3639 0
-1932 -3640 0
-1929 -3645 0
-1930 -3646 0
-1931 -3647 0
-1932 -3648 0
-1933 -1989 0
-1934 -1990 0
-1935 -1991 0
-1936 -1992 0
-1933 -2021 0
-1934 -2022 0
-1935 -2023 0
-1936 -2024 0
-1933 -2417 0
-1934 -2418 0
-1935 -2419 0
-1936 -2420 0
-1933 -2781 0
-1934 -2782 0
-1935 -2783 0
-1936 -2784 0
-1937 -1941 0
-1938 -1942 0
-1939 -1943 0
-1940 -1944 0
-1937 -1945 0
-1938 -1946 0
-1939 -1947 0
-1940 -1948 0
-1937 -1961 0
-1938 -1962 0
-1939 -1963 0
-1940 -1964 0
-1937 -2453 0
-1938 -2454 0
-1939 -2455 0
-1940 -2456 0
-1937 -2549 0
-1938 -2550 0
-1939 -2551 0
-1940 -2552 0
-1937 -3649 0
-1938 -3650 0
-1939 -3651 0
-1940 -3652 0
-1937 -3709 0
-1938 -3710 0
-1939 -3711 0
-1940 -3712 0
-1941 -1969 0
-1942 -1970 0
-1943 -1971 0
-1944 -1972 0
-1941 -2585 0
-1942 -2586 0
-1943 -2587 0
-1944 -2588 0
-1941 -3073 0
-1942 -3074 0
-1943 -3075 0
-1944 -3076 0
-1941 -3653 0
-1942 -3654 0
-1943 -3655 0
-1944 -3656 0
-1941 -3717 0
-1942 -3718 0
-1943 -3719 0
-1944 -3720 0
-1945 -1985 0
-1946 -1986 0
-1947 -1987 0
-1948 -1988 0
-1945 -2553 0
-1946 -2554 0
-1947 -2555 0
-1948 -2556 0
-1945 -3109 0
-1946 -3110 0
-1947 -3111 0
-1948 -3112 0
-1945 -3649 0
-1946 -3650 0
-1947 -3651 0
-1948 -3652 0
-1949 -1953 0
-1950 -1954 0
-1951 -1955 0
-1952 -1956 0
-1949 -1957 0
-1950 -1958 0
-1951 -1959 0
-1952 -1960 0
-1949 -1965 0
-1950 -1966 0
-1951 -1967 0
-1952 -1968 0
-1949 -1973 0
-1950 -1974 0
-1951 -1975 0
-1952 -1976 0
-1949 -2053 0
-1950 -2054 0
-1951 -2055 0
-1952 -2056 0
-1949 -2349 0
-1950 -2350 0
-1951 -2351 0
-1952 -2352 0
-1949 -2477 0
-1950 -2478 0
-1951 -2479 0
-1952 -2480 0
-1949 -3657 0
-1950 -3658 0
-1951 -3659 0
-1952 -3660 0
-1953 -1961 0
-1954 -1962 0
-1955 -1963 0
-1956 -1964 0
-1953 -1977 0
-1954 -1978 0
-1955 -1979 0
-1956 -1980 0
-1953 -2157 0
-1954 -2158 0
-1955 -2159 0
-1956 -2160 0
-1953 -2481 0
-1954 -2482 0
-1955 -2483 0
-1956 -2484 0
-1953 -2573 0
-1954 -2574 0
-1955 -2575 0
-1956 -2576 0
-1953 -3481 0
-1954 -3482 0
-1955 -3483 0
-1956 -3484 0
-1953 -3661 0
-1954 -3662 0
-1955 -3663 0
-1956 -3664 0
-1957 -1961 0
-1958 -1962 0
-1959 -1963 0
-1960 -1964 0
-1957 -1981 0
-1958 -1982 0
-1959 -1983 0
-1960 -1984 0
-1957 -2149 0
-1958 -2150 0
-1959 -2151 0
-1960 -2152 0
-1957 -2353 0
-1958 -2354 0
-1959 -2355 0
-1960 -2356 0
-1957 -2577 0
-1958 -2578 0
-1959 -2579 0
-1960 -2580 0
-1957 -3485 0
-1958 -3486 0
-1959 -3487 0
-1960 -3488 0
-1957 -3665 0
-1958 -3666 0
-1959 -3667 0
-1960 -3668 0
-1961 -1969 0
-1962 -1970 0
-1963 -1971 0
-1964 -1972 0
-1961 -1985 0
-1962 -1986 0
-1963 -1987 0
-1964 -1988 0
-1961 -2001 0
-1962 -2002 0
-1963 -2003 0
-1964 -2004 0
-1961 -2581 0
-1962 -2582 0
-1963 -2583 0
-1964 -2584 0
-1961 -3489 0
-1962 -3490 0
-1963 -3491 0
-1964 -3492 0
-1961 -3669 0
-1962 -3670 0
-1963 -3671 0
-1964 -3672 0
-1965 -1989 0
-1966 -1990 0
-1967 -1991 0
-1968 -1992 0
-1965 -2053 0
-1966 -2054 0
-1967 -2055 0
-1968 -2056 0
-1965 -2485 0
-1966 -2486 0
-1967 -2487 0
-1968 -2488 0
-1965 -3041 0
-1966 -3042 0
-1967 -3043 0
-1968 -3044 0
-1969 -1997 0
-1970 -1998 0
-1971 -1999 0
-1972 -2000 0
-1969 -2269 0
-1970 -2270 0
-1971 -2271 0
-1972 -2272 0
-1969 -2593 0
-1970 -2594 0
-1971 -2595 0
-1972 -2596 0
-1969 -3097 0
-1970 -3098 0
-1971 -3099 0
-1972 -3100 0
-1969 -3673 0
-1970 -3674 0
-1971 -3675 0
-1972 -3676 0
-1973 -1977 0
-1974 -1978 0
-1975 -1979 0
-1976 -1980 0
-1973 -1981 0
-1974 -1982 0
-1975 -1983 0
-1976 -1984 0
-1973 -1989 0
-1974 -1990 0
-1975 -1991 0
-1976 -1992 0
-1973 -2057 0
-1974 -2058 0
-1975 -2059 0
-1976 -2060 0
-1973 -2169 0
-1974 -2170 0
-1975 -2171 0
-1976 -2172 0
-1973 -2489 0
-1974 -2490 0
-1975 -2491 0
-1976 -2492 0
-1973 -3045 0
-1974 -3046 0
-1975 -3047 0
-1976 -3048 0
-1973 -3477 0
-1974 -3478 0
-1975 -3479 0
-1976 -3480 0
-1973 -3493 0
-1974 -3494 0
-1975 -3495 0
-1976 -3496 0
-1973 -3657 0
-1974 -3658 0
-1975 -3659 0
-1976 -3660 0
-1973 -3677 0
-1974 -3678 0
-1975 -3679 0
-1976 -3680 0
-1977 -1985 0
-1978 -1986 0
-1979 -1987 0
-1980 -1988 0
-1977 -2061 0
-1978 -2062 0
-1979 -2063 0
-1980 -2064 0
-1977 -2173 0
-1978 -2174 0
-1979 -2175 0
-1980 -2176 0
-1977 -2609 0
-1978 -2610 0
-1979 -2611 0
-1980 -2612 0
-1977 -2937 0
-1978 -2938 0
-1979 -2939 0
-1980 -2940 0
-1977 -3497 0
-1978 -3498 0
-1979 -3499 0
-1980 -3500 0
-1977 -3661 0
-1978 -3662 0
-1979 -3663 0
-1980 -3664 0
-1981 -1985 0
-1982 -1986 0
-1983 -1987 0
-1984 -1988 0
-1981 -1993 0
-1982 -1994 0
-1983 -1995 0
-1984 -1996 0
-1981 -2065 0
-1982 -2066 0
-1983 -2067 0
-1984 -2068 0
-1981 -2153 0
-1982 -2154 0
-1983 -2155 0
-1984 -2156 0
-1981 -2613 0
-1982 -2614 0
-1983 -2615 0
-1984 -2616 0
-1981 -3501 0
-1982 -3502 0
-1983 -3503 0
-1984 -3504 0
-1981 -3665 0
-1982 -3666 0
-1983 -3667 0
-1984 -3668 0
-1985 -1997 0
-1986 -1998 0
-1987 -1999 0
-1988 -2000 0
-1985 -2005 0
-1986 -2006 0
-1987 -2007 0
-1988 -2008 0
-1985 -2273 0
-1986 -2274 0
-1987 -2275 0
-1988 -2276 0
-1985 -2617 0
-1986 -2618 0
-1987 -2619 0
-1988 -2620 0
-1985 -3505 0
-1986 -3506 0
-1987 -3507 0
-1988 -3508 0
-1985 -3669 0
-1986 -3670 0
-1987 -3671 0
-1988 -3672 0
-1989 -1993 0
-1990 -1994 0
-1991 -1995 0
-1992 -1996 0
-1989 -2057 0
-1990 -2058 0
-1991 -2059 0
-1992 -2060 0
-1989 -2493 0
-1990 -2494 0
-1991 -2495 0
-1992 -2496 0
-1989 -3049 0
-1990 -3050 0
-1991 -3051 0
-1992 -3052 0
-1993 -1997 0
-1994 -1998 0
-1995 -1999 0
-1996 -2000 0
-1993 -2065 0
-1994 -2066 0
-1995 -2067 0
-1996 -2068 0
-1993 -2277 0
-1994 -2278 0
-1995 -2279 0
-1996 -2280 0
-1993 -2641 0
-1994 -2642 0
-1995 -2643 0
-1996 -2644 0
-1997 -2281 0
-1998 -2282 0
-1999 -2283 0
-2000 -2284 0
-1997 -2421 0
-1998 -2422 0
-1999 -2423 0
-2000 -2424 0
-1997 -2629 0
-1998 -2630 0
-1999 -2631 0
-2000 -2632 0
-1997 -3673 0
-1998 -3674 0
-1999 -3675 0
-2000 -3676 0
-2001 -2005 0
-2002 -2006 0
-2003 -2007 0
-2004 -2008 0
-2001 -2165 0
-2002 -2166 0
-2003 -2167 0
-2004 -2168 0
-2001 -2381 0
-2002 -2382 0
-2003 -2383 0
-2004 -2384 0
-2001 -2469 0
-2002 -2470 0
-2003 -2471 0
-2004 -2472 0
-2001 -2645 0
-2002 -2646 0
-2003 -2647 0
-2004 -2648 0
-2001 -3249 0
-2002 -3250 0
-2003 -3251 0
-2004 -3252 0
-2001 -3685 0
-2002 -3686 0
-2003 -3687 0
-2004 -3688 0
-2005 -2181 0
-2006 -2182 0
-2007 -2183 0
-2008 -2184 0
-2005 -2649 0
-2006 -2650 0
-2007 -2651 0
-2008 -2652 0
-2005 -2973 0
-2006 -2974 0
-2007 -2975 0
-2008 -2976 0
-2005 -3509 0
-2006 -3510 0
-2007 -3511 0
-2008 -3512 0
-2005 -3685 0
-2006 -3686 0
-2007 -3687 0
-2008 -3688 0
-2009 -2089 0
-2010 -2090 0
-2011 -2091 0
-2012 -2092 0
-2009 -2093 0
-2010 -2094 0
-2011 -2095 0
-2012 -2096 0
-2009 -2401 0
-2010 -2402 0
-2011 -2403 0
-2012 -2404 0
-2009 -2493 0
-2010 -2494 0
-2011 -2495 0
-2012 -2496 0
-2009 -2849 0
-2010 -2850 0
-2011 -2851 0
-2012 -2852 0
-2009 -3085 0
-2010 -3086 0
-2011 -3087 0
-2012 -3088 0
-2009 -3529 0
-2010 -3530 0
-2011 -3531 0
-2012 -3532 0
-2009 -3737 0
-2010 -3738 0
-2011 -3739 0
-2012 -3740 0
-2013 -2021 0
-2014 -2022 0
-2015 -2023 0
-2016 -2024 0
-2013 -2053 0
-2014 -2054 0
-2015 -2055 0
-2016 -2056 0
-2013 -2117 0
-2014 -2118 0
-2015 -2119 0
-2016 -2120 0
-2013 -2529 0
-2014 -2530 0
-2015 -2531 0
-2016 -2532 0
-2013 -3689 0
-2014 -3690 0
-2015 -3691 0
-2016 -3692 0
-2017 -2021 0
-2018 -2022 0
-2019 -2023 0
-2020 -2024 0
-2017 -2025 0
-2018 -2026 0
-2019 -2027 0
-2020 -2028 0
-2017 -2057 0
-2018 -2058 0
-2019 -2059 0
-2020 -2060 0
-2017 -2129 0
-2018 -2130 0
-2019 -2131 0
-2020 -2132 0
-2017 -2533 0
-2018 -2534 0
-2019 -2535 0
-2020 -2536 0
-2017 -3541 0
-2018 -3542 0
-2019 -3543 0
-2020 -3544 0
-2021 -2029 0
-2022 -2030 0
-2023 -2031 0
-2024 -2032 0
-2021 -2057 0
-2022 -2058 0
-2023 -2059 0
-2024 -2060 0
-2021 -2061 0
-2022 -2062 0
-2023 -2063 0
-2024 -2064 0
-2021 -2133 0
-2022 -2134 0
-2023 -2135 0
-2024 -2136 0
-2021 -2333 0
-2022 -2334 0
-2023 -2335 0
-2024 -2336 0
-2021 -2425 0
-2022 -2426 0
-2023 -2427 0
-2024 -2428 0
-2021 -2537 0
-2022 -2538 0
-2023 -2539 0
-2024 -2540 0
-2021 -3265 0
-2022 -3266 0
-2023 -3267 0
-2024 -3268 0
-2021 -3689 0
-2022 -3690 0
-2023 -3691 0
-2024 -3692 0
-2021 -3693 0
-2022 -3694 0
-2023 -3695 0
-2024 -3696 0
-2021 -3837 0
-2022 -3838 0
-2023 -3839 0
-2024 -3840 0
-2025 -2029 0
-2026 -2030 0
-2027 -2031 0
-2028 -2032 0
-2025 -2069 0
-2026 -2070 0
-2027 -2071 0
-2028 -2072 0
-2025 -2129 0
-2026 -2130 0
-2027 -2131 0
-2028 -2132 0
-2025 -2413 0
-2026 -2414 0
-2027 -2415 0
-2028 -2416 0
-2025 -2865 0
-2026 -2866 0
-2027 -2867 0
-2028 -2868 0
-2025 -3165 0
-2026 -3166 0
-2027 -3167 0
-2028 -3168 0
-2025 -3549 0
-2026 -3550 0
-2027 -3551 0
-2028 -3552 0
-2025 -3613 0
-2026 -3614 0
-2027 -3615 0
-2028 -3616 0
-2029 -2069 0
-2030 -2070 0
-2031 -2071 0
-2032 -2072 0
-2029 -2133 0
-2030 -2134 0
-2031 -2135 0
-2032 -2136 0
-2029 -2429 0
-2030 -2430 0
-2031 -2431 0
-2032 -2432 0
-2029 -2869 0
-2030 -2870 0
-2031 -2871 0
-2032 -2872 0
-2033 -2037 0
-2034 -2038 0
-2035 -2039 0
-2036 -2040 0
-2033 -2053 0
-2034 -2054 0
-2035 -2055 0
-2036 -2056 0
-2033 -2549 0
-2034 -2550 0
-2035 -2551 0
-2036 -2552 0
-2033 -3621 0
-2034 -3622 0
-2035 -3623 0
-2036 -3624 0
-2033 -3697 0
-2034 -3698 0
-2035 -3699 0
-2036 -3700 0
-2037 -2041 0
-2038 -2042 0
-2039 -2043 0
-2040 -2044 0
-2037 -2045 0
-2038 -2046 0
-2039 -2047 0
-2040 -2048 0
-2037 -2057 0
-2038 -2058 0
-2039 -2059 0
-2040 -2060 0
-2037 -2085 0
-2038 -2086 0
-2039 -2087 0
-2040 -2088 0
-2037 -2193 0
-2038 -2194 0
-2039 -2195 0
-2040 -2196 0
-2037 -2553 0
-2038 -2554 0
-2039 -2555 0
-2040 -2556 0
-2037 -2981 0
-2038 -2982 0
-2039 -2983 0
-2040 -2984 0
-2037 -3553 0
-2038 -3554 0
-2039 -3555 0
-2040 -3556 0
-2037 -3625 0
-2038 -3626 0
-2039 -3627 0
-2040 -3628 0
-2037 -3697 0
-2038 -3698 0
-2039 -3699 0
-2040 -3700 0
-2037 -3841 0
-2038 -3842 0
-2039 -3843 0
-2040 -3844 0
-2041 -2049 0
-2042 -2050 0
-2043 -2051 0
-2044 -2052 0
-2041 -2065 0
-2042 -2066 0
-2043 -2067 0
-2044 -2068 0
-2041 -2085 0
-2042 -2086 0
-2043 -2087 0
-2044 -2088 0
-2041 -2197 0
-2042 -2198 0
-2043 -2199 0
-2044 -2200 0
-2041 -2697 0
-2042 -2698 0
-2043 -2699 0
-2044 -2700 0
-2041 -3281 0
-2042 -3282 0
-2043 -3283 0
-2044 -3284 0
-2045 -2049 0
-2046 -2050 0
-2047 -2051 0
-2048 -2052 0
-2045 -2069 0
-2046 -2070 0
-2047 -2071 0
-2048 -2072 0
-2045 -2089 0
-2046 -2090 0
-2047 -2091 0
-2048 -2092 0
-2045 -2513 0
-2046 -2514 0
-2047 -2515 0
-2048 -2516 0
-2045 -2989 0
-2046 -2990 0
-2047 -2991 0
-2048 -2992 0
-2045 -3177 0
-2046 -3178 0
-2047 -3179 0
-2048 -3180 0
-2045 -3561 0
-2046 -3562 0
-2047 -3563 0
-2048 -3564 0
-2045 -3629 0
-2046 -3630 0
-2047 -3631 0
-2048 -3632 0
-2049 -2073 0
-2050 -2074 0
-2051 -2075 0
-2052 -2076 0
-2049 -2089 0
-2050 -2090 0
-2051 -2091 0
-2052 -2092 0
-2049 -2517 0
-2050 -2518 0
-2051 -2519 0
-2052 -2520 0
-2049 -2905 0
-2050 -2906 0
-2051 -2907 0
-2052 -2908 0
-2049 -3181 0
-2050 -3182 0
-2051 -3183 0
-2052 -3184 0
-2049 -3289 0
-2050 -3290 0
-2051 -3291 0
-2052 -3292 0
-2053 -2057 0
-2054 -2058 0
-2055 -2059 0
-2056 -2060 0
-2053 -2141 0
-2054 -2142 0
-2055 -2143 0
-2056 -2144 0
-2053 -2581 0
-2054 -2582 0
-2055 -2583 0
-2056 -2584 0
-2053 -3621 0
-2054 -3622 0
-2055 -3623 0
-2056 -3624 0
-2053 -3701 0
-2054 -3702 0
-2055 -3703 0
-2056 -3704 0
-2057 -2061 0
-2058 -2062 0
-2059 -2063 0
-2060 -2064 0
-2057 -2065 0
-2058 -2066 0
-2059 -2067 0
-2060 -2068 0
-2057 -2069 0
-2058 -2070 0
-2059 -2071 0
-2060 -2072 0
-2057 -2145 0
-2058 -2146 0
-2059 -2147 0
-2060 -2148 0
-2057 -2205 0
-2058 -2206 0
-2059 -2207 0
-2060 -2208 0
-2057 -2373 0
-2058 -2374 0
-2059 -2375 0
-2060 -2376 0
-2057 -2617 0
-2058 -2618 0
-2059 -2619 0
-2060 -2620 0
-2057 -3117 0
-2058 -3118 0
-2059 -3119 0
-2060 -3120 0
-2057 -3569 0
-2058 -3570 0
-2059 -3571 0
-2060 -3572 0
-2057 -3625 0
-2058 -3626 0
-2059 -3627 0
-2060 -3628 0
-2057 -3701 0
-2058 -3702 0
-2059 -3703 0
-2060 -3704 0
-2057 -3705 0
-2058 -3706 0
-2059 -3707 0
-2060 -3708 0
-2061 -2441 0
-2062 -2442 0
-2063 -2443 0
-2064 -2444 0
-2061 -2621 0
-2062 -2622 0
-2063 -2623 0
-2064 -2624 0
-2065 -2073 0
-2066 -2074 0
-2067 -2075 0
-2068 -2076 0
-2065 -2209 0
-2066 -2210 0
-2067 -2211 0
-2068 -2212 0
-2065 -2377 0
-2066 -2378 0
-2067 -2379 0
-2068 -2380 0
-2065 -2625 0
-2066 -2626 0
-2067 -2627 0
-2068 -2628 0
-2065 -2921 0
-2066 -2922 0
-2067 -2923 0
-2068 -2924 0
-2065 -3297 0
-2066 -3298 0
-2067 -3299 0
-2068 -3300 0
-2069 -2073 0
-2070 -2074 0
-2071 -2075 0
-2072 -2076 0
-2069 -2145 0
-2070 -2146 0
-2071 -2147 0
-2072 -2148 0
-2069 -2221 0
-2070 -2222 0
-2071 -2223 0
-2072 -2224 0
-2069 -2633 0
-2070 -2634 0
-2071 -2635 0
-2072 -2636 0
-2069 -3121 0
-2070 -3122 0
-2071 -3123 0
-2072 -3124 0
-2069 -3577 0
-2070 -3578 0
-2071 -3579 0
-2072 -3580 0
-2069 -3629 0
-2070 -3630 0
-2071 -3631 0
-2072 -3632 0
-2073 -2389 0
-2074 -2390 0
-2075 -2391 0
-2076 -2392 0
-2073 -2925 0
-2074 -2926 0
-2075 -2927 0
-2076 -2928 0
-2073 -3301 0
-2074 -3302 0
-2075 -3303 0
-2076 -3304 0
-2077 -2081 0
-2078 -2082 0
-2079 -2083 0
-2080 -2084 0
-2077 -2089 0
-2078 -2090 0
-2079 -2091 0
-2080 -2092 0
-2077 -2545 0
-2078 -2546 0
-2079 -2547 0
-2080 -2548 0
-2077 -2705 0
-2078 -2706 0
-2079 -2707 0
-2080 -2708 0
-2077 -2929 0
-2078 -2930 0
-2079 -2931 0
-2080 -2932 0
-2077 -3329 0
-2078 -3330 0
-2079 -3331 0
-2080 -3332 0
-2077 -3649 0
-2078 -3650 0
-2079 -3651 0
-2080 -3652 0
-2077 -3669 0
-2078 -3670 0
-2079 -3671 0
-2080 -3672 0
-2077 -3749 0
-2078 -3750 0
-2079 -3751 0
-2080 -3752 0
-2081 -2093 0
-2082 -2094 0
-2083 -2095 0
-2084 -2096 0
-2081 -2397 0
-2082 -2398 0
-2083 -2399 0
-2084 -2400 0
-2081 -2445 0
-2082 -2446 0
-2083 -2447 0
-2084 -2448 0
-2081 -2933 0
-2082 -2934 0
-2083 -2935 0
-2084 -2936 0
-2081 -3197 0
-2082 -3198 0
-2083 -3199 0
-2084 -3200 0
-2081 -3333 0
-2082 -3334 0
-2083 -3335 0
-2084 -3336 0
-2081 -3653 0
-2082 -3654 0
-2083 -3655 0
-2084 -3656 0
-2081 -3673 0
-2082 -3674 0
-2083 -3675 0
-2084 -3676 0
-2081 -3753 0
-2082 -3754 0
-2083 -3755 0
-2084 -3756 0
-2085 -2089 0
-2086 -2090 0
-2087 -2091 0
-2088 -2092 0
-2085 -2225 0
-2086 -2226 0
-2087 -2227 0
-2088 -2228 0
-2085 -2601 0
-2086 -2602 0
-2087 -2603 0
-2088 -2604 0
-2085 -3345 0
-2086 -3346 0
-2087 -3347 0
-2088 -3348 0
-2085 -3885 0
-2086 -3886 0
-2087 -3887 0
-2088 -3888 0
-2089 -2093 0
-2090 -2094 0
-2091 -2095 0
-2092 -2096 0
-2089 -2229 0
-2090 -2230 0
-2091 -2231 0
-2092 -2232 0
-2089 -2617 0
-2090 -2618 0
-2091 -2619 0
-2092 -2620 0
-2089 -2953 0
-2090 -2954 0
-2091 -2955 0
-2092 -2956 0
-2089 -3137 0
-2090 -3138 0
-2091 -3139 0
-2092 -3140 0
-2089 -3209 0
-2090 -3210 0
-2091 -3211 0
-2092 -3212 0
-2089 -3349 0
-2090 -3350 0
-2091 -3351 0
-2092 -3352 0
-2089 -3685 0
-2090 -3686 0
-2091 -3687 0
-2092 -3688 0
-2089 -3749 0
-2090 -3750 0
-2091 -3751 0
-2092 -3752 0
-2093 -2449 0
-2094 -2450 0
-2095 -2451 0
-2096 -2452 0
-2093 -2629 0
-2094 -2630 0
-2095 -2631 0
-2096 -2632 0
-2093 -2961 0
-2094 -2962 0
-2095 -2963 0
-2096 -2964 0
-2093 -3153 0
-2094 -3154 0
-2095 -3155 0
-2096 -3156 0
-2093 -3205 0
-2094 -3206 0
-2095 -3207 0
-2096 -3208 0
-2093 -3753 0
-2094 -3754 0
-2095 -3755 0
-2096 -3756 0
-2097 -2101 0
-2098 -2102 0
-2099 -2103 0
-2100 -2104 0
-2097 -2249 0
-2098 -2250 0
-2099 -2251 0
-2100 -2252 0
-2097 -3361 0
-2098 -3362 0
-2099 -3363 0
-2100 -3364 0
-2097 -3721 0
-2098 -3722 0
-2099 -3723 0
-2100 -3724 0
-2101 -2257 0
-2102 -2258 0
-2103 -2259 0
-2104 -2260 0
-2101 -3369 0
-2102 -3370 0
-2103 -3371 0
-2104 -3372 0
-2101 -3721 0
-2102 -3722 0
-2103 -3723 0
-2104 -3724 0
-2105 -2113 0
-2106 -2114 0
-2107 -2115 0
-2108 -2116 0
-2105 -2117 0
-2106 -2118 0
-2107 -2119 0
-2108 -2120 0
-2105 -3729 0
-2106 -3730 0
-2107 -3731 0
-2108 -3732 0
-2109 -2113 0
-2110 -2114 0
-2111 -2115 0
-2112 -2116 0
-2109 -2121 0
-2110 -2122 0
-2111 -2123 0
-2112 -2124 0
-2109 -2473 0
-2110 -2474 0
-2111 -2475 0
-2112 -2476 0
-2109 -3369 0
-2110 -3370 0
-2111 -3371 0
-2112 -3372 0
-2109 -3725 0
-2110 -3726 0
-2111 -3727 0
-2112 -3728 0
-2109 -3733 0
-2110 -3734 0
-2111 -3735 0
-2112 -3736 0
-2113 -2125 0
-2114 -2126 0
-2115 -2127 0
-2116 -2128 0
-2113 -2133 0
-2114 -2134 0
-2115 -2135 0
-2116 -2136 0
-2113 -2477 0
-2114 -2478 0
-2115 -2479 0
-2116 -2480 0
-2113 -2929 0
-2114 -2930 0
-2115 -2931 0
-2116 -2932 0
-2113 -3729 0
-2114 -3730 0
-2115 -3731 0
-2116 -3732 0
-2113 -3737 0
-2114 -3738 0
-2115 -3739 0
-2116 -3740 0
-2117 -2133 0
-2118 -2134 0
-2119 -2135 0
-2120 -2136 0
-2117 -2141 0
-2118 -2142 0
-2119 -2143 0
-2120 -2144 0
-2117 -2557 0
-2118 -2558 0
-2119 -2559 0
-2120 -2560 0
-2117 -3225 0
-2118 -3226 0
-2119 -3227 0
-2120 -3228 0
-2117 -3745 0
-2118 -3746 0
-2119 -3747 0
-2120 -3748 0
-2121 -2125 0
-2122 -2126 0
-2123 -2127 0
-2124 -2128 0
-2121 -2317 0
-2122 -2318 0
-2123 -2319 0
-2124 -2320 0
-2121 -3393 0
-2122 -3394 0
-2123 -3395 0
-2124 -3396 0
-2125 -2133 0
-2126 -2134 0
-2127 -2135 0
-2128 -2136 0
-2125 -2137 0
-2126 -2138 0
-2127 -2139 0
-2128 -2140 0
-2125 -2337 0
-2126 -2338 0
-2127 -2339 0
-2128 -2340 0
-2125 -2569 0
-2126 -2570 0
-2127 -2571 0
-2128 -2572 0
-2125 -2717 0
-2126 -2718 0
-2127 -2719 0
-2128 -2720 0
-2125 -2749 0
-2126 -2750 0
-2127 -2751 0
-2128 -2752 0
-2125 -3709 0
-2126 -3710 0
-2127 -3711 0
-2128 -3712 0
-2125 -3741 0
-2126 -3742 0
-2127 -3743 0
-2128 -3744 0
-2125 -3749 0
-2126 -3750 0
-2127 -3751 0
-2128 -3752 0
-2129 -2133 0
-2130 -2134 0
-2131 -2135 0
-2132 -2136 0
-2129 -2145 0
-2130 -2146 0
-2131 -2147 0
-2132 -2148 0
-2129 -2577 0
-2130 -2578 0
-2131 -2579 0
-2132 -2580 0
-2129 -2729 0
-2130 -2730 0
-2131 -2731 0
-2132 -2732 0
-2129 -2981 0
-2130 -2982 0
-2131 -2983 0
-2132 -2984 0
-2129 -3401 0
-2130 -3402 0
-2131 -3403 0
-2132 -3404 0
-2129 -3601 0
-2130 -3602 0
-2131 -3603 0
-2132 -3604 0
-2129 -3713 0
-2130 -3714 0
-2131 -3715 0
-2132 -3716 0
-2133 -2145 0
-2134 -2146 0
-2135 -2147 0
-2136 -2148 0
-2133 -2581 0
-2134 -2582 0
-2135 -2583 0
-2136 -2584 0
-2133 -2985 0
-2134 -2986 0
-2135 -2987 0
-2136 -2988 0
-2133 -3229 0
-2134 -3230 0
-2135 -3231 0
-2136 -3232 0
-2133 -3405 0
-2134 -3406 0
-2135 -3407 0
-2136 -3408 0
-2133 -3717 0
-2134 -3718 0
-2135 -3719 0
-2136 -3720 0
-2133 -3745 0
-2134 -3746 0
-2135 -3747 0
-2136 -3748 0
-2133 -3753 0
-2134 -3754 0
-2135 -3755 0
-2136 -3756 0
-2137 -2345 0
-2138 -2346 0
-2139 -2347 0
-2140 -2348 0
-2137 -2605 0
-2138 -2606 0
-2139 -2607 0
-2140 -2608 0
-2137 -3233 0
-2138 -3234 0
-2139 -3235 0
-2140 -3236 0
-2137 -3749 0
-2138 -3750 0
-2139 -3751 0
-2140 -3752 0
-2141 -2145 0
-2142 -2146 0
-2143 -2147 0
-2144 -2148 0
-2141 -2737 0
-2142 -2738 0
-2143 -2739 0
-2144 -2740 0
-2145 -2385 0
-2146 -2386 0
-2147 -2387 0
-2148 -2388 0
-2145 -2653 0
-2146 -2654 0
-2147 -2655 0
-2148 -2656 0
-2145 -2745 0
-2146 -2746 0
-2147 -2747 0
-2148 -2748 0
-2145 -3217 0
-2146 -3218 0
-2147 -3219 0
-2148 -3220 0
-2145 -3417 0
-2146 -3418 0
-2147 -3419 0
-2148 -3420 0
-2145 -3721 0
-2146 -3722 0
-2147 -3723 0
-2148 -3724 0
-2145 -3757 0
-2146 -3758 0
-2147 -3759 0
-2148 -3760 0
-2149 -2153 0
-2150 -2154 0
-2151 -2155 0
-2152 -2156 0
-2149 -2161 0
-2150 -2162 0
-2151 -2163 0
-2152 -2164 0
-2149 -2541 0
-2150 -2542 0
-2151 -2543 0
-2152 -2544 0
-2149 -3765 0
-2150 -3766 0
-2151 -3767 0
-2152 -3768 0
-2149 -3797 0
-2150 -3798 0
-2151 -3799 0
-2152 -3800 0
-2153 -2177 0
-2154 -2178 0
-2155 -2179 0
-2156 -2180 0
-2153 -2201 0
-2154 -2202 0
-2155 -2203 0
-2156 -2204 0
-2153 -2209 0
-2154 -2210 0
-2155 -2211 0
-2156 -2212 0
-2153 -2477 0
-2154 -2478 0
-2155 -2479 0
-2156 -2480 0
-2153 -2545 0
-2154 -2546 0
-2155 -2547 0
-2156 -2548 0
-2153 -2785 0
-2154 -2786 0
-2155 -2787 0
-2156 -2788 0
-2153 -3605 0
-2154 -3606 0
-2155 -3607 0
-2156 -3608 0
-2153 -3765 0
-2154 -3766 0
-2155 -3767 0
-2156 -3768 0
-2153 -3801 0
-2154 -3802 0
-2155 -3803 0
-2156 -3804 0
-2157 -2165 0
-2158 -2166 0
-2159 -2167 0
-2160 -2168 0
-2157 -2173 0
-2158 -2174 0
-2159 -2175 0
-2160 -2176 0
-2157 -2269 0
-2158 -2270 0
-2159 -2271 0
-2160 -2272 0
-2157 -2565 0
-2158 -2566 0
-2159 -2567 0
-2160 -2568 0
-2157 -3089 0
-2158 -3090 0
-2159 -3091 0
-2160 -3092 0
-2157 -3769 0
-2158 -3770 0
-2159 -3771 0
-2160 -3772 0
-2157 -3909 0
-2158 -3910 0
-2159 -3911 0
-2160 -3912 0
-2161 -2165 0
-2162 -2166 0
-2163 -2167 0
-2164 -2168 0
-2161 -2177 0
-2162 -2178 0
-2163 -2179 0
-2164 -2180 0
-2161 -2185 0
-2162 -2186 0
-2163 -2187 0
-2164 -2188 0
-2161 -2213 0
-2162 -2214 0
-2163 -2215 0
-2164 -2216 0
-2161 -2265 0
-2162 -2266 0
-2163 -2267 0
-2164 -2268 0
-2161 -2581 0
-2162 -2582 0
-2163 -2583 0
-2164 -2584 0
-2161 -3773 0
-2162 -3774 0
-2163 -3775 0
-2164 -3776 0
-2161 -3797 0
-2162 -3798 0
-2163 -3799 0
-2164 -3800 0
-2165 -2181 0
-2166 -2182 0
-2167 -2183 0
-2168 -2184 0
-2165 -2185 0
-2166 -2186 0
-2167 -2187 0
-2168 -2188 0
-2165 -2269 0
-2166 -2270 0
-2167 -2271 0
-2168 -2272 0
-2165 -2585 0
-2166 -2586 0
-2167 -2587 0
-2168 -2588 0
-2165 -3249 0
-2166 -3250 0
-2167 -3251 0
-2168 -3252 0
-2165 -3777 0
-2166 -3778 0
-2167 -3779 0
-2168 -3780 0
-2169 -2173 0
-2170 -2174 0
-2171 -2175 0
-2172 -2176 0
-2169 -2177 0
-2170 -2178 0
-2171 -2179 0
-2172 -2180 0
-2169 -2277 0
-2170 -2278 0
-2171 -2279 0
-2172 -2280 0
-2169 -2417 0
-2170 -2418 0
-2171 -2419 0
-2172 -2420 0
-2169 -2601 0
-2170 -2602 0
-2171 -2603 0
-2172 -2604 0
-2173 -2181 0
-2174 -2182 0
-2175 -2183 0
-2176 -2184 0
-2173 -2281 0
-2174 -2282 0
-2175 -2283 0
-2176 -2284 0
-2173 -2497 0
-2174 -2498 0
-2175 -2499 0
-2176 -2500 0
-2173 -2805 0
-2174 -2806 0
-2175 -2807 0
-2176 -2808 0
-2173 -3097 0
-2174 -3098 0
-2175 -3099 0
-2176 -3100 0
-2173 -3769 0
-2174 -3770 0
-2175 -3771 0
-2176 -3772 0
-2173 -3917 0
-2174 -3918 0
-2175 -3919 0
-2176 -3920 0
-2177 -2181 0
-2178 -2182 0
-2179 -2183 0
-2180 -2184 0
-2177 -2189 0
-2178 -2190 0
-2179 -2191 0
-2180 -2192 0
-2177 -2217 0
-2178 -2218 0
-2179 -2219 0
-2180 -2220 0
-2177 -2221 0
-2178 -2222 0
-2179 -2223 0
-2180 -2224 0
-2177 -2277 0
-2178 -2278 0
-2179 -2279 0
-2180 -2280 0
-2177 -2285 0
-2178 -2286 0
-2179 -2287 0
-2180 -2288 0
-2177 -2617 0
-2178 -2618 0
-2179 -2619 0
-2180 -2620 0
-2177 -3013 0
-2178 -3014 0
-2179 -3015 0
-2180 -3016 0
-2177 -3241 0
-2178 -3242 0
-2179 -3243 0
-2180 -3244 0
-2177 -3261 0
-2178 -3262 0
-2179 -3263 0
-2180 -3264 0
-2177 -3613 0
-2178 -3614 0
-2179 -3615 0
-2180 -3616 0
-2177 -3773 0
-2178 -3774 0
-2179 -3775 0
-2180 -3776 0
-2177 -3781 0
-2178 -3782 0
-2179 -3783 0
-2180 -3784 0
-2177 -3801 0
-2178 -3802 0
-2179 -3803 0
-2180 -3804 0
-2181 -2189 0
-2182 -2190 0
-2183 -2191 0
-2184 -2192 0
-2181 -2281 0
-2182 -2282 0
-2183 -2283 0
-2184 -2284 0
-2181 -2621 0
-2182 -2622 0
-2183 -2623 0
-2184 -2624 0
-2181 -2809 0
-2182 -2810 0
-2183 -2811 0
-2184 -2812 0
-2181 -3017 0
-2182 -3018 0
-2183 -3019 0
-2184 -3020 0
-2181 -3105 0
-2182 -3106 0
-2183 -3107 0
-2184 -3108 0
-2181 -3777 0
-2182 -3778 0
-2183 -3779 0
-2184 -3780 0
-2181 -3785 0
-2182 -3786 0
-2183 -3787 0
-2184 -3788 0
-2185 -2189 0
-2186 -2190 0
-2187 -2191 0
-2188 -2192 0
-2185 -2657 0
-2186 -2658 0
-2187 -2659 0
-2188 -2660 0
-2189 -2289 0
-2190 -2290 0
-2191 -2291 0
-2192 -2292 0
-2189 -2665 0
-2190 -2666 0
-2191 -2667 0
-2192 -2668 0
-2189 -3629 0
-2190 -3630 0
-2191 -3631 0
-2192 -3632 0
-2193 -2197 0
-2194 -2198 0
-2195 -2199 0
-2196 -2200 0
-2193 -2205 0
-2194 -2206 0
-2195 -2207 0
-2196 -2208 0
-2193 -2225 0
-2194 -2226 0
-2195 -2227 0
-2196 -2228 0
-2193 -3125 0
-2194 -3126 0
-2195 -3127 0
-2196 -3128 0
-2193 -3929 0
-2194 -3930 0
-2195 -3931 0
-2196 -3932 0
-2197 -2209 0
-2198 -2210 0
-2199 -2211 0
-2200 -2212 0
-2197 -2225 0
-2198 -2226 0
-2199 -2227 0
-2200 -2228 0
-2197 -2549 0
-2198 -2550 0
-2199 -2551 0
-2200 -2552 0
-2197 -2869 0
-2198 -2870 0
-2199 -2871 0
-2200 -2872 0
-2197 -3037 0
-2198 -3038 0
-2199 -3039 0
-2200 -3040 0
-2197 -3281 0
-2198 -3282 0
-2199 -3283 0
-2200 -3284 0
-2197 -3309 0
-2198 -3310 0
-2199 -3311 0
-2200 -3312 0
-2197 -3653 0
-2198 -3654 0
-2199 -3655 0
-2200 -3656 0
-2197 -3761 0
-2198 -3762 0
-2199 -3763 0
-2200 -3764 0
-2197 -3833 0
-2198 -3834 0
-2199 -3835 0
-2200 -3836 0
-2197 -3933 0
-2198 -3934 0
-2199 -3935 0
-2200 -3936 0
-2201 -2209 0
-2202 -2210 0
-2203 -2211 0
-2204 -2212 0
-2201 -2217 0
-2202 -2218 0
-2203 -2219 0
-2204 -2220 0
-2201 -2353 0
-2202 -2354 0
-2203 -2355 0
-2204 -2356 0
-2201 -2357 0
-2202 -2358 0
-2203 -2359 0
-2204 -2360 0
-2201 -2569 0
-2202 -2570 0
-2203 -2571 0
-2204 -2572 0
-2201 -2865 0
-2202 -2866 0
-2203 -2867 0
-2204 -2868 0
-2201 -3045 0
-2202 -3046 0
-2203 -3047 0
-2204 -3048 0
-2201 -3337 0
-2202 -3338 0
-2203 -3339 0
-2204 -3340 0
-2201 -3669 0
-2202 -3670 0
-2203 -3671 0
-2204 -3672 0
-2205 -2209 0
-2206 -2210 0
-2207 -2211 0
-2208 -2212 0
-2205 -2233 0
-2206 -2234 0
-2207 -2235 0
-2208 -2236 0
-2205 -2573 0
-2206 -2574 0
-2207 -2575 0
-2208 -2576 0
-2205 -2789 0
-2206 -2790 0
-2207 -2791 0
-2208 -2792 0
-2209 -2221 0
-2210 -2222 0
-2211 -2223 0
-2212 -2224 0
-2209 -2233 0
-2210 -2234 0
-2211 -2235 0
-2212 -2236 0
-2209 -2361 0
-2210 -2362 0
-2211 -2363 0
-2212 -2364 0
-2209 -2581 0
-2210 -2582 0
-2211 -2583 0
-2212 -2584 0
-2209 -2793 0
-2210 -2794 0
-2211 -2795 0
-2212 -2796 0
-2209 -2873 0
-2210 -2874 0
-2211 -2875 0
-2212 -2876 0
-2209 -3049 0
-2210 -3050 0
-2211 -3051 0
-2212 -3052 0
-2209 -3297 0
-2210 -3298 0
-2211 -3299 0
-2212 -3300 0
-2209 -3673 0
-2210 -3674 0
-2211 -3675 0
-2212 -3676 0
-2209 -3761 0
-2210 -3762 0
-2211 -3763 0
-2212 -3764 0
-2209 -3837 0
-2210 -3838 0
-2211 -3839 0
-2212 -3840 0
-2213 -2217 0
-2214 -2218 0
-2215 -2219 0
-2216 -2220 0
-2213 -2365 0
-2214 -2366 0
-2215 -2367 0
-2216 -2368 0
-2213 -2689 0
-2214 -2690 0
-2215 -2691 0
-2216 -2692 0
-2213 -2769 0
-2214 -2770 0
-2215 -2771 0
-2216 -2772 0
-2217 -2221 0
-2218 -2222 0
-2219 -2223 0
-2220 -2224 0
-2217 -2377 0
-2218 -2378 0
-2219 -2379 0
-2220 -2380 0
-2217 -2389 0
-2218 -2390 0
-2219 -2391 0
-2220 -2392 0
-2217 -2429 0
-2218 -2430 0
-2219 -2431 0
-2220 -2432 0
-2217 -2697 0
-2218 -2698 0
-2219 -2699 0
-2220 -2700 0
-2217 -2773 0
-2218 -2774 0
-2219 -2775 0
-2220 -2776 0
-2217 -3061 0
-2218 -3062 0
-2219 -3063 0
-2220 -3064 0
-2217 -3685 0
-2218 -3686 0
-2219 -3687 0
-2220 -3688 0
-2217 -3789 0
-2218 -3790 0
-2219 -3791 0
-2220 -3792 0
-2221 -2385 0
-2222 -2386 0
-2223 -2387 0
-2224 -2388 0
-2221 -2393 0
-2222 -2394 0
-2223 -2395 0
-2224 -2396 0
-2221 -2645 0
-2222 -2646 0
-2223 -2647 0
-2224 -2648 0
-2221 -2701 0
-2222 -2702 0
-2223 -2703 0
-2224 -2704 0
-2221 -3025 0
-2222 -3026 0
-2223 -3027 0
-2224 -3028 0
-2221 -3065 0
-2222 -3066 0
-2223 -3067 0
-2224 -3068 0
-2221 -3837 0
-2222 -3838 0
-2223 -3839 0
-2224 -3840 0
-2225 -2229 0
-2226 -2230 0
-2227 -2231 0
-2228 -2232 0
-2225 -2233 0
-2226 -2234 0
-2227 -2235 0
-2228 -2236 0
-2225 -2237 0
-2226 -2238 0
-2227 -2239 0
-2228 -2240 0
-2225 -2397 0
-2226 -2398 0
-2227 -2399 0
-2228 -2400 0
-2225 -2781 0
-2226 -2782 0
-2227 -2783 0
-2228 -2784 0
-2225 -3069 0
-2226 -3070 0
-2227 -3071 0
-2228 -3072 0
-2225 -3189 0
-2226 -3190 0
-2227 -3191 0
-2228 -3192 0
-2225 -3273 0
-2226 -3274 0
-2227 -3275 0
-2228 -3276 0
-2225 -3449 0
-2226 -3450 0
-2227 -3451 0
-2228 -3452 0
-2225 -3769 0
-2226 -3770 0
-2227 -3771 0
-2228 -3772 0
-2225 -3849 0
-2226 -3850 0
-2227 -3851 0
-2228 -3852 0
-2225 -3857 0
-2226 -3858 0
-2227 -3859 0
-2228 -3860 0
-2225 -3973 0
-2226 -3974 0
-2227 -3975 0
-2228 -3976 0
-2229 -2397 0
-2230 -2398 0
-2231 -2399 0
-2232 -2400 0
-2229 -2789 0
-2230 -2790 0
-2231 -2791 0
-2232 -2792 0
-2229 -3077 0
-2230 -3078 0
-2231 -3079 0
-2232 -3080 0
-2229 -3193 0
-2230 -3194 0
-2231 -3195 0
-2232 -3196 0
-2229 -3349 0
-2230 -3350 0
-2231 -3351 0
-2232 -3352 0
-2229 -3353 0
-2230 -3354 0
-2231 -3355 0
-2232 -3356 0
-2229 -3777 0
-2230 -3778 0
-2231 -3779 0
-2232 -3780 0
-2229 -3989 0
-2230 -3990 0
-2231 -3991 0
-2232 -3992 0
-2233 -2405 0
-2234 -2406 0
-2235 -2407 0
-2236 -2408 0
-2233 -2669 0
-2234 -2670 0
-2235 -2671 0
-2236 -2672 0
-2233 -2845 0
-2234 -2846 0
-2235 -2847 0
-2236 -2848 0
-2233 -3093 0
-2234 -3094 0
-2235 -3095 0
-2236 -3096 0
-2233 -3461 0
-2234 -3462 0
-2235 -3463 0
-2236 -3464 0
-2233 -3689 0
-2234 -3690 0
-2235 -3691 0
-2236 -3692 0
-2233 -3769 0
-2234 -3770 0
-2235 -3771 0
-2236 -3772 0
-2233 -3997 0
-2234 -3998 0
-2235 -3999 0
-2236 -4000 0
-2237 -2849 0
-2238 -2850 0
-2239 -2851 0
-2240 -2852 0
-2237 -3305 0
-2238 -3306 0
-2239 -3307 0
-2240 -3308 0
-2237 -3697 0
-2238 -3698 0
-2239 -3699 0
-2240 -3700 0
-2237 -3865 0
-2238 -3866 0
-2239 -3867 0
-2240 -3868 0
-2237 -3881 0
-2238 -3882 0
-2239 -3883 0
-2240 -3884 0
-2237 -4005 0
-2238 -4006 0
-2239 -4007 0
-2240 -4008 0
-2241 -2245 0
-2242 -2246 0
-2243 -2247 0
-2244 -2248 0
-2241 -2253 0
-2242 -2254 0
-2243 -2255 0
-2244 -2256 0
-2241 -2261 0
-2242 -2262 0
-2243 -2263 0
-2244 -2264 0
-2241 -2293 0
-2242 -2294 0
-2243 -2295 0
-2244 -2296 0
-2241 -3361 0
-2242 -3362 0
-2243 -3363 0
-2244 -3364 0
-2241 -3793 0
-2242 -3794 0
-2243 -3795 0
-2244 -3796 0
-2245 -2301 0
-2246 -2302 0
-2247 -2303 0
-2248 -2304 0
-2245 -2717 0
-2246 -2718 0
-2247 -2719 0
-2248 -2720 0
-2245 -3045 0
-2246 -3046 0
-2247 -3047 0
-2248 -3048 0
-2245 -3797 0
-2246 -3798 0
-2247 -3799 0
-2248 -3800 0
-2245 -3801 0
-2246 -3802 0
-2247 -3803 0
-2248 -3804 0
-2249 -2257 0
-2250 -2258 0
-2251 -2259 0
-2252 -2260 0
-2249 -2269 0
-2250 -2270 0
-2251 -2271 0
-2252 -2272 0
-2249 -3361 0
-2250 -3362 0
-2251 -3363 0
-2252 -3364 0
-2249 -3805 0
-2250 -3806 0
-2251 -3807 0
-2252 -3808 0
-2253 -2257 0
-2254 -2258 0
-2255 -2259 0
-2256 -2260 0
-2253 -2273 0
-2254 -2274 0
-2255 -2275 0
-2256 -2276 0
-2253 -2313 0
-2254 -2314 0
-2255 -2315 0
-2256 -2316 0
-2253 -2461 0
-2254 -2462 0
-2255 -2463 0
-2256 -2464 0
-2257 -2281 0
-2258 -2282 0
-2259 -2283 0
-2260 -2284 0
-2257 -2313 0
-2258 -2314 0
-2259 -2315 0
-2260 -2316 0
-2257 -3369 0
-2258 -3370 0
-2259 -3371 0
-2260 -3372 0
-2257 -3805 0
-2258 -3806 0
-2259 -3807 0
-2260 -3808 0
-2261 -2273 0
-2262 -2274 0
-2263 -2275 0
-2264 -2276 0
-2261 -2337 0
-2262 -2338 0
-2263 -2339 0
-2264 -2340 0
-2261 -3377 0
-2262 -3378 0
-2263 -3379 0
-2264 -3380 0
-2265 -2269 0
-2266 -2270 0
-2267 -2271 0
-2268 -2272 0
-2265 -2277 0
-2266 -2278 0
-2267 -2279 0
-2268 -2280 0
-2265 -2365 0
-2266 -2366 0
-2267 -2367 0
-2268 -2368 0
-2265 -2733 0
-2266 -2734 0
-2267 -2735 0
-2268 -2736 0
-2265 -2965 0
-2266 -2966 0
-2267 -2967 0
-2268 -2968 0
-2265 -3813 0
-2266 -3814 0
-2267 -3815 0
-2268 -3816 0
-2269 -2281 0
-2270 -2282 0
-2271 -2283 0
-2272 -2284 0
-2269 -2369 0
-2270 -2370 0
-2271 -2371 0
-2272 -2372 0
-2269 -2949 0
-2270 -2950 0
-2271 -2951 0
-2272 -2952 0
-2269 -3377 0
-2270 -3378 0
-2271 -3379 0
-2272 -3380 0
-2269 -3817 0
-2270 -3818 0
-2271 -3819 0
-2272 -3820 0
-2273 -2281 0
-2274 -2282 0
-2275 -2283 0
-2276 -2284 0
-2273 -2381 0
-2274 -2382 0
-2275 -2383 0
-2276 -2384 0
-2273 -2481 0
-2274 -2482 0
-2275 -2483 0
-2276 -2484 0
-2273 -2953 0
-2274 -2954 0
-2275 -2955 0
-2276 -2956 0
-2273 -3709 0
-2274 -3710 0
-2275 -3711 0
-2276 -3712 0
-2273 -3809 0
-2274 -3810 0
-2275 -3811 0
-2276 -3812 0
-2273 -3821 0
-2274 -3822 0
-2275 -3823 0
-2276 -3824 0
-2277 -2281 0
-2278 -2282 0
-2279 -2283 0
-2280 -2284 0
-2277 -2285 0
-2278 -2286 0
-2279 -2287 0
-2280 -2288 0
-2277 -2289 0
-2278 -2290 0
-2279 -2291 0
-2280 -2292 0
-2277 -2377 0
-2278 -2378 0
-2279 -2379 0
-2280 -2380 0
-2277 -2385 0
-2278 -2386 0
-2279 -2387 0
-2280 -2388 0
-2277 -2485 0
-2278 -2486 0
-2279 -2487 0
-2280 -2488 0
-2277 -2741 0
-2278 -2742 0
-2279 -2743 0
-2280 -2744 0
-2277 -2969 0
-2278 -2970 0
-2279 -2971 0
-2280 -2972 0
-2277 -3365 0
-2278 -3366 0
-2279 -3367 0
-2280 -3368 0
-2277 -3713 0
-2278 -3714 0
-2279 -3715 0
-2280 -3716 0
-2277 -3813 0
-2278 -3814 0
-2279 -3815 0
-2280 -3816 0
-2277 -3825 0
-2278 -3826 0
-2279 -3827 0
-2280 -3828 0
-2281 -2289 0
-2282 -2290 0
-2283 -2291 0
-2284 -2292 0
-2281 -2381 0
-2282 -2382 0
-2283 -2383 0
-2284 -2384 0
-2281 -2757 0
-2282 -2758 0
-2283 -2759 0
-2284 -2760 0
-2281 -2961 0
-2282 -2962 0
-2283 -2963 0
-2284 -2964 0
-2281 -3109 0
-2282 -3110 0
-2283 -3111 0
-2284 -3112 0
-2281 -3381 0
-2282 -3382 0
-2283 -3383 0
-2284 -3384 0
-2281 -3473 0
-2282 -3474 0
-2283 -3475 0
-2284 -3476 0
-2281 -3717 0
-2282 -3718 0
-2283 -3719 0
-2284 -3720 0
-2281 -3817 0
-2282 -3818 0
-2283 -3819 0
-2284 -3820 0
-2281 -3829 0
-2282 -3830 0
-2283 -3831 0
-2284 -3832 0
-2285 -2389 0
-2286 -2390 0
-2287 -2391 0
-2288 -2392 0
-2285 -2393 0
-2286 -2394 0
-2287 -2395 0
-2288 -2396 0
-2285 -2745 0
-2286 -2746 0
-2287 -2747 0
-2288 -2748 0
-2285 -3113 0
-2286 -3114 0
-2287 -3115 0
-2288 -3116 0
-2289 -2501 0
-2290 -2502 0
-2291 -2503 0
-2292 -2504 0
-2289 -3477 0
-2290 -3478 0
-2291 -3479 0
-2292 -3480 0
-2289 -3721 0
-2290 -3722 0
-2291 -3723 0
-2292 -3724 0
-2293 -2297 0
-2294 -2298 0
-2295 -2299 0
-2296 -2300 0
-2293 -2301 0
-2294 -2302 0
-2295 -2303 0
-2296 -2304 0
-2293 -2309 0
-2294 -2310 0
-2295 -2311 0
-2296 -2312 0
-2293 -2313 0
-2294 -2314 0
-2295 -2315 0
-2296 -2316 0
-2293 -2333 0
-2294 -2334 0
-2295 -2335 0
-2296 -2336 0
-2293 -2337 0
-2294 -2338 0
-2295 -2339 0
-2296 -2340 0
-2293 -2761 0
-2294 -2762 0
-2295 -2763 0
-2296 -2764 0
-2293 -3389 0
-2294 -3390 0
-2295 -3391 0
-2296 -3392 0
-2293 -3717 0
-2294 -3718 0
-2295 -3719 0
-2296 -3720 0
-2293 -3833 0
-2294 -3834 0
-2295 -3835 0
-2296 -3836 0
-2297 -2305 0
-2298 -2306 0
-2299 -2307 0
-2300 -2308 0
-2297 -2341 0
-2298 -2342 0
-2299 -2343 0
-2300 -2344 0
-2297 -2345 0
-2298 -2346 0
-2299 -2347 0
-2300 -2348 0
-2297 -2765 0
-2298 -2766 0
-2299 -2767 0
-2300 -2768 0
-2297 -3397 0
-2298 -3398 0
-2299 -3399 0
-2300 -3400 0
-2297 -3833 0
-2298 -3834 0
-2299 -3835 0
-2300 -3836 0
-2301 -2305 0
-2302 -2306 0
-2303 -2307 0
-2304 -2308 0
-2301 -2721 0
-2302 -2722 0
-2303 -2723 0
-2304 -2724 0
-2301 -2769 0
-2302 -2770 0
-2303 -2771 0
-2304 -2772 0
-2301 -2897 0
-2302 -2898 0
-2303 -2899 0
-2304 -2900 0
-2301 -3117 0
-2302 -3118 0
-2303 -3119 0
-2304 -3120 0
-2301 -3837 0
-2302 -3838 0
-2303 -3839 0
-2304 -3840 0
-2305 -2725 0
-2306 -2726 0
-2307 -2727 0
-2308 -2728 0
-2305 -2773 0
-2306 -2774 0
-2307 -2775 0
-2308 -2776 0
-2305 -3837 0
-2306 -3838 0
-2307 -3839 0
-2308 -3840 0
-2309 -2313 0
-2310 -2314 0
-2311 -2315 0
-2312 -2316 0
-2309 -2373 0
-2310 -2374 0
-2311 -2375 0
-2312 -2376 0
-2309 -2377 0
-2310 -2378 0
-2311 -2379 0
-2312 -2380 0
-2309 -2505 0
-2310 -2506 0
-2311 -2507 0
-2312 -2508 0
-2309 -2905 0
-2310 -2906 0
-2311 -2907 0
-2312 -2908 0
-2309 -3493 0
-2310 -3494 0
-2311 -3495 0
-2312 -3496 0
-2309 -3721 0
-2310 -3722 0
-2311 -3723 0
-2312 -3724 0
-2309 -3841 0
-2310 -3842 0
-2311 -3843 0
-2312 -3844 0
-2313 -2381 0
-2314 -2382 0
-2315 -2383 0
-2316 -2384 0
-2313 -3217 0
-2314 -3218 0
-2315 -3219 0
-2316 -3220 0
-2313 -3393 0
-2314 -3394 0
-2315 -3395 0
-2316 -3396 0
-2313 -3497 0
-2314 -3498 0
-2315 -3499 0
-2316 -3500 0
-2313 -3845 0
-2314 -3846 0
-2315 -3847 0
-2316 -3848 0
-2317 -2321 0
-2318 -2322 0
-2319 -2323 0
-2320 -2324 0
-2317 -2325 0
-2318 -2326 0
-2319 -2327 0
-2320 -2328 0
-2317 -2333 0
-2318 -2334 0
-2319 -2335 0
-2320 -2336 0
-2317 -2349 0
-2318 -2350 0
-2319 -2351 0
-2320 -2352 0
-2317 -3497 0
-2318 -3498 0
-2319 -3499 0
-2320 -3500 0
-2317 -3849 0
-2318 -3850 0
-2319 -3851 0
-2320 -3852 0
-2317 -4029 0
-2318 -4030 0
-2319 -4031 0
-2320 -4032 0
-2321 -2337 0
-2322 -2338 0
-2323 -2339 0
-2324 -2340 0
-2321 -2353 0
-2322 -2354 0
-2323 -2355 0
-2324 -2356 0
-2321 -2977 0
-2322 -2978 0
-2323 -2979 0
-2324 -2980 0
-2321 -3505 0
-2322 -3506 0
-2323 -3507 0
-2324 -3508 0
-2325 -2341 0
-2326 -2342 0
-2327 -2343 0
-2328 -2344 0
-2325 -2777 0
-2326 -2778 0
-2327 -2779 0
-2328 -2780 0
-2325 -3849 0
-2326 -3850 0
-2327 -3851 0
-2328 -3852 0
-2325 -4033 0
-2326 -4034 0
-2327 -4035 0
-2328 -4036 0
-2329 -2413 0
-2330 -2414 0
-2331 -2415 0
-2332 -2416 0
-2329 -2533 0
-2330 -2534 0
-2331 -2535 0
-2332 -2536 0
-2329 -3417 0
-2330 -3418 0
-2331 -3419 0
-2332 -3420 0
-2329 -3737 0
-2330 -3738 0
-2331 -3739 0
-2332 -3740 0
-2329 -3793 0
-2330 -3794 0
-2331 -3795 0
-2332 -3796 0
-2329 -3801 0
-2330 -3802 0
-2331 -3803 0
-2332 -3804 0
-2333 -2337 0
-2334 -2338 0
-2335 -2339 0
-2336 -2340 0
-2333 -2341 0
-2334 -2342 0
-2335 -2343 0
-2336 -2344 0
-2333 -2373 0
-2334 -2374 0
-2335 -2375 0
-2336 -2376 0
-2333 -3225 0
-2334 -3226 0
-2335 -3227 0
-2336 -3228 0
-2333 -3857 0
-2334 -3858 0
-2335 -3859 0
-2336 -3860 0
-2333 -4037 0
-2334 -4038 0
-2335 -4039 0
-2336 -4040 0
-2337 -2345 0
-2338 -2346 0
-2339 -2347 0
-2340 -2348 0
-2337 -2377 0
-2338 -2378 0
-2339 -2379 0
-2340 -2380 0
-2337 -2381 0
-2338 -2382 0
-2339 -2383 0
-2340 -2384 0
-2337 -2529 0
-2338 -2530 0
-2339 -2531 0
-2340 -2532 0
-2337 -3509 0
-2338 -3510 0
-2339 -3511 0
-2340 -3512 0
-2337 -3853 0
-2338 -3854 0
-2339 -3855 0
-2340 -3856 0
-2337 -3861 0
-2338 -3862 0
-2339 -3863 0
-2340 -3864 0
-2337 -4041 0
-2338 -4042 0
-2339 -4043 0
-2340 -4044 0
-2341 -2345 0
-2342 -2346 0
-2343 -2347 0
-2344 -2348 0
-2341 -2797 0
-2342 -2798 0
-2343 -2799 0
-2344 -2800 0
-2341 -3229 0
-2342 -3230 0
-2343 -3231 0
-2344 -3232 0
-2341 -3857 0
-2342 -3858 0
-2343 -3859 0
-2344 -3860 0
-2341 -4045 0
-2342 -4046 0
-2343 -4047 0
-2344 -4048 0
-2345 -2537 0
-2346 -2538 0
-2347 -2539 0
-2348 -2540 0
-2345 -2801 0
-2346 -2802 0
-2347 -2803 0
-2348 -2804 0
-2345 -3861 0
-2346 -3862 0
-2347 -3863 0
-2348 -3864 0
-2349 -2353 0
-2350 -2354 0
-2351 -2355 0
-2352 -2356 0
-2349 -2373 0
-2350 -2374 0
-2351 -2375 0
-2352 -2376 0
-2349 -2561 0
-2350 -2562 0
-2351 -2563 0
-2352 -2564 0
-2349 -2929 0
-2350 -2930 0
-2351 -2931 0
-2352 -2932 0
-2349 -3865 0
-2350 -3866 0
-2351 -3867 0
-2352 -3868 0
-2353 -2357 0
-2354 -2358 0
-2355 -2359 0
-2356 -2360 0
-2353 -2377 0
-2354 -2378 0
-2355 -2379 0
-2356 -2380 0
-2353 -2541 0
-2354 -2542 0
-2355 -2543 0
-2356 -2544 0
-2353 -2981 0
-2354 -2982 0
-2355 -2983 0
-2356 -2984 0
-2353 -3517 0
-2354 -3518 0
-2355 -3519 0
-2356 -3520 0
-2353 -3869 0
-2354 -3870 0
-2355 -3871 0
-2356 -3872 0
-2357 -2361 0
-2358 -2362 0
-2359 -2363 0
-2360 -2364 0
-2357 -2389 0
-2358 -2390 0
-2359 -2391 0
-2360 -2392 0
-2357 -2589 0
-2358 -2590 0
-2359 -2591 0
-2360 -2592 0
-2357 -2989 0
-2358 -2990 0
-2359 -2991 0
-2360 -2992 0
-2361 -2393 0
-2362 -2394 0
-2363 -2395 0
-2364 -2396 0
-2361 -2405 0
-2362 -2406 0
-2363 -2407 0
-2364 -2408 0
-2361 -2737 0
-2362 -2738 0
-2363 -2739 0
-2364 -2740 0
-2361 -2817 0
-2362 -2818 0
-2363 -2819 0
-2364 -2820 0
-2361 -3421 0
-2362 -3422 0
-2363 -3423 0
-2364 -3424 0
-2361 -3525 0
-2362 -3526 0
-2363 -3527 0
-2364 -3528 0
-2365 -2369 0
-2366 -2370 0
-2367 -2371 0
-2368 -2372 0
-2365 -2377 0
-2366 -2378 0
-2367 -2379 0
-2368 -2380 0
-2365 -2557 0
-2366 -2558 0
-2367 -2559 0
-2368 -2560 0
-2365 -2909 0
-2366 -2910 0
-2367 -2911 0
-2368 -2912 0
-2365 -2945 0
-2366 -2946 0
-2367 -2947 0
-2368 -2948 0
-2365 -3873 0
-2366 -3874 0
-2367 -3875 0
-2368 -3876 0
-2369 -2381 0
-2370 -2382 0
-2371 -2383 0
-2372 -2384 0
-2369 -2913 0
-2370 -2914 0
-2371 -2915 0
-2372 -2916 0
-2369 -2997 0
-2370 -2998 0
-2371 -2999 0
-2372 -3000 0
-2369 -3877 0
-2370 -3878 0
-2371 -3879 0
-2372 -3880 0
-2373 -2377 0
-2374 -2378 0
-2375 -2379 0
-2376 -2380 0
-2373 -2573 0
-2374 -2574 0
-2375 -2575 0
-2376 -2576 0
-2373 -2953 0
-2374 -2954 0
-2375 -2955 0
-2376 -2956 0
-2373 -3385 0
-2374 -3386 0
-2375 -3387 0
-2376 -3388 0
-2373 -3881 0
-2374 -3882 0
-2375 -3883 0
-2376 -3884 0
-2377 -2381 0
-2378 -2382 0
-2379 -2383 0
-2380 -2384 0
-2377 -2385 0
-2378 -2386 0
-2379 -2387 0
-2380 -2388 0
-2377 -2389 0
-2378 -2390 0
-2379 -2391 0
-2380 -2392 0
-2377 -2581 0
-2378 -2582 0
-2379 -2583 0
-2380 -2584 0
-2377 -2921 0
-2378 -2922 0
-2379 -2923 0
-2380 -2924 0
-2377 -2957 0
-2378 -2958 0
-2379 -2959 0
-2380 -2960 0
-2377 -3533 0
-2378 -3534 0
-2379 -3535 0
-2380 -3536 0
-2377 -3873 0
-2378 -3874 0
-2379 -3875 0
-2380 -3876 0
-2377 -3885 0
-2378 -3886 0
-2379 -3887 0
-2380 -3888 0
-2381 -2585 0
-2382 -2586 0
-2383 -2587 0
-2384 -2588 0
-2381 -3001 0
-2382 -3002 0
-2383 -3003 0
-2384 -3004 0
-2381 -3537 0
-2382 -3538 0
-2383 -3539 0
-2384 -3540 0
-2381 -3877 0
-2382 -3878 0
-2383 -3879 0
-2384 -3880 0
-2381 -3889 0
-2382 -3890 0
-2383 -3891 0
-2384 -3892 0
-2385 -2393 0
-2386 -2394 0
-2387 -2395 0
-2388 -2396 0
-2385 -2593 0
-2386 -2594 0
-2387 -2595 0
-2388 -2596 0
-2385 -3541 0
-2386 -3542 0
-2387 -3543 0
-2388 -3544 0
-2389 -2393 0
-2390 -2394 0
-2391 -2395 0
-2392 -2396 0
-2389 -2597 0
-2390 -2598 0
-2391 -2599 0
-2392 -2600 0
-2389 -2753 0
-2390 -2754 0
-2391 -2755 0
-2392 -2756 0
-2389 -2925 0
-2390 -2926 0
-2391 -2927 0
-2392 -2928 0
-2389 -3173 0
-2390 -3174 0
-2391 -3175 0
-2392 -3176 0
-2389 -3545 0
-2390 -3546 0
-2391 -3547 0
-2392 -3548 0
-2393 -2833 0
-2394 -2834 0
-2395 -2835 0
-2396 -2836 0
-2393 -3181 0
-2394 -3182 0
-2395 -3183 0
-2396 -3184 0
-2393 -3429 0
-2394 -3430 0
-2395 -3431 0
-2396 -3432 0
-2393 -3549 0
-2394 -3550 0
-2395 -3551 0
-2396 -3552 0
-2397 -2401 0
-2398 -2402 0
-2399 -2403 0
-2400 -2404 0
-2397 -2405 0
-2398 -2406 0
-2399 -2407 0
-2400 -2408 0
-2397 -2933 0
-2398 -2934 0
-2399 -2935 0
-2400 -2936 0
-2397 -3561 0
-2398 -3562 0
-2399 -3563 0
-2400 -3564 0
-2397 -3817 0
-2398 -3818 0
-2399 -3819 0
-2400 -3820 0
-2397 -4053 0
-2398 -4054 0
-2399 -4055 0
-2400 -4056 0
-2401 -2409 0
-2402 -2410 0
-2403 -2411 0
-2404 -2412 0
-2401 -2849 0
-2402 -2850 0
-2403 -2851 0
-2404 -2852 0
-2401 -3829 0
-2402 -3830 0
-2403 -3831 0
-2404 -3832 0
-2405 -2409 0
-2406 -2410 0
-2407 -2411 0
-2408 -2412 0
-2405 -2853 0
-2406 -2854 0
-2407 -2855 0
-2408 -2856 0
-2405 -3577 0
-2406 -3578 0
-2407 -3579 0
-2408 -3580 0
-2405 -3745 0
-2406 -3746 0
-2407 -3747 0
-2408 -3748 0
-2405 -3817 0
-2406 -3818 0
-2407 -3819 0
-2408 -3820 0
-2409 -2857 0
-2410 -2858 0
-2411 -2859 0
-2412 -2860 0
-2409 -3425 0
-2410 -3426 0
-2411 -3427 0
-2412 -3428 0
-2409 -3753 0
-2410 -3754 0
-2411 -3755 0
-2412 -3756 0
-2409 -3829 0
-2410 -3830 0
-2411 -3831 0
-2412 -3832 0
-2413 -2749 0
-2414 -2750 0
-2415 -2751 0
-2416 -2752 0
-2413 -2865 0
-2414 -2866 0
-2415 -2867 0
-2416 -2868 0
-2413 -3213 0
-2414 -3214 0
-2415 -3215 0
-2416 -3216 0
-2413 -3753 0
-2414 -3754 0
-2415 -3755 0
-2416 -3756 0
-2413 -3833 0
-2414 -3834 0
-2415 -3835 0
-2416 -3836 0
-2413 -3837 0
-2414 -3838 0
-2415 -3839 0
-2416 -3840 0
-2417 -2425 0
-2418 -2426 0
-2419 -2427 0
-2420 -2428 0
-2417 -2485 0
-2418 -2486 0
-2419 -2487 0
-2420 -2488 0
-2417 -2781 0
-2418 -2782 0
-2419 -2783 0
-2420 -2784 0
-2421 -2757 0
-2422 -2758 0
-2423 -2759 0
-2424 -2760 0
-2421 -3021 0
-2422 -3022 0
-2423 -3023 0
-2424 -3024 0
-2421 -3761 0
-2422 -3762 0
-2423 -3763 0
-2424 -3764 0
-2421 -3917 0
-2422 -3918 0
-2423 -3919 0
-2424 -3920 0
-2425 -2429 0
-2426 -2430 0
-2427 -2431 0
-2428 -2432 0
-2425 -2433 0
-2426 -2434 0
-2427 -2435 0
-2428 -2436 0
-2425 -2441 0
-2426 -2442 0
-2427 -2443 0
-2428 -2444 0
-2425 -2561 0
-2426 -2562 0
-2427 -2563 0
-2428 -2564 0
-2425 -2581 0
-2426 -2582 0
-2427 -2583 0
-2428 -2584 0
-2425 -3005 0
-2426 -3006 0
-2427 -3007 0
-2428 -3008 0
-2425 -3769 0
-2426 -3770 0
-2427 -3771 0
-2428 -3772 0
-2425 -3893 0
-2426 -3894 0
-2427 -3895 0
-2428 -3896 0
-2425 -4061 0
-2426 -4062 0
-2427 -4063 0
-2428 -4064 0
-2429 -2437 0
-2430 -2438 0
-2431 -2439 0
-2432 -2440 0
-2429 -2581 0
-2430 -2582 0
-2431 -2583 0
-2432 -2584 0
-2429 -2597 0
-2430 -2598 0
-2431 -2599 0
-2432 -2600 0
-2429 -2869 0
-2430 -2870 0
-2431 -2871 0
-2432 -2872 0
-2429 -3237 0
-2430 -3238 0
-2431 -3239 0
-2432 -3240 0
-2429 -3457 0
-2430 -3458 0
-2431 -3459 0
-2432 -3460 0
-2429 -3777 0
-2430 -3778 0
-2431 -3779 0
-2432 -3780 0
-2429 -3897 0
-2430 -3898 0
-2431 -3899 0
-2432 -3900 0
-2433 -2437 0
-2434 -2438 0
-2435 -2439 0
-2436 -2440 0
-2433 -2601 0
-2434 -2602 0
-2435 -2603 0
-2436 -2604 0
-2433 -2617 0
-2434 -2618 0
-2435 -2619 0
-2436 -2620 0
-2433 -2797 0
-2434 -2798 0
-2435 -2799 0
-2436 -2800 0
-2433 -3297 0
-2434 -3298 0
-2435 -3299 0
-2436 -3300 0
-2433 -3893 0
-2434 -3894 0
-2435 -3895 0
-2436 -3896 0
-2433 -4065 0
-2434 -4066 0
-2435 -4067 0
-2436 -4068 0
-2437 -2617 0
-2438 -2618 0
-2439 -2619 0
-2440 -2620 0
-2437 -2633 0
-2438 -2634 0
-2439 -2635 0
-2440 -2636 0
-2437 -3245 0
-2438 -3246 0
-2439 -3247 0
-2440 -3248 0
-2437 -3301 0
-2438 -3302 0
-2439 -3303 0
-2440 -3304 0
-2437 -3461 0
-2438 -3462 0
-2439 -3463 0
-2440 -3464 0
-2437 -3785 0
-2438 -3786 0
-2439 -3787 0
-2440 -3788 0
-2437 -3897 0
-2438 -3898 0
-2439 -3899 0
-2440 -3900 0
-2441 -2657 0
-2442 -2658 0
-2443 -2659 0
-2444 -2660 0
-2441 -3017 0
-2442 -3018 0
-2443 -3019 0
-2444 -3020 0
-2441 -3337 0
-2442 -3338 0
-2443 -3339 0
-2444 -3340 0
-2445 -2449 0
-2446 -2450 0
-2447 -2451 0
-2448 -2452 0
-2445 -3253 0
-2446 -3254 0
-2447 -3255 0
-2448 -3256 0
-2445 -3945 0
-2446 -3946 0
-2447 -3947 0
-2448 -3948 0
-2445 -3973 0
-2446 -3974 0
-2447 -3975 0
-2448 -3976 0
-2449 -3021 0
-2450 -3022 0
-2451 -3023 0
-2452 -3024 0
-2449 -3257 0
-2450 -3258 0
-2451 -3259 0
-2452 -3260 0
-2449 -3441 0
-2450 -3442 0
-2451 -3443 0
-2452 -3444 0
-2449 -3973 0
-2450 -3974 0
-2451 -3975 0
-2452 -3976 0
-2449 -4001 0
-2450 -4002 0
-2451 -4003 0
-2452 -4004 0
-2453 -2461 0
-2454 -2462 0
-2455 -2463 0
-2456 -2464 0
-2453 -3037 0
-2454 -3038 0
-2455 -3039 0
-2456 -3040 0
-2457 -2461 0
-2458 -2462 0
-2459 -2463 0
-2460 -2464 0
-2457 -2465 0
-2458 -2466 0
-2459 -2467 0
-2460 -2468 0
-2457 -3901 0
-2458 -3902 0
-2459 -3903 0
-2460 -3904 0
-2461 -2469 0
-2462 -2470 0
-2463 -2471 0
-2464 -2472 0
-2461 -2497 0
-2462 -2498 0
-2463 -2499 0
-2464 -2500 0
-2461 -3365 0
-2462 -3366 0
-2463 -3367 0
-2464 -3368 0
-2461 -3901 0
-2462 -3902 0
-2463 -3903 0
-2464 -3904 0
-2461 -3905 0
-2462 -3906 0
-2463 -3907 0
-2464 -3908 0
-2465 -2469 0
-2466 -2470 0
-2467 -2471 0
-2468 -2472 0
-2465 -2913 0
-2466 -2914 0
-2467 -2915 0
-2468 -2916 0
-2465 -3057 0
-2466 -3058 0
-2467 -3059 0
-2468 -3060 0
-2465 -3909 0
-2466 -3910 0
-2467 -3911 0
-2468 -3912 0
-2469 -3065 0
-2470 -3066 0
-2471 -3067 0
-2472 -3068 0
-2469 -3909 0
-2470 -3910 0
-2471 -3911 0
-2472 -3912 0
-2469 -3917 0
-2470 -3918 0
-2471 -3919 0
-2472 -3920 0
-2473 -2477 0
-2474 -2478 0
-2475 -2479 0
-2476 -2480 0
-2473 -2561 0
-2474 -2562 0
-2475 -2563 0
-2476 -2564 0
-2477 -2481 0
-2478 -2482 0
-2479 -2483 0
-2480 -2484 0
-2477 -2485 0
-2478 -2486 0
-2479 -2487 0
-2480 -2488 0
-2477 -2489 0
-2478 -2490 0
-2479 -2491 0
-2480 -2492 0
-2477 -2569 0
-2478 -2570 0
-2479 -2571 0
-2480 -2572 0
-2477 -2581 0
-2478 -2582 0
-2479 -2583 0
-2480 -2584 0
-2477 -2929 0
-2478 -2930 0
-2479 -2931 0
-2480 -2932 0
-2477 -3249 0
-2478 -3250 0
-2479 -3251 0
-2480 -3252 0
-2477 -3921 0
-2478 -3922 0
-2479 -3923 0
-2480 -3924 0
-2481 -2585 0
-2482 -2586 0
-2483 -2587 0
-2484 -2588 0
-2481 -3077 0
-2482 -3078 0
-2483 -3079 0
-2484 -3080 0
-2485 -2493 0
-2486 -2494 0
-2487 -2495 0
-2488 -2496 0
-2485 -2501 0
-2486 -2502 0
-2487 -2503 0
-2488 -2504 0
-2485 -2581 0
-2486 -2582 0
-2487 -2583 0
-2488 -2584 0
-2485 -2593 0
-2486 -2594 0
-2487 -2595 0
-2488 -2596 0
-2485 -2933 0
-2486 -2934 0
-2487 -2935 0
-2488 -2936 0
-2485 -3101 0
-2486 -3102 0
-2487 -3103 0
-2488 -3104 0
-2485 -3253 0
-2486 -3254 0
-2487 -3255 0
-2488 -3256 0
-2485 -3925 0
-2486 -3926 0
-2487 -3927 0
-2488 -3928 0
-2489 -2493 0
-2490 -2494 0
-2491 -2495 0
-2492 -2496 0
-2489 -2605 0
-2490 -2606 0
-2491 -2607 0
-2492 -2608 0
-2489 -2617 0
-2490 -2618 0
-2491 -2619 0
-2492 -2620 0
-2489 -3477 0
-2490 -3478 0
-2491 -3479 0
-2492 -3480 0
-2489 -3793 0
-2490 -3794 0
-2491 -3795 0
-2492 -3796 0
-2489 -3921 0
-2490 -3922 0
-2491 -3923 0
-2492 -3924 0
-2493 -2617 0
-2494 -2618 0
-2495 -2619 0
-2496 -2620 0
-2493 -2629 0
-2494 -2630 0
-2495 -2631 0
-2496 -2632 0
-2493 -3465 0
-2494 -3466 0
-2495 -3467 0
-2496 -3468 0
-2493 -3925 0
-2494 -3926 0
-2495 -3927 0
-2496 -3928 0
-2497 -3377 0
-2498 -3378 0
-2499 -3379 0
-2500 -3380 0
-2497 -4073 0
-2498 -4074 0
-2499 -4075 0
-2500 -4076 0
-2501 -2657 0
-2502 -2658 0
-2503 -2659 0
-2504 -2660 0
-2501 -3477 0
-2502 -3478 0
-2503 -3479 0
-2504 -3480 0
-2501 -3805 0
-2502 -3806 0
-2503 -3807 0
-2504 -3808 0
-2505 -2509 0
-2506 -2510 0
-2507 -2511 0
-2508 -2512 0
-2505 -2513 0
-2506 -2514 0
-2507 -2515 0
-2508 -2516 0
-2505 -2573 0
-2506 -2574 0
-2507 -2575 0
-2508 -2576 0
-2505 -2581 0
-2506 -2582 0
-2507 -2583 0
-2508 -2584 0
-2505 -3493 0
-2506 -3494 0
-2507 -3495 0
-2508 -3496 0
-2505 -3805 0
-2506 -3806 0
-2507 -3807 0
-2508 -3808 0
-2505 -3929 0
-2506 -3930 0
-2507 -3931 0
-2508 -3932 0
-2509 -2517 0
-2510 -2518 0
-2511 -2519 0
-2512 -2520 0
-2509 -2521 0
-2510 -2522 0
-2511 -2523 0
-2512 -2524 0
-2509 -2581 0
-2510 -2582 0
-2511 -2583 0
-2512 -2584 0
-2509 -2589 0
-2510 -2590 0
-2511 -2591 0
-2512 -2592 0
-2509 -2901 0
-2510 -2902 0
-2511 -2903 0
-2512 -2904 0
-2509 -3121 0
-2510 -3122 0
-2511 -3123 0
-2512 -3124 0
-2509 -3501 0
-2510 -3502 0
-2511 -3503 0
-2512 -3504 0
-2509 -3605 0
-2510 -3606 0
-2511 -3607 0
-2512 -3608 0
-2509 -3933 0
-2510 -3934 0
-2511 -3935 0
-2512 -3936 0
-2513 -2517 0
-2514 -2518 0
-2515 -2519 0
-2516 -2520 0
-2513 -2609 0
-2514 -2610 0
-2515 -2611 0
-2516 -2612 0
-2513 -2617 0
-2514 -2618 0
-2515 -2619 0
-2516 -2620 0
-2513 -3265 0
-2514 -3266 0
-2515 -3267 0
-2516 -3268 0
-2513 -3929 0
-2514 -3930 0
-2515 -3931 0
-2516 -3932 0
-2517 -2617 0
-2518 -2618 0
-2519 -2619 0
-2520 -2620 0
-2517 -2625 0
-2518 -2626 0
-2519 -2627 0
-2520 -2628 0
-2517 -2905 0
-2518 -2906 0
-2519 -2907 0
-2520 -2908 0
-2517 -3521 0
-2518 -3522 0
-2519 -3523 0
-2520 -3524 0
-2517 -3609 0
-2518 -3610 0
-2519 -3611 0
-2520 -3612 0
-2517 -3933 0
-2518 -3934 0
-2519 -3935 0
-2520 -3936 0
-2521 -2645 0
-2522 -2646 0
-2523 -2647 0
-2524 -2648 0
-2521 -3613 0
-2522 -3614 0
-2523 -3615 0
-2524 -3616 0
-2525 -2529 0
-2526 -2530 0
-2527 -2531 0
-2528 -2532 0
-2525 -2533 0
-2526 -2534 0
-2527 -2535 0
-2528 -2536 0
-2525 -2577 0
-2526 -2578 0
-2527 -2579 0
-2528 -2580 0
-2525 -2581 0
-2526 -2582 0
-2527 -2583 0
-2528 -2584 0
-2525 -2977 0
-2526 -2978 0
-2527 -2979 0
-2528 -2980 0
-2525 -3269 0
-2526 -3270 0
-2527 -3271 0
-2528 -3272 0
-2525 -3613 0
-2526 -3614 0
-2527 -3615 0
-2528 -3616 0
-2525 -3937 0
-2526 -3938 0
-2527 -3939 0
-2528 -3940 0
-2529 -2537 0
-2530 -2538 0
-2531 -2539 0
-2532 -2540 0
-2529 -2581 0
-2530 -2582 0
-2531 -2583 0
-2532 -2584 0
-2529 -2585 0
-2530 -2586 0
-2531 -2587 0
-2532 -2588 0
-2529 -3273 0
-2530 -3274 0
-2531 -3275 0
-2532 -3276 0
-2529 -3941 0
-2530 -3942 0
-2531 -3943 0
-2532 -3944 0
-2529 -4077 0
-2530 -4078 0
-2531 -4079 0
-2532 -4080 0
-2533 -2537 0
-2534 -2538 0
-2535 -2539 0
-2536 -2540 0
-2533 -2613 0
-2534 -2614 0
-2535 -2615 0
-2536 -2616 0
-2533 -2617 0
-2534 -2618 0
-2535 -2619 0
-2536 -2620 0
-2533 -2685 0
-2534 -2686 0
-2535 -2687 0
-2536 -2688 0
-2533 -2729 0
-2534 -2730 0
-2535 -2731 0
-2536 -2732 0
-2533 -3281 0
-2534 -3282 0
-2535 -3283 0
-2536 -3284 0
-2533 -3541 0
-2534 -3542 0
-2535 -3543 0
-2536 -3544 0
-2533 -3937 0
-2534 -3938 0
-2535 -3939 0
-2536 -3940 0
-2537 -2617 0
-2538 -2618 0
-2539 -2619 0
-2540 -2620 0
-2537 -2621 0
-2538 -2622 0
-2539 -2623 0
-2540 -2624 0
-2537 -3005 0
-2538 -3006 0
-2539 -3007 0
-2540 -3008 0
-2537 -3285 0
-2538 -3286 0
-2539 -3287 0
-2540 -3288 0
-2537 -3941 0
-2538 -3942 0
-2539 -3943 0
-2540 -3944 0
-2541 -2545 0
-2542 -2546 0
-2543 -2547 0
-2544 -2548 0
-2541 -2581 0
-2542 -2582 0
-2543 -2583 0
-2544 -2584 0
-2541 -3125 0
-2542 -3126 0
-2543 -3127 0
-2544 -3128 0
-2541 -3617 0
-2542 -3618 0
-2543 -3619 0
-2544 -3620 0
-2541 -3945 0
-2542 -3946 0
-2543 -3947 0
-2544 -3948 0
-2541 -4029 0
-2542 -4030 0
-2543 -4031 0
-2544 -4032 0
-2545 -2617 0
-2546 -2618 0
-2547 -2619 0
-2548 -2620 0
-2545 -2929 0
-2546 -2930 0
-2547 -2931 0
-2548 -2932 0
-2545 -3129 0
-2546 -3130 0
-2547 -3131 0
-2548 -3132 0
-2545 -3945 0
-2546 -3946 0
-2547 -3947 0
-2548 -3948 0
-2545 -4033 0
-2546 -4034 0
-2547 -4035 0
-2548 -4036 0
-2549 -2553 0
-2550 -2554 0
-2551 -2555 0
-2552 -2556 0
-2549 -2581 0
-2550 -2582 0
-2551 -2583 0
-2552 -2584 0
-2549 -3037 0
-2550 -3038 0
-2551 -3039 0
-2552 -3040 0
-2549 -3409 0
-2550 -3410 0
-2551 -3411 0
-2552 -3412 0
-2549 -3901 0
-2550 -3902 0
-2551 -3903 0
-2552 -3904 0
-2549 -3949 0
-2550 -3950 0
-2551 -3951 0
-2552 -3952 0
-2549 -4081 0
-2550 -4082 0
-2551 -4083 0
-2552 -4084 0
-2553 -2617 0
-2554 -2618 0
-2555 -2619 0
-2556 -2620 0
-2553 -3413 0
-2554 -3414 0
-2555 -3415 0
-2556 -3416 0
-2553 -3553 0
-2554 -3554 0
-2555 -3555 0
-2556 -3556 0
-2553 -3905 0
-2554 -3906 0
-2555 -3907 0
-2556 -3908 0
-2553 -3949 0
-2554 -3950 0
-2555 -3951 0
-2556 -3952 0
-2553 -4085 0
-2554 -4086 0
-2555 -4087 0
-2556 -4088 0
-2557 -2581 0
-2558 -2582 0
-2559 -2583 0
-2560 -2584 0
-2557 -3041 0
-2558 -3042 0
-2559 -3043 0
-2560 -3044 0
-2557 -3953 0
-2558 -3954 0
-2559 -3955 0
-2560 -3956 0
-2561 -2565 0
-2562 -2566 0
-2563 -2567 0
-2564 -2568 0
-2561 -2581 0
-2562 -2582 0
-2563 -2583 0
-2564 -2584 0
-2561 -2601 0
-2562 -2602 0
-2563 -2603 0
-2564 -2604 0
-2561 -2733 0
-2562 -2734 0
-2563 -2735 0
-2564 -2736 0
-2561 -3073 0
-2562 -3074 0
-2563 -3075 0
-2564 -3076 0
-2561 -3625 0
-2562 -3626 0
-2563 -3627 0
-2564 -3628 0
-2561 -3957 0
-2562 -3958 0
-2563 -3959 0
-2564 -3960 0
-2561 -4089 0
-2562 -4090 0
-2563 -4091 0
-2564 -4092 0
-2565 -2585 0
-2566 -2586 0
-2567 -2587 0
-2568 -2588 0
-2565 -4093 0
-2566 -4094 0
-2567 -4095 0
-2568 -4096 0
-2569 -2581 0
-2570 -2582 0
-2571 -2583 0
-2572 -2584 0
-2569 -2605 0
-2570 -2606 0
-2571 -2607 0
-2572 -2608 0
-2569 -2689 0
-2570 -2690 0
-2571 -2691 0
-2572 -2692 0
-2569 -3045 0
-2570 -3046 0
-2571 -3047 0
-2572 -3048 0
-2569 -3133 0
-2570 -3134 0
-2571 -3135 0
-2572 -3136 0
-2569 -3809 0
-2570 -3810 0
-2571 -3811 0
-2572 -3812 0
-2569 -3961 0
-2570 -3962 0
-2571 -3963 0
-2572 -3964 0
-2573 -2581 0
-2574 -2582 0
-2575 -2583 0
-2576 -2584 0
-2573 -2609 0
-2574 -2610 0
-2575 -2611 0
-2576 -2612 0
-2573 -2669 0
-2574 -2670 0
-2575 -2671 0
-2576 -2672 0
-2573 -3077 0
-2574 -3078 0
-2575 -3079 0
-2576 -3080 0
-2573 -3481 0
-2574 -3482 0
-2575 -3483 0
-2576 -3484 0
-2573 -3965 0
-2574 -3966 0
-2575 -3967 0
-2576 -3968 0
-2577 -2581 0
-2578 -2582 0
-2579 -2583 0
-2580 -2584 0
-2577 -2613 0
-2578 -2614 0
-2579 -2615 0
-2580 -2616 0
-2577 -2653 0
-2578 -2654 0
-2579 -2655 0
-2580 -2656 0
-2577 -2981 0
-2578 -2982 0
-2579 -2983 0
-2580 -2984 0
-2577 -3081 0
-2578 -3082 0
-2579 -3083 0
-2580 -3084 0
-2577 -3485 0
-2578 -3486 0
-2579 -3487 0
-2580 -3488 0
-2577 -3813 0
-2578 -3814 0
-2579 -3815 0
-2580 -3816 0
-2577 -3969 0
-2578 -3970 0
-2579 -3971 0
-2580 -3972 0
-2581 -2585 0
-2582 -2586 0
-2583 -2587 0
-2584 -2588 0
-2581 -2589 0
-2582 -2590 0
-2583 -2591 0
-2584 -2592 0
-2581 -2593 0
-2582 -2594 0
-2583 -2595 0
-2584 -2596 0
-2581 -2597 0
-2582 -2598 0
-2583 -2599 0
-2584 -2600 0
-2581 -2617 0
-2582 -2618 0
-2583 -2619 0
-2584 -2620 0
-2581 -2637 0
-2582 -2638 0
-2583 -2639 0
-2584 -2640 0
-2581 -2645 0
-2582 -2646 0
-2583 -2647 0
-2584 -2648 0
-2581 -2653 0
-2582 -2654 0
-2583 -2655 0
-2584 -2656 0
-2581 -2657 0
-2582 -2658 0
-2583 -2659 0
-2584 -2660 0
-2581 -2669 0
-2582 -2670 0
-2583 -2671 0
-2584 -2672 0
-2581 -2673 0
-2582 -2674 0
-2583 -2675 0
-2584 -2676 0
-2581 -2689 0
-2582 -2690 0
-2583 -2691 0
-2584 -2692 0
-2581 -2693 0
-2582 -2694 0
-2583 -2695 0
-2584 -2696 0
-2581 -2733 0
-2582 -2734 0
-2583 -2735 0
-2584 -2736 0
-2581 -2737 0
-2582 -2738 0
-2583 -2739 0
-2584 -2740 0
-2581 -2941 0
-2582 -2942 0
-2583 -2943 0
-2584 -2944 0
-2581 -2985 0
-2582 -2986 0
-2583 -2987 0
-2584 -2988 0
-2581 -3049 0
-2582 -3050 0
-2583 -3051 0
-2584 -3052 0
-2581 -3085 0
-2582 -3086 0
-2583 -3087 0
-2584 -3088 0
-2581 -3141 0
-2582 -3142 0
-2583 -3143 0
-2584 -3144 0
-2581 -3305 0
-2582 -3306 0
-2583 -3307 0
-2584 -3308 0
-2581 -3361 0
-2582 -3362 0
-2583 -3363 0
-2584 -3364 0
-2581 -3489 0
-2582 -3490 0
-2583 -3491 0
-2584 -3492 0
-2581 -3533 0
-2582 -3534 0
-2583 -3535 0
-2584 -3536 0
-2581 -3629 0
-2582 -3630 0
-2583 -3631 0
-2584 -3632 0
-2581 -3633 0
-2582 -3634 0
-2583 -3635 0
-2584 -3636 0
-2581 -3817 0
-2582 -3818 0
-2583 -3819 0
-2584 -3820 0
-2581 -3901 0
-2582 -3902 0
-2583 -3903 0
-2584 -3904 0
-2581 -3909 0
-2582 -3910 0
-2583 -3911 0
-2584 -3912 0
-2581 -3953 0
-2582 -3954 0
-2583 -3955 0
-2584 -3956 0
-2581 -3973 0
-2582 -3974 0
-2583 -3975 0
-2584 -3976 0
-2581 -4029 0
-2582 -4030 0
-2583 -4031 0
-2584 -4032 0
-2581 -4037 0
-2582 -4038 0
-2583 -4039 0
-2584 -4040 0
-2581 -4097 0
-2582 -4098 0
-2583 -4099 0
-2584 -4100 0
-2585 -2621 0
-2586 -2622 0
-2587 -2623 0
-2588 -2624 0
-2585 -2657 0
-2586 -2658 0
-2587 -2659 0
-2588 -2660 0
-2585 -3145 0
-2586 -3146 0
-2587 -3147 0
-2588 -3148 0
-2585 -3537 0
-2586 -3538 0
-2587 -3539 0
-2588 -3540 0
-2585 -3977 0
-2586 -3978 0
-2587 -3979 0
-2588 -3980 0
-2589 -2625 0
-2590 -2626 0
-2591 -2627 0
-2592 -2628 0
-2589 -2673 0
-2590 -2674 0
-2591 -2675 0
-2592 -2676 0
-2589 -2945 0
-2590 -2946 0
-2591 -2947 0
-2592 -2948 0
-2589 -3149 0
-2590 -3150 0
-2591 -3151 0
-2592 -3152 0
-2589 -3365 0
-2590 -3366 0
-2591 -3367 0
-2592 -3368 0
-2589 -3637 0
-2590 -3638 0
-2591 -3639 0
-2592 -3640 0
-2589 -3981 0
-2590 -3982 0
-2591 -3983 0
-2592 -3984 0
-2589 -4041 0
-2590 -4042 0
-2591 -4043 0
-2592 -4044 0
-2593 -2629 0
-2594 -2630 0
-2595 -2631 0
-2596 -2632 0
-2593 -2693 0
-2594 -2694 0
-2595 -2695 0
-2596 -2696 0
-2593 -2949 0
-2594 -2950 0
-2595 -2951 0
-2596 -2952 0
-2593 -3009 0
-2594 -3010 0
-2595 -3011 0
-2596 -3012 0
-2593 -3309 0
-2594 -3310 0
-2595 -3311 0
-2596 -3312 0
-2593 -3541 0
-2594 -3542 0
-2595 -3543 0
-2596 -3544 0
-2593 -3985 0
-2594 -3986 0
-2595 -3987 0
-2596 -3988 0
-2597 -2633 0
-2598 -2634 0
-2599 -2635 0
-2600 -2636 0
-2597 -2737 0
-2598 -2738 0
-2599 -2739 0
-2600 -2740 0
-2597 -2993 0
-2598 -2994 0
-2599 -2995 0
-2600 -2996 0
-2597 -3053 0
-2598 -3054 0
-2599 -3055 0
-2600 -3056 0
-2597 -3313 0
-2598 -3314 0
-2599 -3315 0
-2600 -3316 0
-2597 -3545 0
-2598 -3546 0
-2599 -3547 0
-2600 -3548 0
-2597 -3989 0
-2598 -3990 0
-2599 -3991 0
-2600 -3992 0
-2601 -2617 0
-2602 -2618 0
-2603 -2619 0
-2604 -2620 0
-2601 -2741 0
-2602 -2742 0
-2603 -2743 0
-2604 -2744 0
-2601 -2781 0
-2602 -2782 0
-2603 -2783 0
-2604 -2784 0
-2601 -3957 0
-2602 -3958 0
-2603 -3959 0
-2604 -3960 0
-2601 -4101 0
-2602 -4102 0
-2603 -4103 0
-2604 -4104 0
-2605 -2617 0
-2606 -2618 0
-2607 -2619 0
-2608 -2620 0
-2605 -2697 0
-2606 -2698 0
-2607 -2699 0
-2608 -2700 0
-2605 -2801 0
-2606 -2802 0
-2607 -2803 0
-2608 -2804 0
-2605 -3565 0
-2606 -3566 0
-2607 -3567 0
-2608 -3568 0
-2605 -3821 0
-2606 -3822 0
-2607 -3823 0
-2608 -3824 0
-2605 -3961 0
-2606 -3962 0
-2607 -3963 0
-2608 -3964 0
-2609 -2617 0
-2610 -2618 0
-2611 -2619 0
-2612 -2620 0
-2609 -2677 0
-2610 -2678 0
-2611 -2679 0
-2612 -2680 0
-2609 -2805 0
-2610 -2806 0
-2611 -2807 0
-2612 -2808 0
-2609 -3417 0
-2610 -3418 0
-2611 -3419 0
-2612 -3420 0
-2609 -3497 0
-2610 -3498 0
-2611 -3499 0
-2612 -3500 0
-2609 -3913 0
-2610 -3914 0
-2611 -3915 0
-2612 -3916 0
-2609 -3965 0
-2610 -3966 0
-2611 -3967 0
-2612 -3968 0
-2613 -2617 0
-2614 -2618 0
-2615 -2619 0
-2616 -2620 0
-2613 -2661 0
-2614 -2662 0
-2615 -2663 0
-2616 -2664 0
-2613 -2785 0
-2614 -2786 0
-2615 -2787 0
-2616 -2788 0
-2613 -3501 0
-2614 -3502 0
-2615 -3503 0
-2616 -3504 0
-2613 -3825 0
-2614 -3826 0
-2615 -3827 0
-2616 -3828 0
-2613 -3969 0
-2614 -3970 0
-2615 -3971 0
-2616 -3972 0
-2617 -2621 0
-2618 -2622 0
-2619 -2623 0
-2620 -2624 0
-2617 -2625 0
-2618 -2626 0
-2619 -2627 0
-2620 -2628 0
-2617 -2629 0
-2618 -2630 0
-2619 -2631 0
-2620 -2632 0
-2617 -2633 0
-2618 -2634 0
-2619 -2635 0
-2620 -2636 0
-2617 -2641 0
-2618 -2642 0
-2619 -2643 0
-2620 -2644 0
-2617 -2649 0
-2618 -2650 0
-2619 -2651 0
-2620 -2652 0
-2617 -2661 0
-2618 -2662 0
-2619 -2663 0
-2620 -2664 0
-2617 -2665 0
-2618 -2666 0
-2619 -2667 0
-2620 -2668 0
-2617 -2677 0
-2618 -2678 0
-2619 -2679 0
-2620 -2680 0
-2617 -2681 0
-2618 -2682 0
-2619 -2683 0
-2620 -2684 0
-2617 -2697 0
-2618 -2698 0
-2619 -2699 0
-2620 -2700 0
-2617 -2701 0
-2618 -2702 0
-2619 -2703 0
-2620 -2704 0
-2617 -2741 0
-2618 -2742 0
-2619 -2743 0
-2620 -2744 0
-2617 -2745 0
-2618 -2746 0
-2619 -2747 0
-2620 -2748 0
-2617 -2789 0
-2618 -2790 0
-2619 -2791 0
-2620 -2792 0
-2617 -2953 0
-2618 -2954 0
-2619 -2955 0
-2620 -2956 0
-2617 -3013 0
-2618 -3014 0
-2619 -3015 0
-2620 -3016 0
-2617 -3157 0
-2618 -3158 0
-2619 -3159 0
-2620 -3160 0
-2617 -3321 0
-2618 -3322 0
-2619 -3323 0
-2620 -3324 0
-2617 -3369 0
-2618 -3370 0
-2619 -3371 0
-2620 -3372 0
-2617 -3421 0
-2618 -3422 0
-2619 -3423 0
-2620 -3424 0
-2617 -3505 0
-2618 -3506 0
-2619 -3507 0
-2620 -3508 0
-2617 -3569 0
-2618 -3570 0
-2619 -3571 0
-2620 -3572 0
-2617 -3641 0
-2618 -3642 0
-2619 -3643 0
-2620 -3644 0
-2617 -3829 0
-2618 -3830 0
-2619 -3831 0
-2620 -3832 0
-2617 -3833 0
-2618 -3834 0
-2619 -3835 0
-2620 -3836 0
-2617 -3905 0
-2618 -3906 0
-2619 -3907 0
-2620 -3908 0
-2617 -3917 0
-2618 -3918 0
-2619 -3919 0
-2620 -3920 0
-2617 -3973 0
-2618 -3974 0
-2619 -3975 0
-2620 -3976 0
-2617 -3993 0
-2618 -3994 0
-2619 -3995 0
-2620 -3996 0
-2617 -4033 0
-2618 -4034 0
-2619 -4035 0
-2620 -4036 0
-2617 -4045 0
-2618 -4046 0
-2619 -4047 0
-2620 -4048 0
-2617 -4105 0
-2618 -4106 0
-2619 -4107 0
-2620 -4108 0
-2621 -2665 0
-2622 -2666 0
-2623 -2667 0
-2624 -2668 0
-2621 -3017 0
-2622 -3018 0
-2623 -3019 0
-2624 -3020 0
-2621 -3161 0
-2622 -3162 0
-2623 -3163 0
-2624 -3164 0
-2621 -3425 0
-2622 -3426 0
-2623 -3427 0
-2624 -3428 0
-2621 -3977 0
-2622 -3978 0
-2623 -3979 0
-2624 -3980 0
-2625 -2681 0
-2626 -2682 0
-2627 -2683 0
-2628 -2684 0
-2625 -2793 0
-2626 -2794 0
-2627 -2795 0
-2628 -2796 0
-2625 -2957 0
-2626 -2958 0
-2627 -2959 0
-2628 -2960 0
-2625 -3373 0
-2626 -3374 0
-2627 -3375 0
-2628 -3376 0
-2625 -3645 0
-2626 -3646 0
-2627 -3647 0
-2628 -3648 0
-2625 -3981 0
-2626 -3982 0
-2627 -3983 0
-2628 -3984 0
-2629 -2701 0
-2630 -2702 0
-2631 -2703 0
-2632 -2704 0
-2629 -2961 0
-2630 -2962 0
-2631 -2963 0
-2632 -2964 0
-2629 -3021 0
-2630 -3022 0
-2631 -3023 0
-2632 -3024 0
-2629 -3325 0
-2630 -3326 0
-2631 -3327 0
-2632 -3328 0
-2629 -3985 0
-2630 -3986 0
-2631 -3987 0
-2632 -3988 0
-2633 -2745 0
-2634 -2746 0
-2635 -2747 0
-2636 -2748 0
-2633 -3329 0
-2634 -3330 0
-2635 -3331 0
-2636 -3332 0
-2633 -3577 0
-2634 -3578 0
-2635 -3579 0
-2636 -3580 0
-2633 -3989 0
-2634 -3990 0
-2635 -3991 0
-2636 -3992 0
-2637 -2641 0
-2638 -2642 0
-2639 -2643 0
-2640 -2644 0
-2637 -2965 0
-2638 -2966 0
-2639 -2967 0
-2640 -2968 0
-2637 -3105 0
-2638 -3106 0
-2639 -3107 0
-2640 -3108 0
-2637 -3165 0
-2638 -3166 0
-2639 -3167 0
-2640 -3168 0
-2637 -3337 0
-2638 -3338 0
-2639 -3339 0
-2640 -3340 0
-2637 -3909 0
-2638 -3910 0
-2639 -3911 0
-2640 -3912 0
-2637 -3997 0
-2638 -3998 0
-2639 -3999 0
-2640 -4000 0
-2641 -2969 0
-2642 -2970 0
-2643 -2971 0
-2644 -2972 0
-2641 -3169 0
-2642 -3170 0
-2643 -3171 0
-2644 -3172 0
-2641 -3837 0
-2642 -3838 0
-2643 -3839 0
-2644 -3840 0
-2641 -3917 0
-2642 -3918 0
-2643 -3919 0
-2644 -3920 0
-2641 -3997 0
-2642 -3998 0
-2643 -3999 0
-2644 -4000 0
-2645 -2649 0
-2646 -2650 0
-2647 -2651 0
-2648 -2652 0
-2645 -3001 0
-2646 -3002 0
-2647 -3003 0
-2648 -3004 0
-2645 -3065 0
-2646 -3066 0
-2647 -3067 0
-2648 -3068 0
-2645 -3341 0
-2646 -3342 0
-2647 -3343 0
-2648 -3344 0
-2645 -4001 0
-2646 -4002 0
-2647 -4003 0
-2648 -4004 0
-2645 -4037 0
-2646 -4038 0
-2647 -4039 0
-2648 -4040 0
-2649 -2809 0
-2650 -2810 0
-2651 -2811 0
-2652 -2812 0
-2649 -3345 0
-2650 -3346 0
-2651 -3347 0
-2652 -3348 0
-2649 -3429 0
-2650 -3430 0
-2651 -3431 0
-2652 -3432 0
-2649 -3509 0
-2650 -3510 0
-2651 -3511 0
-2652 -3512 0
-2649 -4001 0
-2650 -4002 0
-2651 -4003 0
-2652 -4004 0
-2649 -4045 0
-2650 -4046 0
-2651 -4047 0
-2652 -4048 0
-2653 -2657 0
-2654 -2658 0
-2655 -2659 0
-2656 -2660 0
-2653 -2661 0
-2654 -2662 0
-2655 -2663 0
-2656 -2664 0
-2653 -2813 0
-2654 -2814 0
-2655 -2815 0
-2656 -2816 0
-2653 -3113 0
-2654 -3114 0
-2655 -3115 0
-2656 -3116 0
-2653 -3513 0
-2654 -3514 0
-2655 -3515 0
-2656 -3516 0
-2653 -3657 0
-2654 -3658 0
-2655 -3659 0
-2656 -3660 0
-2653 -4005 0
-2654 -4006 0
-2655 -4007 0
-2656 -4008 0
-2657 -2665 0
-2658 -2666 0
-2659 -2667 0
-2660 -2668 0
-2657 -2829 0
-2658 -2830 0
-2659 -2831 0
-2660 -2832 0
-2657 -3177 0
-2658 -3178 0
-2659 -3179 0
-2660 -3180 0
-2657 -3565 0
-2658 -3566 0
-2659 -3567 0
-2660 -3568 0
-2657 -3661 0
-2658 -3662 0
-2659 -3663 0
-2660 -3664 0
-2657 -4009 0
-2658 -4010 0
-2659 -4011 0
-2660 -4012 0
-2661 -2665 0
-2662 -2666 0
-2663 -2667 0
-2664 -2668 0
-2661 -2821 0
-2662 -2822 0
-2663 -2823 0
-2664 -2824 0
-2661 -3517 0
-2662 -3518 0
-2663 -3519 0
-2664 -3520 0
-2661 -3677 0
-2662 -3678 0
-2663 -3679 0
-2664 -3680 0
-2661 -3841 0
-2662 -3842 0
-2663 -3843 0
-2664 -3844 0
-2661 -4005 0
-2662 -4006 0
-2663 -4007 0
-2664 -4008 0
-2665 -3185 0
-2666 -3186 0
-2667 -3187 0
-2668 -3188 0
-2665 -3845 0
-2666 -3846 0
-2667 -3847 0
-2668 -3848 0
-2665 -4009 0
-2666 -4010 0
-2667 -4011 0
-2668 -4012 0
-2669 -2673 0
-2670 -2674 0
-2671 -2675 0
-2672 -2676 0
-2669 -2677 0
-2670 -2678 0
-2671 -2679 0
-2672 -2680 0
-2669 -3093 0
-2670 -3094 0
-2671 -3095 0
-2672 -3096 0
-2669 -3681 0
-2670 -3682 0
-2671 -3683 0
-2672 -3684 0
-2669 -4013 0
-2670 -4014 0
-2671 -4015 0
-2672 -4016 0
-2669 -4121 0
-2670 -4122 0
-2671 -4123 0
-2672 -4124 0
-2673 -2681 0
-2674 -2682 0
-2675 -2683 0
-2676 -2684 0
-2673 -3097 0
-2674 -3098 0
-2675 -3099 0
-2676 -3100 0
-2673 -3201 0
-2674 -3202 0
-2675 -3203 0
-2676 -3204 0
-2673 -3377 0
-2674 -3378 0
-2675 -3379 0
-2676 -3380 0
-2673 -3685 0
-2674 -3686 0
-2675 -3687 0
-2676 -3688 0
-2673 -3853 0
-2674 -3854 0
-2675 -3855 0
-2676 -3856 0
-2673 -4017 0
-2674 -4018 0
-2675 -4019 0
-2676 -4020 0
-2677 -2681 0
-2678 -2682 0
-2679 -2683 0
-2680 -2684 0
-2677 -3537 0
-2678 -3538 0
-2679 -3539 0
-2680 -3540 0
-2677 -3857 0
-2678 -3858 0
-2679 -3859 0
-2680 -3860 0
-2677 -4013 0
-2678 -4014 0
-2679 -4015 0
-2680 -4016 0
-2677 -4125 0
-2678 -4126 0
-2679 -4127 0
-2680 -4128 0
-2681 -2845 0
-2682 -2846 0
-2683 -2847 0
-2684 -2848 0
-2681 -3205 0
-2682 -3206 0
-2683 -3207 0
-2684 -3208 0
-2681 -3381 0
-2682 -3382 0
-2683 -3383 0
-2684 -3384 0
-2681 -3861 0
-2682 -3862 0
-2683 -3863 0
-2684 -3864 0
-2681 -4017 0
-2682 -4018 0
-2683 -4019 0
-2684 -4020 0
-2685 -2697 0
-2686 -2698 0
-2687 -2699 0
-2688 -2700 0
-2685 -2861 0
-2686 -2862 0
-2687 -2863 0
-2688 -2864 0
-2685 -3589 0
-2686 -3590 0
-2687 -3591 0
-2688 -3592 0
-2685 -3861 0
-2686 -3862 0
-2687 -3863 0
-2688 -3864 0
-2689 -2693 0
-2690 -2694 0
-2691 -2695 0
-2692 -2696 0
-2689 -2697 0
-2690 -2698 0
-2691 -2699 0
-2692 -2700 0
-2689 -3117 0
-2690 -3118 0
-2691 -3119 0
-2692 -3120 0
-2689 -3137 0
-2690 -3138 0
-2691 -3139 0
-2692 -3140 0
-2689 -3385 0
-2690 -3386 0
-2691 -3387 0
-2692 -3388 0
-2689 -3877 0
-2690 -3878 0
-2691 -3879 0
-2692 -3880 0
-2689 -4021 0
-2690 -4022 0
-2691 -4023 0
-2692 -4024 0
-2693 -2701 0
-2694 -2702 0
-2695 -2703 0
-2696 -2704 0
-2693 -2997 0
-2694 -2998 0
-2695 -2999 0
-2696 -3000 0
-2693 -3153 0
-2694 -3154 0
-2695 -3155 0
-2696 -3156 0
-2693 -3389 0
-2694 -3390 0
-2695 -3391 0
-2696 -3392 0
-2693 -3589 0
-2694 -3590 0
-2695 -3591 0
-2696 -3592 0
-2693 -3689 0
-2694 -3690 0
-2695 -3691 0
-2696 -3692 0
-2693 -4025 0
-2694 -4026 0
-2695 -4027 0
-2696 -4028 0
-2697 -2701 0
-2698 -2702 0
-2699 -2703 0
-2700 -2704 0
-2697 -2753 0
-2698 -2754 0
-2699 -2755 0
-2700 -2756 0
-2697 -2869 0
-2698 -2870 0
-2699 -2871 0
-2700 -2872 0
-2697 -3393 0
-2698 -3394 0
-2699 -3395 0
-2700 -3396 0
-2697 -3889 0
-2698 -3890 0
-2699 -3891 0
-2700 -3892 0
-2697 -4021 0
-2698 -4022 0
-2699 -4023 0
-2700 -4024 0
-2701 -3001 0
-2702 -3002 0
-2703 -3003 0
-2704 -3004 0
-2701 -3025 0
-2702 -3026 0
-2703 -3027 0
-2704 -3028 0
-2701 -3397 0
-2702 -3398 0
-2703 -3399 0
-2704 -3400 0
-2701 -3693 0
-2702 -3694 0
-2703 -3695 0
-2704 -3696 0
-2701 -4025 0
-2702 -4026 0
-2703 -4027 0
-2704 -4028 0
-2705 -2709 0
-2706 -2710 0
-2707 -2711 0
-2708 -2712 0
-2705 -3129 0
-2706 -3130 0
-2707 -3131 0
-2708 -3132 0
-2705 -3949 0
-2706 -3950 0
-2707 -3951 0
-2708 -3952 0
-2705 -3973 0
-2706 -3974 0
-2707 -3975 0
-2708 -3976 0
-2709 -2881 0
-2710 -2882 0
-2711 -2883 0
-2712 -2884 0
-2709 -3417 0
-2710 -3418 0
-2711 -3419 0
-2712 -3420 0
-2709 -3581 0
-2710 -3582 0
-2711 -3583 0
-2712 -3584 0
-2709 -3973 0
-2710 -3974 0
-2711 -3975 0
-2712 -3976 0
-2709 -3997 0
-2710 -3998 0
-2711 -3999 0
-2712 -4000 0
-2713 -2717 0
-2714 -2718 0
-2715 -2719 0
-2716 -2720 0
-2713 -2721 0
-2714 -2722 0
-2715 -2723 0
-2716 -2724 0
-2713 -2889 0
-2714 -2890 0
-2715 -2891 0
-2716 -2892 0
-2713 -4029 0
-2714 -4030 0
-2715 -4031 0
-2716 -4032 0
-2717 -2725 0
-2718 -2726 0
-2719 -2727 0
-2720 -2728 0
-2717 -3045 0
-2718 -3046 0
-2719 -3047 0
-2720 -3048 0
-2717 -3213 0
-2718 -3214 0
-2719 -3215 0
-2720 -3216 0
-2717 -4029 0
-2718 -4030 0
-2719 -4031 0
-2720 -4032 0
-2717 -4033 0
-2718 -4034 0
-2719 -4035 0
-2720 -4036 0
-2721 -2725 0
-2722 -2726 0
-2723 -2727 0
-2724 -2728 0
-2721 -3385 0
-2722 -3386 0
-2723 -3387 0
-2724 -3388 0
-2721 -4037 0
-2722 -4038 0
-2723 -4039 0
-2724 -4040 0
-2725 -3061 0
-2726 -3062 0
-2727 -3063 0
-2728 -3064 0
-2725 -3393 0
-2726 -3394 0
-2727 -3395 0
-2728 -3396 0
-2725 -4037 0
-2726 -4038 0
-2727 -4039 0
-2728 -4040 0
-2725 -4045 0
-2726 -4046 0
-2727 -4047 0
-2728 -4048 0
-2729 -2745 0
-2730 -2746 0
-2731 -2747 0
-2732 -2748 0
-2729 -3081 0
-2730 -3082 0
-2731 -3083 0
-2732 -3084 0
-2729 -3413 0
-2730 -3414 0
-2731 -3415 0
-2732 -3416 0
-2729 -3601 0
-2730 -3602 0
-2731 -3603 0
-2732 -3604 0
-2733 -2737 0
-2734 -2738 0
-2735 -2739 0
-2736 -2740 0
-2733 -2741 0
-2734 -2742 0
-2735 -2743 0
-2736 -2744 0
-2733 -3721 0
-2734 -3722 0
-2735 -3723 0
-2736 -3724 0
-2733 -3725 0
-2734 -3726 0
-2735 -3727 0
-2736 -3728 0
-2733 -4049 0
-2734 -4050 0
-2735 -4051 0
-2736 -4052 0
-2737 -2745 0
-2738 -2746 0
-2739 -2747 0
-2740 -2748 0
-2737 -3597 0
-2738 -3598 0
-2739 -3599 0
-2740 -3600 0
-2737 -3729 0
-2738 -3730 0
-2739 -3731 0
-2740 -3732 0
-2737 -4053 0
-2738 -4054 0
-2739 -4055 0
-2740 -4056 0
-2741 -2745 0
-2742 -2746 0
-2743 -2747 0
-2744 -2748 0
-2741 -2933 0
-2742 -2934 0
-2743 -2935 0
-2744 -2936 0
-2741 -3233 0
-2742 -3234 0
-2743 -3235 0
-2744 -3236 0
-2741 -3733 0
-2742 -3734 0
-2743 -3735 0
-2744 -3736 0
-2741 -4049 0
-2742 -4050 0
-2743 -4051 0
-2744 -4052 0
-2745 -2753 0
-2746 -2754 0
-2747 -2755 0
-2748 -2756 0
-2745 -3113 0
-2746 -3114 0
-2747 -3115 0
-2748 -3116 0
-2745 -3433 0
-2746 -3434 0
-2747 -3435 0
-2748 -3436 0
-2745 -3737 0
-2746 -3738 0
-2747 -3739 0
-2748 -3740 0
-2745 -4053 0
-2746 -4054 0
-2747 -4055 0
-2748 -4056 0
-2749 -3133 0
-2750 -3134 0
-2751 -3135 0
-2752 -3136 0
-2749 -3213 0
-2750 -3214 0
-2751 -3215 0
-2752 -3216 0
-2749 -4037 0
-2750 -4038 0
-2751 -4039 0
-2752 -4040 0
-2753 -2993 0
-2754 -2994 0
-2755 -2995 0
-2756 -2996 0
-2753 -3173 0
-2754 -3174 0
-2755 -3175 0
-2756 -3176 0
-2753 -3221 0
-2754 -3222 0
-2755 -3223 0
-2756 -3224 0
-2753 -3749 0
-2754 -3750 0
-2755 -3751 0
-2756 -3752 0
-2757 -2829 0
-2758 -2830 0
-2759 -2831 0
-2760 -2832 0
-2757 -3109 0
-2758 -3110 0
-2759 -3111 0
-2760 -3112 0
-2757 -3257 0
-2758 -3258 0
-2759 -3259 0
-2760 -3260 0
-2757 -3901 0
-2758 -3902 0
-2759 -3903 0
-2760 -3904 0
-2757 -4069 0
-2758 -4070 0
-2759 -4071 0
-2760 -4072 0
-2757 -4073 0
-2758 -4074 0
-2759 -4075 0
-2760 -4076 0
-2761 -2765 0
-2762 -2766 0
-2763 -2767 0
-2764 -2768 0
-2761 -2769 0
-2762 -2770 0
-2763 -2771 0
-2764 -2772 0
-2761 -2901 0
-2762 -2902 0
-2763 -2903 0
-2764 -2904 0
-2761 -3485 0
-2762 -3486 0
-2763 -3487 0
-2764 -3488 0
-2761 -3621 0
-2762 -3622 0
-2763 -3623 0
-2764 -3624 0
-2761 -3901 0
-2762 -3902 0
-2763 -3903 0
-2764 -3904 0
-2761 -4057 0
-2762 -4058 0
-2763 -4059 0
-2764 -4060 0
-2765 -2773 0
-2766 -2774 0
-2767 -2775 0
-2768 -2776 0
-2765 -2797 0
-2766 -2798 0
-2767 -2799 0
-2768 -2800 0
-2765 -2801 0
-2766 -2802 0
-2767 -2803 0
-2768 -2804 0
-2765 -2905 0
-2766 -2906 0
-2767 -2907 0
-2768 -2908 0
-2765 -3501 0
-2766 -3502 0
-2767 -3503 0
-2768 -3504 0
-2765 -3625 0
-2766 -3626 0
-2767 -3627 0
-2768 -3628 0
-2765 -3905 0
-2766 -3906 0
-2767 -3907 0
-2768 -3908 0
-2765 -4057 0
-2766 -4058 0
-2767 -4059 0
-2768 -4060 0
-2769 -2773 0
-2770 -2774 0
-2771 -2775 0
-2772 -2776 0
-2769 -2909 0
-2770 -2910 0
-2771 -2911 0
-2772 -2912 0
-2769 -2917 0
-2770 -2918 0
-2771 -2919 0
-2772 -2920 0
-2769 -3117 0
-2770 -3118 0
-2771 -3119 0
-2772 -3120 0
-2769 -3241 0
-2770 -3242 0
-2771 -3243 0
-2772 -3244 0
-2769 -3909 0
-2770 -3910 0
-2771 -3911 0
-2772 -3912 0
-2769 -4061 0
-2770 -4062 0
-2771 -4063 0
-2772 -4064 0
-2773 -2921 0
-2774 -2922 0
-2775 -2923 0
-2776 -2924 0
-2773 -2925 0
-2774 -2926 0
-2775 -2927 0
-2776 -2928 0
-2773 -3061 0
-2774 -3062 0
-2775 -3063 0
-2776 -3064 0
-2773 -3917 0
-2774 -3918 0
-2775 -3919 0
-2776 -3920 0
-2773 -4061 0
-2774 -4062 0
-2775 -4063 0
-2776 -4064 0
-2773 -4065 0
-2774 -4066 0
-2775 -4067 0
-2776 -4068 0
-2777 -2781 0
-2778 -2782 0
-2779 -2783 0
-2780 -2784 0
-2777 -2797 0
-2778 -2798 0
-2779 -2799 0
-2780 -2800 0
-2777 -2929 0
-2778 -2930 0
-2779 -2931 0
-2780 -2932 0
-2777 -4137 0
-2778 -4138 0
-2779 -4139 0
-2780 -4140 0
-2781 -2789 0
-2782 -2790 0
-2783 -2791 0
-2784 -2792 0
-2781 -2805 0
-2782 -2806 0
-2783 -2807 0
-2784 -2808 0
-2781 -2933 0
-2782 -2934 0
-2783 -2935 0
-2784 -2936 0
-2781 -3069 0
-2782 -3070 0
-2783 -3071 0
-2784 -3072 0
-2781 -4141 0
-2782 -4142 0
-2783 -4143 0
-2784 -4144 0
-2785 -2789 0
-2786 -2790 0
-2787 -2791 0
-2788 -2792 0
-2785 -2821 0
-2786 -2822 0
-2787 -2823 0
-2788 -2824 0
-2785 -2841 0
-2786 -2842 0
-2787 -2843 0
-2788 -2844 0
-2785 -2865 0
-2786 -2866 0
-2787 -2867 0
-2788 -2868 0
-2785 -2873 0
-2786 -2874 0
-2787 -2875 0
-2788 -2876 0
-2785 -3129 0
-2786 -3130 0
-2787 -3131 0
-2788 -3132 0
-2785 -3605 0
-2786 -3606 0
-2787 -3607 0
-2788 -3608 0
-2785 -3925 0
-2786 -3926 0
-2787 -3927 0
-2788 -3928 0
-2789 -2793 0
-2790 -2794 0
-2791 -2795 0
-2792 -2796 0
-2789 -2809 0
-2790 -2810 0
-2791 -2811 0
-2792 -2812 0
-2789 -2821 0
-2790 -2822 0
-2791 -2823 0
-2792 -2824 0
-2789 -2845 0
-2790 -2846 0
-2791 -2847 0
-2792 -2848 0
-2789 -2869 0
-2790 -2870 0
-2791 -2871 0
-2792 -2872 0
-2789 -2933 0
-2790 -2934 0
-2791 -2935 0
-2792 -2936 0
-2789 -3077 0
-2790 -3078 0
-2791 -3079 0
-2792 -3080 0
-2789 -3525 0
-2790 -3526 0
-2791 -3527 0
-2792 -3528 0
-2789 -3641 0
-2790 -3642 0
-2791 -3643 0
-2792 -3644 0
-2789 -4145 0
-2790 -4146 0
-2791 -4147 0
-2792 -4148 0
-2793 -2825 0
-2794 -2826 0
-2795 -2827 0
-2796 -2828 0
-2793 -2845 0
-2794 -2846 0
-2795 -2847 0
-2796 -2848 0
-2793 -3085 0
-2794 -3086 0
-2795 -3087 0
-2796 -3088 0
-2793 -3293 0
-2794 -3294 0
-2795 -3295 0
-2796 -3296 0
-2793 -3465 0
-2794 -3466 0
-2795 -3467 0
-2796 -3468 0
-2793 -3645 0
-2794 -3646 0
-2795 -3647 0
-2796 -3648 0
-2793 -3673 0
-2794 -3674 0
-2795 -3675 0
-2796 -3676 0
-2797 -2801 0
-2798 -2802 0
-2799 -2803 0
-2800 -2804 0
-2797 -2805 0
-2798 -2806 0
-2799 -2807 0
-2800 -2808 0
-2797 -2953 0
-2798 -2954 0
-2799 -2955 0
-2800 -2956 0
-2797 -3533 0
-2798 -3534 0
-2799 -3535 0
-2800 -3536 0
-2797 -4153 0
-2798 -4154 0
-2799 -4155 0
-2800 -4156 0
-2801 -2957 0
-2802 -2958 0
-2803 -2959 0
-2804 -2960 0
-2801 -3005 0
-2802 -3006 0
-2803 -3007 0
-2804 -3008 0
-2805 -2809 0
-2806 -2810 0
-2807 -2811 0
-2808 -2812 0
-2805 -2961 0
-2806 -2962 0
-2807 -2963 0
-2808 -2964 0
-2805 -3541 0
-2806 -3542 0
-2807 -3543 0
-2808 -3544 0
-2805 -4157 0
-2806 -4158 0
-2807 -4159 0
-2808 -4160 0
-2809 -2961 0
-2810 -2962 0
-2811 -2963 0
-2812 -2964 0
-2809 -3161 0
-2810 -3162 0
-2811 -3163 0
-2812 -3164 0
-2809 -3449 0
-2810 -3450 0
-2811 -3451 0
-2812 -3452 0
-2809 -3549 0
-2810 -3550 0
-2811 -3551 0
-2812 -3552 0
-2813 -2817 0
-2814 -2818 0
-2815 -2819 0
-2816 -2820 0
-2813 -2821 0
-2814 -2822 0
-2815 -2823 0
-2816 -2824 0
-2813 -2853 0
-2814 -2854 0
-2815 -2855 0
-2816 -2856 0
-2813 -3009 0
-2814 -3010 0
-2815 -3011 0
-2816 -3012 0
-2813 -3457 0
-2814 -3458 0
-2815 -3459 0
-2816 -3460 0
-2813 -3657 0
-2814 -3658 0
-2815 -3659 0
-2816 -3660 0
-2817 -2825 0
-2818 -2826 0
-2819 -2827 0
-2820 -2828 0
-2817 -2833 0
-2818 -2834 0
-2819 -2835 0
-2820 -2836 0
-2817 -2853 0
-2818 -2854 0
-2819 -2855 0
-2820 -2856 0
-2817 -3665 0
-2818 -3666 0
-2819 -3667 0
-2820 -3668 0
-2817 -3765 0
-2818 -3766 0
-2819 -3767 0
-2820 -3768 0
-2817 -4097 0
-2818 -4098 0
-2819 -4099 0
-2820 -4100 0
-2821 -2825 0
-2822 -2826 0
-2823 -2827 0
-2824 -2828 0
-2821 -2857 0
-2822 -2858 0
-2823 -2859 0
-2824 -2860 0
-2821 -3021 0
-2822 -3022 0
-2823 -3023 0
-2824 -3024 0
-2821 -3461 0
-2822 -3462 0
-2823 -3463 0
-2824 -3464 0
-2821 -3617 0
-2822 -3618 0
-2823 -3619 0
-2824 -3620 0
-2821 -3677 0
-2822 -3678 0
-2823 -3679 0
-2824 -3680 0
-2821 -3929 0
-2822 -3930 0
-2823 -3931 0
-2824 -3932 0
-2825 -2837 0
-2826 -2838 0
-2827 -2839 0
-2828 -2840 0
-2825 -2857 0
-2826 -2858 0
-2827 -2859 0
-2828 -2860 0
-2825 -3113 0
-2826 -3114 0
-2827 -3115 0
-2828 -3116 0
-2825 -3469 0
-2826 -3470 0
-2827 -3471 0
-2828 -3472 0
-2825 -3933 0
-2826 -3934 0
-2827 -3935 0
-2828 -3936 0
-2825 -4105 0
-2826 -4106 0
-2827 -4107 0
-2828 -4108 0
-2829 -3769 0
-2830 -3770 0
-2831 -3771 0
-2832 -3772 0
-2829 -4093 0
-2830 -4094 0
-2831 -4095 0
-2832 -4096 0
-2833 -2837 0
-2834 -2838 0
-2835 -2839 0
-2836 -2840 0
-2833 -3181 0
-2834 -3182 0
-2835 -3183 0
-2836 -3184 0
-2833 -3773 0
-2834 -3774 0
-2835 -3775 0
-2836 -3776 0
-2833 -4097 0
-2834 -4098 0
-2835 -4099 0
-2836 -4100 0
-2837 -3781 0
-2838 -3782 0
-2839 -3783 0
-2840 -3784 0
-2837 -4105 0
-2838 -4106 0
-2839 -4107 0
-2840 -4108 0
-2841 -2845 0
-2842 -2846 0
-2843 -2847 0
-2844 -2848 0
-2841 -2857 0
-2842 -2858 0
-2843 -2859 0
-2844 -2860 0
-2841 -2877 0
-2842 -2878 0
-2843 -2879 0
-2844 -2880 0
-2841 -2881 0
-2842 -2882 0
-2843 -2883 0
-2844 -2884 0
-2841 -3197 0
-2842 -3198 0
-2843 -3199 0
-2844 -3200 0
-2841 -3637 0
-2842 -3638 0
-2843 -3639 0
-2844 -3640 0
-2841 -3781 0
-2842 -3782 0
-2843 -3783 0
-2844 -3784 0
-2841 -3937 0
-2842 -3938 0
-2843 -3939 0
-2844 -3940 0
-2845 -2857 0
-2846 -2858 0
-2847 -2859 0
-2848 -2860 0
-2845 -3473 0
-2846 -3474 0
-2847 -3475 0
-2848 -3476 0
-2845 -3785 0
-2846 -3786 0
-2847 -3787 0
-2848 -3788 0
-2845 -3941 0
-2846 -3942 0
-2847 -3943 0
-2848 -3944 0
-2849 -2857 0
-2850 -2858 0
-2851 -2859 0
-2852 -2860 0
-2849 -3649 0
-2850 -3650 0
-2851 -3651 0
-2852 -3652 0
-2849 -3949 0
-2850 -3950 0
-2851 -3951 0
-2852 -3952 0
-2849 -4117 0
-2850 -4118 0
-2851 -4119 0
-2852 -4120 0
-2853 -2857 0
-2854 -2858 0
-2855 -2859 0
-2856 -2860 0
-2853 -3953 0
-2854 -3954 0
-2855 -3955 0
-2856 -3956 0
-2853 -4121 0
-2854 -4122 0
-2855 -4123 0
-2856 -4124 0
-2857 -2885 0
-2858 -2886 0
-2859 -2887 0
-2860 -2888 0
-2857 -3477 0
-2858 -3478 0
-2859 -3479 0
-2860 -3480 0
-2857 -3669 0
-2858 -3670 0
-2859 -3671 0
-2860 -3672 0
-2857 -3973 0
-2858 -3974 0
-2859 -3975 0
-2860 -3976 0
-2857 -4125 0
-2858 -4126 0
-2859 -4127 0
-2860 -4128 0
-2861 -2865 0
-2862 -2866 0
-2863 -2867 0
-2864 -2868 0
-2861 -2869 0
-2862 -2870 0
-2863 -2871 0
-2864 -2872 0
-2861 -2977 0
-2862 -2978 0
-2863 -2979 0
-2864 -2980 0
-2861 -3689 0
-2862 -3690 0
-2863 -3691 0
-2864 -3692 0
-2861 -3941 0
-2862 -3942 0
-2863 -3943 0
-2864 -3944 0
-2865 -2869 0
-2866 -2870 0
-2867 -2871 0
-2868 -2872 0
-2865 -2873 0
-2866 -2874 0
-2867 -2875 0
-2868 -2876 0
-2865 -2877 0
-2866 -2878 0
-2867 -2879 0
-2868 -2880 0
-2865 -2981 0
-2866 -2982 0
-2867 -2983 0
-2868 -2984 0
-2865 -2989 0
-2866 -2990 0
-2867 -2991 0
-2868 -2992 0
-2865 -3133 0
-2866 -3134 0
-2867 -3135 0
-2868 -3136 0
-2865 -3289 0
-2866 -3290 0
-2867 -3291 0
-2868 -3292 0
-2865 -3493 0
-2866 -3494 0
-2867 -3495 0
-2868 -3496 0
-2865 -3701 0
-2866 -3702 0
-2867 -3703 0
-2868 -3704 0
-2865 -3973 0
-2866 -3974 0
-2867 -3975 0
-2868 -3976 0
-2865 -4057 0
-2866 -4058 0
-2867 -4059 0
-2868 -4060 0
-2865 -4061 0
-2866 -4062 0
-2867 -4063 0
-2868 -4064 0
-2869 -2985 0
-2870 -2986 0
-2871 -2987 0
-2872 -2988 0
-2869 -2993 0
-2870 -2994 0
-2871 -2995 0
-2872 -2996 0
-2869 -3497 0
-2870 -3498 0
-2871 -3499 0
-2872 -3500 0
-2869 -3581 0
-2870 -3582 0
-2871 -3583 0
-2872 -3584 0
-2869 -3977 0
-2870 -3978 0
-2871 -3979 0
-2872 -3980 0
-2869 -4169 0
-2870 -4170 0
-2871 -4171 0
-2872 -4172 0
-2873 -2881 0
-2874 -2882 0
-2875 -2883 0
-2876 -2884 0
-2873 -3141 0
-2874 -3142 0
-2875 -3143 0
-2876 -3144 0
-2873 -3293 0
-2874 -3294 0
-2875 -3295 0
-2876 -3296 0
-2873 -3985 0
-2874 -3986 0
-2875 -3987 0
-2876 -3988 0
-2877 -2881 0
-2878 -2882 0
-2879 -2883 0
-2880 -2884 0
-2877 -3033 0
-2878 -3034 0
-2879 -3035 0
-2880 -3036 0
-2877 -3297 0
-2878 -3298 0
-2879 -3299 0
-2880 -3300 0
-2877 -3533 0
-2878 -3534 0
-2879 -3535 0
-2880 -3536 0
-2877 -3789 0
-2878 -3790 0
-2879 -3791 0
-2880 -3792 0
-2877 -4017 0
-2878 -4018 0
-2879 -4019 0
-2880 -4020 0
-2881 -2885 0
-2882 -2886 0
-2883 -2887 0
-2884 -2888 0
-2881 -3201 0
-2882 -3202 0
-2883 -3203 0
-2884 -3204 0
-2881 -3541 0
-2882 -3542 0
-2883 -3543 0
-2884 -3544 0
-2885 -3209 0
-2886 -3210 0
-2887 -3211 0
-2888 -3212 0
-2885 -3569 0
-2886 -3570 0
-2887 -3571 0
-2888 -3572 0
-2885 -4025 0
-2886 -4026 0
-2887 -4027 0
-2888 -4028 0
-2889 -2893 0
-2890 -2894 0
-2891 -2895 0
-2892 -2896 0
-2889 -2909 0
-2890 -2910 0
-2891 -2911 0
-2892 -2912 0
-2889 -2913 0
-2890 -2914 0
-2891 -2915 0
-2892 -2916 0
-2893 -2897 0
-2894 -2898 0
-2895 -2899 0
-2896 -2900 0
-2893 -2917 0
-2894 -2918 0
-2895 -2919 0
-2896 -2920 0
-2893 -3489 0
-2894 -3490 0
-2895 -3491 0
-2896 -3492 0
-2893 -4077 0
-2894 -4078 0
-2895 -4079 0
-2896 -4080 0
-2897 -2925 0
-2898 -2926 0
-2899 -2927 0
-2900 -2928 0
-2897 -3241 0
-2898 -3242 0
-2899 -3243 0
-2900 -3244 0
-2897 -3505 0
-2898 -3506 0
-2899 -3507 0
-2900 -3508 0
-2897 -4077 0
-2898 -4078 0
-2899 -4079 0
-2900 -4080 0
-2901 -2905 0
-2902 -2906 0
-2903 -2907 0
-2904 -2908 0
-2901 -2917 0
-2902 -2918 0
-2903 -2919 0
-2904 -2920 0
-2901 -2941 0
-2902 -2942 0
-2903 -2943 0
-2904 -2944 0
-2901 -2945 0
-2902 -2946 0
-2903 -2947 0
-2904 -2948 0
-2901 -4081 0
-2902 -4082 0
-2903 -4083 0
-2904 -4084 0
-2905 -2925 0
-2906 -2926 0
-2907 -2927 0
-2908 -2928 0
-2905 -2953 0
-2906 -2954 0
-2907 -2955 0
-2908 -2956 0
-2905 -2957 0
-2906 -2958 0
-2907 -2959 0
-2908 -2960 0
-2905 -3509 0
-2906 -3510 0
-2907 -3511 0
-2908 -3512 0
-2905 -3721 0
-2906 -3722 0
-2907 -3723 0
-2908 -3724 0
-2905 -3793 0
-2906 -3794 0
-2907 -3795 0
-2908 -3796 0
-2905 -4081 0
-2906 -4082 0
-2907 -4083 0
-2908 -4084 0
-2905 -4085 0
-2906 -4086 0
-2907 -4087 0
-2908 -4088 0
-2909 -2913 0
-2910 -2914 0
-2911 -2915 0
-2912 -2916 0
-2909 -2917 0
-2910 -2918 0
-2911 -2919 0
-2912 -2920 0
-2909 -2921 0
-2910 -2922 0
-2911 -2923 0
-2912 -2924 0
-2909 -3041 0
-2910 -3042 0
-2911 -3043 0
-2912 -3044 0
-2909 -3365 0
-2910 -3366 0
-2911 -3367 0
-2912 -3368 0
-2909 -4089 0
-2910 -4090 0
-2911 -4091 0
-2912 -4092 0
-2913 -3389 0
-2914 -3390 0
-2915 -3391 0
-2916 -3392 0
-2913 -4093 0
-2914 -4094 0
-2915 -4095 0
-2916 -4096 0
-2917 -2925 0
-2918 -2926 0
-2919 -2927 0
-2920 -2928 0
-2917 -2965 0
-2918 -2966 0
-2919 -2967 0
-2920 -2968 0
-2917 -3217 0
-2918 -3218 0
-2919 -3219 0
-2920 -3220 0
-2917 -3513 0
-2918 -3514 0
-2919 -3515 0
-2920 -3516 0
-2917 -3797 0
-2918 -3798 0
-2919 -3799 0
-2920 -3800 0
-2917 -4097 0
-2918 -4098 0
-2919 -4099 0
-2920 -4100 0
-2921 -2925 0
-2922 -2926 0
-2923 -2927 0
-2924 -2928 0
-2921 -3049 0
-2922 -3050 0
-2923 -3051 0
-2924 -3052 0
-2921 -3373 0
-2922 -3374 0
-2923 -3375 0
-2924 -3376 0
-2921 -4089 0
-2922 -4090 0
-2923 -4091 0
-2924 -4092 0
-2921 -4101 0
-2922 -4102 0
-2923 -4103 0
-2924 -4104 0
-2925 -2969 0
-2926 -2970 0
-2927 -2971 0
-2928 -2972 0
-2925 -2973 0
-2926 -2974 0
-2927 -2975 0
-2928 -2976 0
-2925 -3053 0
-2926 -3054 0
-2927 -3055 0
-2928 -3056 0
-2925 -3221 0
-2926 -3222 0
-2927 -3223 0
-2928 -3224 0
-2925 -3401 0
-2926 -3402 0
-2927 -3403 0
-2928 -3404 0
-2925 -3517 0
-2926 -3518 0
-2927 -3519 0
-2928 -3520 0
-2925 -3801 0
-2926 -3802 0
-2927 -3803 0
-2928 -3804 0
-2925 -4097 0
-2926 -4098 0
-2927 -4099 0
-2928 -4100 0
-2925 -4105 0
-2926 -4106 0
-2927 -4107 0
-2928 -4108 0
-2929 -2933 0
-2930 -2934 0
-2931 -2935 0
-2932 -2936 0
-2929 -2937 0
-2930 -2938 0
-2931 -2939 0
-2932 -2940 0
-2929 -2953 0
-2930 -2954 0
-2931 -2955 0
-2932 -2956 0
-2929 -2985 0
-2930 -2986 0
-2931 -2987 0
-2932 -2988 0
-2929 -3073 0
-2930 -3074 0
-2931 -3075 0
-2932 -3076 0
-2929 -3537 0
-2930 -3538 0
-2931 -3539 0
-2932 -3540 0
-2929 -4069 0
-2930 -4070 0
-2931 -4071 0
-2932 -4072 0
-2933 -2961 0
-2934 -2962 0
-2935 -2963 0
-2936 -2964 0
-2933 -2985 0
-2934 -2986 0
-2935 -2987 0
-2936 -2988 0
-2933 -3253 0
-2934 -3254 0
-2935 -3255 0
-2936 -3256 0
-2933 -3733 0
-2934 -3734 0
-2935 -3735 0
-2936 -3736 0
-2937 -2969 0
-2938 -2970 0
-2939 -2971 0
-2940 -2972 0
-2937 -3097 0
-2938 -3098 0
-2939 -3099 0
-2940 -3100 0
-2937 -3417 0
-2938 -3418 0
-2939 -3419 0
-2940 -3420 0
-2937 -4029 0
-2938 -4030 0
-2939 -4031 0
-2940 -4032 0
-2937 -4069 0
-2938 -4070 0
-2939 -4071 0
-2940 -4072 0
-2941 -2945 0
-2942 -2946 0
-2943 -2947 0
-2944 -2948 0
-2941 -2949 0
-2942 -2950 0
-2943 -2951 0
-2944 -2952 0
-2941 -2953 0
-2942 -2954 0
-2943 -2955 0
-2944 -2956 0
-2941 -2965 0
-2942 -2966 0
-2943 -2967 0
-2944 -2968 0
-2941 -2997 0
-2942 -2998 0
-2943 -2999 0
-2944 -3000 0
-2941 -3361 0
-2942 -3362 0
-2943 -3363 0
-2944 -3364 0
-2941 -4109 0
-2942 -4110 0
-2943 -4111 0
-2944 -4112 0
-2945 -2957 0
-2946 -2958 0
-2947 -2959 0
-2948 -2960 0
-2945 -3365 0
-2946 -3366 0
-2947 -3367 0
-2948 -3368 0
-2949 -2961 0
-2950 -2962 0
-2951 -2963 0
-2952 -2964 0
-2949 -2997 0
-2950 -2998 0
-2951 -2999 0
-2952 -3000 0
-2949 -4113 0
-2950 -4114 0
-2951 -4115 0
-2952 -4116 0
-2953 -2957 0
-2954 -2958 0
-2955 -2959 0
-2956 -2960 0
-2953 -2961 0
-2954 -2962 0
-2955 -2963 0
-2956 -2964 0
-2953 -2969 0
-2954 -2970 0
-2955 -2971 0
-2956 -2972 0
-2953 -3001 0
-2954 -3002 0
-2955 -3003 0
-2956 -3004 0
-2953 -3077 0
-2954 -3078 0
-2955 -3079 0
-2956 -3080 0
-2953 -3369 0
-2954 -3370 0
-2955 -3371 0
-2956 -3372 0
-2953 -3597 0
-2954 -3598 0
-2955 -3599 0
-2956 -3600 0
-2953 -3709 0
-2954 -3710 0
-2955 -3711 0
-2956 -3712 0
-2953 -4073 0
-2954 -4074 0
-2955 -4075 0
-2956 -4076 0
-2953 -4109 0
-2954 -4110 0
-2955 -4111 0
-2956 -4112 0
-2953 -4117 0
-2954 -4118 0
-2955 -4119 0
-2956 -4120 0
-2957 -2973 0
-2958 -2974 0
-2959 -2975 0
-2960 -2976 0
-2957 -3085 0
-2958 -3086 0
-2959 -3087 0
-2960 -3088 0
-2957 -3373 0
-2958 -3374 0
-2959 -3375 0
-2960 -3376 0
-2961 -3001 0
-2962 -3002 0
-2963 -3003 0
-2964 -3004 0
-2961 -3257 0
-2962 -3258 0
-2963 -3259 0
-2964 -3260 0
-2961 -3553 0
-2962 -3554 0
-2963 -3555 0
-2964 -3556 0
-2961 -3601 0
-2962 -3602 0
-2963 -3603 0
-2964 -3604 0
-2961 -3717 0
-2962 -3718 0
-2963 -3719 0
-2964 -3720 0
-2961 -4113 0
-2962 -4114 0
-2963 -4115 0
-2964 -4116 0
-2965 -2969 0
-2966 -2970 0
-2967 -2971 0
-2968 -2972 0
-2965 -4121 0
-2966 -4122 0
-2967 -4123 0
-2968 -4124 0
-2969 -2973 0
-2970 -2974 0
-2971 -2975 0
-2972 -2976 0
-2969 -3101 0
-2970 -3102 0
-2971 -3103 0
-2972 -3104 0
-2969 -3233 0
-2970 -3234 0
-2971 -3235 0
-2972 -3236 0
-2969 -3565 0
-2970 -3566 0
-2971 -3567 0
-2972 -3568 0
-2969 -4037 0
-2970 -4038 0
-2971 -4039 0
-2972 -4040 0
-2969 -4073 0
-2970 -4074 0
-2971 -4075 0
-2972 -4076 0
-2969 -4121 0
-2970 -4122 0
-2971 -4123 0
-2972 -4124 0
-2969 -4125 0
-2970 -4126 0
-2971 -4127 0
-2972 -4128 0
-2973 -3105 0
-2974 -3106 0
-2975 -3107 0
-2976 -3108 0
-2973 -3429 0
-2974 -3430 0
-2975 -3431 0
-2976 -3432 0
-2973 -4041 0
-2974 -4042 0
-2975 -4043 0
-2976 -4044 0
-2977 -2981 0
-2978 -2982 0
-2979 -2983 0
-2980 -2984 0
-2977 -2985 0
-2978 -2986 0
-2979 -2987 0
-2980 -2988 0
-2977 -3269 0
-2978 -3270 0
-2979 -3271 0
-2980 -3272 0
-2977 -3833 0
-2978 -3834 0
-2979 -3835 0
-2980 -3836 0
-2981 -2985 0
-2982 -2986 0
-2983 -2987 0
-2984 -2988 0
-2981 -2989 0
-2982 -2990 0
-2983 -2991 0
-2984 -2992 0
-2981 -3125 0
-2982 -3126 0
-2983 -3127 0
-2984 -3128 0
-2981 -3413 0
-2982 -3414 0
-2983 -3415 0
-2984 -3416 0
-2981 -3589 0
-2982 -3590 0
-2983 -3591 0
-2984 -3592 0
-2981 -3841 0
-2982 -3842 0
-2983 -3843 0
-2984 -3844 0
-2981 -4049 0
-2982 -4050 0
-2983 -4051 0
-2984 -4052 0
-2981 -4089 0
-2982 -4090 0
-2983 -4091 0
-2984 -4092 0
-2985 -2993 0
-2986 -2994 0
-2987 -2995 0
-2988 -2996 0
-2985 -3001 0
-2986 -3002 0
-2987 -3003 0
-2988 -3004 0
-2985 -3305 0
-2986 -3306 0
-2987 -3307 0
-2988 -3308 0
-2985 -3845 0
-2986 -3846 0
-2987 -3847 0
-2988 -3848 0
-2985 -3849 0
-2986 -3850 0
-2987 -3851 0
-2988 -3852 0
-2985 -4093 0
-2986 -4094 0
-2987 -4095 0
-2988 -4096 0
-2985 -4173 0
-2986 -4174 0
-2987 -4175 0
-2988 -4176 0
-2989 -2993 0
-2990 -2994 0
-2991 -2995 0
-2992 -2996 0
-2989 -3149 0
-2990 -3150 0
-2991 -3151 0
-2992 -3152 0
-2989 -3593 0
-2990 -3594 0
-2991 -3595 0
-2992 -3596 0
-2989 -4053 0
-2990 -4054 0
-2991 -4055 0
-2992 -4056 0
-2989 -4081 0
-2990 -4082 0
-2991 -4083 0
-2992 -4084 0
-2989 -4097 0
-2990 -4098 0
-2991 -4099 0
-2992 -4100 0
-2993 -3153 0
-2994 -3154 0
-2995 -3155 0
-2996 -3156 0
-2993 -3313 0
-2994 -3314 0
-2995 -3315 0
-2996 -3316 0
-2993 -3749 0
-2994 -3750 0
-2995 -3751 0
-2996 -3752 0
-2997 -3001 0
-2998 -3002 0
-2999 -3003 0
-3000 -3004 0
-2997 -3389 0
-2998 -3390 0
-2999 -3391 0
-3000 -3392 0
-2997 -4129 0
-2998 -4130 0
-2999 -4131 0
-3000 -4132 0
-3001 -3145 0
-3002 -3146 0
-3003 -3147 0
-3004 -3148 0
-3001 -3341 0
-3002 -3342 0
-3003 -3343 0
-3004 -3344 0
-3001 -3397 0
-3002 -3398 0
-3003 -3399 0
-3004 -3400 0
-3001 -3857 0
-3002 -3858 0
-3003 -3859 0
-3004 -3860 0
-3001 -4129 0
-3002 -4130 0
-3003 -4131 0
-3004 -4132 0
-3005 -3013 0
-3006 -3014 0
-3007 -3015 0
-3008 -3016 0
-3005 -3017 0
-3006 -3018 0
-3007 -3019 0
-3008 -3020 0
-3005 -3073 0
-3006 -3074 0
-3007 -3075 0
-3008 -3076 0
-3005 -3085 0
-3006 -3086 0
-3007 -3087 0
-3008 -3088 0
-3005 -3285 0
-3006 -3286 0
-3007 -3287 0
-3008 -3288 0
-3005 -3637 0
-3006 -3638 0
-3007 -3639 0
-3008 -3640 0
-3005 -3769 0
-3006 -3770 0
-3007 -3771 0
-3008 -3772 0
-3005 -4181 0
-3006 -4182 0
-3007 -4183 0
-3008 -4184 0
-3009 -3021 0
-3010 -3022 0
-3011 -3023 0
-3012 -3024 0
-3009 -3309 0
-3010 -3310 0
-3011 -3311 0
-3012 -3312 0
-3009 -3457 0
-3010 -3458 0
-3011 -3459 0
-3012 -3460 0
-3009 -4133 0
-3010 -4134 0
-3011 -4135 0
-3012 -4136 0
-3009 -4149 0
-3010 -4150 0
-3011 -4151 0
-3012 -4152 0
-3013 -3017 0
-3014 -3018 0
-3015 -3019 0
-3016 -3020 0
-3013 -3021 0
-3014 -3022 0
-3015 -3023 0
-3016 -3024 0
-3013 -3025 0
-3014 -3026 0
-3015 -3027 0
-3016 -3028 0
-3013 -3113 0
-3014 -3114 0
-3015 -3115 0
-3016 -3116 0
-3013 -3321 0
-3014 -3322 0
-3015 -3323 0
-3016 -3324 0
-3013 -3445 0
-3014 -3446 0
-3015 -3447 0
-3016 -3448 0
-3013 -3665 0
-3014 -3666 0
-3015 -3667 0
-3016 -3668 0
-3013 -4057 0
-3014 -4058 0
-3015 -4059 0
-3016 -4060 0
-3013 -4137 0
-3014 -4138 0
-3015 -4139 0
-3016 -4140 0
-3013 -4153 0
-3014 -4154 0
-3015 -4155 0
-3016 -4156 0
-3017 -3109 0
-3018 -3110 0
-3019 -3111 0
-3020 -3112 0
-3017 -3449 0
-3018 -3450 0
-3019 -3451 0
-3020 -3452 0
-3017 -3669 0
-3018 -3670 0
-3019 -3671 0
-3020 -3672 0
-3021 -3025 0
-3022 -3026 0
-3023 -3027 0
-3024 -3028 0
-3021 -3257 0
-3022 -3258 0
-3023 -3259 0
-3024 -3260 0
-3021 -3325 0
-3022 -3326 0
-3023 -3327 0
-3024 -3328 0
-3021 -3461 0
-3022 -3462 0
-3023 -3463 0
-3024 -3464 0
-3021 -3761 0
-3022 -3762 0
-3023 -3763 0
-3024 -3764 0
-3021 -4141 0
-3022 -4142 0
-3023 -4143 0
-3024 -4144 0
-3021 -4157 0
-3022 -4158 0
-3023 -4159 0
-3024 -4160 0
-3025 -3029 0
-3026 -3030 0
-3027 -3031 0
-3028 -3032 0
-3025 -3181 0
-3026 -3182 0
-3027 -3183 0
-3028 -3184 0
-3025 -3341 0
-3026 -3342 0
-3027 -3343 0
-3028 -3344 0
-3025 -3453 0
-3026 -3454 0
-3027 -3455 0
-3028 -3456 0
-3025 -3625 0
-3026 -3626 0
-3027 -3627 0
-3028 -3628 0
-3025 -3893 0
-3026 -3894 0
-3027 -3895 0
-3028 -3896 0
-3025 -4165 0
-3026 -4166 0
-3027 -4167 0
-3028 -4168 0
-3029 -3181 0
-3030 -3182 0
-3031 -3183 0
-3032 -3184 0
-3029 -3629 0
-3030 -3630 0
-3031 -3631 0
-3032 -3632 0
-3029 -3789 0
-3030 -3790 0
-3031 -3791 0
-3032 -3792 0
-3029 -3897 0
-3030 -3898 0
-3031 -3899 0
-3032 -3900 0
-3029 -4169 0
-3030 -4170 0
-3031 -4171 0
-3032 -4172 0
-3033 -3189 0
-3034 -3190 0
-3035 -3191 0
-3036 -3192 0
-3033 -3193 0
-3034 -3194 0
-3035 -3195 0
-3036 -3196 0
-3033 -3633 0
-3034 -3634 0
-3035 -3635 0
-3036 -3636 0
-3033 -3897 0
-3034 -3898 0
-3035 -3899 0
-3036 -3900 0
-3037 -3049 0
-3038 -3050 0
-3039 -3051 0
-3040 -3052 0
-3037 -3069 0
-3038 -3070 0
-3039 -3071 0
-3040 -3072 0
-3037 -3073 0
-3038 -3074 0
-3039 -3075 0
-3040 -3076 0
-3037 -3497 0
-3038 -3498 0
-3039 -3499 0
-3040 -3500 0
-3041 -3049 0
-3042 -3050 0
-3043 -3051 0
-3044 -3052 0
-3041 -3057 0
-3042 -3058 0
-3043 -3059 0
-3044 -3060 0
-3041 -3089 0
-3042 -3090 0
-3043 -3091 0
-3044 -3092 0
-3041 -4133 0
-3042 -4134 0
-3043 -4135 0
-3044 -4136 0
-3045 -3049 0
-3046 -3050 0
-3047 -3051 0
-3048 -3052 0
-3045 -3061 0
-3046 -3062 0
-3047 -3063 0
-3048 -3064 0
-3045 -3117 0
-3046 -3118 0
-3047 -3119 0
-3048 -3120 0
-3045 -3493 0
-3046 -3494 0
-3047 -3495 0
-3048 -3496 0
-3045 -4069 0
-3046 -4070 0
-3047 -4071 0
-3048 -4072 0
-3045 -4137 0
-3046 -4138 0
-3047 -4139 0
-3048 -4140 0
-3049 -3053 0
-3050 -3054 0
-3051 -3055 0
-3052 -3056 0
-3049 -3065 0
-3050 -3066 0
-3051 -3067 0
-3052 -3068 0
-3049 -3093 0
-3050 -3094 0
-3051 -3095 0
-3052 -3096 0
-3049 -3097 0
-3050 -3098 0
-3051 -3099 0
-3052 -3100 0
-3049 -3117 0
-3050 -3118 0
-3051 -3119 0
-3052 -3120 0
-3049 -3361 0
-3050 -3362 0
-3051 -3363 0
-3052 -3364 0
-3049 -3465 0
-3050 -3466 0
-3051 -3467 0
-3052 -3468 0
-3049 -4133 0
-3050 -4134 0
-3051 -4135 0
-3052 -4136 0
-3049 -4141 0
-3050 -4142 0
-3051 -4143 0
-3052 -4144 0
-3053 -3101 0
-3054 -3102 0
-3055 -3103 0
-3056 -3104 0
-3053 -3105 0
-3054 -3106 0
-3055 -3107 0
-3056 -3108 0
-3053 -3121 0
-3054 -3122 0
-3055 -3123 0
-3056 -3124 0
-3053 -3617 0
-3054 -3618 0
-3055 -3619 0
-3056 -3620 0
-3053 -3801 0
-3054 -3802 0
-3055 -3803 0
-3056 -3804 0
-3053 -4145 0
-3054 -4146 0
-3055 -4147 0
-3056 -4148 0
-3057 -3065 0
-3058 -3066 0
-3059 -3067 0
-3060 -3068 0
-3057 -3389 0
-3058 -3390 0
-3059 -3391 0
-3060 -3392 0
-3057 -3621 0
-3058 -3622 0
-3059 -3623 0
-3060 -3624 0
-3057 -4149 0
-3058 -4150 0
-3059 -4151 0
-3060 -4152 0
-3061 -3065 0
-3062 -3066 0
-3063 -3067 0
-3064 -3068 0
-3061 -3237 0
-3062 -3238 0
-3063 -3239 0
-3064 -3240 0
-3061 -3393 0
-3062 -3394 0
-3063 -3395 0
-3064 -3396 0
-3061 -4073 0
-3062 -4074 0
-3063 -4075 0
-3064 -4076 0
-3061 -4153 0
-3062 -4154 0
-3063 -4155 0
-3064 -4156 0
-3065 -3397 0
-3066 -3398 0
-3067 -3399 0
-3068 -3400 0
-3065 -3625 0
-3066 -3626 0
-3067 -3627 0
-3068 -3628 0
-3065 -4149 0
-3066 -4150 0
-3067 -4151 0
-3068 -4152 0
-3065 -4157 0
-3066 -4158 0
-3067 -4159 0
-3068 -4160 0
-3069 -3073 0
-3070 -3074 0
-3071 -3075 0
-3072 -3076 0
-3069 -3077 0
-3070 -3078 0
-3071 -3079 0
-3072 -3080 0
-3069 -3093 0
-3070 -3094 0
-3071 -3095 0
-3072 -3096 0
-3069 -3725 0
-3070 -3726 0
-3071 -3727 0
-3072 -3728 0
-3069 -4189 0
-3070 -4190 0
-3071 -4191 0
-3072 -4192 0
-3073 -3085 0
-3074 -3086 0
-3075 -3087 0
-3076 -3088 0
-3073 -3097 0
-3074 -3098 0
-3075 -3099 0
-3076 -3100 0
-3073 -3109 0
-3074 -3110 0
-3075 -3111 0
-3076 -3112 0
-3073 -3537 0
-3074 -3538 0
-3075 -3539 0
-3076 -3540 0
-3073 -3905 0
-3074 -3906 0
-3075 -3907 0
-3076 -3908 0
-3073 -4193 0
-3074 -4194 0
-3075 -4195 0
-3076 -4196 0
-3077 -3085 0
-3078 -3086 0
-3079 -3087 0
-3080 -3088 0
-3077 -3101 0
-3078 -3102 0
-3079 -3103 0
-3080 -3104 0
-3077 -3145 0
-3078 -3146 0
-3079 -3147 0
-3080 -3148 0
-3077 -3729 0
-3078 -3730 0
-3079 -3731 0
-3080 -3732 0
-3081 -3085 0
-3082 -3086 0
-3083 -3087 0
-3084 -3088 0
-3081 -3113 0
-3082 -3114 0
-3083 -3115 0
-3084 -3116 0
-3081 -3149 0
-3082 -3150 0
-3083 -3151 0
-3084 -3152 0
-3081 -3413 0
-3082 -3414 0
-3083 -3415 0
-3084 -3416 0
-3081 -3545 0
-3082 -3546 0
-3083 -3547 0
-3084 -3548 0
-3081 -3813 0
-3082 -3814 0
-3083 -3815 0
-3084 -3816 0
-3085 -3105 0
-3086 -3106 0
-3087 -3107 0
-3088 -3108 0
-3085 -3113 0
-3086 -3114 0
-3087 -3115 0
-3088 -3116 0
-3085 -3137 0
-3086 -3138 0
-3087 -3139 0
-3088 -3140 0
-3085 -3153 0
-3086 -3154 0
-3087 -3155 0
-3088 -3156 0
-3085 -3465 0
-3086 -3466 0
-3087 -3467 0
-3088 -3468 0
-3085 -3529 0
-3086 -3530 0
-3087 -3531 0
-3088 -3532 0
-3085 -3649 0
-3086 -3650 0
-3087 -3651 0
-3088 -3652 0
-3085 -3817 0
-3086 -3818 0
-3087 -3819 0
-3088 -3820 0
-3089 -3097 0
-3090 -3098 0
-3091 -3099 0
-3092 -3100 0
-3089 -3909 0
-3090 -3910 0
-3091 -3911 0
-3092 -3912 0
-3093 -3097 0
-3094 -3098 0
-3095 -3099 0
-3096 -3100 0
-3093 -3101 0
-3094 -3102 0
-3095 -3103 0
-3096 -3104 0
-3093 -3473 0
-3094 -3474 0
-3095 -3475 0
-3096 -3476 0
-3093 -3913 0
-3094 -3914 0
-3095 -3915 0
-3096 -3916 0
-3093 -4197 0
-3094 -4198 0
-3095 -4199 0
-3096 -4200 0
-3097 -3105 0
-3098 -3106 0
-3099 -3107 0
-3100 -3108 0
-3097 -3377 0
-3098 -3378 0
-3099 -3379 0
-3100 -3380 0
-3097 -3541 0
-3098 -3542 0
-3099 -3543 0
-3100 -3544 0
-3097 -3917 0
-3098 -3918 0
-3099 -3919 0
-3100 -3920 0
-3097 -4161 0
-3098 -4162 0
-3099 -4163 0
-3100 -4164 0
-3101 -3105 0
-3102 -3106 0
-3103 -3107 0
-3104 -3108 0
-3101 -3661 0
-3102 -3662 0
-3103 -3663 0
-3104 -3664 0
-3105 -3425 0
-3106 -3426 0
-3107 -3427 0
-3108 -3428 0
-3105 -3549 0
-3106 -3550 0
-3107 -3551 0
-3108 -3552 0
-3105 -3669 0
-3106 -3670 0
-3107 -3671 0
-3108 -3672 0
-3105 -4077 0
-3106 -4078 0
-3107 -4079 0
-3108 -4080 0
-3109 -3553 0
-3110 -3554 0
-3111 -3555 0
-3112 -3556 0
-3113 -3173 0
-3114 -3174 0
-3115 -3175 0
-3116 -3176 0
-3113 -3181 0
-3114 -3182 0
-3115 -3183 0
-3116 -3184 0
-3113 -3469 0
-3114 -3470 0
-3115 -3471 0
-3116 -3472 0
-3113 -3557 0
-3114 -3558 0
-3115 -3559 0
-3116 -3560 0
-3113 -3685 0
-3114 -3686 0
-3115 -3687 0
-3116 -3688 0
-3113 -3921 0
-3114 -3922 0
-3115 -3923 0
-3116 -3924 0
-3113 -4081 0
-3114 -4082 0
-3115 -4083 0
-3116 -4084 0
-3117 -3121 0
-3118 -3122 0
-3119 -3123 0
-3120 -3124 0
-3117 -3217 0
-3118 -3218 0
-3119 -3219 0
-3120 -3220 0
-3117 -3385 0
-3118 -3386 0
-3119 -3387 0
-3120 -3388 0
-3117 -3505 0
-3118 -3506 0
-3119 -3507 0
-3120 -3508 0
-3117 -4093 0
-3118 -4094 0
-3119 -4095 0
-3120 -4096 0
-3117 -4165 0
-3118 -4166 0
-3119 -4167 0
-3120 -4168 0
-3121 -3217 0
-3122 -3218 0
-3123 -3219 0
-3124 -3220 0
-3121 -4169 0
-3122 -4170 0
-3123 -4171 0
-3124 -4172 0
-3125 -3129 0
-3126 -3130 0
-3127 -3131 0
-3128 -3132 0
-3125 -3141 0
-3126 -3142 0
-3127 -3143 0
-3128 -3144 0
-3125 -3189 0
-3126 -3190 0
-3127 -3191 0
-3128 -3192 0
-3125 -3689 0
-3126 -3690 0
-3127 -3691 0
-3128 -3692 0
-3125 -3929 0
-3126 -3930 0
-3127 -3931 0
-3128 -3932 0
-3125 -4133 0
-3126 -4134 0
-3127 -4135 0
-3128 -4136 0
-3129 -3157 0
-3130 -3158 0
-3131 -3159 0
-3132 -3160 0
-3129 -3197 0
-3130 -3198 0
-3131 -3199 0
-3132 -3200 0
-3129 -3693 0
-3130 -3694 0
-3131 -3695 0
-3132 -3696 0
-3129 -4141 0
-3130 -4142 0
-3131 -4143 0
-3132 -4144 0
-3133 -3141 0
-3134 -3142 0
-3135 -3143 0
-3136 -3144 0
-3133 -3493 0
-3134 -3494 0
-3135 -3495 0
-3136 -3496 0
-3133 -4109 0
-3134 -4110 0
-3135 -4111 0
-3136 -4112 0
-3137 -3153 0
-3138 -3154 0
-3139 -3155 0
-3140 -3156 0
-3137 -3173 0
-3138 -3174 0
-3139 -3175 0
-3140 -3176 0
-3137 -3505 0
-3138 -3506 0
-3139 -3507 0
-3140 -3508 0
-3137 -3709 0
-3138 -3710 0
-3139 -3711 0
-3140 -3712 0
-3137 -3877 0
-3138 -3878 0
-3139 -3879 0
-3140 -3880 0
-3141 -3145 0
-3142 -3146 0
-3143 -3147 0
-3144 -3148 0
-3141 -3149 0
-3142 -3150 0
-3143 -3151 0
-3144 -3152 0
-3141 -3157 0
-3142 -3158 0
-3143 -3159 0
-3144 -3160 0
-3141 -3165 0
-3142 -3166 0
-3143 -3167 0
-3144 -3168 0
-3141 -3177 0
-3142 -3178 0
-3143 -3179 0
-3144 -3180 0
-3141 -3201 0
-3142 -3202 0
-3143 -3203 0
-3144 -3204 0
-3141 -3529 0
-3142 -3530 0
-3143 -3531 0
-3144 -3532 0
-3141 -3697 0
-3142 -3698 0
-3143 -3699 0
-3144 -3700 0
-3141 -4113 0
-3142 -4114 0
-3143 -4115 0
-3144 -4116 0
-3141 -4149 0
-3142 -4150 0
-3143 -4151 0
-3144 -4152 0
-3145 -3153 0
-3146 -3154 0
-3147 -3155 0
-3148 -3156 0
-3145 -3161 0
-3146 -3162 0
-3147 -3163 0
-3148 -3164 0
-3145 -3177 0
-3146 -3178 0
-3147 -3179 0
-3148 -3180 0
-3145 -3437 0
-3146 -3438 0
-3147 -3439 0
-3148 -3440 0
-3145 -3745 0
-3146 -3746 0
-3147 -3747 0
-3148 -3748 0
-3145 -3857 0
-3146 -3858 0
-3147 -3859 0
-3148 -3860 0
-3149 -3153 0
-3150 -3154 0
-3151 -3155 0
-3152 -3156 0
-3149 -3181 0
-3150 -3182 0
-3151 -3183 0
-3152 -3184 0
-3149 -3201 0
-3150 -3202 0
-3151 -3203 0
-3152 -3204 0
-3149 -3593 0
-3150 -3594 0
-3151 -3595 0
-3152 -3596 0
-3149 -3713 0
-3150 -3714 0
-3151 -3715 0
-3152 -3716 0
-3149 -3937 0
-3150 -3938 0
-3151 -3939 0
-3152 -3940 0
-3153 -3181 0
-3154 -3182 0
-3155 -3183 0
-3156 -3184 0
-3153 -3441 0
-3154 -3442 0
-3155 -3443 0
-3156 -3444 0
-3153 -3717 0
-3154 -3718 0
-3155 -3719 0
-3156 -3720 0
-3153 -3861 0
-3154 -3862 0
-3155 -3863 0
-3156 -3864 0
-3153 -3941 0
-3154 -3942 0
-3155 -3943 0
-3156 -3944 0
-3157 -3161 0
-3158 -3162 0
-3159 -3163 0
-3160 -3164 0
-3157 -3169 0
-3158 -3170 0
-3159 -3171 0
-3160 -3172 0
-3157 -3185 0
-3158 -3186 0
-3159 -3187 0
-3160 -3188 0
-3157 -3205 0
-3158 -3206 0
-3159 -3207 0
-3160 -3208 0
-3157 -3445 0
-3158 -3446 0
-3159 -3447 0
-3160 -3448 0
-3157 -3833 0
-3158 -3834 0
-3159 -3835 0
-3160 -3836 0
-3157 -4157 0
-3158 -4158 0
-3159 -4159 0
-3160 -4160 0
-3161 -3185 0
-3162 -3186 0
-3163 -3187 0
-3164 -3188 0
-3161 -3449 0
-3162 -3450 0
-3163 -3451 0
-3164 -3452 0
-3161 -3753 0
-3162 -3754 0
-3163 -3755 0
-3164 -3756 0
-3165 -3169 0
-3166 -3170 0
-3167 -3171 0
-3168 -3172 0
-3165 -3549 0
-3166 -3550 0
-3167 -3551 0
-3168 -3552 0
-3165 -3701 0
-3166 -3702 0
-3167 -3703 0
-3168 -3704 0
-3165 -4149 0
-3166 -4150 0
-3167 -4151 0
-3168 -4152 0
-3169 -3705 0
-3170 -3706 0
-3171 -3707 0
-3172 -3708 0
-3169 -3837 0
-3170 -3838 0
-3171 -3839 0
-3172 -3840 0
-3169 -4157 0
-3170 -4158 0
-3171 -4159 0
-3172 -4160 0
-3173 -3181 0
-3174 -3182 0
-3175 -3183 0
-3176 -3184 0
-3173 -3313 0
-3174 -3314 0
-3175 -3315 0
-3176 -3316 0
-3173 -3517 0
-3174 -3518 0
-3175 -3519 0
-3176 -3520 0
-3173 -3961 0
-3174 -3962 0
-3175 -3963 0
-3176 -3964 0
-3177 -3181 0
-3178 -3182 0
-3179 -3183 0
-3180 -3184 0
-3177 -3185 0
-3178 -3186 0
-3179 -3187 0
-3180 -3188 0
-3177 -3209 0
-3178 -3210 0
-3179 -3211 0
-3180 -3212 0
-3177 -3561 0
-3178 -3562 0
-3179 -3563 0
-3180 -3564 0
-3177 -3881 0
-3178 -3882 0
-3179 -3883 0
-3180 -3884 0
-3177 -3965 0
-3178 -3966 0
-3179 -3967 0
-3180 -3968 0
-3181 -3209 0
-3182 -3210 0
-3183 -3211 0
-3184 -3212 0
-3181 -3317 0
-3182 -3318 0
-3183 -3319 0
-3184 -3320 0
-3181 -3521 0
-3182 -3522 0
-3183 -3523 0
-3184 -3524 0
-3181 -3721 0
-3182 -3722 0
-3183 -3723 0
-3184 -3724 0
-3181 -3885 0
-3182 -3886 0
-3183 -3887 0
-3184 -3888 0
-3181 -3973 0
-3182 -3974 0
-3183 -3975 0
-3184 -3976 0
-3181 -4173 0
-3182 -4174 0
-3183 -4175 0
-3184 -4176 0
-3185 -3757 0
-3186 -3758 0
-3187 -3759 0
-3188 -3760 0
-3185 -3845 0
-3186 -3846 0
-3187 -3847 0
-3188 -3848 0
-3189 -3193 0
-3190 -3194 0
-3191 -3195 0
-3192 -3196 0
-3189 -3197 0
-3190 -3198 0
-3191 -3199 0
-3192 -3200 0
-3189 -3201 0
-3190 -3202 0
-3191 -3203 0
-3192 -3204 0
-3189 -3725 0
-3190 -3726 0
-3191 -3727 0
-3192 -3728 0
-3189 -3973 0
-3190 -3974 0
-3191 -3975 0
-3192 -3976 0
-3193 -3525 0
-3194 -3526 0
-3195 -3527 0
-3196 -3528 0
-3193 -3729 0
-3194 -3730 0
-3195 -3731 0
-3196 -3732 0
-3193 -3989 0
-3194 -3990 0
-3195 -3991 0
-3196 -3992 0
-3197 -3205 0
-3198 -3206 0
-3199 -3207 0
-3200 -3208 0
-3197 -3733 0
-3198 -3734 0
-3199 -3735 0
-3200 -3736 0
-3197 -3993 0
-3198 -3994 0
-3199 -3995 0
-3200 -3996 0
-3197 -4161 0
-3198 -4162 0
-3199 -4163 0
-3200 -4164 0
-3201 -3205 0
-3202 -3206 0
-3203 -3207 0
-3204 -3208 0
-3201 -3209 0
-3202 -3210 0
-3203 -3211 0
-3204 -3212 0
-3201 -3541 0
-3202 -3542 0
-3203 -3543 0
-3204 -3544 0
-3201 -3853 0
-3202 -3854 0
-3203 -3855 0
-3204 -3856 0
-3201 -4001 0
-3202 -4002 0
-3203 -4003 0
-3204 -4004 0
-3205 -3861 0
-3206 -3862 0
-3207 -3863 0
-3208 -3864 0
-3209 -3353 0
-3210 -3354 0
-3211 -3355 0
-3212 -3356 0
-3209 -3569 0
-3210 -3570 0
-3211 -3571 0
-3212 -3572 0
-3209 -3877 0
-3210 -3878 0
-3211 -3879 0
-3212 -3880 0
-3209 -4013 0
-3210 -4014 0
-3211 -4015 0
-3212 -4016 0
-3209 -4129 0
-3210 -4130 0
-3211 -4131 0
-3212 -4132 0
-3213 -3229 0
-3214 -3230 0
-3215 -3231 0
-3216 -3232 0
-3213 -3493 0
-3214 -3494 0
-3215 -3495 0
-3216 -3496 0
-3217 -3221 0
-3218 -3222 0
-3219 -3223 0
-3220 -3224 0
-3217 -3513 0
-3218 -3514 0
-3219 -3515 0
-3220 -3516 0
-3217 -4029 0
-3218 -4030 0
-3219 -4031 0
-3220 -4032 0
-3217 -4173 0
-3218 -4174 0
-3219 -4175 0
-3220 -4176 0
-3221 -3233 0
-3222 -3234 0
-3223 -3235 0
-3224 -3236 0
-3221 -3517 0
-3222 -3518 0
-3223 -3519 0
-3224 -3520 0
-3221 -4033 0
-3222 -4034 0
-3223 -4035 0
-3224 -4036 0
-3221 -4173 0
-3222 -4174 0
-3223 -4175 0
-3224 -4176 0
-3225 -3229 0
-3226 -3230 0
-3227 -3231 0
-3228 -3232 0
-3225 -4037 0
-3226 -4038 0
-3227 -4039 0
-3228 -4040 0
-3229 -3233 0
-3230 -3234 0
-3231 -3235 0
-3232 -3236 0
-3229 -3533 0
-3230 -3534 0
-3231 -3535 0
-3232 -3536 0
-3229 -4045 0
-3230 -4046 0
-3231 -4047 0
-3232 -4048 0
-3233 -3565 0
-3234 -3566 0
-3235 -3567 0
-3236 -3568 0
-3237 -3241 0
-3238 -3242 0
-3239 -3243 0
-3240 -3244 0
-3237 -3245 0
-3238 -3246 0
-3239 -3247 0
-3240 -3248 0
-3237 -3249 0
-3238 -3250 0
-3239 -3251 0
-3240 -3252 0
-3237 -3361 0
-3238 -3362 0
-3239 -3363 0
-3240 -3364 0
-3237 -3497 0
-3238 -3498 0
-3239 -3499 0
-3240 -3500 0
-3237 -3797 0
-3238 -3798 0
-3239 -3799 0
-3240 -3800 0
-3237 -4177 0
-3238 -4178 0
-3239 -4179 0
-3240 -4180 0
-3241 -3249 0
-3242 -3250 0
-3243 -3251 0
-3244 -3252 0
-3241 -3365 0
-3242 -3366 0
-3243 -3367 0
-3244 -3368 0
-3241 -3505 0
-3242 -3506 0
-3243 -3507 0
-3244 -3508 0
-3241 -3613 0
-3242 -3614 0
-3243 -3615 0
-3244 -3616 0
-3241 -3909 0
-3242 -3910 0
-3243 -3911 0
-3244 -3912 0
-3241 -4181 0
-3242 -4182 0
-3243 -4183 0
-3244 -4184 0
-3245 -3265 0
-3246 -3266 0
-3247 -3267 0
-3248 -3268 0
-3245 -3369 0
-3246 -3370 0
-3247 -3371 0
-3248 -3372 0
-3245 -3801 0
-3246 -3802 0
-3247 -3803 0
-3248 -3804 0
-3245 -3913 0
-3246 -3914 0
-3247 -3915 0
-3248 -3916 0
-3245 -4177 0
-3246 -4178 0
-3247 -4179 0
-3248 -4180 0
-3249 -3377 0
-3250 -3378 0
-3251 -3379 0
-3252 -3380 0
-3249 -3537 0
-3250 -3538 0
-3251 -3539 0
-3252 -3540 0
-3249 -4185 0
-3250 -4186 0
-3251 -4187 0
-3252 -4188 0
-3253 -3257 0
-3254 -3258 0
-3255 -3259 0
-3256 -3260 0
-3253 -3305 0
-3254 -3306 0
-3255 -3307 0
-3256 -3308 0
-3253 -3309 0
-3254 -3310 0
-3255 -3311 0
-3256 -3312 0
-3253 -3661 0
-3254 -3662 0
-3255 -3663 0
-3256 -3664 0
-3253 -3769 0
-3254 -3770 0
-3255 -3771 0
-3256 -3772 0
-3253 -4189 0
-3254 -4190 0
-3255 -4191 0
-3256 -4192 0
-3257 -3261 0
-3258 -3262 0
-3259 -3263 0
-3260 -3264 0
-3257 -3341 0
-3258 -3342 0
-3259 -3343 0
-3260 -3344 0
-3257 -3553 0
-3258 -3554 0
-3259 -3555 0
-3260 -3556 0
-3257 -3681 0
-3258 -3682 0
-3259 -3683 0
-3260 -3684 0
-3257 -3813 0
-3258 -3814 0
-3259 -3815 0
-3260 -3816 0
-3257 -3901 0
-3258 -3902 0
-3259 -3903 0
-3260 -3904 0
-3257 -4189 0
-3258 -4190 0
-3259 -4191 0
-3260 -4192 0
-3261 -3569 0
-3262 -3570 0
-3263 -3571 0
-3264 -3572 0
-3261 -3909 0
-3262 -3910 0
-3263 -3911 0
-3264 -3912 0
-3261 -4149 0
-3262 -4150 0
-3263 -4151 0
-3264 -4152 0
-3261 -4197 0
-3262 -4198 0
-3263 -4199 0
-3264 -4200 0
-3265 -3397 0
-3266 -3398 0
-3267 -3399 0
-3268 -3400 0
-3265 -3405 0
-3266 -3406 0
-3267 -3407 0
-3268 -3408 0
-3265 -3837 0
-3266 -3838 0
-3267 -3839 0
-3268 -3840 0
-3269 -3273 0
-3270 -3274 0
-3271 -3275 0
-3272 -3276 0
-3269 -3277 0
-3270 -3278 0
-3271 -3279 0
-3272 -3280 0
-3269 -3281 0
-3270 -3282 0
-3271 -3283 0
-3272 -3284 0
-3269 -3305 0
-3270 -3306 0
-3271 -3307 0
-3272 -3308 0
-3269 -3409 0
-3270 -3410 0
-3271 -3411 0
-3272 -3412 0
-3269 -4057 0
-3270 -4058 0
-3271 -4059 0
-3272 -4060 0
-3269 -4217 0
-3270 -4218 0
-3271 -4219 0
-3272 -4220 0
-3273 -3285 0
-3274 -3286 0
-3275 -3287 0
-3276 -3288 0
-3273 -3305 0
-3274 -3306 0
-3275 -3307 0
-3276 -3308 0
-3273 -4221 0
-3274 -4222 0
-3275 -4223 0
-3276 -4224 0
-3277 -3289 0
-3278 -3290 0
-3279 -3291 0
-3280 -3292 0
-3277 -3313 0
-3278 -3314 0
-3279 -3315 0
-3280 -3316 0
-3277 -3409 0
-3278 -3410 0
-3279 -3411 0
-3280 -3412 0
-3277 -3605 0
-3278 -3606 0
-3279 -3607 0
-3280 -3608 0
-3277 -3953 0
-3278 -3954 0
-3279 -3955 0
-3280 -3956 0
-3281 -3285 0
-3282 -3286 0
-3283 -3287 0
-3284 -3288 0
-3281 -3289 0
-3282 -3290 0
-3283 -3291 0
-3284 -3292 0
-3281 -3297 0
-3282 -3298 0
-3283 -3299 0
-3284 -3300 0
-3281 -3321 0
-3282 -3322 0
-3283 -3323 0
-3284 -3324 0
-3281 -3413 0
-3282 -3414 0
-3283 -3415 0
-3284 -3416 0
-3281 -3957 0
-3282 -3958 0
-3283 -3959 0
-3284 -3960 0
-3285 -3321 0
-3286 -3322 0
-3287 -3323 0
-3288 -3324 0
-3285 -4229 0
-3286 -4230 0
-3287 -4231 0
-3288 -4232 0
-3289 -3293 0
-3290 -3294 0
-3291 -3295 0
-3292 -3296 0
-3289 -3301 0
-3290 -3302 0
-3291 -3303 0
-3292 -3304 0
-3289 -3329 0
-3290 -3330 0
-3291 -3331 0
-3292 -3332 0
-3289 -3349 0
-3290 -3350 0
-3291 -3351 0
-3292 -3352 0
-3289 -3413 0
-3290 -3414 0
-3291 -3415 0
-3292 -3416 0
-3289 -3609 0
-3290 -3610 0
-3291 -3611 0
-3292 -3612 0
-3289 -3793 0
-3290 -3794 0
-3291 -3795 0
-3292 -3796 0
-3289 -3973 0
-3290 -3974 0
-3291 -3975 0
-3292 -3976 0
-3289 -4181 0
-3290 -4182 0
-3291 -4183 0
-3292 -4184 0
-3293 -3333 0
-3294 -3334 0
-3295 -3335 0
-3296 -3336 0
-3293 -3529 0
-3294 -3530 0
-3295 -3531 0
-3296 -3532 0
-3293 -3985 0
-3294 -3986 0
-3295 -3987 0
-3296 -3988 0
-3297 -3301 0
-3298 -3302 0
-3299 -3303 0
-3300 -3304 0
-3297 -3421 0
-3298 -3422 0
-3299 -3423 0
-3300 -3424 0
-3297 -3533 0
-3298 -3534 0
-3299 -3535 0
-3300 -3536 0
-3297 -3645 0
-3298 -3646 0
-3299 -3647 0
-3300 -3648 0
-3297 -4065 0
-3298 -4066 0
-3299 -4067 0
-3300 -4068 0
-3297 -4161 0
-3298 -4162 0
-3299 -4163 0
-3300 -4164 0
-3301 -3421 0
-3302 -3422 0
-3303 -3423 0
-3304 -3424 0
-3301 -3545 0
-3302 -3546 0
-3303 -3547 0
-3304 -3548 0
-3301 -3585 0
-3302 -3586 0
-3303 -3587 0
-3304 -3588 0
-3301 -3801 0
-3302 -3802 0
-3303 -3803 0
-3304 -3804 0
-3301 -3997 0
-3302 -3998 0
-3303 -3999 0
-3304 -4000 0
-3301 -4181 0
-3302 -4182 0
-3303 -4183 0
-3304 -4184 0
-3305 -3309 0
-3306 -3310 0
-3307 -3311 0
-3308 -3312 0
-3305 -3313 0
-3306 -3314 0
-3307 -3315 0
-3308 -3316 0
-3305 -3321 0
-3306 -3322 0
-3307 -3323 0
-3308 -3324 0
-3305 -3337 0
-3306 -3338 0
-3307 -3339 0
-3308 -3340 0
-3305 -3341 0
-3306 -3342 0
-3307 -3343 0
-3308 -3344 0
-3305 -3649 0
-3306 -3650 0
-3307 -3651 0
-3308 -3652 0
-3305 -3697 0
-3306 -3698 0
-3307 -3699 0
-3308 -3700 0
-3305 -4205 0
-3306 -4206 0
-3307 -4207 0
-3308 -4208 0
-3305 -4233 0
-3306 -4234 0
-3307 -4235 0
-3308 -4236 0
-3309 -3317 0
-3310 -3318 0
-3311 -3319 0
-3312 -3320 0
-3309 -3325 0
-3310 -3326 0
-3311 -3327 0
-3312 -3328 0
-3309 -3653 0
-3310 -3654 0
-3311 -3655 0
-3312 -3656 0
-3309 -3957 0
-3310 -3958 0
-3311 -3959 0
-3312 -3960 0
-3309 -4209 0
-3310 -4210 0
-3311 -4211 0
-3312 -4212 0
-3313 -3317 0
-3314 -3318 0
-3315 -3319 0
-3316 -3320 0
-3313 -3329 0
-3314 -3330 0
-3315 -3331 0
-3316 -3332 0
-3313 -3441 0
-3314 -3442 0
-3315 -3443 0
-3316 -3444 0
-3313 -3617 0
-3314 -3618 0
-3315 -3619 0
-3316 -3620 0
-3313 -3961 0
-3314 -3962 0
-3315 -3963 0
-3316 -3964 0
-3317 -3333 0
-3318 -3334 0
-3319 -3335 0
-3320 -3336 0
-3317 -3353 0
-3318 -3354 0
-3319 -3355 0
-3320 -3356 0
-3317 -3357 0
-3318 -3358 0
-3319 -3359 0
-3320 -3360 0
-3317 -3805 0
-3318 -3806 0
-3319 -3807 0
-3320 -3808 0
-3317 -3973 0
-3318 -3974 0
-3319 -3975 0
-3320 -3976 0
-3321 -3325 0
-3322 -3326 0
-3323 -3327 0
-3324 -3328 0
-3321 -3329 0
-3322 -3330 0
-3323 -3331 0
-3324 -3332 0
-3321 -3345 0
-3322 -3346 0
-3323 -3347 0
-3324 -3348 0
-3321 -3869 0
-3322 -3870 0
-3323 -3871 0
-3324 -3872 0
-3321 -4213 0
-3322 -4214 0
-3323 -4215 0
-3324 -4216 0
-3325 -3333 0
-3326 -3334 0
-3327 -3335 0
-3328 -3336 0
-3325 -3553 0
-3326 -3554 0
-3327 -3555 0
-3328 -3556 0
-3329 -3333 0
-3330 -3334 0
-3331 -3335 0
-3332 -3336 0
-3329 -3453 0
-3330 -3454 0
-3331 -3455 0
-3332 -3456 0
-3329 -4009 0
-3330 -4010 0
-3331 -4011 0
-3332 -4012 0
-3333 -3561 0
-3334 -3562 0
-3335 -3563 0
-3336 -3564 0
-3333 -3993 0
-3334 -3994 0
-3335 -3995 0
-3336 -3996 0
-3337 -3669 0
-3338 -3670 0
-3339 -3671 0
-3340 -3672 0
-3337 -3701 0
-3338 -3702 0
-3339 -3703 0
-3340 -3704 0
-3341 -3345 0
-3342 -3346 0
-3343 -3347 0
-3344 -3348 0
-3341 -3437 0
-3342 -3438 0
-3343 -3439 0
-3344 -3440 0
-3341 -3625 0
-3342 -3626 0
-3343 -3627 0
-3344 -3628 0
-3341 -3873 0
-3342 -3874 0
-3343 -3875 0
-3344 -3876 0
-3341 -4205 0
-3342 -4206 0
-3343 -4207 0
-3344 -4208 0
-3345 -3449 0
-3346 -3450 0
-3347 -3451 0
-3348 -3452 0
-3345 -3885 0
-3346 -3886 0
-3347 -3887 0
-3348 -3888 0
-3345 -4213 0
-3346 -4214 0
-3347 -4215 0
-3348 -4216 0
-3349 -3641 0
-3350 -3642 0
-3351 -3643 0
-3352 -3644 0
-3349 -4013 0
-3350 -4014 0
-3351 -4015 0
-3352 -4016 0
-3349 -4185 0
-3350 -4186 0
-3351 -4187 0
-3352 -4188 0
-3353 -3357 0
-3354 -3358 0
-3355 -3359 0
-3356 -3360 0
-3353 -4013 0
-3354 -4014 0
-3355 -4015 0
-3356 -4016 0
-3357 -3673 0
-3358 -3674 0
-3359 -3675 0
-3360 -3676 0
-3357 -3817 0
-3358 -3818 0
-3359 -3819 0
-3360 -3820 0
-3357 -4017 0
-3358 -4018 0
-3359 -4019 0
-3360 -4020 0
-3361 -3365 0
-3362 -3366 0
-3363 -3367 0
-3364 -3368 0
-3361 -3369 0
-3362 -3370 0
-3363 -3371 0
-3364 -3372 0
-3361 -3377 0
-3362 -3378 0
-3363 -3379 0
-3364 -3380 0
-3361 -3385 0
-3362 -3386 0
-3363 -3387 0
-3364 -3388 0
-3361 -3389 0
-3362 -3390 0
-3363 -3391 0
-3364 -3392 0
-3361 -4189 0
-3362 -4190 0
-3363 -4191 0
-3364 -4192 0
-3365 -3373 0
-3366 -3374 0
-3367 -3375 0
-3368 -3376 0
-3365 -3377 0
-3366 -3378 0
-3367 -3379 0
-3368 -3380 0
-3365 -3713 0
-3366 -3714 0
-3367 -3715 0
-3368 -3716 0
-3365 -4193 0
-3366 -4194 0
-3367 -4195 0
-3368 -4196 0
-3369 -3373 0
-3370 -3374 0
-3371 -3375 0
-3372 -3376 0
-3369 -3381 0
-3370 -3382 0
-3371 -3383 0
-3372 -3384 0
-3369 -3393 0
-3370 -3394 0
-3371 -3395 0
-3372 -3396 0
-3369 -3397 0
-3370 -3398 0
-3371 -3399 0
-3372 -3400 0
-3369 -4189 0
-3370 -4190 0
-3371 -4191 0
-3372 -4192 0
-3373 -3381 0
-3374 -3382 0
-3375 -3383 0
-3376 -3384 0
-3373 -3465 0
-3374 -3466 0
-3375 -3467 0
-3376 -3468 0
-3373 -4193 0
-3374 -4194 0
-3375 -4195 0
-3376 -4196 0
-3377 -3381 0
-3378 -3382 0
-3379 -3383 0
-3380 -3384 0
-3377 -4073 0
-3378 -4074 0
-3379 -4075 0
-3380 -4076 0
-3377 -4201 0
-3378 -4202 0
-3379 -4203 0
-3380 -4204 0
-3381 -3473 0
-3382 -3474 0
-3383 -3475 0
-3384 -3476 0
-3381 -4201 0
-3382 -4202 0
-3383 -4203 0
-3384 -4204 0
-3385 -3389 0
-3386 -3390 0
-3387 -3391 0
-3388 -3392 0
-3385 -3393 0
-3386 -3394 0
-3387 -3395 0
-3388 -3396 0
-3385 -3481 0
-3386 -3482 0
-3387 -3483 0
-3388 -3484 0
-3385 -3709 0
-3386 -3710 0
-3387 -3711 0
-3388 -3712 0
-3385 -4205 0
-3386 -4206 0
-3387 -4207 0
-3388 -4208 0
-3389 -3397 0
-3390 -3398 0
-3391 -3399 0
-3392 -3400 0
-3389 -3621 0
-3390 -3622 0
-3391 -3623 0
-3392 -3624 0
-3389 -3717 0
-3390 -3718 0
-3391 -3719 0
-3392 -3720 0
-3389 -4209 0
-3390 -4210 0
-3391 -4211 0
-3392 -4212 0
-3393 -3397 0
-3394 -3398 0
-3395 -3399 0
-3396 -3400 0
-3393 -3497 0
-3394 -3498 0
-3395 -3499 0
-3396 -3500 0
-3393 -4205 0
-3394 -4206 0
-3395 -4207 0
-3396 -4208 0
-3393 -4213 0
-3394 -4214 0
-3395 -4215 0
-3396 -4216 0
-3397 -3405 0
-3398 -3406 0
-3399 -3407 0
-3400 -3408 0
-3397 -3625 0
-3398 -3626 0
-3399 -3627 0
-3400 -3628 0
-3397 -4209 0
-3398 -4210 0
-3399 -4211 0
-3400 -4212 0
-3401 -3405 0
-3402 -3406 0
-3403 -3407 0
-3404 -3408 0
-3401 -3429 0
-3402 -3430 0
-3403 -3431 0
-3404 -3432 0
-3401 -3841 0
-3402 -3842 0
-3403 -3843 0
-3404 -3844 0
-3405 -3433 0
-3406 -3434 0
-3407 -3435 0
-3408 -3436 0
-3405 -3629 0
-3406 -3630 0
-3407 -3631 0
-3408 -3632 0
-3405 -3845 0
-3406 -3846 0
-3407 -3847 0
-3408 -3848 0
-3405 -4045 0
-3406 -4046 0
-3407 -4047 0
-3408 -4048 0
-3409 -3413 0
-3410 -3414 0
-3411 -3415 0
-3412 -3416 0
-3409 -3741 0
-3410 -3742 0
-3411 -3743 0
-3412 -3744 0
-3409 -3853 0
-3410 -3854 0
-3411 -3855 0
-3412 -3856 0
-3409 -4081 0
-3410 -4082 0
-3411 -4083 0
-3412 -4084 0
-3413 -3421 0
-3414 -3422 0
-3415 -3423 0
-3416 -3424 0
-3413 -3749 0
-3414 -3750 0
-3415 -3751 0
-3416 -3752 0
-3413 -3861 0
-3414 -3862 0
-3415 -3863 0
-3416 -3864 0
-3413 -4049 0
-3414 -4050 0
-3415 -4051 0
-3416 -4052 0
-3413 -4085 0
-3414 -4086 0
-3415 -4087 0
-3416 -4088 0
-3413 -4193 0
-3414 -4194 0
-3415 -4195 0
-3416 -4196 0
-3417 -3421 0
-3418 -3422 0
-3419 -3423 0
-3420 -3424 0
-3417 -3541 0
-3418 -3542 0
-3419 -3543 0
-3420 -3544 0
-3417 -3657 0
-3418 -3658 0
-3419 -3659 0
-3420 -3660 0
-3417 -3737 0
-3418 -3738 0
-3419 -3739 0
-3420 -3740 0
-3417 -3865 0
-3418 -3866 0
-3419 -3867 0
-3420 -3868 0
-3417 -4029 0
-3418 -4030 0
-3419 -4031 0
-3420 -4032 0
-3417 -4189 0
-3418 -4190 0
-3419 -4191 0
-3420 -4192 0
-3417 -4197 0
-3418 -4198 0
-3419 -4199 0
-3420 -4200 0
-3421 -3425 0
-3422 -3426 0
-3423 -3427 0
-3424 -3428 0
-3421 -3429 0
-3422 -3430 0
-3423 -3431 0
-3424 -3432 0
-3421 -3525 0
-3422 -3526 0
-3423 -3527 0
-3424 -3528 0
-3421 -3597 0
-3422 -3598 0
-3423 -3599 0
-3424 -3600 0
-3421 -3665 0
-3422 -3666 0
-3423 -3667 0
-3424 -3668 0
-3421 -3869 0
-3422 -3870 0
-3423 -3871 0
-3424 -3872 0
-3421 -4105 0
-3422 -4106 0
-3423 -4107 0
-3424 -4108 0
-3421 -4193 0
-3422 -4194 0
-3423 -4195 0
-3424 -4196 0
-3425 -3433 0
-3426 -3434 0
-3427 -3435 0
-3428 -3436 0
-3425 -3669 0
-3426 -3670 0
-3427 -3671 0
-3428 -3672 0
-3425 -3753 0
-3426 -3754 0
-3427 -3755 0
-3428 -3756 0
-3429 -3433 0
-3430 -3434 0
-3431 -3435 0
-3432 -3436 0
-3429 -3549 0
-3430 -3550 0
-3431 -3551 0
-3432 -3552 0
-3429 -3885 0
-3430 -3886 0
-3431 -3887 0
-3432 -3888 0
-3429 -4041 0
-3430 -4042 0
-3431 -4043 0
-3432 -4044 0
-3433 -3685 0
-3434 -3686 0
-3435 -3687 0
-3436 -3688 0
-3433 -3889 0
-3434 -3890 0
-3435 -3891 0
-3436 -3892 0
-3437 -3441 0
-3438 -3442 0
-3439 -3443 0
-3440 -3444 0
-3437 -3449 0
-3438 -3450 0
-3439 -3451 0
-3440 -3452 0
-3437 -3457 0
-3438 -3458 0
-3439 -3459 0
-3440 -3460 0
-3437 -3953 0
-3438 -3954 0
-3439 -3955 0
-3440 -3956 0
-3441 -3453 0
-3442 -3454 0
-3443 -3455 0
-3444 -3456 0
-3441 -3761 0
-3442 -3762 0
-3443 -3763 0
-3444 -3764 0
-3441 -3901 0
-3442 -3902 0
-3443 -3903 0
-3444 -3904 0
-3441 -4221 0
-3442 -4222 0
-3443 -4223 0
-3444 -4224 0
-3445 -3449 0
-3446 -3450 0
-3447 -3451 0
-3448 -3452 0
-3445 -3557 0
-3446 -3558 0
-3447 -3559 0
-3448 -3560 0
-3445 -3969 0
-3446 -3970 0
-3447 -3971 0
-3448 -3972 0
-3445 -4057 0
-3446 -4058 0
-3447 -4059 0
-3448 -4060 0
-3449 -3453 0
-3450 -3454 0
-3451 -3455 0
-3452 -3456 0
-3449 -3461 0
-3450 -3462 0
-3451 -3463 0
-3452 -3464 0
-3449 -3553 0
-3450 -3554 0
-3451 -3555 0
-3452 -3556 0
-3449 -3561 0
-3450 -3562 0
-3451 -3563 0
-3452 -3564 0
-3449 -3973 0
-3450 -3974 0
-3451 -3975 0
-3452 -3976 0
-3449 -4225 0
-3450 -4226 0
-3451 -4227 0
-3452 -4228 0
-3453 -3905 0
-3454 -3906 0
-3455 -3907 0
-3456 -3908 0
-3453 -3981 0
-3454 -3982 0
-3455 -3983 0
-3456 -3984 0
-3453 -4229 0
-3454 -4230 0
-3455 -4231 0
-3456 -4232 0
-3457 -3461 0
-3458 -3462 0
-3459 -3463 0
-3460 -3464 0
-3457 -3777 0
-3458 -3778 0
-3459 -3779 0
-3460 -3780 0
-3461 -3569 0
-3462 -3570 0
-3463 -3571 0
-3464 -3572 0
-3461 -3577 0
-3462 -3578 0
-3463 -3579 0
-3464 -3580 0
-3461 -3681 0
-3462 -3682 0
-3463 -3683 0
-3464 -3684 0
-3461 -3785 0
-3462 -3786 0
-3463 -3787 0
-3464 -3788 0
-3461 -3913 0
-3462 -3914 0
-3463 -3915 0
-3464 -3916 0
-3461 -3997 0
-3462 -3998 0
-3463 -3999 0
-3464 -4000 0
-3465 -3469 0
-3466 -3470 0
-3467 -3471 0
-3468 -3472 0
-3465 -3473 0
-3466 -3474 0
-3467 -3475 0
-3468 -3476 0
-3465 -3505 0
-3466 -3506 0
-3467 -3507 0
-3468 -3508 0
-3469 -3477 0
-3470 -3478 0
-3471 -3479 0
-3472 -3480 0
-3469 -3517 0
-3470 -3518 0
-3471 -3519 0
-3472 -3520 0
-3469 -3521 0
-3470 -3522 0
-3471 -3523 0
-3472 -3524 0
-3469 -3917 0
-3470 -3918 0
-3471 -3919 0
-3472 -3920 0
-3473 -3477 0
-3474 -3478 0
-3475 -3479 0
-3476 -3480 0
-3473 -3537 0
-3474 -3538 0
-3475 -3539 0
-3476 -3540 0
-3477 -3565 0
-3478 -3566 0
-3479 -3567 0
-3480 -3568 0
-3477 -3569 0
-3478 -3570 0
-3479 -3571 0
-3480 -3572 0
-3477 -4069 0
-3478 -4070 0
-3479 -4071 0
-3480 -4072 0
-3477 -4189 0
-3478 -4190 0
-3479 -4191 0
-3480 -4192 0
-3481 -3489 0
-3482 -3490 0
-3483 -3491 0
-3484 -3492 0
-3481 -3497 0
-3482 -3498 0
-3483 -3499 0
-3484 -3500 0
-3485 -3489 0
-3486 -3490 0
-3487 -3491 0
-3488 -3492 0
-3485 -3501 0
-3486 -3502 0
-3487 -3503 0
-3488 -3504 0
-3485 -3513 0
-3486 -3514 0
-3487 -3515 0
-3488 -3516 0
-3485 -4217 0
-3486 -4218 0
-3487 -4219 0
-3488 -4220 0
-3489 -3505 0
-3490 -3506 0
-3491 -3507 0
-3492 -3508 0
-3489 -3513 0
-3490 -3514 0
-3491 -3515 0
-3492 -3516 0
-3489 -4221 0
-3490 -4222 0
-3491 -4223 0
-3492 -4224 0
-3493 -3497 0
-3494 -3498 0
-3495 -3499 0
-3496 -3500 0
-3493 -3501 0
-3494 -3502 0
-3495 -3503 0
-3496 -3504 0
-3493 -3533 0
-3494 -3534 0
-3495 -3535 0
-3496 -3536 0
-3493 -3793 0
-3494 -3794 0
-3495 -3795 0
-3496 -3796 0
-3493 -4189 0
-3494 -4190 0
-3495 -4191 0
-3496 -4192 0
-3497 -3505 0
-3498 -3506 0
-3499 -3507 0
-3500 -3508 0
-3497 -3537 0
-3498 -3538 0
-3499 -3539 0
-3500 -3540 0
-3497 -4029 0
-3498 -4030 0
-3499 -4031 0
-3500 -4032 0
-3497 -4225 0
-3498 -4226 0
-3499 -4227 0
-3500 -4228 0
-3501 -3505 0
-3502 -3506 0
-3503 -3507 0
-3504 -3508 0
-3501 -3517 0
-3502 -3518 0
-3503 -3519 0
-3504 -3520 0
-3501 -3533 0
-3502 -3534 0
-3503 -3535 0
-3504 -3536 0
-3501 -3605 0
-3502 -3606 0
-3503 -3607 0
-3504 -3608 0
-3501 -4089 0
-3502 -4090 0
-3503 -4091 0
-3504 -4092 0
-3501 -4193 0
-3502 -4194 0
-3503 -4195 0
-3504 -4196 0
-3501 -4217 0
-3502 -4218 0
-3503 -4219 0
-3504 -4220 0
-3505 -3509 0
-3506 -3510 0
-3507 -3511 0
-3508 -3512 0
-3505 -3517 0
-3506 -3518 0
-3507 -3519 0
-3508 -3520 0
-3505 -3537 0
-3506 -3538 0
-3507 -3539 0
-3508 -3540 0
-3505 -3709 0
-3506 -3710 0
-3507 -3711 0
-3508 -3712 0
-3505 -3833 0
-3506 -3834 0
-3507 -3835 0
-3508 -3836 0
-3505 -4093 0
-3506 -4094 0
-3507 -4095 0
-3508 -4096 0
-3505 -4221 0
-3506 -4222 0
-3507 -4223 0
-3508 -4224 0
-3505 -4229 0
-3506 -4230 0
-3507 -4231 0
-3508 -4232 0
-3509 -4041 0
-3510 -4042 0
-3511 -4043 0
-3512 -4044 0
-3513 -3517 0
-3514 -3518 0
-3515 -3519 0
-3516 -3520 0
-3513 -4233 0
-3514 -4234 0
-3515 -4235 0
-3516 -4236 0
-3517 -3521 0
-3518 -3522 0
-3519 -3523 0
-3520 -3524 0
-3517 -3565 0
-3518 -3566 0
-3519 -3567 0
-3520 -3568 0
-3517 -3617 0
-3518 -3618 0
-3519 -3619 0
-3520 -3620 0
-3517 -3841 0
-3518 -3842 0
-3519 -3843 0
-3520 -3844 0
-3517 -4137 0
-3518 -4138 0
-3519 -4139 0
-3520 -4140 0
-3517 -4233 0
-3518 -4234 0
-3519 -4235 0
-3520 -4236 0
-3521 -3569 0
-3522 -3570 0
-3523 -3571 0
-3524 -3572 0
-3521 -3721 0
-3522 -3722 0
-3523 -3723 0
-3524 -3724 0
-3521 -4101 0
-3522 -4102 0
-3523 -4103 0
-3524 -4104 0
-3521 -4141 0
-3522 -4142 0
-3523 -4143 0
-3524 -4144 0
-3525 -3549 0
-3526 -3550 0
-3527 -3551 0
-3528 -3552 0
-3525 -3581 0
-3526 -3582 0
-3527 -3583 0
-3528 -3584 0
-3525 -3729 0
-3526 -3730 0
-3527 -3731 0
-3528 -3732 0
-3525 -3765 0
-3526 -3766 0
-3527 -3767 0
-3528 -3768 0
-3525 -3945 0
-3526 -3946 0
-3527 -3947 0
-3528 -3948 0
-3525 -4145 0
-3526 -4146 0
-3527 -4147 0
-3528 -4148 0
-3529 -3549 0
-3530 -3550 0
-3531 -3551 0
-3532 -3552 0
-3529 -3557 0
-3530 -3558 0
-3531 -3559 0
-3532 -3560 0
-3529 -3561 0
-3530 -3562 0
-3531 -3563 0
-3532 -3564 0
-3529 -3949 0
-3530 -3950 0
-3531 -3951 0
-3532 -3952 0
-3529 -4113 0
-3530 -4114 0
-3531 -4115 0
-3532 -4116 0
-3533 -3537 0
-3534 -3538 0
-3535 -3539 0
-3536 -3540 0
-3533 -3541 0
-3534 -3542 0
-3535 -3543 0
-3536 -3544 0
-3533 -3545 0
-3534 -3546 0
-3535 -3547 0
-3536 -3548 0
-3533 -3565 0
-3534 -3566 0
-3535 -3567 0
-3536 -3568 0
-3533 -3589 0
-3534 -3590 0
-3535 -3591 0
-3536 -3592 0
-3533 -3597 0
-3534 -3598 0
-3535 -3599 0
-3536 -3600 0
-3533 -3633 0
-3534 -3634 0
-3535 -3635 0
-3536 -3636 0
-3533 -4153 0
-3534 -4154 0
-3535 -4155 0
-3536 -4156 0
-3533 -4201 0
-3534 -4202 0
-3535 -4203 0
-3536 -4204 0
-3537 -3565 0
-3538 -3566 0
-3539 -3567 0
-3540 -3568 0
-3537 -3857 0
-3538 -3858 0
-3539 -3859 0
-3540 -3860 0
-3541 -3549 0
-3542 -3550 0
-3543 -3551 0
-3544 -3552 0
-3541 -3569 0
-3542 -3570 0
-3543 -3571 0
-3544 -3572 0
-3541 -3589 0
-3542 -3590 0
-3543 -3591 0
-3544 -3592 0
-3541 -3601 0
-3542 -3602 0
-3543 -3603 0
-3544 -3604 0
-3541 -3957 0
-3542 -3958 0
-3543 -3959 0
-3544 -3960 0
-3541 -4157 0
-3542 -4158 0
-3543 -4159 0
-3544 -4160 0
-3545 -3549 0
-3546 -3550 0
-3547 -3551 0
-3548 -3552 0
-3545 -3593 0
-3546 -3594 0
-3547 -3595 0
-3548 -3596 0
-3545 -3597 0
-3546 -3598 0
-3547 -3599 0
-3548 -3600 0
-3545 -3749 0
-3546 -3750 0
-3547 -3751 0
-3548 -3752 0
-3545 -3801 0
-3546 -3802 0
-3547 -3803 0
-3548 -3804 0
-3545 -3961 0
-3546 -3962 0
-3547 -3963 0
-3548 -3964 0
-3545 -4121 0
-3546 -4122 0
-3547 -4123 0
-3548 -4124 0
-3549 -3573 0
-3550 -3574 0
-3551 -3575 0
-3552 -3576 0
-3549 -3577 0
-3550 -3578 0
-3551 -3579 0
-3552 -3580 0
-3549 -3593 0
-3550 -3594 0
-3551 -3595 0
-3552 -3596 0
-3549 -3601 0
-3550 -3602 0
-3551 -3603 0
-3552 -3604 0
-3549 -3753 0
-3550 -3754 0
-3551 -3755 0
-3552 -3756 0
-3549 -3773 0
-3550 -3774 0
-3551 -3775 0
-3552 -3776 0
-3549 -3973 0
-3550 -3974 0
-3551 -3975 0
-3552 -3976 0
-3549 -4077 0
-3550 -4078 0
-3551 -4079 0
-3552 -4080 0
-3553 -3561 0
-3554 -3562 0
-3555 -3563 0
-3556 -3564 0
-3553 -3569 0
-3554 -3570 0
-3555 -3571 0
-3556 -3572 0
-3553 -4049 0
-3554 -4050 0
-3555 -4051 0
-3556 -4052 0
-3557 -3561 0
-3558 -3562 0
-3559 -3563 0
-3560 -3564 0
-3557 -3573 0
-3558 -3574 0
-3559 -3575 0
-3560 -3576 0
-3557 -4001 0
-3558 -4002 0
-3559 -4003 0
-3560 -4004 0
-3557 -4081 0
-3558 -4082 0
-3559 -4083 0
-3560 -4084 0
-3561 -3577 0
-3562 -3578 0
-3563 -3579 0
-3564 -3580 0
-3561 -4053 0
-3562 -4054 0
-3563 -4055 0
-3564 -4056 0
-3561 -4117 0
-3562 -4118 0
-3563 -4119 0
-3564 -4120 0
-3565 -3569 0
-3566 -3570 0
-3567 -3571 0
-3568 -3572 0
-3565 -3661 0
-3566 -3662 0
-3567 -3663 0
-3568 -3664 0
-3565 -3821 0
-3566 -3822 0
-3567 -3823 0
-3568 -3824 0
-3565 -3881 0
-3566 -3882 0
-3567 -3883 0
-3568 -3884 0
-3565 -4205 0
-3566 -4206 0
-3567 -4207 0
-3568 -4208 0
-3569 -3577 0
-3570 -3578 0
-3571 -3579 0
-3572 -3580 0
-3569 -3829 0
-3570 -3830 0
-3571 -3831 0
-3572 -3832 0
-3569 -4093 0
-3570 -4094 0
-3571 -4095 0
-3572 -4096 0
-3569 -4209 0
-3570 -4210 0
-3571 -4211 0
-3572 -4212 0
-3573 -3577 0
-3574 -3578 0
-3575 -3579 0
-3576 -3580 0
-3573 -3757 0
-3574 -3758 0
-3575 -3759 0
-3576 -3760 0
-3573 -4005 0
-3574 -4006 0
-3575 -4007 0
-3576 -4008 0
-3573 -4097 0
-3574 -4098 0
-3575 -4099 0
-3576 -4100 0
-3577 -4009 0
-3578 -4010 0
-3579 -4011 0
-3580 -4012 0
-3577 -4125 0
-3578 -4126 0
-3579 -4127 0
-3580 -4128 0
-3581 -3585 0
-3582 -3586 0
-3583 -3587 0
-3584 -3588 0
-3581 -3593 0
-3582 -3594 0
-3583 -3595 0
-3584 -3596 0
-3581 -3741 0
-3582 -3742 0
-3583 -3743 0
-3584 -3744 0
-3581 -4029 0
-3582 -4030 0
-3583 -4031 0
-3584 -4032 0
-3581 -4169 0
-3582 -4170 0
-3583 -4171 0
-3584 -4172 0
-3581 -4221 0
-3582 -4222 0
-3583 -4223 0
-3584 -4224 0
-3585 -3749 0
-3586 -3750 0
-3587 -3751 0
-3588 -3752 0
-3585 -4033 0
-3586 -4034 0
-3587 -4035 0
-3588 -4036 0
-3585 -4229 0
-3586 -4230 0
-3587 -4231 0
-3588 -4232 0
-3589 -3593 0
-3590 -3594 0
-3591 -3595 0
-3592 -3596 0
-3589 -3689 0
-3590 -3690 0
-3591 -3691 0
-3592 -3692 0
-3589 -3861 0
-3590 -3862 0
-3591 -3863 0
-3592 -3864 0
-3593 -3837 0
-3594 -3838 0
-3595 -3839 0
-3596 -3840 0
-3593 -4021 0
-3594 -4022 0
-3595 -4023 0
-3596 -4024 0
-3593 -4037 0
-3594 -4038 0
-3595 -4039 0
-3596 -4040 0
-3597 -3601 0
-3598 -3602 0
-3599 -3603 0
-3600 -3604 0
-3597 -3729 0
-3598 -3730 0
-3599 -3731 0
-3600 -3732 0
-3601 -3813 0
-3602 -3814 0
-3603 -3815 0
-3604 -3816 0
-3601 -4049 0
-3602 -4050 0
-3603 -4051 0
-3604 -4052 0
-3605 -3609 0
-3606 -3610 0
-3607 -3611 0
-3608 -3612 0
-3605 -3613 0
-3606 -3614 0
-3607 -3615 0
-3608 -3616 0
-3605 -3617 0
-3606 -3618 0
-3607 -3619 0
-3608 -3620 0
-3605 -3633 0
-3606 -3634 0
-3607 -3635 0
-3608 -3636 0
-3605 -3637 0
-3606 -3638 0
-3607 -3639 0
-3608 -3640 0
-3605 -4133 0
-3606 -4134 0
-3607 -4135 0
-3608 -4136 0
-3609 -3641 0
-3610 -3642 0
-3611 -3643 0
-3612 -3644 0
-3609 -3645 0
-3610 -3646 0
-3611 -3647 0
-3612 -3648 0
-3609 -3793 0
-3610 -3794 0
-3611 -3795 0
-3612 -3796 0
-3609 -4141 0
-3610 -4142 0
-3611 -4143 0
-3612 -4144 0
-3613 -3629 0
-3614 -3630 0
-3615 -3631 0
-3616 -3632 0
-3613 -3713 0
-3614 -3714 0
-3615 -3715 0
-3616 -3716 0
-3613 -3833 0
-3614 -3834 0
-3615 -3835 0
-3616 -3836 0
-3613 -4057 0
-3614 -4058 0
-3615 -4059 0
-3616 -4060 0
-3613 -4149 0
-3614 -4150 0
-3615 -4151 0
-3616 -4152 0
-3617 -3629 0
-3618 -3630 0
-3619 -3631 0
-3620 -3632 0
-3617 -3661 0
-3618 -3662 0
-3619 -3663 0
-3620 -3664 0
-3617 -3669 0
-3618 -3670 0
-3619 -3671 0
-3620 -3672 0
-3617 -3761 0
-3618 -3762 0
-3619 -3763 0
-3620 -3764 0
-3617 -3929 0
-3618 -3930 0
-3619 -3931 0
-3620 -3932 0
-3617 -4137 0
-3618 -4138 0
-3619 -4139 0
-3620 -4140 0
-3621 -3625 0
-3622 -3626 0
-3623 -3627 0
-3624 -3628 0
-3621 -3901 0
-3622 -3902 0
-3623 -3903 0
-3624 -3904 0
-3621 -4237 0
-3622 -4238 0
-3623 -4239 0
-3624 -4240 0
-3625 -3629 0
-3626 -3630 0
-3627 -3631 0
-3628 -3632 0
-3625 -3721 0
-3626 -3722 0
-3627 -3723 0
-3628 -3724 0
-3625 -3905 0
-3626 -3906 0
-3627 -3907 0
-3628 -3908 0
-3625 -4089 0
-3626 -4090 0
-3627 -4091 0
-3628 -4092 0
-3625 -4237 0
-3626 -4238 0
-3627 -4239 0
-3628 -4240 0
-3629 -3681 0
-3630 -3682 0
-3631 -3683 0
-3632 -3684 0
-3629 -3685 0
-3630 -3686 0
-3631 -3687 0
-3632 -3688 0
-3629 -3721 0
-3630 -3722 0
-3631 -3723 0
-3632 -3724 0
-3629 -3845 0
-3630 -3846 0
-3631 -3847 0
-3632 -3848 0
-3629 -4097 0
-3630 -4098 0
-3631 -4099 0
-3632 -4100 0
-3629 -4153 0
-3630 -4154 0
-3631 -4155 0
-3632 -4156 0
-3629 -4177 0
-3630 -4178 0
-3631 -4179 0
-3632 -4180 0
-3633 -3637 0
-3634 -3638 0
-3635 -3639 0
-3636 -3640 0
-3633 -3641 0
-3634 -3642 0
-3635 -3643 0
-3636 -3644 0
-3633 -3657 0
-3634 -3658 0
-3635 -3659 0
-3636 -3660 0
-3633 -3661 0
-3634 -3662 0
-3635 -3663 0
-3636 -3664 0
-3633 -3689 0
-3634 -3690 0
-3635 -3691 0
-3636 -3692 0
-3633 -3725 0
-3634 -3726 0
-3635 -3727 0
-3636 -3728 0
-3633 -3729 0
-3634 -3730 0
-3635 -3731 0
-3636 -3732 0
-3633 -3849 0
-3634 -3850 0
-3635 -3851 0
-3636 -3852 0
-3633 -4177 0
-3634 -4178 0
-3635 -4179 0
-3636 -4180 0
-3633 -4245 0
-3634 -4246 0
-3635 -4247 0
-3636 -4248 0
-3637 -3645 0
-3638 -3646 0
-3639 -3647 0
-3640 -3648 0
-3637 -3665 0
-3638 -3666 0
-3639 -3667 0
-3640 -3668 0
-3637 -3669 0
-3638 -3670 0
-3639 -3671 0
-3640 -3672 0
-3637 -3937 0
-3638 -3938 0
-3639 -3939 0
-3640 -3940 0
-3637 -4181 0
-3638 -4182 0
-3639 -4183 0
-3640 -4184 0
-3641 -3645 0
-3642 -3646 0
-3643 -3647 0
-3644 -3648 0
-3641 -3677 0
-3642 -3678 0
-3643 -3679 0
-3644 -3680 0
-3641 -3693 0
-3642 -3694 0
-3643 -3695 0
-3644 -3696 0
-3641 -3733 0
-3642 -3734 0
-3643 -3735 0
-3644 -3736 0
-3641 -3737 0
-3642 -3738 0
-3643 -3739 0
-3644 -3740 0
-3645 -4161 0
-3646 -4162 0
-3647 -4163 0
-3648 -4164 0
-3649 -3653 0
-3650 -3654 0
-3651 -3655 0
-3652 -3656 0
-3649 -3669 0
-3650 -3670 0
-3651 -3671 0
-3652 -3672 0
-3649 -3949 0
-3650 -3950 0
-3651 -3951 0
-3652 -3952 0
-3653 -3673 0
-3654 -3674 0
-3655 -3675 0
-3656 -3676 0
-3653 -3977 0
-3654 -3978 0
-3655 -3979 0
-3656 -3980 0
-3653 -4241 0
-3654 -4242 0
-3655 -4243 0
-3656 -4244 0
-3657 -3661 0
-3658 -3662 0
-3659 -3663 0
-3660 -3664 0
-3657 -3665 0
-3658 -3666 0
-3659 -3667 0
-3660 -3668 0
-3657 -3677 0
-3658 -3678 0
-3659 -3679 0
-3660 -3680 0
-3657 -3701 0
-3658 -3702 0
-3659 -3703 0
-3660 -3704 0
-3657 -3865 0
-3658 -3866 0
-3659 -3867 0
-3660 -3868 0
-3657 -3921 0
-3658 -3922 0
-3659 -3923 0
-3660 -3924 0
-3661 -3669 0
-3662 -3670 0
-3663 -3671 0
-3664 -3672 0
-3661 -3681 0
-3662 -3682 0
-3663 -3683 0
-3664 -3684 0
-3661 -3769 0
-3662 -3770 0
-3663 -3771 0
-3664 -3772 0
-3661 -3965 0
-3662 -3966 0
-3663 -3967 0
-3664 -3968 0
-3665 -3669 0
-3666 -3670 0
-3667 -3671 0
-3668 -3672 0
-3665 -3765 0
-3666 -3766 0
-3667 -3767 0
-3668 -3768 0
-3665 -3869 0
-3666 -3870 0
-3667 -3871 0
-3668 -3872 0
-3665 -3969 0
-3666 -3970 0
-3667 -3971 0
-3668 -3972 0
-3665 -4217 0
-3666 -4218 0
-3667 -4219 0
-3668 -4220 0
-3669 -3673 0
-3670 -3674 0
-3671 -3675 0
-3672 -3676 0
-3669 -3685 0
-3670 -3686 0
-3671 -3687 0
-3672 -3688 0
-3669 -3809 0
-3670 -3810 0
-3671 -3811 0
-3672 -3812 0
-3669 -3973 0
-3670 -3974 0
-3671 -3975 0
-3672 -3976 0
-3669 -4069 0
-3670 -4070 0
-3671 -4071 0
-3672 -4072 0
-3669 -4221 0
-3670 -4222 0
-3671 -4223 0
-3672 -4224 0
-3673 -3817 0
-3674 -3818 0
-3675 -3819 0
-3676 -3820 0
-3673 -3985 0
-3674 -3986 0
-3675 -3987 0
-3676 -3988 0
-3673 -4161 0
-3674 -4162 0
-3675 -4163 0
-3676 -4164 0
-3677 -3705 0
-3678 -3706 0
-3679 -3707 0
-3680 -3708 0
-3677 -4137 0
-3678 -4138 0
-3679 -4139 0
-3680 -4140 0
-3681 -3685 0
-3682 -3686 0
-3683 -3687 0
-3684 -3688 0
-3681 -3913 0
-3682 -3914 0
-3683 -3915 0
-3684 -3916 0
-3681 -4121 0
-3682 -4122 0
-3683 -4123 0
-3684 -4124 0
-3685 -3777 0
-3686 -3778 0
-3687 -3779 0
-3688 -3780 0
-3685 -3889 0
-3686 -3890 0
-3687 -3891 0
-3688 -3892 0
-3685 -3917 0
-3686 -3918 0
-3687 -3919 0
-3688 -3920 0
-3685 -4001 0
-3686 -4002 0
-3687 -4003 0
-3688 -4004 0
-3685 -4073 0
-3686 -4074 0
-3687 -4075 0
-3688 -4076 0
-3685 -4185 0
-3686 -4186 0
-3687 -4187 0
-3688 -4188 0
-3689 -3693 0
-3690 -3694 0
-3691 -3695 0
-3692 -3696 0
-3689 -3701 0
-3690 -3702 0
-3691 -3703 0
-3692 -3704 0
-3689 -3745 0
-3690 -3746 0
-3691 -3747 0
-3692 -3748 0
-3689 -3941 0
-3690 -3942 0
-3691 -3943 0
-3692 -3944 0
-3693 -3705 0
-3694 -3706 0
-3695 -3707 0
-3696 -3708 0
-3693 -3753 0
-3694 -3754 0
-3695 -3755 0
-3696 -3756 0
-3693 -3857 0
-3694 -3858 0
-3695 -3859 0
-3696 -3860 0
-3693 -3893 0
-3694 -3894 0
-3695 -3895 0
-3696 -3896 0
-3697 -3701 0
-3698 -3702 0
-3699 -3703 0
-3700 -3704 0
-3697 -3949 0
-3698 -3950 0
-3699 -3951 0
-3700 -3952 0
-3697 -4237 0
-3698 -4238 0
-3699 -4239 0
-3700 -4240 0
-3701 -3705 0
-3702 -3706 0
-3703 -3707 0
-3704 -3708 0
-3701 -3973 0
-3702 -3974 0
-3703 -3975 0
-3704 -3976 0
-3701 -4237 0
-3702 -4238 0
-3703 -4239 0
-3704 -4240 0
-3705 -3757 0
-3706 -3758 0
-3707 -3759 0
-3708 -3760 0
-3705 -3881 0
-3706 -3882 0
-3707 -3883 0
-3708 -3884 0
-3705 -3993 0
-3706 -3994 0
-3707 -3995 0
-3708 -3996 0
-3705 -4165 0
-3706 -4166 0
-3707 -4167 0
-3708 -4168 0
-3709 -3717 0
-3710 -3718 0
-3711 -3719 0
-3712 -3720 0
-3713 -3717 0
-3714 -3718 0
-3715 -3719 0
-3716 -3720 0
-3713 -3721 0
-3714 -3722 0
-3715 -3723 0
-3716 -3724 0
-3713 -4037 0
-3714 -4038 0
-3715 -4039 0
-3716 -4040 0
-3717 -3721 0
-3718 -3722 0
-3719 -3723 0
-3720 -3724 0
-3717 -3901 0
-3718 -3902 0
-3719 -3903 0
-3720 -3904 0
-3717 -4241 0
-3718 -4242 0
-3719 -4243 0
-3720 -4244 0
-3721 -3805 0
-3722 -3806 0
-3723 -3807 0
-3724 -3808 0
-3721 -4189 0
-3722 -4190 0
-3723 -4191 0
-3724 -4192 0
-3725 -3729 0
-3726 -3730 0
-3727 -3731 0
-3728 -3732 0
-3725 -3733 0
-3726 -3734 0
-3727 -3735 0
-3728 -3736 0
-3725 -4189 0
-3726 -4190 0
-3727 -4191 0
-3728 -4192 0
-3729 -3737 0
-3730 -3738 0
-3731 -3739 0
-3732 -3740 0
-3729 -3741 0
-3730 -3742 0
-3731 -3743 0
-3732 -3744 0
-3729 -3745 0
-3730 -3746 0
-3731 -3747 0
-3732 -3748 0
-3733 -3737 0
-3734 -3738 0
-3735 -3739 0
-3736 -3740 0
-3737 -3749 0
-3738 -3750 0
-3739 -3751 0
-3740 -3752 0
-3737 -3753 0
-3738 -3754 0
-3739 -3755 0
-3740 -3756 0
-3737 -3921 0
-3738 -3922 0
-3739 -3923 0
-3740 -3924 0
-3741 -3745 0
-3742 -3746 0
-3743 -3747 0
-3744 -3748 0
-3741 -3749 0
-3742 -3750 0
-3743 -3751 0
-3744 -3752 0
-3741 -3853 0
-3742 -3854 0
-3743 -3855 0
-3744 -3856 0
-3741 -4029 0
-3742 -4030 0
-3743 -4031 0
-3744 -4032 0
-3745 -3753 0
-3746 -3754 0
-3747 -3755 0
-3748 -3756 0
-3745 -3953 0
-3746 -3954 0
-3747 -3955 0
-3748 -3956 0
-3749 -3753 0
-3750 -3754 0
-3751 -3755 0
-3752 -3756 0
-3749 -3861 0
-3750 -3862 0
-3751 -3863 0
-3752 -3864 0
-3749 -3961 0
-3750 -3962 0
-3751 -3963 0
-3752 -3964 0
-3749 -4033 0
-3750 -4034 0
-3751 -4035 0
-3752 -4036 0
-3753 -3757 0
-3754 -3758 0
-3755 -3759 0
-3756 -3760 0
-3753 -3973 0
-3754 -3974 0
-3755 -3975 0
-3756 -3976 0
-3753 -4241 0
-3754 -4242 0
-3755 -4243 0
-3756 -4244 0
-3757 -4005 0
-3758 -4006 0
-3759 -4007 0
-3760 -4008 0
-3757 -4173 0
-3758 -4174 0
-3759 -4175 0
-3760 -4176 0
-3761 -3769 0
-3762 -3770 0
-3763 -3771 0
-3764 -3772 0
-3761 -3901 0
-3762 -3902 0
-3763 -3903 0
-3764 -3904 0
-3765 -3773 0
-3766 -3774 0
-3767 -3775 0
-3768 -3776 0
-3765 -3945 0
-3766 -3946 0
-3767 -3947 0
-3768 -3948 0
-3765 -4245 0
-3766 -4246 0
-3767 -4247 0
-3768 -4248 0
-3769 -3777 0
-3770 -3778 0
-3771 -3779 0
-3772 -3780 0
-3769 -3817 0
-3770 -3818 0
-3771 -3819 0
-3772 -3820 0
-3769 -4253 0
-3770 -4254 0
-3771 -4255 0
-3772 -4256 0
-3773 -3777 0
-3774 -3778 0
-3775 -3779 0
-3776 -3780 0
-3773 -3781 0
-3774 -3782 0
-3775 -3783 0
-3776 -3784 0
-3773 -3813 0
-3774 -3814 0
-3775 -3815 0
-3776 -3816 0
-3773 -3973 0
-3774 -3974 0
-3775 -3975 0
-3776 -3976 0
-3773 -4245 0
-3774 -4246 0
-3775 -4247 0
-3776 -4248 0
-3777 -3785 0
-3778 -3786 0
-3779 -3787 0
-3780 -3788 0
-3777 -3817 0
-3778 -3818 0
-3779 -3819 0
-3780 -3820 0
-3777 -3977 0
-3778 -3978 0
-3779 -3979 0
-3780 -3980 0
-3777 -4185 0
-3778 -4186 0
-3779 -4187 0
-3780 -4188 0
-3781 -3785 0
-3782 -3786 0
-3783 -3787 0
-3784 -3788 0
-3781 -3789 0
-3782 -3790 0
-3783 -3791 0
-3784 -3792 0
-3781 -3825 0
-3782 -3826 0
-3783 -3827 0
-3784 -3828 0
-3781 -3993 0
-3782 -3994 0
-3783 -3995 0
-3784 -3996 0
-3781 -4181 0
-3782 -4182 0
-3783 -4183 0
-3784 -4184 0
-3785 -3829 0
-3786 -3830 0
-3787 -3831 0
-3788 -3832 0
-3789 -3885 0
-3790 -3886 0
-3791 -3887 0
-3792 -3888 0
-3789 -3897 0
-3790 -3898 0
-3791 -3899 0
-3792 -3900 0
-3789 -4065 0
-3790 -4066 0
-3791 -4067 0
-3792 -4068 0
-3789 -4153 0
-3790 -4154 0
-3791 -4155 0
-3792 -4156 0
-3793 -3801 0
-3794 -3802 0
-3795 -3803 0
-3796 -3804 0
-3793 -3833 0
-3794 -3834 0
-3795 -3835 0
-3796 -3836 0
-3793 -4189 0
-3794 -4190 0
-3795 -4191 0
-3796 -4192 0
-3797 -3801 0
-3798 -3802 0
-3799 -3803 0
-3800 -3804 0
-3797 -4029 0
-3798 -4030 0
-3799 -4031 0
-3800 -4032 0
-3797 -4245 0
-3798 -4246 0
-3799 -4247 0
-3800 -4248 0
-3801 -3837 0
-3802 -3838 0
-3803 -3839 0
-3804 -3840 0
-3801 -4033 0
-3802 -4034 0
-3803 -4035 0
-3804 -4036 0
-3801 -4137 0
-3802 -4138 0
-3803 -4139 0
-3804 -4140 0
-3801 -4197 0
-3802 -4198 0
-3803 -4199 0
-3804 -4200 0
-3801 -4245 0
-3802 -4246 0
-3803 -4247 0
-3804 -4248 0
-3805 -3817 0
-3806 -3818 0
-3807 -3819 0
-3808 -3820 0
-3805 -4189 0
-3806 -4190 0
-3807 -4191 0
-3808 -4192 0
-3809 -3817 0
-3810 -3818 0
-3811 -3819 0
-3812 -3820 0
-3809 -3821 0
-3810 -3822 0
-3811 -3823 0
-3812 -3824 0
-3809 -3877 0
-3810 -3878 0
-3811 -3879 0
-3812 -3880 0
-3809 -4069 0
-3810 -4070 0
-3811 -4071 0
-3812 -4072 0
-3809 -4109 0
-3810 -4110 0
-3811 -4111 0
-3812 -4112 0
-3813 -3817 0
-3814 -3818 0
-3815 -3819 0
-3816 -3820 0
-3813 -3825 0
-3814 -3826 0
-3815 -3827 0
-3816 -3828 0
-3813 -3873 0
-3814 -3874 0
-3815 -3875 0
-3816 -3876 0
-3813 -4049 0
-3814 -4050 0
-3815 -4051 0
-3816 -4052 0
-3813 -4121 0
-3814 -4122 0
-3815 -4123 0
-3816 -4124 0
-3817 -3829 0
-3818 -3830 0
-3819 -3831 0
-3820 -3832 0
-3817 -3877 0
-3818 -3878 0
-3819 -3879 0
-3820 -3880 0
-3817 -4113 0
-3818 -4114 0
-3819 -4115 0
-3820 -4116 0
-3817 -4201 0
-3818 -4202 0
-3819 -4203 0
-3820 -4204 0
-3821 -3829 0
-3822 -3830 0
-3823 -3831 0
-3824 -3832 0
-3821 -3889 0
-3822 -3890 0
-3823 -3891 0
-3824 -3892 0
-3821 -4117 0
-3822 -4118 0
-3823 -4119 0
-3824 -4120 0
-3825 -3829 0
-3826 -3830 0
-3827 -3831 0
-3828 -3832 0
-3825 -3885 0
-3826 -3886 0
-3827 -3887 0
-3828 -3888 0
-3825 -3925 0
-3826 -3926 0
-3827 -3927 0
-3828 -3928 0
-3825 -4125 0
-3826 -4126 0
-3827 -4127 0
-3828 -4128 0
-3825 -4193 0
-3826 -4194 0
-3827 -4195 0
-3828 -4196 0
-3829 -3889 0
-3830 -3890 0
-3831 -3891 0
-3832 -3892 0
-3829 -4241 0
-3830 -4242 0
-3831 -4243 0
-3832 -4244 0
-3833 -3837 0
-3834 -3838 0
-3835 -3839 0
-3836 -3840 0
-3833 -3841 0
-3834 -3842 0
-3835 -3843 0
-3836 -3844 0
-3833 -3845 0
-3834 -3846 0
-3835 -3847 0
-3836 -3848 0
-3833 -3857 0
-3834 -3858 0
-3835 -3859 0
-3836 -3860 0
-3833 -3861 0
-3834 -3862 0
-3835 -3863 0
-3836 -3864 0
-3833 -4057 0
-3834 -4058 0
-3835 -4059 0
-3836 -4060 0
-3833 -4209 0
-3834 -4210 0
-3835 -4211 0
-3836 -4212 0
-3833 -4241 0
-3834 -4242 0
-3835 -4243 0
-3836 -4244 0
-3837 -4037 0
-3838 -4038 0
-3839 -4039 0
-3840 -4040 0
-3837 -4061 0
-3838 -4062 0
-3839 -4063 0
-3840 -4064 0
-3837 -4165 0
-3838 -4166 0
-3839 -4167 0
-3840 -4168 0
-3841 -3845 0
-3842 -3846 0
-3843 -3847 0
-3844 -3848 0
-3841 -3881 0
-3842 -3882 0
-3843 -3883 0
-3844 -3884 0
-3841 -3885 0
-3842 -3886 0
-3843 -3887 0
-3844 -3888 0
-3841 -3929 0
-3842 -3930 0
-3843 -3931 0
-3844 -3932 0
-3841 -4085 0
-3842 -4086 0
-3843 -4087 0
-3844 -4088 0
-3845 -3889 0
-3846 -3890 0
-3847 -3891 0
-3848 -3892 0
-3845 -4173 0
-3846 -4174 0
-3847 -4175 0
-3848 -4176 0
-3845 -4213 0
-3846 -4214 0
-3847 -4215 0
-3848 -4216 0
-3845 -4225 0
-3846 -4226 0
-3847 -4227 0
-3848 -4228 0
-3849 -3857 0
-3850 -3858 0
-3851 -3859 0
-3852 -3860 0
-3849 -3865 0
-3850 -3866 0
-3851 -3867 0
-3852 -3868 0
-3849 -4225 0
-3850 -4226 0
-3851 -4227 0
-3852 -4228 0
-3849 -4257 0
-3850 -4258 0
-3851 -4259 0
-3852 -4260 0
-3853 -3861 0
-3854 -3862 0
-3855 -3863 0
-3856 -3864 0
-3853 -3873 0
-3854 -3874 0
-3855 -3875 0
-3856 -3876 0
-3853 -3877 0
-3854 -3878 0
-3855 -3879 0
-3856 -3880 0
-3857 -3861 0
-3858 -3862 0
-3859 -3863 0
-3860 -3864 0
-3857 -3881 0
-3858 -3882 0
-3859 -3883 0
-3860 -3884 0
-3857 -4261 0
-3858 -4262 0
-3859 -4263 0
-3860 -4264 0
-3861 -3885 0
-3862 -3886 0
-3863 -3887 0
-3864 -3888 0
-3861 -3889 0
-3862 -3890 0
-3863 -3891 0
-3864 -3892 0
-3861 -3941 0
-3862 -3942 0
-3863 -3943 0
-3864 -3944 0
-3865 -3869 0
-3866 -3870 0
-3867 -3871 0
-3868 -3872 0
-3865 -3881 0
-3866 -3882 0
-3867 -3883 0
-3868 -3884 0
-3865 -3957 0
-3866 -3958 0
-3867 -3959 0
-3868 -3960 0
-3869 -3885 0
-3870 -3886 0
-3871 -3887 0
-3872 -3888 0
-3869 -3945 0
-3870 -3946 0
-3871 -3947 0
-3872 -3948 0
-3873 -3877 0
-3874 -3878 0
-3875 -3879 0
-3876 -3880 0
-3873 -3885 0
-3874 -3886 0
-3875 -3887 0
-3876 -3888 0
-3873 -3953 0
-3874 -3954 0
-3875 -3955 0
-3876 -3956 0
-3873 -4089 0
-3874 -4090 0
-3875 -4091 0
-3876 -4092 0
-3877 -3889 0
-3878 -3890 0
-3879 -3891 0
-3880 -3892 0
-3877 -4093 0
-3878 -4094 0
-3879 -4095 0
-3880 -4096 0
-3877 -4129 0
-3878 -4130 0
-3879 -4131 0
-3880 -4132 0
-3881 -3885 0
-3882 -3886 0
-3883 -3887 0
-3884 -3888 0
-3881 -3965 0
-3882 -3966 0
-3883 -3967 0
-3884 -3968 0
-3881 -4117 0
-3882 -4118 0
-3883 -4119 0
-3884 -4120 0
-3881 -4205 0
-3882 -4206 0
-3883 -4207 0
-3884 -4208 0
-3885 -3889 0
-3886 -3890 0
-3887 -3891 0
-3888 -3892 0
-3885 -3973 0
-3886 -3974 0
-3887 -3975 0
-3888 -3976 0
-3885 -4101 0
-3886 -4102 0
-3887 -4103 0
-3888 -4104 0
-3889 -3977 0
-3890 -3978 0
-3891 -3979 0
-3892 -3980 0
-3893 -3897 0
-3894 -3898 0
-3895 -3899 0
-3896 -3900 0
-3893 -3957 0
-3894 -3958 0
-3895 -3959 0
-3896 -3960 0
-3893 -3973 0
-3894 -3974 0
-3895 -3975 0
-3896 -3976 0
-3897 -3973 0
-3898 -3974 0
-3899 -3975 0
-3900 -3976 0
-3897 -3989 0
-3898 -3990 0
-3899 -3991 0
-3900 -3992 0
-3897 -4177 0
-3898 -4178 0
-3899 -4179 0
-3900 -4180 0
-3901 -3905 0
-3902 -3906 0
-3903 -3907 0
-3904 -3908 0
-3901 -3909 0
-3902 -3910 0
-3903 -3911 0
-3904 -3912 0
-3901 -4249 0
-3902 -4250 0
-3903 -4251 0
-3904 -4252 0
-3905 -3917 0
-3906 -3918 0
-3907 -3919 0
-3908 -3920 0
-3905 -4193 0
-3906 -4194 0
-3907 -4195 0
-3908 -4196 0
-3905 -4249 0
-3906 -4250 0
-3907 -4251 0
-3908 -4252 0
-3909 -3917 0
-3910 -3918 0
-3911 -3919 0
-3912 -3920 0
-3909 -4093 0
-3910 -4094 0
-3911 -4095 0
-3912 -4096 0
-3909 -4149 0
-3910 -4150 0
-3911 -4151 0
-3912 -4152 0
-3909 -4253 0
-3910 -4254 0
-3911 -4255 0
-3912 -4256 0
-3913 -3917 0
-3914 -3918 0
-3915 -3919 0
-3916 -3920 0
-3913 -4197 0
-3914 -4198 0
-3915 -4199 0
-3916 -4200 0
-3917 -4073 0
-3918 -4074 0
-3919 -4075 0
-3920 -4076 0
-3917 -4157 0
-3918 -4158 0
-3919 -4159 0
-3920 -4160 0
-3917 -4253 0
-3918 -4254 0
-3919 -4255 0
-3920 -4256 0
-3921 -3925 0
-3922 -3926 0
-3923 -3927 0
-3924 -3928 0
-3921 -3961 0
-3922 -3962 0
-3923 -3963 0
-3924 -3964 0
-3921 -3973 0
-3922 -3974 0
-3923 -3975 0
-3924 -3976 0
-3921 -4185 0
-3922 -4186 0
-3923 -4187 0
-3924 -4188 0
-3925 -3973 0
-3926 -3974 0
-3927 -3975 0
-3928 -3976 0
-3925 -3985 0
-3926 -3986 0
-3927 -3987 0
-3928 -3988 0
-3929 -3933 0
-3930 -3934 0
-3931 -3935 0
-3932 -3936 0
-3929 -3965 0
-3930 -3966 0
-3931 -3967 0
-3932 -3968 0
-3929 -3973 0
-3930 -3974 0
-3931 -3975 0
-3932 -3976 0
-3933 -3973 0
-3934 -3974 0
-3935 -3975 0
-3936 -3976 0
-3933 -3981 0
-3934 -3982 0
-3935 -3983 0
-3936 -3984 0
-3933 -4081 0
-3934 -4082 0
-3935 -4083 0
-3936 -4084 0
-3933 -4169 0
-3934 -4170 0
-3935 -4171 0
-3936 -4172 0
-3937 -3941 0
-3938 -3942 0
-3939 -3943 0
-3940 -3944 0
-3937 -3969 0
-3938 -3970 0
-3939 -3971 0
-3940 -3972 0
-3937 -3973 0
-3938 -3974 0
-3939 -3975 0
-3940 -3976 0
-3941 -3973 0
-3942 -3974 0
-3943 -3975 0
-3944 -3976 0
-3941 -3977 0
-3942 -3978 0
-3943 -3979 0
-3944 -3980 0
-3945 -3973 0
-3946 -3974 0
-3947 -3975 0
-3948 -3976 0
-3945 -4257 0
-3946 -4258 0
-3947 -4259 0
-3948 -4260 0
-3949 -3973 0
-3950 -3974 0
-3951 -3975 0
-3952 -3976 0
-3949 -4249 0
-3950 -4250 0
-3951 -4251 0
-3952 -4252 0
-3953 -3973 0
-3954 -3974 0
-3955 -3975 0
-3956 -3976 0
-3953 -4133 0
-3954 -4134 0
-3955 -4135 0
-3956 -4136 0
-3957 -3973 0
-3958 -3974 0
-3959 -3975 0
-3960 -3976 0
-3957 -4049 0
-3958 -4050 0
-3959 -4051 0
-3960 -4052 0
-3961 -3973 0
-3962 -3974 0
-3963 -3975 0
-3964 -3976 0
-3961 -4021 0
-3962 -4022 0
-3963 -4023 0
-3964 -4024 0
-3961 -4137 0
-3962 -4138 0
-3963 -4139 0
-3964 -4140 0
-3965 -3973 0
-3966 -3974 0
-3967 -3975 0
-3968 -3976 0
-3965 -4013 0
-3966 -4014 0
-3967 -4015 0
-3968 -4016 0
-3969 -3973 0
-3970 -3974 0
-3971 -3975 0
-3972 -3976 0
-3969 -4005 0
-3970 -4006 0
-3971 -4007 0
-3972 -4008 0
-3969 -4217 0
-3970 -4218 0
-3971 -4219 0
-3972 -4220 0
-3973 -3977 0
-3974 -3978 0
-3975 -3979 0
-3976 -3980 0
-3973 -3981 0
-3974 -3982 0
-3975 -3983 0
-3976 -3984 0
-3973 -3985 0
-3974 -3986 0
-3975 -3987 0
-3976 -3988 0
-3973 -3989 0
-3974 -3990 0
-3975 -3991 0
-3976 -3992 0
-3973 -3993 0
-3974 -3994 0
-3975 -3995 0
-3976 -3996 0
-3973 -3997 0
-3974 -3998 0
-3975 -3999 0
-3976 -4000 0
-3973 -4001 0
-3974 -4002 0
-3975 -4003 0
-3976 -4004 0
-3973 -4005 0
-3974 -4006 0
-3975 -4007 0
-3976 -4008 0
-3973 -4009 0
-3974 -4010 0
-3975 -4011 0
-3976 -4012 0
-3973 -4013 0
-3974 -4014 0
-3975 -4015 0
-3976 -4016 0
-3973 -4017 0
-3974 -4018 0
-3975 -4019 0
-3976 -4020 0
-3973 -4021 0
-3974 -4022 0
-3975 -4023 0
-3976 -4024 0
-3973 -4025 0
-3974 -4026 0
-3975 -4027 0
-3976 -4028 0
-3973 -4049 0
-3974 -4050 0
-3975 -4051 0
-3976 -4052 0
-3973 -4053 0
-3974 -4054 0
-3975 -4055 0
-3976 -4056 0
-3973 -4109 0
-3974 -4110 0
-3975 -4111 0
-3976 -4112 0
-3973 -4141 0
-3974 -4142 0
-3975 -4143 0
-3976 -4144 0
-3973 -4189 0
-3974 -4190 0
-3975 -4191 0
-3976 -4192 0
-3973 -4221 0
-3974 -4222 0
-3975 -4223 0
-3976 -4224 0
-3973 -4249 0
-3974 -4250 0
-3975 -4251 0
-3976 -4252 0
-3973 -4253 0
-3974 -4254 0
-3975 -4255 0
-3976 -4256 0
-3973 -4257 0
-3974 -4258 0
-3975 -4259 0
-3976 -4260 0
-3973 -4261 0
-3974 -4262 0
-3975 -4263 0
-3976 -4264 0
-3973 -8233 0
-3974 -8234 0
-3975 -8235 0
-3976 -8236 0
-3977 -4009 0
-3978 -4010 0
-3979 -4011 0
-3980 -4012 0
-3981 -4017 0
-3982 -4018 0
-3983 -4019 0
-3984 -4020 0
-3981 -4193 0
-3982 -4194 0
-3983 -4195 0
-3984 -4196 0
-3985 -4025 0
-3986 -4026 0
-3987 -4027 0
-3988 -4028 0
-3985 -4113 0
-3986 -4114 0
-3987 -4115 0
-3988 -4116 0
-3989 -4053 0
-3990 -4054 0
-3991 -4055 0
-3992 -4056 0
-3989 -4145 0
-3990 -4146 0
-3991 -4147 0
-3992 -4148 0
-3993 -4117 0
-3994 -4118 0
-3995 -4119 0
-3996 -4120 0
-3993 -4229 0
-3994 -4230 0
-3995 -4231 0
-3996 -4232 0
-3997 -4121 0
-3998 -4122 0
-3999 -4123 0
-4000 -4124 0
-3997 -4197 0
-3998 -4198 0
-3999 -4199 0
-4000 -4200 0
-3997 -4253 0
-3998 -4254 0
-3999 -4255 0
-4000 -4256 0
-4001 -4157 0
-4002 -4158 0
-4003 -4159 0
-4004 -4160 0
-4001 -4261 0
-4002 -4262 0
-4003 -4263 0
-4004 -4264 0
-4005 -4009 0
-4006 -4010 0
-4007 -4011 0
-4008 -4012 0
-4005 -4233 0
-4006 -4234 0
-4007 -4235 0
-4008 -4236 0
-4013 -4017 0
-4014 -4018 0
-4015 -4019 0
-4016 -4020 0
-4017 -4161 0
-4018 -4162 0
-4019 -4163 0
-4020 -4164 0
-4017 -4201 0
-4018 -4202 0
-4019 -4203 0
-4020 -4204 0
-4021 -4025 0
-4022 -4026 0
-4023 -4027 0
-4024 -4028 0
-4021 -4165 0
-4022 -4166 0
-4023 -4167 0
-4024 -4168 0
-4021 -4205 0
-4022 -4206 0
-4023 -4207 0
-4024 -4208 0
-4025 -4129 0
-4026 -4130 0
-4027 -4131 0
-4028 -4132 0
-4025 -4209 0
-4026 -4210 0
-4027 -4211 0
-4028 -4212 0
-4029 -4033 0
-4030 -4034 0
-4031 -4035 0
-4032 -4036 0
-4029 -4037 0
-4030 -4038 0
-4031 -4039 0
-4032 -4040 0
-4029 -4257 0
-4030 -4258 0
-4031 -4259 0
-4032 -4260 0
-4033 -4045 0
-4034 -4046 0
-4035 -4047 0
-4036 -4048 0
-4033 -4137 0
-4034 -4138 0
-4035 -4139 0
-4036 -4140 0
-4033 -4257 0
-4034 -4258 0
-4035 -4259 0
-4036 -4260 0
-4037 -4041 0
-4038 -4042 0
-4039 -4043 0
-4040 -4044 0
-4037 -4045 0
-4038 -4046 0
-4039 -4047 0
-4040 -4048 0
-4037 -4205 0
-4038 -4206 0
-4039 -4207 0
-4040 -4208 0
-4037 -4261 0
-4038 -4262 0
-4039 -4263 0
-4040 -4264 0
-4041 -4077 0
-4042 -4078 0
-4043 -4079 0
-4044 -4080 0
-4045 -4153 0
-4046 -4154 0
-4047 -4155 0
-4048 -4156 0
-4045 -4213 0
-4046 -4214 0
-4047 -4215 0
-4048 -4216 0
-4045 -4261 0
-4046 -4262 0
-4047 -4263 0
-4048 -4264 0
-4049 -4053 0
-4050 -4054 0
-4051 -4055 0
-4052 -4056 0
-4057 -4061 0
-4058 -4062 0
-4059 -4063 0
-4060 -4064 0
-4057 -4081 0
-4058 -4082 0
-4059 -4083 0
-4060 -4084 0
-4057 -4217 0
-4058 -4218 0
-4059 -4219 0
-4060 -4220 0
-4057 -4237 0
-4058 -4238 0
-4059 -4239 0
-4060 -4240 0
-4057 -4249 0
-4058 -4250 0
-4059 -4251 0
-4060 -4252 0
-4061 -4065 0
-4062 -4066 0
-4063 -4067 0
-4064 -4068 0
-4061 -4089 0
-4062 -4090 0
-4063 -4091 0
-4064 -4092 0
-4061 -4097 0
-4062 -4098 0
-4063 -4099 0
-4064 -4100 0
-4061 -4165 0
-4062 -4166 0
-4063 -4167 0
-4064 -4168 0
-4061 -4181 0
-4062 -4182 0
-4063 -4183 0
-4064 -4184 0
-4061 -4253 0
-4062 -4254 0
-4063 -4255 0
-4064 -4256 0
-4065 -4101 0
-4066 -4102 0
-4067 -4103 0
-4068 -4104 0
-4065 -4105 0
-4066 -4106 0
-4067 -4107 0
-4068 -4108 0
-4065 -4153 0
-4066 -4154 0
-4067 -4155 0
-4068 -4156 0
-4069 -4073 0
-4070 -4074 0
-4071 -4075 0
-4072 -4076 0
-4069 -4093 0
-4070 -4094 0
-4071 -4095 0
-4072 -4096 0
-4069 -4189 0
-4070 -4190 0
-4071 -4191 0
-4072 -4192 0
-4077 -4097 0
-4078 -4098 0
-4079 -4099 0
-4080 -4100 0
-4077 -4221 0
-4078 -4222 0
-4079 -4223 0
-4080 -4224 0
-4081 -4085 0
-4082 -4086 0
-4083 -4087 0
-4084 -4088 0
-4081 -4097 0
-4082 -4098 0
-4083 -4099 0
-4084 -4100 0
-4081 -4109 0
-4082 -4110 0
-4083 -4111 0
-4084 -4112 0
-4085 -4105 0
-4086 -4106 0
-4087 -4107 0
-4088 -4108 0
-4085 -4117 0
-4086 -4118 0
-4087 -4119 0
-4088 -4120 0
-4089 -4093 0
-4090 -4094 0
-4091 -4095 0
-4092 -4096 0
-4089 -4097 0
-4090 -4098 0
-4091 -4099 0
-4092 -4100 0
-4089 -4101 0
-4090 -4102 0
-4091 -4103 0
-4092 -4104 0
-4089 -4133 0
-4090 -4134 0
-4091 -4135 0
-4092 -4136 0
-4089 -4193 0
-4090 -4194 0
-4091 -4195 0
-4092 -4196 0
-4093 -4209 0
-4094 -4210 0
-4095 -4211 0
-4096 -4212 0
-4097 -4105 0
-4098 -4106 0
-4099 -4107 0
-4100 -4108 0
-4097 -4121 0
-4098 -4122 0
-4099 -4123 0
-4100 -4124 0
-4097 -4173 0
-4098 -4174 0
-4099 -4175 0
-4100 -4176 0
-4097 -4233 0
-4098 -4234 0
-4099 -4235 0
-4100 -4236 0
-4097 -4245 0
-4098 -4246 0
-4099 -4247 0
-4100 -4248 0
-4101 -4105 0
-4102 -4106 0
-4103 -4107 0
-4104 -4108 0
-4101 -4141 0
-4102 -4142 0
-4103 -4143 0
-4104 -4144 0
-4105 -4125 0
-4106 -4126 0
-4107 -4127 0
-4108 -4128 0
-4105 -4145 0
-4106 -4146 0
-4107 -4147 0
-4108 -4148 0
-4109 -4113 0
-4110 -4114 0
-4111 -4115 0
-4112 -4116 0
-4109 -4117 0
-4110 -4118 0
-4111 -4119 0
-4112 -4120 0
-4109 -4121 0
-4110 -4122 0
-4111 -4123 0
-4112 -4124 0
-4109 -4129 0
-4110 -4130 0
-4111 -4131 0
-4112 -4132 0
-4109 -4189 0
-4110 -4190 0
-4111 -4191 0
-4112 -4192 0
-4113 -4129 0
-4114 -4130 0
-4115 -4131 0
-4116 -4132 0
-4117 -4125 0
-4118 -4126 0
-4119 -4127 0
-4120 -4128 0
-4121 -4125 0
-4122 -4126 0
-4123 -4127 0
-4124 -4128 0
-4121 -4197 0
-4122 -4198 0
-4123 -4199 0
-4124 -4200 0
-4125 -4261 0
-4126 -4262 0
-4127 -4263 0
-4128 -4264 0
-4129 -4209 0
-4130 -4210 0
-4131 -4211 0
-4132 -4212 0
-4133 -4141 0
-4134 -4142 0
-4135 -4143 0
-4136 -4144 0
-4133 -4149 0
-4134 -4150 0
-4135 -4151 0
-4136 -4152 0
-4137 -4141 0
-4138 -4142 0
-4139 -4143 0
-4140 -4144 0
-4137 -4153 0
-4138 -4154 0
-4139 -4155 0
-4140 -4156 0
-4137 -4165 0
-4138 -4166 0
-4139 -4167 0
-4140 -4168 0
-4141 -4145 0
-4142 -4146 0
-4143 -4147 0
-4144 -4148 0
-4141 -4157 0
-4142 -4158 0
-4143 -4159 0
-4144 -4160 0
-4141 -4161 0
-4142 -4162 0
-4143 -4163 0
-4144 -4164 0
-4141 -4165 0
-4142 -4166 0
-4143 -4167 0
-4144 -4168 0
-4141 -4189 0
-4142 -4190 0
-4143 -4191 0
-4144 -4192 0
-4145 -4169 0
-4146 -4170 0
-4147 -4171 0
-4148 -4172 0
-4149 -4157 0
-4150 -4158 0
-4151 -4159 0
-4152 -4160 0
-4149 -4209 0
-4150 -4210 0
-4151 -4211 0
-4152 -4212 0
-4149 -4237 0
-4150 -4238 0
-4151 -4239 0
-4152 -4240 0
-4153 -4157 0
-4154 -4158 0
-4155 -4159 0
-4156 -4160 0
-4153 -4177 0
-4154 -4178 0
-4155 -4179 0
-4156 -4180 0
-4153 -4213 0
-4154 -4214 0
-4155 -4215 0
-4156 -4216 0
-4161 -4201 0
-4162 -4202 0
-4163 -4203 0
-4164 -4204 0
-4165 -4169 0
-4166 -4170 0
-4167 -4171 0
-4168 -4172 0
-4165 -4173 0
-4166 -4174 0
-4167 -4175 0
-4168 -4176 0
-4165 -4205 0
-4166 -4206 0
-4167 -4207 0
-4168 -4208 0
-4165 -4229 0
-4166 -4230 0
-4167 -4231 0
-4168 -4232 0
-4169 -4173 0
-4170 -4174 0
-4171 -4175 0
-4172 -4176 0
-4173 -4233 0
-4174 -4234 0
-4175 -4235 0
-4176 -4236 0
-4173 -4257 0
-4174 -4258 0
-4175 -4259 0
-4176 -4260 0
-4177 -4181 0
-4178 -4182 0
-4179 -4183 0
-4180 -4184 0
-4177 -4185 0
-4178 -4186 0
-4179 -4187 0
-4180 -4188 0
-4177 -4189 0
-4178 -4190 0
-4179 -4191 0
-4180 -4192 0
-4177 -4225 0
-4178 -4226 0
-4179 -4227 0
-4180 -4228 0
-4177 -4245 0
-4178 -4246 0
-4179 -4247 0
-4180 -4248 0
-4181 -4185 0
-4182 -4186 0
-4183 -4187 0
-4184 -4188 0
-4181 -4193 0
-4182 -4194 0
-4183 -4195 0
-4184 -4196 0
-4181 -4229 0
-4182 -4230 0
-4183 -4231 0
-4184 -4232 0
-4181 -4253 0
-4182 -4254 0
-4183 -4255 0
-4184 -4256 0
-4185 -4201 0
-4186 -4202 0
-4187 -4203 0
-4188 -4204 0
-4189 -4193 0
-4190 -4194 0
-4191 -4195 0
-4192 -4196 0
-4189 -4197 0
-4190 -4198 0
-4191 -4199 0
-4192 -4200 0
-4189 -4201 0
-4190 -4202 0
-4191 -4203 0
-4192 -4204 0
-4189 -4205 0
-4190 -4206 0
-4191 -4207 0
-4192 -4208 0
-4189 -4209 0
-4190 -4210 0
-4191 -4211 0
-4192 -4212 0
-4193 -4201 0
-4194 -4202 0
-4195 -4203 0
-4196 -4204 0
-4205 -4209 0
-4206 -4210 0
-4207 -4211 0
-4208 -4212 0
-4205 -4213 0
-4206 -4214 0
-4207 -4215 0
-4208 -4216 0
-4209 -4237 0
-4210 -4238 0
-4211 -4239 0
-4212 -4240 0
-4209 -4241 0
-4210 -4242 0
-4211 -4243 0
-4212 -4244 0
-4213 -4225 0
-4214 -4226 0
-4215 -4227 0
-4216 -4228 0
-4217 -4221 0
-4218 -4222 0
-4219 -4223 0
-4220 -4224 0
-4217 -4233 0
-4218 -4234 0
-4219 -4235 0
-4220 -4236 0
-4221 -4229 0
-4222 -4230 0
-4223 -4231 0
-4224 -4232 0
-4221 -4233 0
-4222 -4234 0
-4223 -4235 0
-4224 -4236 0
-4225 -4229 0
-4226 -4230 0
-4227 -4231 0
-4228 -4232 0
-4225 -4257 0
-4226 -4258 0
-4227 -4259 0
-4228 -4260 0
-4237 -4249 0
-4238 -4250 0
-4239 -4251 0
-4240 -4252 0
-4241 -4249 0
-4242 -4250 0
-4243 -4251 0
-4244 -4252 0
-4245 -4257 0
-4246 -4258 0
-4247 -4259 0
-4248 -4260 0
-4249 -4253 0
-4250 -4254 0
-4251 -4255 0
-4252 -4256 0
-4257 -4261 0
-4258 -4262 0
-4259 -4263 0
-4260 -4264 0
-4265 -4301 0
-4266 -4302 0
-4267 -4303 0
-4268 -4304 0
-4265 -4349 0
-4266 -4350 0
-4267 -4351 0
-4268 -4352 0
-4265 -4453 0
-4266 -4454 0
-4267 -4455 0
-4268 -4456 0
-4265 -4477 0
-4266 -4478 0
-4267 -4479 0
-4268 -4480 0
-4265 -4513 0
-4266 -4514 0
-4267 -4515 0
-4268 -4516 0
-4265 -4521 0
-4266 -4522 0
-4267 -4523 0
-4268 -4524 0
-4265 -4541 0
-4266 -4542 0
-4267 -4543 0
-4268 -4544 0
-4265 -4545 0
-4266 -4546 0
-4267 -4547 0
-4268 -4548 0
-4269 -4273 0
-4270 -4274 0
-4271 -4275 0
-4272 -4276 0
-4269 -4285 0
-4270 -4286 0
-4271 -4287 0
-4272 -4288 0
-4269 -4373 0
-4270 -4374 0
-4271 -4375 0
-4272 -4376 0
-4269 -4429 0
-4270 -4430 0
-4271 -4431 0
-4272 -4432 0
-4269 -4641 0
-4270 -4642 0
-4271 -4643 0
-4272 -4644 0
-4269 -4669 0
-4270 -4670 0
-4271 -4671 0
-4272 -4672 0
-4269 -4805 0
-4270 -4806 0
-4271 -4807 0
-4272 -4808 0
-4273 -4293 0
-4274 -4294 0
-4275 -4295 0
-4276 -4296 0
-4273 -4337 0
-4274 -4338 0
-4275 -4339 0
-4276 -4340 0
-4273 -4385 0
-4274 -4386 0
-4275 -4387 0
-4276 -4388 0
-4273 -4433 0
-4274 -4434 0
-4275 -4435 0
-4276 -4436 0
-4273 -4657 0
-4274 -4658 0
-4275 -4659 0
-4276 -4660 0
-4273 -4669 0
-4274 -4670 0
-4275 -4671 0
-4276 -4672 0
-4277 -4309 0
-4278 -4310 0
-4279 -4311 0
-4280 -4312 0
-4277 -4401 0
-4278 -4402 0
-4279 -4403 0
-4280 -4404 0
-4277 -4441 0
-4278 -4442 0
-4279 -4443 0
-4280 -4444 0
-4277 -4605 0
-4278 -4606 0
-4279 -4607 0
-4280 -4608 0
-4277 -4689 0
-4278 -4690 0
-4279 -4691 0
-4280 -4692 0
-4277 -4757 0
-4278 -4758 0
-4279 -4759 0
-4280 -4760 0
-4277 -4997 0
-4278 -4998 0
-4279 -4999 0
-4280 -5000 0
-4281 -4305 0
-4282 -4306 0
-4283 -4307 0
-4284 -4308 0
-4281 -4361 0
-4282 -4362 0
-4283 -4363 0
-4284 -4364 0
-4281 -4501 0
-4282 -4502 0
-4283 -4503 0
-4284 -4504 0
-4281 -4641 0
-4282 -4642 0
-4283 -4643 0
-4284 -4644 0
-4281 -4701 0
-4282 -4702 0
-4283 -4703 0
-4284 -4704 0
-4281 -4717 0
-4282 -4718 0
-4283 -4719 0
-4284 -4720 0
-4281 -5061 0
-4282 -5062 0
-4283 -5063 0
-4284 -5064 0
-4285 -4289 0
-4286 -4290 0
-4287 -4291 0
-4288 -4292 0
-4285 -4293 0
-4286 -4294 0
-4287 -4295 0
-4288 -4296 0
-4285 -4481 0
-4286 -4482 0
-4287 -4483 0
-4288 -4484 0
-4285 -4569 0
-4286 -4570 0
-4287 -4571 0
-4288 -4572 0
-4285 -4849 0
-4286 -4850 0
-4287 -4851 0
-4288 -4852 0
-4285 -4917 0
-4286 -4918 0
-4287 -4919 0
-4288 -4920 0
-4285 -5165 0
-4286 -5166 0
-4287 -5167 0
-4288 -5168 0
-4289 -4297 0
-4290 -4298 0
-4291 -4299 0
-4292 -4300 0
-4289 -4329 0
-4290 -4330 0
-4291 -4331 0
-4292 -4332 0
-4289 -4397 0
-4290 -4398 0
-4291 -4399 0
-4292 -4400 0
-4289 -4573 0
-4290 -4574 0
-4291 -4575 0
-4292 -4576 0
-4289 -4701 0
-4290 -4702 0
-4291 -4703 0
-4292 -4704 0
-4289 -4849 0
-4290 -4850 0
-4291 -4851 0
-4292 -4852 0
-4289 -4857 0
-4290 -4858 0
-4291 -4859 0
-4292 -4860 0
-4289 -4921 0
-4290 -4922 0
-4291 -4923 0
-4292 -4924 0
-4289 -4981 0
-4290 -4982 0
-4291 -4983 0
-4292 -4984 0
-4289 -5173 0
-4290 -5174 0
-4291 -5175 0
-4292 -5176 0
-4293 -4297 0
-4294 -4298 0
-4295 -4299 0
-4296 -4300 0
-4293 -4337 0
-4294 -4338 0
-4295 -4339 0
-4296 -4340 0
-4293 -4577 0
-4294 -4578 0
-4295 -4579 0
-4296 -4580 0
-4293 -4861 0
-4294 -4862 0
-4295 -4863 0
-4296 -4864 0
-4293 -5017 0
-4294 -5018 0
-4295 -5019 0
-4296 -5020 0
-4297 -4341 0
-4298 -4342 0
-4299 -4343 0
-4300 -4344 0
-4297 -4449 0
-4298 -4450 0
-4299 -4451 0
-4300 -4452 0
-4297 -4477 0
-4298 -4478 0
-4299 -4479 0
-4300 -4480 0
-4297 -4581 0
-4298 -4582 0
-4299 -4583 0
-4300 -4584 0
-4297 -4733 0
-4298 -4734 0
-4299 -4735 0
-4300 -4736 0
-4297 -4861 0
-4298 -4862 0
-4299 -4863 0
-4300 -4864 0
-4297 -4865 0
-4298 -4866 0
-4299 -4867 0
-4300 -4868 0
-4297 -4981 0
-4298 -4982 0
-4299 -4983 0
-4300 -4984 0
-4297 -5021 0
-4298 -5022 0
-4299 -5023 0
-4300 -5024 0
-4297 -5185 0
-4298 -5186 0
-4299 -5187 0
-4300 -5188 0
-4301 -4365 0
-4302 -4366 0
-4303 -4367 0
-4304 -4368 0
-4301 -4413 0
-4302 -4414 0
-4303 -4415 0
-4304 -4416 0
-4301 -4585 0
-4302 -4586 0
-4303 -4587 0
-4304 -4588 0
-4301 -4793 0
-4302 -4794 0
-4303 -4795 0
-4304 -4796 0
-4301 -4981 0
-4302 -4982 0
-4303 -4983 0
-4304 -4984 0
-4301 -5269 0
-4302 -5270 0
-4303 -5271 0
-4304 -5272 0
-4305 -4309 0
-4306 -4310 0
-4307 -4311 0
-4308 -4312 0
-4305 -4313 0
-4306 -4314 0
-4307 -4315 0
-4308 -4316 0
-4305 -4361 0
-4306 -4362 0
-4307 -4363 0
-4308 -4364 0
-4305 -4617 0
-4306 -4618 0
-4307 -4619 0
-4308 -4620 0
-4305 -4817 0
-4306 -4818 0
-4307 -4819 0
-4308 -4820 0
-4305 -4925 0
-4306 -4926 0
-4307 -4927 0
-4308 -4928 0
-4305 -5089 0
-4306 -5090 0
-4307 -5091 0
-4308 -5092 0
-4305 -5317 0
-4306 -5318 0
-4307 -5319 0
-4308 -5320 0
-4309 -4317 0
-4310 -4318 0
-4311 -4319 0
-4312 -4320 0
-4309 -4537 0
-4310 -4538 0
-4311 -4539 0
-4312 -4540 0
-4309 -4557 0
-4310 -4558 0
-4311 -4559 0
-4312 -4560 0
-4309 -4621 0
-4310 -4622 0
-4311 -4623 0
-4312 -4624 0
-4309 -4821 0
-4310 -4822 0
-4311 -4823 0
-4312 -4824 0
-4309 -4929 0
-4310 -4930 0
-4311 -4931 0
-4312 -4932 0
-4309 -4981 0
-4310 -4982 0
-4311 -4983 0
-4312 -4984 0
-4309 -5089 0
-4310 -5090 0
-4311 -5091 0
-4312 -5092 0
-4309 -5097 0
-4310 -5098 0
-4311 -5099 0
-4312 -5100 0
-4309 -5329 0
-4310 -5330 0
-4311 -5331 0
-4312 -5332 0
-4313 -4317 0
-4314 -4318 0
-4315 -4319 0
-4316 -4320 0
-4313 -4377 0
-4314 -4378 0
-4315 -4379 0
-4316 -4380 0
-4313 -4633 0
-4314 -4634 0
-4315 -4635 0
-4316 -4636 0
-4313 -4825 0
-4314 -4826 0
-4315 -4827 0
-4316 -4828 0
-4313 -5009 0
-4314 -5010 0
-4315 -5011 0
-4316 -5012 0
-4313 -5101 0
-4314 -5102 0
-4315 -5103 0
-4316 -5104 0
-4317 -4353 0
-4318 -4354 0
-4319 -4355 0
-4320 -4356 0
-4317 -4381 0
-4318 -4382 0
-4319 -4383 0
-4320 -4384 0
-4317 -4541 0
-4318 -4542 0
-4319 -4543 0
-4320 -4544 0
-4317 -4829 0
-4318 -4830 0
-4319 -4831 0
-4320 -4832 0
-4317 -4981 0
-4318 -4982 0
-4319 -4983 0
-4320 -4984 0
-4317 -5013 0
-4318 -5014 0
-4319 -5015 0
-4320 -5016 0
-4317 -5101 0
-4318 -5102 0
-4319 -5103 0
-4320 -5104 0
-4317 -5105 0
-4318 -5106 0
-4319 -5107 0
-4320 -5108 0
-4321 -4325 0
-4322 -4326 0
-4323 -4327 0
-4324 -4328 0
-4321 -4333 0
-4322 -4334 0
-4323 -4335 0
-4324 -4336 0
-4321 -4373 0
-4322 -4374 0
-4323 -4375 0
-4324 -4376 0
-4321 -4481 0
-4322 -4482 0
-4323 -4483 0
-4324 -4484 0
-4321 -4689 0
-4322 -4690 0
-4323 -4691 0
-4324 -4692 0
-4321 -4901 0
-4322 -4902 0
-4323 -4903 0
-4324 -4904 0
-4321 -5189 0
-4322 -5190 0
-4323 -5191 0
-4324 -5192 0
-4325 -4333 0
-4326 -4334 0
-4327 -4335 0
-4328 -4336 0
-4325 -4433 0
-4326 -4434 0
-4327 -4435 0
-4328 -4436 0
-4325 -4693 0
-4326 -4694 0
-4327 -4695 0
-4328 -4696 0
-4325 -4905 0
-4326 -4906 0
-4327 -4907 0
-4328 -4908 0
-4325 -5193 0
-4326 -5194 0
-4327 -5195 0
-4328 -5196 0
-4325 -5433 0
-4326 -5434 0
-4327 -5435 0
-4328 -5436 0
-4329 -4333 0
-4330 -4334 0
-4331 -4335 0
-4332 -4336 0
-4329 -4337 0
-4330 -4338 0
-4331 -4339 0
-4332 -4340 0
-4329 -4397 0
-4330 -4398 0
-4331 -4399 0
-4332 -4400 0
-4329 -4533 0
-4330 -4534 0
-4331 -4535 0
-4332 -4536 0
-4329 -4925 0
-4330 -4926 0
-4331 -4927 0
-4332 -4928 0
-4329 -5197 0
-4330 -5198 0
-4331 -5199 0
-4332 -5200 0
-4329 -5201 0
-4330 -5202 0
-4331 -5203 0
-4332 -5204 0
-4329 -5273 0
-4330 -5274 0
-4331 -5275 0
-4332 -5276 0
-4329 -5285 0
-4330 -5286 0
-4331 -5287 0
-4332 -5288 0
-4329 -5445 0
-4330 -5446 0
-4331 -5447 0
-4332 -5448 0
-4333 -4389 0
-4334 -4390 0
-4335 -4391 0
-4336 -4392 0
-4333 -4441 0
-4334 -4442 0
-4335 -4443 0
-4336 -4444 0
-4333 -4697 0
-4334 -4698 0
-4335 -4699 0
-4336 -4700 0
-4333 -5205 0
-4334 -5206 0
-4335 -5207 0
-4336 -5208 0
-4333 -5209 0
-4334 -5210 0
-4335 -5211 0
-4336 -5212 0
-4333 -5297 0
-4334 -5298 0
-4335 -5299 0
-4336 -5300 0
-4337 -4341 0
-4338 -4342 0
-4339 -4343 0
-4340 -4344 0
-4337 -4417 0
-4338 -4418 0
-4339 -4419 0
-4340 -4420 0
-4337 -4525 0
-4338 -4526 0
-4339 -4527 0
-4340 -4528 0
-4337 -4553 0
-4338 -4554 0
-4339 -4555 0
-4340 -4556 0
-4337 -4649 0
-4338 -4650 0
-4339 -4651 0
-4340 -4652 0
-4337 -4745 0
-4338 -4746 0
-4339 -4747 0
-4340 -4748 0
-4337 -5257 0
-4338 -5258 0
-4339 -5259 0
-4340 -5260 0
-4337 -5313 0
-4338 -5314 0
-4339 -5315 0
-4340 -5316 0
-4337 -5333 0
-4338 -5334 0
-4339 -5335 0
-4340 -5336 0
-4337 -5537 0
-4338 -5538 0
-4339 -5539 0
-4340 -5540 0
-4341 -4561 0
-4342 -4562 0
-4343 -4563 0
-4344 -4564 0
-4341 -4753 0
-4342 -4754 0
-4343 -4755 0
-4344 -4756 0
-4341 -5257 0
-4342 -5258 0
-4343 -5259 0
-4344 -5260 0
-4341 -5325 0
-4342 -5326 0
-4343 -5327 0
-4344 -5328 0
-4341 -5337 0
-4342 -5338 0
-4343 -5339 0
-4344 -5340 0
-4341 -5545 0
-4342 -5546 0
-4343 -5547 0
-4344 -5548 0
-4345 -4369 0
-4346 -4370 0
-4347 -4371 0
-4348 -4372 0
-4345 -4545 0
-4346 -4546 0
-4347 -4547 0
-4348 -4548 0
-4345 -4673 0
-4346 -4674 0
-4347 -4675 0
-4348 -4676 0
-4345 -5125 0
-4346 -5126 0
-4347 -5127 0
-4348 -5128 0
-4345 -5265 0
-4346 -5266 0
-4347 -5267 0
-4348 -5268 0
-4345 -5269 0
-4346 -5270 0
-4347 -5271 0
-4348 -5272 0
-4345 -5317 0
-4346 -5318 0
-4347 -5319 0
-4348 -5320 0
-4345 -5329 0
-4346 -5330 0
-4347 -5331 0
-4348 -5332 0
-4349 -4353 0
-4350 -4354 0
-4351 -4355 0
-4352 -4356 0
-4349 -4373 0
-4350 -4374 0
-4351 -4375 0
-4352 -4376 0
-4349 -4377 0
-4350 -4378 0
-4351 -4379 0
-4352 -4380 0
-4349 -4585 0
-4350 -4586 0
-4351 -4587 0
-4352 -4588 0
-4349 -4765 0
-4350 -4766 0
-4351 -4767 0
-4352 -4768 0
-4349 -4845 0
-4350 -4846 0
-4351 -4847 0
-4352 -4848 0
-4349 -5193 0
-4350 -5194 0
-4351 -5195 0
-4352 -5196 0
-4349 -5345 0
-4350 -5346 0
-4351 -5347 0
-4352 -5348 0
-4349 -5389 0
-4350 -5390 0
-4351 -5391 0
-4352 -5392 0
-4349 -5393 0
-4350 -5394 0
-4351 -5395 0
-4352 -5396 0
-4349 -5673 0
-4350 -5674 0
-4351 -5675 0
-4352 -5676 0
-4353 -4357 0
-4354 -4358 0
-4355 -4359 0
-4356 -4360 0
-4353 -4493 0
-4354 -4494 0
-4355 -4495 0
-4356 -4496 0
-4353 -4589 0
-4354 -4590 0
-4355 -4591 0
-4356 -4592 0
-4353 -4709 0
-4354 -4710 0
-4355 -4711 0
-4356 -4712 0
-4353 -5209 0
-4354 -5210 0
-4355 -5211 0
-4356 -5212 0
-4353 -5217 0
-4354 -5218 0
-4355 -5219 0
-4356 -5220 0
-4353 -5353 0
-4354 -5354 0
-4355 -5355 0
-4356 -5356 0
-4353 -5397 0
-4354 -5398 0
-4355 -5399 0
-4356 -5400 0
-4353 -5525 0
-4354 -5526 0
-4355 -5527 0
-4356 -5528 0
-4357 -4441 0
-4358 -4442 0
-4359 -4443 0
-4360 -4444 0
-4357 -4497 0
-4358 -4498 0
-4359 -4499 0
-4360 -4500 0
-4357 -4597 0
-4358 -4598 0
-4359 -4599 0
-4360 -4600 0
-4357 -4717 0
-4358 -4718 0
-4359 -4719 0
-4360 -4720 0
-4357 -5225 0
-4358 -5226 0
-4359 -5227 0
-4360 -5228 0
-4357 -5357 0
-4358 -5358 0
-4359 -5359 0
-4360 -5360 0
-4357 -5529 0
-4358 -5530 0
-4359 -5531 0
-4360 -5532 0
-4361 -4365 0
-4362 -4366 0
-4363 -4367 0
-4364 -4368 0
-4361 -4373 0
-4362 -4374 0
-4363 -4375 0
-4364 -4376 0
-4361 -4609 0
-4362 -4610 0
-4363 -4611 0
-4364 -4612 0
-4361 -4893 0
-4362 -4894 0
-4363 -4895 0
-4364 -4896 0
-4361 -5277 0
-4362 -5278 0
-4363 -5279 0
-4364 -5280 0
-4361 -5409 0
-4362 -5410 0
-4363 -5411 0
-4364 -5412 0
-4361 -5461 0
-4362 -5462 0
-4363 -5463 0
-4364 -5464 0
-4361 -5465 0
-4362 -5466 0
-4363 -5467 0
-4364 -5468 0
-4361 -5793 0
-4362 -5794 0
-4363 -5795 0
-4364 -5796 0
-4365 -4369 0
-4366 -4370 0
-4367 -4371 0
-4368 -4372 0
-4365 -4385 0
-4366 -4386 0
-4367 -4387 0
-4368 -4388 0
-4365 -4613 0
-4366 -4614 0
-4367 -4615 0
-4368 -4616 0
-4365 -5293 0
-4366 -5294 0
-4367 -5295 0
-4368 -5296 0
-4365 -5485 0
-4366 -5486 0
-4367 -5487 0
-4368 -5488 0
-4365 -5509 0
-4366 -5510 0
-4367 -5511 0
-4368 -5512 0
-4369 -4385 0
-4370 -4386 0
-4371 -4387 0
-4372 -4388 0
-4369 -4405 0
-4370 -4406 0
-4371 -4407 0
-4372 -4408 0
-4369 -4545 0
-4370 -4546 0
-4371 -4547 0
-4372 -4548 0
-4369 -4909 0
-4370 -4910 0
-4371 -4911 0
-4372 -4912 0
-4369 -5493 0
-4370 -5494 0
-4371 -5495 0
-4372 -5496 0
-4369 -5517 0
-4370 -5518 0
-4371 -5519 0
-4372 -5520 0
-4373 -4377 0
-4374 -4378 0
-4375 -4379 0
-4376 -4380 0
-4373 -4385 0
-4374 -4386 0
-4375 -4387 0
-4376 -4388 0
-4373 -4389 0
-4374 -4390 0
-4375 -4391 0
-4376 -4392 0
-4373 -4481 0
-4374 -4482 0
-4375 -4483 0
-4376 -4484 0
-4373 -4981 0
-4374 -4982 0
-4375 -4983 0
-4376 -4984 0
-4373 -5301 0
-4374 -5302 0
-4375 -5303 0
-4376 -5304 0
-4373 -5413 0
-4374 -5414 0
-4375 -5415 0
-4376 -5416 0
-4373 -5429 0
-4374 -5430 0
-4375 -5431 0
-4376 -5432 0
-4373 -5549 0
-4374 -5550 0
-4375 -5551 0
-4376 -5552 0
-4373 -5561 0
-4374 -5562 0
-4375 -5563 0
-4376 -5564 0
-4373 -5589 0
-4374 -5590 0
-4375 -5591 0
-4376 -5592 0
-4373 -5817 0
-4374 -5818 0
-4375 -5819 0
-4376 -5820 0
-4377 -4381 0
-4378 -4382 0
-4379 -4383 0
-4380 -4384 0
-4377 -4485 0
-4378 -4486 0
-4379 -4487 0
-4380 -4488 0
-4377 -4637 0
-4378 -4638 0
-4379 -4639 0
-4380 -4640 0
-4377 -4825 0
-4378 -4826 0
-4379 -4827 0
-4380 -4828 0
-4377 -5001 0
-4378 -5002 0
-4379 -5003 0
-4380 -5004 0
-4377 -5421 0
-4378 -5422 0
-4379 -5423 0
-4380 -5424 0
-4377 -5433 0
-4378 -5434 0
-4379 -5435 0
-4380 -5436 0
-4377 -5553 0
-4378 -5554 0
-4379 -5555 0
-4380 -5556 0
-4377 -5565 0
-4378 -5566 0
-4379 -5567 0
-4380 -5568 0
-4381 -4493 0
-4382 -4494 0
-4383 -4495 0
-4384 -4496 0
-4381 -4645 0
-4382 -4646 0
-4383 -4647 0
-4384 -4648 0
-4381 -4829 0
-4382 -4830 0
-4383 -4831 0
-4384 -4832 0
-4381 -5425 0
-4382 -5426 0
-4383 -5427 0
-4384 -5428 0
-4381 -5437 0
-4382 -5438 0
-4383 -5439 0
-4384 -5440 0
-4381 -5565 0
-4382 -5566 0
-4383 -5567 0
-4384 -5568 0
-4385 -4433 0
-4386 -4434 0
-4387 -4435 0
-4388 -4436 0
-4385 -4649 0
-4386 -4650 0
-4387 -4651 0
-4388 -4652 0
-4385 -5021 0
-4386 -5022 0
-4387 -5023 0
-4388 -5024 0
-4385 -5569 0
-4386 -5570 0
-4387 -5571 0
-4388 -5572 0
-4385 -5573 0
-4386 -5574 0
-4387 -5575 0
-4388 -5576 0
-4385 -5589 0
-4386 -5590 0
-4387 -5591 0
-4388 -5592 0
-4389 -4557 0
-4390 -4558 0
-4391 -4559 0
-4392 -4560 0
-4389 -5037 0
-4390 -5038 0
-4391 -5039 0
-4392 -5040 0
-4389 -5041 0
-4390 -5042 0
-4391 -5043 0
-4392 -5044 0
-4389 -5313 0
-4390 -5314 0
-4391 -5315 0
-4392 -5316 0
-4389 -5577 0
-4390 -5578 0
-4391 -5579 0
-4392 -5580 0
-4393 -4417 0
-4394 -4418 0
-4395 -4419 0
-4396 -4420 0
-4393 -4429 0
-4394 -4430 0
-4395 -4431 0
-4396 -4432 0
-4393 -4473 0
-4394 -4474 0
-4395 -4475 0
-4396 -4476 0
-4393 -4717 0
-4394 -4718 0
-4395 -4719 0
-4396 -4720 0
-4393 -4841 0
-4394 -4842 0
-4395 -4843 0
-4396 -4844 0
-4393 -5593 0
-4394 -5594 0
-4395 -5595 0
-4396 -5596 0
-4393 -5601 0
-4394 -5602 0
-4395 -5603 0
-4396 -5604 0
-4393 -5841 0
-4394 -5842 0
-4395 -5843 0
-4396 -5844 0
-4397 -4413 0
-4398 -4414 0
-4399 -4415 0
-4400 -4416 0
-4397 -4417 0
-4398 -4418 0
-4399 -4419 0
-4400 -4420 0
-4397 -4593 0
-4398 -4594 0
-4399 -4595 0
-4400 -4596 0
-4397 -4685 0
-4398 -4686 0
-4399 -4687 0
-4400 -4688 0
-4397 -5609 0
-4398 -5610 0
-4399 -5611 0
-4400 -5612 0
-4397 -5613 0
-4398 -5614 0
-4399 -5615 0
-4400 -5616 0
-4401 -4405 0
-4402 -4406 0
-4403 -4407 0
-4404 -4408 0
-4401 -4409 0
-4402 -4410 0
-4403 -4411 0
-4404 -4412 0
-4401 -4421 0
-4402 -4422 0
-4403 -4423 0
-4404 -4424 0
-4401 -4537 0
-4402 -4538 0
-4403 -4539 0
-4404 -4540 0
-4401 -5421 0
-4402 -5422 0
-4403 -5423 0
-4404 -5424 0
-4401 -5605 0
-4402 -5606 0
-4403 -5607 0
-4404 -5608 0
-4401 -5641 0
-4402 -5642 0
-4403 -5643 0
-4404 -5644 0
-4401 -5657 0
-4402 -5658 0
-4403 -5659 0
-4404 -5660 0
-4405 -4425 0
-4406 -4426 0
-4407 -4427 0
-4408 -4428 0
-4405 -4429 0
-4406 -4430 0
-4407 -4431 0
-4408 -4432 0
-4405 -4433 0
-4406 -4434 0
-4407 -4435 0
-4408 -4436 0
-4405 -4565 0
-4406 -4566 0
-4407 -4567 0
-4408 -4568 0
-4405 -4701 0
-4406 -4702 0
-4407 -4703 0
-4408 -4704 0
-4405 -4909 0
-4406 -4910 0
-4407 -4911 0
-4408 -4912 0
-4405 -4957 0
-4406 -4958 0
-4407 -4959 0
-4408 -4960 0
-4405 -5645 0
-4406 -5646 0
-4407 -5647 0
-4408 -5648 0
-4405 -5661 0
-4406 -5662 0
-4407 -5663 0
-4408 -5664 0
-4409 -4541 0
-4410 -4542 0
-4411 -4543 0
-4412 -4544 0
-4409 -4709 0
-4410 -4710 0
-4411 -4711 0
-4412 -4712 0
-4409 -5009 0
-4410 -5010 0
-4411 -5011 0
-4412 -5012 0
-4409 -5433 0
-4410 -5434 0
-4411 -5435 0
-4412 -5436 0
-4409 -5605 0
-4410 -5606 0
-4411 -5607 0
-4412 -5608 0
-4409 -5673 0
-4410 -5674 0
-4411 -5675 0
-4412 -5676 0
-4413 -4417 0
-4414 -4418 0
-4415 -4419 0
-4416 -4420 0
-4413 -4421 0
-4414 -4422 0
-4415 -4423 0
-4416 -4424 0
-4413 -4613 0
-4414 -4614 0
-4415 -4615 0
-4416 -4616 0
-4413 -5677 0
-4414 -5678 0
-4415 -5679 0
-4416 -5680 0
-4413 -5693 0
-4414 -5694 0
-4415 -5695 0
-4416 -5696 0
-4413 -5973 0
-4414 -5974 0
-4415 -5975 0
-4416 -5976 0
-4417 -4429 0
-4418 -4430 0
-4419 -4431 0
-4420 -4432 0
-4417 -4525 0
-4418 -4526 0
-4419 -4527 0
-4420 -4528 0
-4417 -4965 0
-4418 -4966 0
-4419 -4967 0
-4420 -4968 0
-4417 -5681 0
-4418 -5682 0
-4419 -5683 0
-4420 -5684 0
-4417 -5697 0
-4418 -5698 0
-4419 -5699 0
-4420 -5700 0
-4417 -5977 0
-4418 -5978 0
-4419 -5979 0
-4420 -5980 0
-4421 -4429 0
-4422 -4430 0
-4423 -4431 0
-4424 -4432 0
-4421 -4477 0
-4422 -4478 0
-4423 -4479 0
-4424 -4480 0
-4421 -4617 0
-4422 -4618 0
-4423 -4619 0
-4424 -4620 0
-4421 -4969 0
-4422 -4970 0
-4423 -4971 0
-4424 -4972 0
-4421 -5029 0
-4422 -5030 0
-4423 -5031 0
-4424 -5032 0
-4421 -5129 0
-4422 -5130 0
-4423 -5131 0
-4424 -5132 0
-4421 -5449 0
-4422 -5450 0
-4423 -5451 0
-4424 -5452 0
-4421 -5685 0
-4422 -5686 0
-4423 -5687 0
-4424 -5688 0
-4421 -5705 0
-4422 -5706 0
-4423 -5707 0
-4424 -5708 0
-4425 -4429 0
-4426 -4430 0
-4427 -4431 0
-4428 -4432 0
-4425 -4441 0
-4426 -4442 0
-4427 -4443 0
-4428 -4444 0
-4425 -4449 0
-4426 -4450 0
-4427 -4451 0
-4428 -4452 0
-4425 -4549 0
-4426 -4550 0
-4427 -4551 0
-4428 -4552 0
-4425 -4633 0
-4426 -4634 0
-4427 -4635 0
-4428 -4636 0
-4425 -4741 0
-4426 -4742 0
-4427 -4743 0
-4428 -4744 0
-4425 -4889 0
-4426 -4890 0
-4427 -4891 0
-4428 -4892 0
-4425 -4977 0
-4426 -4978 0
-4427 -4979 0
-4428 -4980 0
-4425 -5133 0
-4426 -5134 0
-4427 -5135 0
-4428 -5136 0
-4425 -5709 0
-4426 -5710 0
-4427 -5711 0
-4428 -5712 0
-4425 -5793 0
-4426 -5794 0
-4427 -5795 0
-4428 -5796 0
-4429 -4445 0
-4430 -4446 0
-4431 -4447 0
-4432 -4448 0
-4429 -4453 0
-4430 -4454 0
-4431 -4455 0
-4432 -4456 0
-4429 -4529 0
-4430 -4530 0
-4431 -4531 0
-4432 -4532 0
-4429 -4569 0
-4430 -4570 0
-4431 -4571 0
-4432 -4572 0
-4429 -4805 0
-4430 -4806 0
-4431 -4807 0
-4432 -4808 0
-4429 -4981 0
-4430 -4982 0
-4431 -4983 0
-4432 -4984 0
-4429 -5137 0
-4430 -5138 0
-4431 -5139 0
-4432 -5140 0
-4429 -5689 0
-4430 -5690 0
-4431 -5691 0
-4432 -5692 0
-4429 -5713 0
-4430 -5714 0
-4431 -5715 0
-4432 -5716 0
-4429 -5797 0
-4430 -5798 0
-4431 -5799 0
-4432 -5800 0
-4433 -4437 0
-4434 -4438 0
-4435 -4439 0
-4436 -4440 0
-4433 -4441 0
-4434 -4442 0
-4435 -4443 0
-4436 -4444 0
-4433 -4445 0
-4434 -4446 0
-4435 -4447 0
-4436 -4448 0
-4433 -4577 0
-4434 -4578 0
-4435 -4579 0
-4436 -4580 0
-4433 -4745 0
-4434 -4746 0
-4435 -4747 0
-4436 -4748 0
-4433 -4905 0
-4434 -4906 0
-4435 -4907 0
-4436 -4908 0
-4433 -5157 0
-4434 -5158 0
-4435 -5159 0
-4436 -5160 0
-4433 -5741 0
-4434 -5742 0
-4435 -5743 0
-4436 -5744 0
-4433 -6021 0
-4434 -6022 0
-4435 -6023 0
-4436 -6024 0
-4437 -4457 0
-4438 -4458 0
-4439 -4459 0
-4440 -4460 0
-4437 -4461 0
-4438 -4462 0
-4439 -4463 0
-4440 -4464 0
-4437 -4581 0
-4438 -4582 0
-4439 -4583 0
-4440 -4584 0
-4437 -4753 0
-4438 -4754 0
-4439 -4755 0
-4440 -4756 0
-4437 -4913 0
-4438 -4914 0
-4439 -4915 0
-4440 -4916 0
-4437 -5741 0
-4438 -5742 0
-4439 -5743 0
-4440 -5744 0
-4437 -6037 0
-4438 -6038 0
-4439 -6039 0
-4440 -6040 0
-4441 -4445 0
-4442 -4446 0
-4443 -4447 0
-4444 -4448 0
-4441 -4449 0
-4442 -4450 0
-4443 -4451 0
-4444 -4452 0
-4441 -4457 0
-4442 -4458 0
-4443 -4459 0
-4444 -4460 0
-4441 -4469 0
-4442 -4470 0
-4443 -4471 0
-4444 -4472 0
-4441 -4557 0
-4442 -4558 0
-4443 -4559 0
-4444 -4560 0
-4441 -4597 0
-4442 -4598 0
-4443 -4599 0
-4444 -4600 0
-4441 -4605 0
-4442 -4606 0
-4443 -4607 0
-4444 -4608 0
-4441 -4773 0
-4442 -4774 0
-4443 -4775 0
-4444 -4776 0
-4441 -5181 0
-4442 -5182 0
-4443 -5183 0
-4444 -5184 0
-4441 -5485 0
-4442 -5486 0
-4443 -5487 0
-4444 -5488 0
-4441 -5621 0
-4442 -5622 0
-4443 -5623 0
-4444 -5624 0
-4441 -5629 0
-4442 -5630 0
-4443 -5631 0
-4444 -5632 0
-4441 -5757 0
-4442 -5758 0
-4443 -5759 0
-4444 -5760 0
-4441 -5813 0
-4442 -5814 0
-4443 -5815 0
-4444 -5816 0
-4441 -5833 0
-4442 -5834 0
-4443 -5835 0
-4444 -5836 0
-4441 -6061 0
-4442 -6062 0
-4443 -6063 0
-4444 -6064 0
-4445 -4453 0
-4446 -4454 0
-4447 -4455 0
-4448 -4456 0
-4445 -4461 0
-4446 -4462 0
-4447 -4463 0
-4448 -4464 0
-4445 -4825 0
-4446 -4826 0
-4447 -4827 0
-4448 -4828 0
-4445 -4949 0
-4446 -4950 0
-4447 -4951 0
-4448 -4952 0
-4445 -5053 0
-4446 -5054 0
-4447 -5055 0
-4448 -5056 0
-4445 -5489 0
-4446 -5490 0
-4447 -5491 0
-4448 -5492 0
-4445 -5749 0
-4446 -5750 0
-4447 -5751 0
-4448 -5752 0
-4445 -5761 0
-4446 -5762 0
-4447 -5763 0
-4448 -5764 0
-4445 -6065 0
-4446 -6066 0
-4447 -6067 0
-4448 -6068 0
-4449 -4453 0
-4450 -4454 0
-4451 -4455 0
-4452 -4456 0
-4449 -4465 0
-4450 -4466 0
-4451 -4467 0
-4452 -4468 0
-4449 -4489 0
-4450 -4490 0
-4451 -4491 0
-4452 -4492 0
-4449 -4561 0
-4450 -4562 0
-4451 -4563 0
-4452 -4564 0
-4449 -4665 0
-4450 -4666 0
-4451 -4667 0
-4452 -4668 0
-4449 -4789 0
-4450 -4790 0
-4451 -4791 0
-4452 -4792 0
-4449 -4953 0
-4450 -4954 0
-4451 -4955 0
-4452 -4956 0
-4449 -5185 0
-4450 -5186 0
-4451 -5187 0
-4452 -5188 0
-4449 -5189 0
-4450 -5190 0
-4451 -5191 0
-4452 -5192 0
-4449 -5493 0
-4450 -5494 0
-4451 -5495 0
-4452 -5496 0
-4449 -5765 0
-4450 -5766 0
-4451 -5767 0
-4452 -5768 0
-4449 -5817 0
-4450 -5818 0
-4451 -5819 0
-4452 -5820 0
-4453 -4657 0
-4454 -4658 0
-4455 -4659 0
-4456 -4660 0
-4453 -4793 0
-4454 -4794 0
-4455 -4795 0
-4456 -4796 0
-4453 -5057 0
-4454 -5058 0
-4455 -5059 0
-4456 -5060 0
-4453 -5193 0
-4454 -5194 0
-4455 -5195 0
-4456 -5196 0
-4453 -5497 0
-4454 -5498 0
-4455 -5499 0
-4456 -5500 0
-4453 -5753 0
-4454 -5754 0
-4455 -5755 0
-4456 -5756 0
-4453 -5769 0
-4454 -5770 0
-4455 -5771 0
-4456 -5772 0
-4453 -5821 0
-4454 -5822 0
-4455 -5823 0
-4456 -5824 0
-4457 -4461 0
-4458 -4462 0
-4459 -4463 0
-4460 -4464 0
-4457 -4465 0
-4458 -4466 0
-4459 -4467 0
-4460 -4468 0
-4457 -4777 0
-4458 -4778 0
-4459 -4779 0
-4460 -4780 0
-4457 -4981 0
-4458 -4982 0
-4459 -4983 0
-4460 -4984 0
-4457 -5509 0
-4458 -5510 0
-4459 -5511 0
-4460 -5512 0
-4457 -5625 0
-4458 -5626 0
-4459 -5627 0
-4460 -5628 0
-4457 -5633 0
-4458 -5634 0
-4459 -5635 0
-4460 -5636 0
-4457 -5757 0
-4458 -5758 0
-4459 -5759 0
-4460 -5760 0
-4457 -5825 0
-4458 -5826 0
-4459 -5827 0
-4460 -5828 0
-4457 -6077 0
-4458 -6078 0
-4459 -6079 0
-4460 -6080 0
-4461 -4829 0
-4462 -4830 0
-4463 -4831 0
-4464 -4832 0
-4461 -4985 0
-4462 -4986 0
-4463 -4987 0
-4464 -4988 0
-4461 -5513 0
-4462 -5514 0
-4463 -5515 0
-4464 -5516 0
-4461 -5761 0
-4462 -5762 0
-4463 -5763 0
-4464 -5764 0
-4461 -6081 0
-4462 -6082 0
-4463 -6083 0
-4464 -6084 0
-4465 -4497 0
-4466 -4498 0
-4467 -4499 0
-4468 -4500 0
-4465 -4989 0
-4466 -4990 0
-4467 -4991 0
-4468 -4992 0
-4465 -5517 0
-4466 -5518 0
-4467 -5519 0
-4468 -5520 0
-4465 -5765 0
-4466 -5766 0
-4467 -5767 0
-4468 -5768 0
-4465 -5829 0
-4466 -5830 0
-4467 -5831 0
-4468 -5832 0
-4469 -4509 0
-4470 -4510 0
-4471 -4511 0
-4472 -4512 0
-4469 -4625 0
-4470 -4626 0
-4471 -4627 0
-4472 -4628 0
-4469 -4653 0
-4470 -4654 0
-4471 -4655 0
-4472 -4656 0
-4469 -4809 0
-4470 -4810 0
-4471 -4811 0
-4472 -4812 0
-4469 -5065 0
-4470 -5066 0
-4471 -5067 0
-4472 -5068 0
-4469 -5581 0
-4470 -5582 0
-4471 -5583 0
-4472 -5584 0
-4469 -5725 0
-4470 -5726 0
-4471 -5727 0
-4472 -5728 0
-4469 -5733 0
-4470 -5734 0
-4471 -5735 0
-4472 -5736 0
-4469 -5789 0
-4470 -5790 0
-4471 -5791 0
-4472 -5792 0
-4473 -4477 0
-4474 -4478 0
-4475 -4479 0
-4476 -4480 0
-4473 -4525 0
-4474 -4526 0
-4475 -4527 0
-4476 -4528 0
-4473 -4529 0
-4474 -4530 0
-4475 -4531 0
-4476 -4532 0
-4473 -5153 0
-4474 -5154 0
-4475 -5155 0
-4476 -5156 0
-4473 -5857 0
-4474 -5858 0
-4475 -5859 0
-4476 -5860 0
-4473 -5869 0
-4474 -5870 0
-4475 -5871 0
-4476 -5872 0
-4473 -5953 0
-4474 -5954 0
-4475 -5955 0
-4476 -5956 0
-4473 -6161 0
-4474 -6162 0
-4475 -6163 0
-4476 -6164 0
-4477 -4733 0
-4478 -4734 0
-4479 -4735 0
-4480 -4736 0
-4477 -4953 0
-4478 -4954 0
-4479 -4955 0
-4480 -4956 0
-4477 -5345 0
-4478 -5346 0
-4479 -5347 0
-4480 -5348 0
-4477 -5861 0
-4478 -5862 0
-4479 -5863 0
-4480 -5864 0
-4477 -5873 0
-4478 -5874 0
-4479 -5875 0
-4480 -5876 0
-4477 -5961 0
-4478 -5962 0
-4479 -5963 0
-4480 -5964 0
-4477 -6165 0
-4478 -6166 0
-4479 -6167 0
-4480 -6168 0
-4481 -4485 0
-4482 -4486 0
-4483 -4487 0
-4484 -4488 0
-4481 -4533 0
-4482 -4534 0
-4483 -4535 0
-4484 -4536 0
-4481 -5353 0
-4482 -5354 0
-4483 -5355 0
-4484 -5356 0
-4481 -5637 0
-4482 -5638 0
-4483 -5639 0
-4484 -5640 0
-4481 -5889 0
-4482 -5890 0
-4483 -5891 0
-4484 -5892 0
-4481 -6001 0
-4482 -6002 0
-4483 -6003 0
-4484 -6004 0
-4481 -6217 0
-4482 -6218 0
-4483 -6219 0
-4484 -6220 0
-4485 -4489 0
-4486 -4490 0
-4487 -4491 0
-4488 -4492 0
-4485 -4493 0
-4486 -4494 0
-4487 -4495 0
-4488 -4496 0
-4485 -4513 0
-4486 -4514 0
-4487 -4515 0
-4488 -4516 0
-4485 -4533 0
-4486 -4534 0
-4487 -4535 0
-4488 -4536 0
-4485 -4637 0
-4486 -4638 0
-4487 -4639 0
-4488 -4640 0
-4485 -4677 0
-4486 -4678 0
-4487 -4679 0
-4488 -4680 0
-4485 -4869 0
-4486 -4870 0
-4487 -4871 0
-4488 -4872 0
-4485 -5205 0
-4486 -5206 0
-4487 -5207 0
-4488 -5208 0
-4485 -5641 0
-4486 -5642 0
-4487 -5643 0
-4488 -5644 0
-4485 -5897 0
-4486 -5898 0
-4487 -5899 0
-4488 -5900 0
-4485 -6017 0
-4486 -6018 0
-4487 -6019 0
-4488 -6020 0
-4489 -4497 0
-4490 -4498 0
-4491 -4499 0
-4492 -4500 0
-4489 -4513 0
-4490 -4514 0
-4491 -4515 0
-4492 -4516 0
-4489 -4641 0
-4490 -4642 0
-4491 -4643 0
-4492 -4644 0
-4489 -4849 0
-4490 -4850 0
-4491 -4851 0
-4492 -4852 0
-4489 -4873 0
-4490 -4874 0
-4491 -4875 0
-4492 -4876 0
-4489 -5189 0
-4490 -5190 0
-4491 -5191 0
-4492 -5192 0
-4489 -5361 0
-4490 -5362 0
-4491 -5363 0
-4492 -5364 0
-4489 -5645 0
-4490 -5646 0
-4491 -5647 0
-4492 -5648 0
-4489 -5901 0
-4490 -5902 0
-4491 -5903 0
-4492 -5904 0
-4489 -5985 0
-4490 -5986 0
-4491 -5987 0
-4492 -5988 0
-4489 -6021 0
-4490 -6022 0
-4491 -6023 0
-4492 -6024 0
-4493 -4497 0
-4494 -4498 0
-4495 -4499 0
-4496 -4500 0
-4493 -4521 0
-4494 -4522 0
-4495 -4523 0
-4496 -4524 0
-4493 -4645 0
-4494 -4646 0
-4495 -4647 0
-4496 -4648 0
-4493 -4681 0
-4494 -4682 0
-4495 -4683 0
-4496 -4684 0
-4493 -4757 0
-4494 -4758 0
-4495 -4759 0
-4496 -4760 0
-4493 -4877 0
-4494 -4878 0
-4495 -4879 0
-4496 -4880 0
-4493 -5209 0
-4494 -5210 0
-4495 -5211 0
-4496 -5212 0
-4493 -5657 0
-4494 -5658 0
-4495 -5659 0
-4496 -5660 0
-4493 -5897 0
-4494 -5898 0
-4495 -5899 0
-4496 -5900 0
-4493 -5905 0
-4494 -5906 0
-4495 -5907 0
-4496 -5908 0
-4493 -6033 0
-4494 -6034 0
-4495 -6035 0
-4496 -6036 0
-4497 -4521 0
-4498 -4522 0
-4499 -4523 0
-4500 -4524 0
-4497 -4605 0
-4498 -4606 0
-4499 -4607 0
-4500 -4608 0
-4497 -4857 0
-4498 -4858 0
-4499 -4859 0
-4500 -4860 0
-4497 -4881 0
-4498 -4882 0
-4499 -4883 0
-4500 -4884 0
-4497 -5141 0
-4498 -5142 0
-4499 -5143 0
-4500 -5144 0
-4497 -5661 0
-4498 -5662 0
-4499 -5663 0
-4500 -5664 0
-4497 -5901 0
-4498 -5902 0
-4499 -5903 0
-4500 -5904 0
-4497 -5909 0
-4498 -5910 0
-4499 -5911 0
-4500 -5912 0
-4497 -5989 0
-4498 -5990 0
-4499 -5991 0
-4500 -5992 0
-4497 -6037 0
-4498 -6038 0
-4499 -6039 0
-4500 -6040 0
-4501 -4517 0
-4502 -4518 0
-4503 -4519 0
-4504 -4520 0
-4501 -4521 0
-4502 -4522 0
-4503 -4523 0
-4504 -4524 0
-4501 -4549 0
-4502 -4550 0
-4503 -4551 0
-4504 -4552 0
-4501 -4617 0
-4502 -4618 0
-4503 -4619 0
-4504 -4620 0
-4501 -4893 0
-4502 -4894 0
-4503 -4895 0
-4504 -4896 0
-4501 -5061 0
-4502 -5062 0
-4503 -5063 0
-4504 -5064 0
-4501 -5229 0
-4502 -5230 0
-4503 -5231 0
-4504 -5232 0
-4501 -5241 0
-4502 -5242 0
-4503 -5243 0
-4504 -5244 0
-4501 -5713 0
-4502 -5714 0
-4503 -5715 0
-4504 -5716 0
-4501 -5841 0
-4502 -5842 0
-4503 -5843 0
-4504 -5844 0
-4501 -5917 0
-4502 -5918 0
-4503 -5919 0
-4504 -5920 0
-4501 -5921 0
-4502 -5922 0
-4503 -5923 0
-4504 -5924 0
-4505 -4521 0
-4506 -4522 0
-4507 -4523 0
-4508 -4524 0
-4505 -4705 0
-4506 -4706 0
-4507 -4707 0
-4508 -4708 0
-4505 -4929 0
-4506 -4930 0
-4507 -4931 0
-4508 -4932 0
-4505 -5093 0
-4506 -5094 0
-4507 -5095 0
-4508 -5096 0
-4505 -5257 0
-4506 -5258 0
-4507 -5259 0
-4508 -5260 0
-4505 -5873 0
-4506 -5874 0
-4507 -5875 0
-4508 -5876 0
-4505 -6089 0
-4506 -6090 0
-4507 -6091 0
-4508 -6092 0
-4505 -6309 0
-4506 -6310 0
-4507 -6311 0
-4508 -6312 0
-4509 -4513 0
-4510 -4514 0
-4511 -4515 0
-4512 -4516 0
-4509 -4517 0
-4510 -4518 0
-4511 -4519 0
-4512 -4520 0
-4509 -4713 0
-4510 -4714 0
-4511 -4715 0
-4512 -4716 0
-4509 -4749 0
-4510 -4750 0
-4511 -4751 0
-4512 -4752 0
-4509 -4941 0
-4510 -4942 0
-4511 -4943 0
-4512 -4944 0
-4509 -5749 0
-4510 -5750 0
-4511 -5751 0
-4512 -5752 0
-4509 -5857 0
-4510 -5858 0
-4511 -5859 0
-4512 -5860 0
-4509 -5925 0
-4510 -5926 0
-4511 -5927 0
-4512 -5928 0
-4513 -4521 0
-4514 -4522 0
-4515 -4523 0
-4516 -4524 0
-4513 -4553 0
-4514 -4554 0
-4515 -4555 0
-4516 -4556 0
-4513 -4717 0
-4514 -4718 0
-4515 -4719 0
-4516 -4720 0
-4513 -5245 0
-4514 -5246 0
-4515 -5247 0
-4516 -5248 0
-4513 -5377 0
-4514 -5378 0
-4515 -5379 0
-4516 -5380 0
-4513 -5389 0
-4514 -5390 0
-4515 -5391 0
-4516 -5392 0
-4513 -5753 0
-4514 -5754 0
-4515 -5755 0
-4516 -5756 0
-4513 -5861 0
-4514 -5862 0
-4515 -5863 0
-4516 -5864 0
-4513 -5929 0
-4514 -5930 0
-4515 -5931 0
-4516 -5932 0
-4513 -6093 0
-4514 -6094 0
-4515 -6095 0
-4516 -6096 0
-4513 -6101 0
-4514 -6102 0
-4515 -6103 0
-4516 -6104 0
-4517 -4521 0
-4518 -4522 0
-4519 -4523 0
-4520 -4524 0
-4517 -4557 0
-4518 -4558 0
-4519 -4559 0
-4520 -4560 0
-4517 -4725 0
-4518 -4726 0
-4519 -4727 0
-4520 -4728 0
-4517 -4761 0
-4518 -4762 0
-4519 -4763 0
-4520 -4764 0
-4517 -4973 0
-4518 -4974 0
-4519 -4975 0
-4520 -4976 0
-4517 -5101 0
-4518 -5102 0
-4519 -5103 0
-4520 -5104 0
-4517 -5221 0
-4518 -5222 0
-4519 -5223 0
-4520 -5224 0
-4517 -5761 0
-4518 -5762 0
-4519 -5763 0
-4520 -5764 0
-4517 -5869 0
-4518 -5870 0
-4519 -5871 0
-4520 -5872 0
-4517 -5881 0
-4518 -5882 0
-4519 -5883 0
-4520 -5884 0
-4517 -5925 0
-4518 -5926 0
-4519 -5927 0
-4520 -5928 0
-4517 -5933 0
-4518 -5934 0
-4519 -5935 0
-4520 -5936 0
-4517 -6329 0
-4518 -6330 0
-4519 -6331 0
-4520 -6332 0
-4521 -4561 0
-4522 -4562 0
-4523 -4563 0
-4524 -4564 0
-4521 -4653 0
-4522 -4654 0
-4523 -4655 0
-4524 -4656 0
-4521 -4729 0
-4522 -4730 0
-4523 -4731 0
-4524 -4732 0
-4521 -4785 0
-4522 -4786 0
-4523 -4787 0
-4524 -4788 0
-4521 -4981 0
-4522 -4982 0
-4523 -4983 0
-4524 -4984 0
-4521 -5253 0
-4522 -5254 0
-4523 -5255 0
-4524 -5256 0
-4521 -5261 0
-4522 -5262 0
-4523 -5263 0
-4524 -5264 0
-4521 -5385 0
-4522 -5386 0
-4523 -5387 0
-4524 -5388 0
-4521 -5393 0
-4522 -5394 0
-4523 -5395 0
-4524 -5396 0
-4521 -5769 0
-4522 -5770 0
-4523 -5771 0
-4524 -5772 0
-4521 -5773 0
-4522 -5774 0
-4523 -5775 0
-4524 -5776 0
-4521 -5873 0
-4522 -5874 0
-4523 -5875 0
-4524 -5876 0
-4521 -5929 0
-4522 -5930 0
-4523 -5931 0
-4524 -5932 0
-4521 -5937 0
-4522 -5938 0
-4523 -5939 0
-4524 -5940 0
-4521 -6097 0
-4522 -6098 0
-4523 -6099 0
-4524 -6100 0
-4521 -6105 0
-4522 -6106 0
-4523 -6107 0
-4524 -6108 0
-4521 -6333 0
-4522 -6334 0
-4523 -6335 0
-4524 -6336 0
-4525 -4529 0
-4526 -4530 0
-4527 -4531 0
-4528 -4532 0
-4525 -5113 0
-4526 -5114 0
-4527 -5115 0
-4528 -5116 0
-4525 -6041 0
-4526 -6042 0
-4527 -6043 0
-4528 -6044 0
-4525 -6357 0
-4526 -6358 0
-4527 -6359 0
-4528 -6360 0
-4529 -5117 0
-4530 -5118 0
-4531 -5119 0
-4532 -5120 0
-4529 -5285 0
-4530 -5286 0
-4531 -5287 0
-4532 -5288 0
-4529 -5417 0
-4530 -5418 0
-4531 -5419 0
-4532 -5420 0
-4529 -6049 0
-4530 -6050 0
-4531 -6051 0
-4532 -6052 0
-4533 -4553 0
-4534 -4554 0
-4535 -4555 0
-4536 -4556 0
-4533 -5049 0
-4534 -5050 0
-4535 -5051 0
-4536 -5052 0
-4533 -5445 0
-4534 -5446 0
-4535 -5447 0
-4536 -5448 0
-4533 -6117 0
-4534 -6118 0
-4535 -6119 0
-4536 -6120 0
-4537 -4541 0
-4538 -4542 0
-4539 -4543 0
-4540 -4544 0
-4537 -5313 0
-4538 -5314 0
-4539 -5315 0
-4540 -5316 0
-4537 -5805 0
-4538 -5806 0
-4539 -5807 0
-4540 -5808 0
-4537 -5961 0
-4538 -5962 0
-4539 -5963 0
-4540 -5964 0
-4537 -6085 0
-4538 -6086 0
-4539 -6087 0
-4540 -6088 0
-4537 -6089 0
-4538 -6090 0
-4539 -6091 0
-4540 -6092 0
-4541 -4545 0
-4542 -4546 0
-4543 -4547 0
-4544 -4548 0
-4541 -4709 0
-4542 -4710 0
-4543 -4711 0
-4544 -4712 0
-4541 -5821 0
-4542 -5822 0
-4543 -5823 0
-4544 -5824 0
-4541 -5961 0
-4542 -5962 0
-4543 -5963 0
-4544 -5964 0
-4541 -6093 0
-4542 -6094 0
-4543 -6095 0
-4544 -6096 0
-4541 -6097 0
-4542 -6098 0
-4543 -6099 0
-4544 -6100 0
-4545 -4737 0
-4546 -4738 0
-4547 -4739 0
-4548 -4740 0
-4545 -5073 0
-4546 -5074 0
-4547 -5075 0
-4548 -5076 0
-4545 -6101 0
-4546 -6102 0
-4547 -6103 0
-4548 -6104 0
-4545 -6105 0
-4546 -6106 0
-4547 -6107 0
-4548 -6108 0
-4549 -4557 0
-4550 -4558 0
-4551 -4559 0
-4552 -4560 0
-4549 -4561 0
-4550 -4562 0
-4551 -4563 0
-4552 -4564 0
-4549 -5081 0
-4550 -5082 0
-4551 -5083 0
-4552 -5084 0
-4549 -5321 0
-4550 -5322 0
-4551 -5323 0
-4552 -5324 0
-4549 -5465 0
-4550 -5466 0
-4551 -5467 0
-4552 -5468 0
-4549 -5977 0
-4550 -5978 0
-4551 -5979 0
-4552 -5980 0
-4553 -4561 0
-4554 -4562 0
-4555 -4563 0
-4556 -4564 0
-4553 -5113 0
-4554 -5114 0
-4555 -5115 0
-4556 -5116 0
-4553 -5537 0
-4554 -5538 0
-4555 -5539 0
-4556 -5540 0
-4553 -5549 0
-4554 -5550 0
-4555 -5551 0
-4556 -5552 0
-4553 -6109 0
-4554 -6110 0
-4555 -6111 0
-4556 -6112 0
-4557 -4561 0
-4558 -4562 0
-4559 -4563 0
-4560 -4564 0
-4557 -4773 0
-4558 -4774 0
-4559 -4775 0
-4560 -4776 0
-4557 -4821 0
-4558 -4822 0
-4559 -4823 0
-4560 -4824 0
-4557 -5313 0
-4558 -5314 0
-4559 -5315 0
-4560 -5316 0
-4557 -5541 0
-4558 -5542 0
-4559 -5543 0
-4560 -5544 0
-4557 -5557 0
-4558 -5558 0
-4559 -5559 0
-4560 -5560 0
-4557 -6041 0
-4558 -6042 0
-4559 -6043 0
-4560 -6044 0
-4557 -6057 0
-4558 -6058 0
-4559 -6059 0
-4560 -6060 0
-4557 -6113 0
-4558 -6114 0
-4559 -6115 0
-4560 -6116 0
-4557 -6405 0
-4558 -6406 0
-4559 -6407 0
-4560 -6408 0
-4561 -4641 0
-4562 -4642 0
-4563 -4643 0
-4564 -4644 0
-4561 -5121 0
-4562 -5122 0
-4563 -5123 0
-4564 -5124 0
-4561 -5545 0
-4562 -5546 0
-4563 -5547 0
-4564 -5548 0
-4561 -5561 0
-4562 -5562 0
-4563 -5563 0
-4564 -5564 0
-4561 -6109 0
-4562 -6110 0
-4563 -6111 0
-4564 -6112 0
-4565 -4569 0
-4566 -4570 0
-4567 -4571 0
-4568 -4572 0
-4565 -4577 0
-4566 -4578 0
-4567 -4579 0
-4568 -4580 0
-4565 -4701 0
-4566 -4702 0
-4567 -4703 0
-4568 -4704 0
-4565 -4837 0
-4566 -4838 0
-4567 -4839 0
-4568 -4840 0
-4565 -6137 0
-4566 -6138 0
-4567 -6139 0
-4568 -6140 0
-4565 -6145 0
-4566 -6146 0
-4567 -6147 0
-4568 -6148 0
-4569 -4573 0
-4570 -4574 0
-4571 -4575 0
-4572 -4576 0
-4569 -5165 0
-4570 -5166 0
-4571 -5167 0
-4572 -5168 0
-4569 -5353 0
-4570 -5354 0
-4571 -5355 0
-4572 -5356 0
-4569 -6125 0
-4570 -6126 0
-4571 -6127 0
-4572 -6128 0
-4569 -6149 0
-4570 -6150 0
-4571 -6151 0
-4572 -6152 0
-4569 -6161 0
-4570 -6162 0
-4571 -6163 0
-4572 -6164 0
-4573 -5173 0
-4574 -5174 0
-4575 -5175 0
-4576 -5176 0
-4573 -5365 0
-4574 -5366 0
-4575 -5367 0
-4576 -5368 0
-4573 -6125 0
-4574 -6126 0
-4575 -6127 0
-4576 -6128 0
-4573 -6153 0
-4574 -6154 0
-4575 -6155 0
-4576 -6156 0
-4573 -6173 0
-4574 -6174 0
-4575 -6175 0
-4576 -6176 0
-4577 -4581 0
-4578 -4582 0
-4579 -4583 0
-4580 -4584 0
-4577 -4745 0
-4578 -4746 0
-4579 -4747 0
-4580 -4748 0
-4577 -6129 0
-4578 -6130 0
-4579 -6131 0
-4580 -6132 0
-4577 -6177 0
-4578 -6178 0
-4579 -6179 0
-4580 -6180 0
-4577 -6421 0
-4578 -6422 0
-4579 -6423 0
-4580 -6424 0
-4581 -4601 0
-4582 -4602 0
-4583 -4603 0
-4584 -4604 0
-4581 -4605 0
-4582 -4606 0
-4583 -4607 0
-4584 -4608 0
-4581 -4753 0
-4582 -4754 0
-4583 -4755 0
-4584 -4756 0
-4581 -5189 0
-4582 -5190 0
-4583 -5191 0
-4584 -5192 0
-4581 -5345 0
-4582 -5346 0
-4583 -5347 0
-4584 -5348 0
-4581 -6129 0
-4582 -6130 0
-4583 -6131 0
-4584 -6132 0
-4581 -6185 0
-4582 -6186 0
-4583 -6187 0
-4584 -6188 0
-4581 -6437 0
-4582 -6438 0
-4583 -6439 0
-4584 -6440 0
-4585 -4589 0
-4586 -4590 0
-4587 -4591 0
-4588 -4592 0
-4585 -4593 0
-4586 -4594 0
-4587 -4595 0
-4588 -4596 0
-4585 -4609 0
-4586 -4610 0
-4587 -4611 0
-4588 -4612 0
-4585 -6177 0
-4586 -6178 0
-4587 -6179 0
-4588 -6180 0
-4585 -6185 0
-4586 -6186 0
-4587 -6187 0
-4588 -6188 0
-4585 -6505 0
-4586 -6506 0
-4587 -6507 0
-4588 -6508 0
-4589 -4593 0
-4590 -4594 0
-4591 -4595 0
-4592 -4596 0
-4589 -4597 0
-4590 -4598 0
-4591 -4599 0
-4592 -4600 0
-4589 -4625 0
-4590 -4626 0
-4591 -4627 0
-4592 -4628 0
-4589 -4877 0
-4590 -4878 0
-4591 -4879 0
-4592 -4880 0
-4589 -5405 0
-4590 -5406 0
-4591 -5407 0
-4592 -5408 0
-4589 -5949 0
-4590 -5950 0
-4591 -5951 0
-4592 -5952 0
-4589 -6209 0
-4590 -6210 0
-4591 -6211 0
-4592 -6212 0
-4589 -6233 0
-4590 -6234 0
-4591 -6235 0
-4592 -6236 0
-4593 -4685 0
-4594 -4686 0
-4595 -4687 0
-4596 -4688 0
-4593 -4973 0
-4594 -4974 0
-4595 -4975 0
-4596 -4976 0
-4593 -5953 0
-4594 -5954 0
-4595 -5955 0
-4596 -5956 0
-4593 -6213 0
-4594 -6214 0
-4595 -6215 0
-4596 -6216 0
-4593 -6237 0
-4594 -6238 0
-4595 -6239 0
-4596 -6240 0
-4597 -4625 0
-4598 -4626 0
-4599 -4627 0
-4600 -4628 0
-4597 -4881 0
-4598 -4882 0
-4599 -4883 0
-4600 -4884 0
-4597 -5409 0
-4598 -5410 0
-4599 -5411 0
-4600 -5412 0
-4597 -6225 0
-4598 -6226 0
-4599 -6227 0
-4600 -6228 0
-4597 -6249 0
-4598 -6250 0
-4599 -6251 0
-4600 -6252 0
-4601 -4605 0
-4602 -4606 0
-4603 -4607 0
-4604 -4608 0
-4601 -4649 0
-4602 -4650 0
-4603 -4651 0
-4604 -4652 0
-4601 -5053 0
-4602 -5054 0
-4603 -5055 0
-4604 -5056 0
-4601 -5413 0
-4602 -5414 0
-4603 -5415 0
-4604 -5416 0
-4601 -5625 0
-4602 -5626 0
-4603 -5627 0
-4604 -5628 0
-4601 -6369 0
-4602 -6370 0
-4603 -6371 0
-4604 -6372 0
-4601 -6537 0
-4602 -6538 0
-4603 -6539 0
-4604 -6540 0
-4605 -4653 0
-4606 -4654 0
-4607 -4655 0
-4608 -4656 0
-4605 -4657 0
-4606 -4658 0
-4607 -4659 0
-4608 -4660 0
-4605 -4821 0
-4606 -4822 0
-4607 -4823 0
-4608 -4824 0
-4605 -4881 0
-4606 -4882 0
-4607 -4883 0
-4608 -4884 0
-4605 -5201 0
-4606 -5202 0
-4607 -5203 0
-4608 -5204 0
-4605 -5421 0
-4606 -5422 0
-4607 -5423 0
-4608 -5424 0
-4605 -5993 0
-4606 -5994 0
-4607 -5995 0
-4608 -5996 0
-4605 -6269 0
-4606 -6270 0
-4607 -6271 0
-4608 -6272 0
-4605 -6373 0
-4606 -6374 0
-4607 -6375 0
-4608 -6376 0
-4605 -6545 0
-4606 -6546 0
-4607 -6547 0
-4608 -6548 0
-4609 -4625 0
-4610 -4626 0
-4611 -4627 0
-4612 -4628 0
-4609 -4669 0
-4610 -4670 0
-4611 -4671 0
-4612 -4672 0
-4609 -4833 0
-4610 -4834 0
-4611 -4835 0
-4612 -4836 0
-4609 -4913 0
-4610 -4914 0
-4611 -4915 0
-4612 -4916 0
-4609 -5213 0
-4610 -5214 0
-4611 -5215 0
-4612 -5216 0
-4609 -6013 0
-4610 -6014 0
-4611 -6015 0
-4612 -6016 0
-4609 -6273 0
-4610 -6274 0
-4611 -6275 0
-4612 -6276 0
-4609 -6281 0
-4610 -6282 0
-4611 -6283 0
-4612 -6284 0
-4609 -6561 0
-4610 -6562 0
-4611 -6563 0
-4612 -6564 0
-4613 -4617 0
-4614 -4618 0
-4615 -4619 0
-4616 -4620 0
-4613 -4625 0
-4614 -4626 0
-4615 -4627 0
-4616 -4628 0
-4613 -4649 0
-4614 -4650 0
-4615 -4651 0
-4616 -4652 0
-4613 -4929 0
-4614 -4930 0
-4615 -4931 0
-4616 -4932 0
-4613 -5309 0
-4614 -5310 0
-4615 -5311 0
-4616 -5312 0
-4613 -6041 0
-4614 -6042 0
-4615 -6043 0
-4616 -6044 0
-4613 -6157 0
-4614 -6158 0
-4615 -6159 0
-4616 -6160 0
-4613 -6293 0
-4614 -6294 0
-4615 -6295 0
-4616 -6296 0
-4613 -6297 0
-4614 -6298 0
-4615 -6299 0
-4616 -6300 0
-4613 -6569 0
-4614 -6570 0
-4615 -6571 0
-4616 -6572 0
-4617 -4621 0
-4618 -4622 0
-4619 -4623 0
-4620 -4624 0
-4617 -4633 0
-4618 -4634 0
-4619 -4635 0
-4620 -4636 0
-4617 -4653 0
-4618 -4654 0
-4619 -4655 0
-4620 -4656 0
-4617 -4733 0
-4618 -4734 0
-4619 -4735 0
-4620 -4736 0
-4617 -4893 0
-4618 -4894 0
-4619 -4895 0
-4620 -4896 0
-4617 -5317 0
-4618 -5318 0
-4619 -5319 0
-4620 -5320 0
-4617 -5501 0
-4618 -5502 0
-4619 -5503 0
-4620 -5504 0
-4617 -5533 0
-4618 -5534 0
-4619 -5535 0
-4620 -5536 0
-4617 -6049 0
-4618 -6050 0
-4619 -6051 0
-4620 -6052 0
-4617 -6161 0
-4618 -6162 0
-4619 -6163 0
-4620 -6164 0
-4617 -6305 0
-4618 -6306 0
-4619 -6307 0
-4620 -6308 0
-4621 -4661 0
-4622 -4662 0
-4623 -4663 0
-4624 -4664 0
-4621 -5329 0
-4622 -5330 0
-4623 -5331 0
-4624 -5332 0
-4621 -5541 0
-4622 -5542 0
-4623 -5543 0
-4624 -5544 0
-4621 -6173 0
-4622 -6174 0
-4623 -6175 0
-4624 -6176 0
-4621 -6305 0
-4622 -6306 0
-4623 -6307 0
-4624 -6308 0
-4625 -4629 0
-4626 -4630 0
-4627 -4631 0
-4628 -4632 0
-4625 -4633 0
-4626 -4634 0
-4627 -4635 0
-4628 -4636 0
-4625 -4673 0
-4626 -4674 0
-4627 -4675 0
-4628 -4676 0
-4625 -4713 0
-4626 -4714 0
-4627 -4715 0
-4628 -4716 0
-4625 -4809 0
-4626 -4810 0
-4627 -4811 0
-4628 -4812 0
-4625 -4981 0
-4626 -4982 0
-4627 -4983 0
-4628 -4984 0
-4625 -5457 0
-4626 -5458 0
-4627 -5459 0
-4628 -5460 0
-4625 -6057 0
-4626 -6058 0
-4627 -6059 0
-4628 -6060 0
-4625 -6157 0
-4626 -6158 0
-4627 -6159 0
-4628 -6160 0
-4625 -6313 0
-4626 -6314 0
-4627 -6315 0
-4628 -6316 0
-4625 -6317 0
-4626 -6318 0
-4627 -6319 0
-4628 -6320 0
-4629 -4717 0
-4630 -4718 0
-4631 -4719 0
-4632 -4720 0
-4629 -4813 0
-4630 -4814 0
-4631 -4815 0
-4632 -4816 0
-4629 -4989 0
-4630 -4990 0
-4631 -4991 0
-4632 -4992 0
-4629 -5077 0
-4630 -5078 0
-4631 -5079 0
-4632 -5080 0
-4629 -5665 0
-4630 -5666 0
-4631 -5667 0
-4632 -5668 0
-4629 -6325 0
-4630 -6326 0
-4631 -6327 0
-4632 -6328 0
-4633 -4665 0
-4634 -4666 0
-4635 -4667 0
-4636 -4668 0
-4633 -4673 0
-4634 -4674 0
-4635 -4675 0
-4636 -4676 0
-4633 -4741 0
-4634 -4742 0
-4635 -4743 0
-4636 -4744 0
-4633 -5001 0
-4634 -5002 0
-4635 -5003 0
-4636 -5004 0
-4633 -5525 0
-4634 -5526 0
-4635 -5527 0
-4636 -5528 0
-4633 -6065 0
-4634 -6066 0
-4635 -6067 0
-4636 -6068 0
-4633 -6161 0
-4634 -6162 0
-4635 -6163 0
-4636 -6164 0
-4633 -6329 0
-4634 -6330 0
-4635 -6331 0
-4636 -6332 0
-4637 -4641 0
-4638 -4642 0
-4639 -4643 0
-4640 -4644 0
-4637 -4645 0
-4638 -4646 0
-4639 -4647 0
-4640 -4648 0
-4637 -4653 0
-4638 -4654 0
-4639 -4655 0
-4640 -4656 0
-4637 -4921 0
-4638 -4922 0
-4639 -4923 0
-4640 -4924 0
-4637 -5089 0
-4638 -5090 0
-4639 -5091 0
-4640 -5092 0
-4637 -5273 0
-4638 -5274 0
-4639 -5275 0
-4640 -5276 0
-4637 -5705 0
-4638 -5706 0
-4639 -5707 0
-4640 -5708 0
-4637 -6085 0
-4638 -6086 0
-4639 -6087 0
-4640 -6088 0
-4637 -6197 0
-4638 -6198 0
-4639 -6199 0
-4640 -6200 0
-4637 -6221 0
-4638 -6222 0
-4639 -6223 0
-4640 -6224 0
-4637 -6337 0
-4638 -6338 0
-4639 -6339 0
-4640 -6340 0
-4637 -6385 0
-4638 -6386 0
-4639 -6387 0
-4640 -6388 0
-4637 -6617 0
-4638 -6618 0
-4639 -6619 0
-4640 -6620 0
-4641 -4657 0
-4642 -4658 0
-4643 -4659 0
-4644 -4660 0
-4641 -4817 0
-4642 -4818 0
-4643 -4819 0
-4644 -4820 0
-4641 -4849 0
-4642 -4850 0
-4643 -4851 0
-4644 -4852 0
-4641 -5277 0
-4642 -5278 0
-4643 -5279 0
-4644 -5280 0
-4641 -5561 0
-4642 -5562 0
-4643 -5563 0
-4644 -5564 0
-4641 -5713 0
-4642 -5714 0
-4643 -5715 0
-4644 -5716 0
-4641 -6201 0
-4642 -6202 0
-4643 -6203 0
-4644 -6204 0
-4641 -6229 0
-4642 -6230 0
-4643 -6231 0
-4644 -6232 0
-4641 -6341 0
-4642 -6342 0
-4643 -6343 0
-4644 -6344 0
-4641 -6393 0
-4642 -6394 0
-4643 -6395 0
-4644 -6396 0
-4641 -6621 0
-4642 -6622 0
-4643 -6623 0
-4644 -6624 0
-4645 -4661 0
-4646 -4662 0
-4647 -4663 0
-4648 -4664 0
-4645 -5097 0
-4646 -5098 0
-4647 -5099 0
-4648 -5100 0
-4645 -5577 0
-4646 -5578 0
-4647 -5579 0
-4648 -5580 0
-4645 -6089 0
-4646 -6090 0
-4647 -6091 0
-4648 -6092 0
-4645 -6205 0
-4646 -6206 0
-4647 -6207 0
-4648 -6208 0
-4645 -6245 0
-4646 -6246 0
-4647 -6247 0
-4648 -6248 0
-4645 -6337 0
-4646 -6338 0
-4647 -6339 0
-4648 -6340 0
-4645 -6397 0
-4646 -6398 0
-4647 -6399 0
-4648 -6400 0
-4649 -4653 0
-4650 -4654 0
-4651 -4655 0
-4652 -4656 0
-4649 -4745 0
-4650 -4746 0
-4651 -4747 0
-4652 -4748 0
-4649 -4965 0
-4650 -4966 0
-4651 -4967 0
-4652 -4968 0
-4649 -5729 0
-4650 -5730 0
-4651 -5731 0
-4652 -5732 0
-4649 -6345 0
-4650 -6346 0
-4651 -6347 0
-4652 -6348 0
-4649 -6381 0
-4650 -6382 0
-4651 -6383 0
-4652 -6384 0
-4649 -6637 0
-4650 -6638 0
-4651 -6639 0
-4652 -6640 0
-4653 -4657 0
-4654 -4658 0
-4655 -4659 0
-4656 -4660 0
-4653 -4661 0
-4654 -4662 0
-4655 -4663 0
-4656 -4664 0
-4653 -4665 0
-4654 -4666 0
-4655 -4667 0
-4656 -4668 0
-4653 -4749 0
-4654 -4750 0
-4655 -4751 0
-4656 -4752 0
-4653 -4981 0
-4654 -4982 0
-4655 -4983 0
-4656 -4984 0
-4653 -5285 0
-4654 -5286 0
-4655 -5287 0
-4656 -5288 0
-4653 -5481 0
-4654 -5482 0
-4655 -5483 0
-4656 -5484 0
-4653 -5581 0
-4654 -5582 0
-4655 -5583 0
-4656 -5584 0
-4653 -5737 0
-4654 -5738 0
-4655 -5739 0
-4656 -5740 0
-4653 -6261 0
-4654 -6262 0
-4655 -6263 0
-4656 -6264 0
-4653 -6349 0
-4654 -6350 0
-4655 -6351 0
-4656 -6352 0
-4653 -6385 0
-4654 -6386 0
-4655 -6387 0
-4656 -6388 0
-4653 -6649 0
-4654 -6650 0
-4655 -6651 0
-4656 -6652 0
-4657 -4861 0
-4658 -4862 0
-4659 -4863 0
-4660 -4864 0
-4657 -4993 0
-4658 -4994 0
-4659 -4995 0
-4660 -4996 0
-4657 -5257 0
-4658 -5258 0
-4659 -5259 0
-4660 -5260 0
-4657 -5293 0
-4658 -5294 0
-4659 -5295 0
-4660 -5296 0
-4657 -5497 0
-4658 -5498 0
-4659 -5499 0
-4660 -5500 0
-4657 -5573 0
-4658 -5574 0
-4659 -5575 0
-4660 -5576 0
-4657 -5741 0
-4658 -5742 0
-4659 -5743 0
-4660 -5744 0
-4657 -6353 0
-4658 -6354 0
-4659 -6355 0
-4660 -6356 0
-4657 -6393 0
-4658 -6394 0
-4659 -6395 0
-4660 -6396 0
-4657 -6653 0
-4658 -6654 0
-4659 -6655 0
-4660 -6656 0
-4661 -4761 0
-4662 -4762 0
-4663 -4763 0
-4664 -4764 0
-4661 -5005 0
-4662 -5006 0
-4663 -5007 0
-4664 -5008 0
-4661 -5505 0
-4662 -5506 0
-4663 -5507 0
-4664 -5508 0
-4661 -5585 0
-4662 -5586 0
-4663 -5587 0
-4664 -5588 0
-4661 -6265 0
-4662 -6266 0
-4663 -6267 0
-4664 -6268 0
-4661 -6349 0
-4662 -6350 0
-4663 -6351 0
-4664 -6352 0
-4661 -6397 0
-4662 -6398 0
-4663 -6399 0
-4664 -6400 0
-4665 -5013 0
-4666 -5014 0
-4667 -5015 0
-4668 -5016 0
-4665 -5109 0
-4666 -5110 0
-4667 -5111 0
-4668 -5112 0
-4665 -5297 0
-4666 -5298 0
-4667 -5299 0
-4668 -5300 0
-4665 -6101 0
-4666 -6102 0
-4667 -6103 0
-4668 -6104 0
-4665 -6261 0
-4666 -6262 0
-4667 -6263 0
-4668 -6264 0
-4669 -4673 0
-4670 -4674 0
-4671 -4675 0
-4672 -4676 0
-4669 -5313 0
-4670 -5314 0
-4671 -5315 0
-4672 -5316 0
-4669 -5589 0
-4670 -5590 0
-4671 -5591 0
-4672 -5592 0
-4669 -5797 0
-4670 -5798 0
-4671 -5799 0
-4672 -5800 0
-4669 -6377 0
-4670 -6378 0
-4671 -6379 0
-4672 -6380 0
-4669 -6393 0
-4670 -6394 0
-4671 -6395 0
-4672 -6396 0
-4673 -4801 0
-4674 -4802 0
-4675 -4803 0
-4676 -4804 0
-4673 -5025 0
-4674 -5026 0
-4675 -5027 0
-4676 -5028 0
-4673 -5125 0
-4674 -5126 0
-4675 -5127 0
-4676 -5128 0
-4673 -5813 0
-4674 -5814 0
-4675 -5815 0
-4676 -5816 0
-4673 -6357 0
-4674 -6358 0
-4675 -6359 0
-4676 -6360 0
-4673 -6401 0
-4674 -6402 0
-4675 -6403 0
-4676 -6404 0
-4673 -6405 0
-4674 -6406 0
-4675 -6407 0
-4676 -6408 0
-4677 -4681 0
-4678 -4682 0
-4679 -4683 0
-4680 -4684 0
-4677 -4689 0
-4678 -4690 0
-4679 -4691 0
-4680 -4692 0
-4677 -4709 0
-4678 -4710 0
-4679 -4711 0
-4680 -4712 0
-4677 -4717 0
-4678 -4718 0
-4679 -4719 0
-4680 -4720 0
-4677 -4869 0
-4678 -4870 0
-4679 -4871 0
-4680 -4872 0
-4677 -4921 0
-4678 -4922 0
-4679 -4923 0
-4680 -4924 0
-4677 -5133 0
-4678 -5134 0
-4679 -5135 0
-4680 -5136 0
-4677 -6137 0
-4678 -6138 0
-4679 -6139 0
-4680 -6140 0
-4677 -6409 0
-4678 -6410 0
-4679 -6411 0
-4680 -6412 0
-4677 -6413 0
-4678 -6414 0
-4679 -6415 0
-4680 -6416 0
-4677 -6505 0
-4678 -6506 0
-4679 -6507 0
-4680 -6508 0
-4681 -4721 0
-4682 -4722 0
-4683 -4723 0
-4684 -4724 0
-4681 -4729 0
-4682 -4730 0
-4683 -4731 0
-4684 -4732 0
-4681 -4877 0
-4682 -4878 0
-4683 -4879 0
-4684 -4880 0
-4681 -5145 0
-4682 -5146 0
-4683 -5147 0
-4684 -5148 0
-4681 -6141 0
-4682 -6142 0
-4683 -6143 0
-4684 -6144 0
-4681 -6413 0
-4682 -6414 0
-4683 -6415 0
-4684 -6416 0
-4685 -4693 0
-4686 -4694 0
-4687 -4695 0
-4688 -4696 0
-4685 -4793 0
-4686 -4794 0
-4687 -4795 0
-4688 -4796 0
-4685 -5429 0
-4686 -5430 0
-4687 -5431 0
-4688 -5432 0
-4685 -6417 0
-4686 -6418 0
-4687 -6419 0
-4688 -6420 0
-4685 -6433 0
-4686 -6434 0
-4687 -6435 0
-4688 -6436 0
-4685 -6729 0
-4686 -6730 0
-4687 -6731 0
-4688 -6732 0
-4689 -4693 0
-4690 -4694 0
-4691 -4695 0
-4692 -4696 0
-4689 -4697 0
-4690 -4698 0
-4691 -4699 0
-4692 -4700 0
-4689 -4737 0
-4690 -4738 0
-4691 -4739 0
-4692 -4740 0
-4689 -4741 0
-4690 -4742 0
-4691 -4743 0
-4692 -4744 0
-4689 -4789 0
-4690 -4790 0
-4691 -4791 0
-4692 -4792 0
-4689 -4981 0
-4690 -4982 0
-4691 -4983 0
-4692 -4984 0
-4689 -5353 0
-4690 -5354 0
-4691 -5355 0
-4692 -5356 0
-4689 -5605 0
-4690 -5606 0
-4691 -5607 0
-4692 -5608 0
-4689 -5629 0
-4690 -5630 0
-4691 -5631 0
-4692 -5632 0
-4689 -6145 0
-4690 -6146 0
-4691 -6147 0
-4692 -6148 0
-4689 -6421 0
-4690 -6422 0
-4691 -6423 0
-4692 -6424 0
-4689 -6437 0
-4690 -6438 0
-4691 -6439 0
-4692 -6440 0
-4689 -6505 0
-4690 -6506 0
-4691 -6507 0
-4692 -6508 0
-4693 -4697 0
-4694 -4698 0
-4695 -4699 0
-4696 -4700 0
-4693 -4793 0
-4694 -4794 0
-4695 -4795 0
-4696 -4796 0
-4693 -4985 0
-4694 -4986 0
-4695 -4987 0
-4696 -4988 0
-4693 -5157 0
-4694 -5158 0
-4695 -5159 0
-4696 -5160 0
-4693 -5433 0
-4694 -5434 0
-4695 -5435 0
-4696 -5436 0
-4693 -6425 0
-4694 -6426 0
-4695 -6427 0
-4696 -6428 0
-4693 -6441 0
-4694 -6442 0
-4695 -6443 0
-4696 -6444 0
-4697 -5037 0
-4698 -5038 0
-4699 -5039 0
-4700 -5040 0
-4697 -5181 0
-4698 -5182 0
-4699 -5183 0
-4700 -5184 0
-4697 -6161 0
-4698 -6162 0
-4699 -6163 0
-4700 -6164 0
-4697 -6445 0
-4698 -6446 0
-4699 -6447 0
-4700 -6448 0
-4697 -6449 0
-4698 -6450 0
-4699 -6451 0
-4700 -6452 0
-4701 -4705 0
-4702 -4706 0
-4703 -4707 0
-4704 -4708 0
-4701 -4717 0
-4702 -4718 0
-4703 -4719 0
-4704 -4720 0
-4701 -4733 0
-4702 -4734 0
-4703 -4735 0
-4704 -4736 0
-4701 -4745 0
-4702 -4746 0
-4703 -4747 0
-4704 -4748 0
-4701 -4925 0
-4702 -4926 0
-4703 -4927 0
-4704 -4928 0
-4701 -5221 0
-4702 -5222 0
-4703 -5223 0
-4704 -5224 0
-4701 -5649 0
-4702 -5650 0
-4703 -5651 0
-4704 -5652 0
-4701 -5681 0
-4702 -5682 0
-4703 -5683 0
-4704 -5684 0
-4701 -6201 0
-4702 -6202 0
-4703 -6203 0
-4704 -6204 0
-4701 -6457 0
-4702 -6458 0
-4703 -6459 0
-4704 -6460 0
-4701 -6553 0
-4702 -6554 0
-4703 -6555 0
-4704 -6556 0
-4701 -6769 0
-4702 -6770 0
-4703 -6771 0
-4704 -6772 0
-4705 -4729 0
-4706 -4730 0
-4707 -4731 0
-4708 -4732 0
-4705 -4753 0
-4706 -4754 0
-4707 -4755 0
-4708 -4756 0
-4705 -4929 0
-4706 -4930 0
-4707 -4931 0
-4708 -4932 0
-4705 -5233 0
-4706 -5234 0
-4707 -5235 0
-4708 -5236 0
-4705 -5469 0
-4706 -5470 0
-4707 -5471 0
-4708 -5472 0
-4705 -5697 0
-4706 -5698 0
-4707 -5699 0
-4708 -5700 0
-4705 -6457 0
-4706 -6458 0
-4707 -6459 0
-4708 -6460 0
-4705 -6557 0
-4706 -6558 0
-4707 -6559 0
-4708 -6560 0
-4705 -6777 0
-4706 -6778 0
-4707 -6779 0
-4708 -6780 0
-4709 -4717 0
-4710 -4718 0
-4711 -4719 0
-4712 -4720 0
-4709 -4721 0
-4710 -4722 0
-4711 -4723 0
-4712 -4724 0
-4709 -4737 0
-4710 -4738 0
-4711 -4739 0
-4712 -4740 0
-4709 -4937 0
-4710 -4938 0
-4711 -4939 0
-4712 -4940 0
-4709 -5217 0
-4710 -5218 0
-4711 -5219 0
-4712 -5220 0
-4709 -5405 0
-4710 -5406 0
-4711 -5407 0
-4712 -5408 0
-4709 -5717 0
-4710 -5718 0
-4711 -5719 0
-4712 -5720 0
-4709 -6221 0
-4710 -6222 0
-4711 -6223 0
-4712 -6224 0
-4709 -6461 0
-4710 -6462 0
-4711 -6463 0
-4712 -6464 0
-4713 -4717 0
-4714 -4718 0
-4715 -4719 0
-4716 -4720 0
-4713 -4725 0
-4714 -4726 0
-4715 -4727 0
-4716 -4728 0
-4713 -4765 0
-4714 -4766 0
-4715 -4767 0
-4716 -4768 0
-4713 -4801 0
-4714 -4802 0
-4715 -4803 0
-4716 -4804 0
-4713 -4941 0
-4714 -4942 0
-4715 -4943 0
-4716 -4944 0
-4713 -5137 0
-4714 -5138 0
-4715 -5139 0
-4716 -5140 0
-4713 -6465 0
-4714 -6466 0
-4715 -6467 0
-4716 -6468 0
-4717 -4729 0
-4718 -4730 0
-4719 -4731 0
-4720 -4732 0
-4717 -4741 0
-4718 -4742 0
-4719 -4743 0
-4720 -4744 0
-4717 -4765 0
-4718 -4766 0
-4719 -4767 0
-4720 -4768 0
-4717 -4805 0
-4718 -4806 0
-4719 -4807 0
-4720 -4808 0
-4717 -5141 0
-4718 -5142 0
-4719 -5143 0
-4720 -5144 0
-4717 -5225 0
-4718 -5226 0
-4719 -5227 0
-4720 -5228 0
-4717 -5409 0
-4718 -5410 0
-4719 -5411 0
-4720 -5412 0
-4717 -5665 0
-4718 -5666 0
-4719 -5667 0
-4720 -5668 0
-4717 -5841 0
-4718 -5842 0
-4719 -5843 0
-4720 -5844 0
-4717 -6229 0
-4718 -6230 0
-4719 -6231 0
-4720 -6232 0
-4717 -6469 0
-4718 -6470 0
-4719 -6471 0
-4720 -6472 0
-4717 -6561 0
-4718 -6562 0
-4719 -6563 0
-4720 -6564 0
-4721 -4729 0
-4722 -4730 0
-4723 -4731 0
-4724 -4732 0
-4721 -4969 0
-4722 -4970 0
-4723 -4971 0
-4724 -4972 0
-4721 -5229 0
-4722 -5230 0
-4723 -5231 0
-4724 -5232 0
-4721 -5721 0
-4722 -5722 0
-4723 -5723 0
-4724 -5724 0
-4721 -6245 0
-4722 -6246 0
-4723 -6247 0
-4724 -6248 0
-4721 -6461 0
-4722 -6462 0
-4723 -6463 0
-4724 -6464 0
-4725 -4729 0
-4726 -4730 0
-4727 -4731 0
-4728 -4732 0
-4725 -4769 0
-4726 -4770 0
-4727 -4771 0
-4728 -4772 0
-4725 -4973 0
-4726 -4974 0
-4727 -4975 0
-4728 -4976 0
-4725 -5149 0
-4726 -5150 0
-4727 -5151 0
-4728 -5152 0
-4725 -6465 0
-4726 -6466 0
-4727 -6467 0
-4728 -6468 0
-4729 -4769 0
-4730 -4770 0
-4731 -4771 0
-4732 -4772 0
-4729 -4981 0
-4730 -4982 0
-4731 -4983 0
-4732 -4984 0
-4729 -5237 0
-4730 -5238 0
-4731 -5239 0
-4732 -5240 0
-4729 -6257 0
-4730 -6258 0
-4731 -6259 0
-4732 -6260 0
-4729 -6469 0
-4730 -6470 0
-4731 -6471 0
-4732 -6472 0
-4729 -6565 0
-4730 -6566 0
-4731 -6567 0
-4732 -6568 0
-4733 -4741 0
-4734 -4742 0
-4735 -4743 0
-4736 -4744 0
-4733 -5493 0
-4734 -5494 0
-4735 -5495 0
-4736 -5496 0
-4733 -6553 0
-4734 -6554 0
-4735 -6555 0
-4736 -6556 0
-4733 -6781 0
-4734 -6782 0
-4735 -6783 0
-4736 -6784 0
-4737 -4741 0
-4738 -4742 0
-4739 -4743 0
-4740 -4744 0
-4737 -4813 0
-4738 -4814 0
-4739 -4815 0
-4740 -4816 0
-4737 -4837 0
-4738 -4838 0
-4739 -4839 0
-4740 -4840 0
-4737 -5073 0
-4738 -5074 0
-4739 -5075 0
-4740 -5076 0
-4737 -5733 0
-4738 -5734 0
-4739 -5735 0
-4740 -5736 0
-4737 -6261 0
-4738 -6262 0
-4739 -6263 0
-4740 -6264 0
-4737 -6473 0
-4738 -6474 0
-4739 -6475 0
-4740 -6476 0
-4737 -6477 0
-4738 -6478 0
-4739 -6479 0
-4740 -6480 0
-4741 -5017 0
-4742 -5018 0
-4743 -5019 0
-4744 -5020 0
-4741 -5081 0
-4742 -5082 0
-4743 -5083 0
-4744 -5084 0
-4741 -5161 0
-4742 -5162 0
-4743 -5163 0
-4744 -5164 0
-4741 -5373 0
-4742 -5374 0
-4743 -5375 0
-4744 -5376 0
-4741 -6481 0
-4742 -6482 0
-4743 -6483 0
-4744 -6484 0
-4741 -6561 0
-4742 -6562 0
-4743 -6563 0
-4744 -6564 0
-4745 -4749 0
-4746 -4750 0
-4747 -4751 0
-4748 -4752 0
-4745 -4753 0
-4746 -4754 0
-4747 -4755 0
-4748 -4756 0
-4745 -4765 0
-4746 -4766 0
-4747 -4767 0
-4748 -4768 0
-4745 -4773 0
-4746 -4774 0
-4747 -4775 0
-4748 -4776 0
-4745 -4817 0
-4746 -4818 0
-4747 -4819 0
-4748 -4820 0
-4745 -5549 0
-4746 -5550 0
-4747 -5551 0
-4748 -5552 0
-4745 -5869 0
-4746 -5870 0
-4747 -5871 0
-4748 -5872 0
-4745 -6417 0
-4746 -6418 0
-4747 -6419 0
-4748 -6420 0
-4745 -6485 0
-4746 -6486 0
-4747 -6487 0
-4748 -6488 0
-4745 -6577 0
-4746 -6578 0
-4747 -6579 0
-4748 -6580 0
-4745 -6593 0
-4746 -6594 0
-4747 -6595 0
-4748 -6596 0
-4745 -6841 0
-4746 -6842 0
-4747 -6843 0
-4748 -6844 0
-4749 -4761 0
-4750 -4762 0
-4751 -4763 0
-4752 -4764 0
-4749 -4817 0
-4750 -4818 0
-4751 -4819 0
-4752 -4820 0
-4749 -5137 0
-4750 -5138 0
-4751 -5139 0
-4752 -5140 0
-4749 -5417 0
-4750 -5418 0
-4751 -5419 0
-4752 -5420 0
-4749 -5553 0
-4750 -5554 0
-4751 -5555 0
-4752 -5556 0
-4749 -5737 0
-4750 -5738 0
-4751 -5739 0
-4752 -5740 0
-4749 -5749 0
-4750 -5750 0
-4751 -5751 0
-4752 -5752 0
-4749 -6425 0
-4750 -6426 0
-4751 -6427 0
-4752 -6428 0
-4749 -6489 0
-4750 -6490 0
-4751 -6491 0
-4752 -6492 0
-4749 -6857 0
-4750 -6858 0
-4751 -6859 0
-4752 -6860 0
-4753 -4761 0
-4754 -4762 0
-4755 -4763 0
-4756 -4764 0
-4753 -4769 0
-4754 -4770 0
-4755 -4771 0
-4756 -4772 0
-4753 -4777 0
-4754 -4778 0
-4755 -4779 0
-4756 -4780 0
-4753 -4821 0
-4754 -4822 0
-4755 -4823 0
-4756 -4824 0
-4753 -5561 0
-4754 -5562 0
-4755 -5563 0
-4756 -5564 0
-4753 -5653 0
-4754 -5654 0
-4755 -5655 0
-4756 -5656 0
-4753 -6433 0
-4754 -6434 0
-4755 -6435 0
-4756 -6436 0
-4753 -6485 0
-4754 -6486 0
-4755 -6487 0
-4756 -6488 0
-4753 -6585 0
-4754 -6586 0
-4755 -6587 0
-4756 -6588 0
-4753 -6601 0
-4754 -6602 0
-4755 -6603 0
-4756 -6604 0
-4753 -6877 0
-4754 -6878 0
-4755 -6879 0
-4756 -6880 0
-4757 -4761 0
-4758 -4762 0
-4759 -4763 0
-4760 -4764 0
-4757 -4781 0
-4758 -4782 0
-4759 -4783 0
-4760 -4784 0
-4757 -4785 0
-4758 -4786 0
-4759 -4787 0
-4760 -4788 0
-4757 -5097 0
-4758 -5098 0
-4759 -5099 0
-4760 -5100 0
-4757 -5145 0
-4758 -5146 0
-4759 -5147 0
-4760 -5148 0
-4757 -5657 0
-4758 -5658 0
-4759 -5659 0
-4760 -5660 0
-4757 -5757 0
-4758 -5758 0
-4759 -5759 0
-4760 -5760 0
-4757 -6269 0
-4758 -6270 0
-4759 -6271 0
-4760 -6272 0
-4757 -6437 0
-4758 -6438 0
-4759 -6439 0
-4760 -6440 0
-4757 -6589 0
-4758 -6590 0
-4759 -6591 0
-4760 -6592 0
-4761 -4781 0
-4762 -4782 0
-4763 -4783 0
-4764 -4784 0
-4761 -4821 0
-4762 -4822 0
-4763 -4823 0
-4764 -4824 0
-4761 -5149 0
-4762 -5150 0
-4763 -5151 0
-4764 -5152 0
-4761 -5565 0
-4762 -5566 0
-4763 -5567 0
-4764 -5568 0
-4761 -5761 0
-4762 -5762 0
-4763 -5763 0
-4764 -5764 0
-4761 -6441 0
-4762 -6442 0
-4763 -6443 0
-4764 -6444 0
-4761 -6489 0
-4762 -6490 0
-4763 -6491 0
-4764 -6492 0
-4761 -6893 0
-4762 -6894 0
-4763 -6895 0
-4764 -6896 0
-4765 -4769 0
-4766 -4770 0
-4767 -4771 0
-4768 -4772 0
-4765 -4825 0
-4766 -4826 0
-4767 -4827 0
-4768 -4828 0
-4765 -5045 0
-4766 -5046 0
-4767 -5047 0
-4768 -5048 0
-4765 -5193 0
-4766 -5194 0
-4767 -5195 0
-4768 -5196 0
-4765 -5881 0
-4766 -5882 0
-4767 -5883 0
-4768 -5884 0
-4765 -6273 0
-4766 -6274 0
-4767 -6275 0
-4768 -6276 0
-4765 -6417 0
-4766 -6418 0
-4767 -6419 0
-4768 -6420 0
-4765 -6493 0
-4766 -6494 0
-4767 -6495 0
-4768 -6496 0
-4765 -6897 0
-4766 -6898 0
-4767 -6899 0
-4768 -6900 0
-4769 -4829 0
-4770 -4830 0
-4771 -4831 0
-4772 -4832 0
-4769 -5053 0
-4770 -5054 0
-4771 -5055 0
-4772 -5056 0
-4769 -5669 0
-4770 -5670 0
-4771 -5671 0
-4772 -5672 0
-4769 -5885 0
-4770 -5886 0
-4771 -5887 0
-4772 -5888 0
-4769 -6281 0
-4770 -6282 0
-4771 -6283 0
-4772 -6284 0
-4769 -6433 0
-4770 -6434 0
-4771 -6435 0
-4772 -6436 0
-4769 -6493 0
-4770 -6494 0
-4771 -6495 0
-4772 -6496 0
-4769 -6901 0
-4770 -6902 0
-4771 -6903 0
-4772 -6904 0
-4773 -4777 0
-4774 -4778 0
-4775 -4779 0
-4776 -4780 0
-4773 -5201 0
-4774 -5202 0
-4775 -5203 0
-4776 -5204 0
-4773 -5677 0
-4774 -5678 0
-4775 -5679 0
-4776 -5680 0
-4773 -6293 0
-4774 -6294 0
-4775 -6295 0
-4776 -6296 0
-4773 -6497 0
-4774 -6498 0
-4775 -6499 0
-4776 -6500 0
-4773 -6609 0
-4774 -6610 0
-4775 -6611 0
-4776 -6612 0
-4773 -6633 0
-4774 -6634 0
-4775 -6635 0
-4776 -6636 0
-4773 -6913 0
-4774 -6914 0
-4775 -6915 0
-4776 -6916 0
-4777 -4781 0
-4778 -4782 0
-4779 -4783 0
-4780 -4784 0
-4777 -4853 0
-4778 -4854 0
-4779 -4855 0
-4780 -4856 0
-4777 -5693 0
-4778 -5694 0
-4779 -5695 0
-4780 -5696 0
-4777 -6297 0
-4778 -6298 0
-4779 -6299 0
-4780 -6300 0
-4777 -6497 0
-4778 -6498 0
-4779 -6499 0
-4780 -6500 0
-4777 -6921 0
-4778 -6922 0
-4779 -6923 0
-4780 -6924 0
-4781 -4865 0
-4782 -4866 0
-4783 -4867 0
-4784 -4868 0
-4781 -5177 0
-4782 -5178 0
-4783 -5179 0
-4784 -5180 0
-4781 -5705 0
-4782 -5706 0
-4783 -5707 0
-4784 -5708 0
-4781 -6305 0
-4782 -6306 0
-4783 -6307 0
-4784 -6308 0
-4781 -6449 0
-4782 -6450 0
-4783 -6451 0
-4784 -6452 0
-4785 -5237 0
-4786 -5238 0
-4787 -5239 0
-4788 -5240 0
-4785 -5509 0
-4786 -5510 0
-4787 -5511 0
-4788 -5512 0
-4785 -5773 0
-4786 -5774 0
-4787 -5775 0
-4788 -5776 0
-4785 -6353 0
-4786 -6354 0
-4787 -6355 0
-4788 -6356 0
-4785 -6481 0
-4786 -6482 0
-4787 -6483 0
-4788 -6484 0
-4785 -6673 0
-4786 -6674 0
-4787 -6675 0
-4788 -6676 0
-4789 -4793 0
-4790 -4794 0
-4791 -4795 0
-4792 -4796 0
-4789 -4813 0
-4790 -4814 0
-4791 -4815 0
-4792 -4816 0
-4789 -4873 0
-4790 -4874 0
-4791 -4875 0
-4792 -4876 0
-4789 -5121 0
-4790 -5122 0
-4791 -5123 0
-4792 -5124 0
-4789 -5297 0
-4790 -5298 0
-4791 -5299 0
-4792 -5300 0
-4789 -5441 0
-4790 -5442 0
-4791 -5443 0
-4792 -5444 0
-4789 -5945 0
-4790 -5946 0
-4791 -5947 0
-4792 -5948 0
-4789 -6525 0
-4790 -6526 0
-4791 -6527 0
-4792 -6528 0
-4789 -6537 0
-4790 -6538 0
-4791 -6539 0
-4792 -6540 0
-4793 -5293 0
-4794 -5294 0
-4795 -5295 0
-4796 -5296 0
-4793 -6529 0
-4794 -6530 0
-4795 -6531 0
-4796 -6532 0
-4793 -6541 0
-4794 -6542 0
-4795 -6543 0
-4796 -6544 0
-4797 -4809 0
-4798 -4810 0
-4799 -4811 0
-4800 -4812 0
-4797 -4813 0
-4798 -4814 0
-4799 -4815 0
-4800 -4816 0
-4797 -4885 0
-4798 -4886 0
-4799 -4887 0
-4800 -4888 0
-4797 -5265 0
-4798 -5266 0
-4799 -5267 0
-4800 -5268 0
-4797 -5949 0
-4798 -5950 0
-4799 -5951 0
-4800 -5952 0
-4797 -6357 0
-4798 -6358 0
-4799 -6359 0
-4800 -6360 0
-4797 -6569 0
-4798 -6570 0
-4799 -6571 0
-4800 -6572 0
-4801 -4805 0
-4802 -4806 0
-4803 -4807 0
-4804 -4808 0
-4801 -4825 0
-4802 -4826 0
-4803 -4827 0
-4804 -4828 0
-4801 -4957 0
-4802 -4958 0
-4803 -4959 0
-4804 -4960 0
-4801 -5813 0
-4802 -5814 0
-4803 -5815 0
-4804 -5816 0
-4801 -6509 0
-4802 -6510 0
-4803 -6511 0
-4804 -6512 0
-4805 -4825 0
-4806 -4826 0
-4807 -4827 0
-4808 -4828 0
-4805 -5117 0
-4806 -5118 0
-4807 -5119 0
-4808 -5120 0
-4805 -5165 0
-4806 -5166 0
-4807 -5167 0
-4808 -5168 0
-4805 -5817 0
-4806 -5818 0
-4807 -5819 0
-4808 -5820 0
-4805 -5985 0
-4806 -5986 0
-4807 -5987 0
-4808 -5988 0
-4805 -6621 0
-4806 -6622 0
-4807 -6623 0
-4808 -6624 0
-4809 -4813 0
-4810 -4814 0
-4811 -4815 0
-4812 -4816 0
-4809 -4941 0
-4810 -4942 0
-4811 -4943 0
-4812 -4944 0
-4809 -5285 0
-4810 -5286 0
-4811 -5287 0
-4812 -5288 0
-4809 -6633 0
-4810 -6634 0
-4811 -6635 0
-4812 -6636 0
-4813 -5289 0
-4814 -5290 0
-4815 -5291 0
-4816 -5292 0
-4813 -6001 0
-4814 -6002 0
-4815 -6003 0
-4816 -6004 0
-4813 -6625 0
-4814 -6626 0
-4815 -6627 0
-4816 -6628 0
-4813 -6637 0
-4814 -6638 0
-4815 -6639 0
-4816 -6640 0
-4817 -4821 0
-4818 -4822 0
-4819 -4823 0
-4820 -4824 0
-4817 -4825 0
-4818 -4826 0
-4819 -4827 0
-4820 -4828 0
-4817 -5197 0
-4818 -5198 0
-4819 -5199 0
-4820 -5200 0
-4817 -5277 0
-4818 -5278 0
-4819 -5279 0
-4820 -5280 0
-4817 -5837 0
-4818 -5838 0
-4819 -5839 0
-4820 -5840 0
-4817 -6049 0
-4818 -6050 0
-4819 -6051 0
-4820 -6052 0
-4817 -6529 0
-4818 -6530 0
-4819 -6531 0
-4820 -6532 0
-4817 -6657 0
-4818 -6658 0
-4819 -6659 0
-4820 -6660 0
-4817 -6997 0
-4818 -6998 0
-4819 -6999 0
-4820 -7000 0
-4821 -4829 0
-4822 -4830 0
-4823 -4831 0
-4824 -4832 0
-4821 -5201 0
-4822 -5202 0
-4823 -5203 0
-4824 -5204 0
-4821 -5281 0
-4822 -5282 0
-4823 -5283 0
-4824 -5284 0
-4821 -5805 0
-4822 -5806 0
-4823 -5807 0
-4824 -5808 0
-4821 -6541 0
-4822 -6542 0
-4823 -6543 0
-4824 -6544 0
-4821 -6657 0
-4822 -6658 0
-4823 -6659 0
-4824 -6660 0
-4821 -6661 0
-4822 -6662 0
-4823 -6663 0
-4824 -6664 0
-4821 -7005 0
-4822 -7006 0
-4823 -7007 0
-4824 -7008 0
-4825 -4829 0
-4826 -4830 0
-4827 -4831 0
-4828 -4832 0
-4825 -5205 0
-4826 -5206 0
-4827 -5207 0
-4828 -5208 0
-4825 -6065 0
-4826 -6066 0
-4827 -6067 0
-4828 -6068 0
-4825 -6377 0
-4826 -6378 0
-4827 -6379 0
-4828 -6380 0
-4825 -6529 0
-4826 -6530 0
-4827 -6531 0
-4828 -6532 0
-4825 -6665 0
-4826 -6666 0
-4827 -6667 0
-4828 -6668 0
-4829 -5209 0
-4830 -5210 0
-4831 -5211 0
-4832 -5212 0
-4829 -5577 0
-4830 -5578 0
-4831 -5579 0
-4832 -5580 0
-4829 -5821 0
-4830 -5822 0
-4831 -5823 0
-4832 -5824 0
-4829 -6081 0
-4830 -6082 0
-4831 -6083 0
-4832 -6084 0
-4829 -6393 0
-4830 -6394 0
-4831 -6395 0
-4832 -6396 0
-4829 -6541 0
-4830 -6542 0
-4831 -6543 0
-4832 -6544 0
-4829 -6665 0
-4830 -6666 0
-4831 -6667 0
-4832 -6668 0
-4829 -6669 0
-4830 -6670 0
-4831 -6671 0
-4832 -6672 0
-4833 -4837 0
-4834 -4838 0
-4835 -4839 0
-4836 -4840 0
-4833 -4841 0
-4834 -4842 0
-4835 -4843 0
-4836 -4844 0
-4833 -4933 0
-4834 -4934 0
-4835 -4935 0
-4836 -4936 0
-4833 -5213 0
-4834 -5214 0
-4835 -5215 0
-4836 -5216 0
-4833 -5345 0
-4834 -5346 0
-4835 -5347 0
-4836 -5348 0
-4833 -6417 0
-4834 -6418 0
-4835 -6419 0
-4836 -6420 0
-4833 -6685 0
-4834 -6686 0
-4835 -6687 0
-4836 -6688 0
-4833 -7029 0
-4834 -7030 0
-4835 -7031 0
-4836 -7032 0
-4837 -4845 0
-4838 -4846 0
-4839 -4847 0
-4840 -4848 0
-4837 -4961 0
-4838 -4962 0
-4839 -4963 0
-4840 -4964 0
-4837 -5221 0
-4838 -5222 0
-4839 -5223 0
-4840 -5224 0
-4837 -6425 0
-4838 -6426 0
-4839 -6427 0
-4840 -6428 0
-4837 -6689 0
-4838 -6690 0
-4839 -6691 0
-4840 -6692 0
-4841 -4845 0
-4842 -4846 0
-4843 -4847 0
-4844 -4848 0
-4841 -4965 0
-4842 -4966 0
-4843 -4967 0
-4844 -4968 0
-4841 -4981 0
-4842 -4982 0
-4843 -4983 0
-4844 -4984 0
-4841 -5153 0
-4842 -5154 0
-4843 -5155 0
-4844 -5156 0
-4841 -5349 0
-4842 -5350 0
-4843 -5351 0
-4844 -5352 0
-4841 -5665 0
-4842 -5666 0
-4843 -5667 0
-4844 -5668 0
-4841 -6433 0
-4842 -6434 0
-4843 -6435 0
-4844 -6436 0
-4841 -6685 0
-4842 -6686 0
-4843 -6687 0
-4844 -6688 0
-4841 -6693 0
-4842 -6694 0
-4843 -6695 0
-4844 -6696 0
-4841 -7033 0
-4842 -7034 0
-4843 -7035 0
-4844 -7036 0
-4845 -4981 0
-4846 -4982 0
-4847 -4983 0
-4848 -4984 0
-4845 -5001 0
-4846 -5002 0
-4847 -5003 0
-4848 -5004 0
-4845 -5233 0
-4846 -5234 0
-4847 -5235 0
-4848 -5236 0
-4845 -5597 0
-4846 -5598 0
-4847 -5599 0
-4848 -5600 0
-4845 -5673 0
-4846 -5674 0
-4847 -5675 0
-4848 -5676 0
-4845 -5881 0
-4846 -5882 0
-4847 -5883 0
-4848 -5884 0
-4845 -6441 0
-4846 -6442 0
-4847 -6443 0
-4848 -6444 0
-4845 -6689 0
-4846 -6690 0
-4847 -6691 0
-4848 -6692 0
-4845 -6697 0
-4846 -6698 0
-4847 -6699 0
-4848 -6700 0
-4849 -4857 0
-4850 -4858 0
-4851 -4859 0
-4852 -4860 0
-4849 -4861 0
-4850 -4862 0
-4851 -4863 0
-4852 -4864 0
-4849 -5197 0
-4850 -5198 0
-4851 -5199 0
-4852 -5200 0
-4849 -5609 0
-4850 -5610 0
-4851 -5611 0
-4852 -5612 0
-4849 -5889 0
-4850 -5890 0
-4851 -5891 0
-4852 -5892 0
-4849 -6125 0
-4850 -6126 0
-4851 -6127 0
-4852 -6128 0
-4849 -6705 0
-4850 -6706 0
-4851 -6707 0
-4852 -6708 0
-4849 -6801 0
-4850 -6802 0
-4851 -6803 0
-4852 -6804 0
-4849 -6841 0
-4850 -6842 0
-4851 -6843 0
-4852 -6844 0
-4849 -7077 0
-4850 -7078 0
-4851 -7079 0
-4852 -7080 0
-4853 -4857 0
-4854 -4858 0
-4855 -4859 0
-4856 -4860 0
-4853 -5745 0
-4854 -5746 0
-4855 -5747 0
-4856 -5748 0
-4853 -5849 0
-4854 -5850 0
-4855 -5851 0
-4856 -5852 0
-4853 -6453 0
-4854 -6454 0
-4855 -6455 0
-4856 -6456 0
-4853 -6869 0
-4854 -6870 0
-4855 -6871 0
-4856 -6872 0
-4853 -7081 0
-4854 -7082 0
-4855 -7083 0
-4856 -7084 0
-4857 -4865 0
-4858 -4866 0
-4859 -4867 0
-4860 -4868 0
-4857 -5201 0
-4858 -5202 0
-4859 -5203 0
-4860 -5204 0
-4857 -5401 0
-4858 -5402 0
-4859 -5403 0
-4860 -5404 0
-4857 -5613 0
-4858 -5614 0
-4859 -5615 0
-4860 -5616 0
-4857 -5853 0
-4858 -5854 0
-4859 -5855 0
-4860 -5856 0
-4857 -6457 0
-4858 -6458 0
-4859 -6459 0
-4860 -6460 0
-4857 -6681 0
-4858 -6682 0
-4859 -6683 0
-4860 -6684 0
-4857 -6705 0
-4858 -6706 0
-4859 -6707 0
-4860 -6708 0
-4857 -6805 0
-4858 -6806 0
-4859 -6807 0
-4860 -6808 0
-4857 -6877 0
-4858 -6878 0
-4859 -6879 0
-4860 -6880 0
-4857 -7085 0
-4858 -7086 0
-4859 -7087 0
-4860 -7088 0
-4861 -4865 0
-4862 -4866 0
-4863 -4867 0
-4864 -4868 0
-4861 -5257 0
-4862 -5258 0
-4863 -5259 0
-4864 -5260 0
-4861 -5357 0
-4862 -5358 0
-4863 -5359 0
-4864 -5360 0
-4861 -5621 0
-4862 -5622 0
-4863 -5623 0
-4864 -5624 0
-4861 -5861 0
-4862 -5862 0
-4863 -5863 0
-4864 -5864 0
-4861 -6129 0
-4862 -6130 0
-4863 -6131 0
-4864 -6132 0
-4861 -6709 0
-4862 -6710 0
-4863 -6711 0
-4864 -6712 0
-4861 -6841 0
-4862 -6842 0
-4863 -6843 0
-4864 -6844 0
-4861 -6905 0
-4862 -6906 0
-4863 -6907 0
-4864 -6908 0
-4861 -7093 0
-4862 -7094 0
-4863 -7095 0
-4864 -7096 0
-4865 -5369 0
-4866 -5370 0
-4867 -5371 0
-4868 -5372 0
-4865 -5625 0
-4866 -5626 0
-4867 -5627 0
-4868 -5628 0
-4865 -5765 0
-4866 -5766 0
-4867 -5767 0
-4868 -5768 0
-4865 -5873 0
-4866 -5874 0
-4867 -5875 0
-4868 -5876 0
-4865 -6709 0
-4866 -6710 0
-4867 -6711 0
-4868 -6712 0
-4865 -6877 0
-4866 -6878 0
-4867 -6879 0
-4868 -6880 0
-4865 -6909 0
-4866 -6910 0
-4867 -6911 0
-4868 -6912 0
-4865 -7097 0
-4866 -7098 0
-4867 -7099 0
-4868 -7100 0
-4869 -4873 0
-4870 -4874 0
-4871 -4875 0
-4872 -4876 0
-4869 -4877 0
-4870 -4878 0
-4871 -4879 0
-4872 -4880 0
-4869 -4937 0
-4870 -4938 0
-4871 -4939 0
-4872 -4940 0
-4869 -5273 0
-4870 -5274 0
-4871 -5275 0
-4872 -5276 0
-4869 -6737 0
-4870 -6738 0
-4871 -6739 0
-4872 -6740 0
-4873 -4881 0
-4874 -4882 0
-4875 -4883 0
-4876 -4884 0
-4873 -4957 0
-4874 -4958 0
-4875 -4959 0
-4876 -4960 0
-4873 -5277 0
-4874 -5278 0
-4875 -5279 0
-4876 -5280 0
-4873 -5609 0
-4874 -5610 0
-4875 -5611 0
-4876 -5612 0
-4873 -5945 0
-4874 -5946 0
-4875 -5947 0
-4876 -5948 0
-4873 -6745 0
-4874 -6746 0
-4875 -6747 0
-4876 -6748 0
-4877 -4881 0
-4878 -4882 0
-4879 -4883 0
-4880 -4884 0
-4877 -4969 0
-4878 -4970 0
-4879 -4971 0
-4880 -4972 0
-4877 -4981 0
-4878 -4982 0
-4879 -4983 0
-4880 -4984 0
-4877 -6501 0
-4878 -6502 0
-4879 -6503 0
-4880 -6504 0
-4877 -6737 0
-4878 -6738 0
-4879 -6739 0
-4880 -6740 0
-4877 -6749 0
-4878 -6750 0
-4879 -6751 0
-4880 -6752 0
-4881 -4981 0
-4882 -4982 0
-4883 -4983 0
-4884 -4984 0
-4881 -4993 0
-4882 -4994 0
-4883 -4995 0
-4884 -4996 0
-4881 -5281 0
-4882 -5282 0
-4883 -5283 0
-4884 -5284 0
-4881 -5613 0
-4882 -5614 0
-4883 -5615 0
-4884 -5616 0
-4881 -5941 0
-4882 -5942 0
-4883 -5943 0
-4884 -5944 0
-4881 -6745 0
-4882 -6746 0
-4883 -6747 0
-4884 -6748 0
-4881 -6753 0
-4882 -6754 0
-4883 -6755 0
-4884 -6756 0
-4885 -4889 0
-4886 -4890 0
-4887 -4891 0
-4888 -4892 0
-4885 -4893 0
-4886 -4894 0
-4887 -4895 0
-4888 -4896 0
-4885 -4941 0
-4886 -4942 0
-4887 -4943 0
-4888 -4944 0
-4885 -5949 0
-4886 -5950 0
-4887 -5951 0
-4888 -5952 0
-4885 -6509 0
-4886 -6510 0
-4887 -6511 0
-4888 -6512 0
-4885 -6765 0
-4886 -6766 0
-4887 -6767 0
-4888 -6768 0
-4889 -4897 0
-4890 -4898 0
-4891 -4899 0
-4892 -4900 0
-4889 -4953 0
-4890 -4954 0
-4891 -4955 0
-4892 -4956 0
-4889 -5957 0
-4890 -5958 0
-4891 -5959 0
-4892 -5960 0
-4889 -6137 0
-4890 -6138 0
-4891 -6139 0
-4892 -6140 0
-4889 -6769 0
-4890 -6770 0
-4891 -6771 0
-4892 -6772 0
-4893 -4897 0
-4894 -4898 0
-4895 -4899 0
-4896 -4900 0
-4893 -4973 0
-4894 -4974 0
-4895 -4975 0
-4896 -4976 0
-4893 -4981 0
-4894 -4982 0
-4895 -4983 0
-4896 -4984 0
-4893 -5793 0
-4894 -5794 0
-4895 -5795 0
-4896 -5796 0
-4893 -5965 0
-4894 -5966 0
-4895 -5967 0
-4896 -5968 0
-4893 -6517 0
-4894 -6518 0
-4895 -6519 0
-4896 -6520 0
-4893 -6765 0
-4894 -6766 0
-4895 -6767 0
-4896 -6768 0
-4893 -6773 0
-4894 -6774 0
-4895 -6775 0
-4896 -6776 0
-4897 -4981 0
-4898 -4982 0
-4899 -4983 0
-4900 -4984 0
-4897 -4989 0
-4898 -4990 0
-4899 -4991 0
-4900 -4992 0
-4897 -5265 0
-4898 -5266 0
-4899 -5267 0
-4900 -5268 0
-4897 -5969 0
-4898 -5970 0
-4899 -5971 0
-4900 -5972 0
-4897 -5977 0
-4898 -5978 0
-4899 -5979 0
-4900 -5980 0
-4897 -6141 0
-4898 -6142 0
-4899 -6143 0
-4900 -6144 0
-4897 -6769 0
-4898 -6770 0
-4899 -6771 0
-4900 -6772 0
-4897 -6777 0
-4898 -6778 0
-4899 -6779 0
-4900 -6780 0
-4901 -4905 0
-4902 -4906 0
-4903 -4907 0
-4904 -4908 0
-4901 -4909 0
-4902 -4910 0
-4903 -4911 0
-4904 -4912 0
-4901 -4945 0
-4902 -4946 0
-4903 -4947 0
-4904 -4948 0
-4901 -5301 0
-4902 -5302 0
-4903 -5303 0
-4904 -5304 0
-4901 -5637 0
-4902 -5638 0
-4903 -5639 0
-4904 -5640 0
-4901 -6145 0
-4902 -6146 0
-4903 -6147 0
-4904 -6148 0
-4901 -6785 0
-4902 -6786 0
-4903 -6787 0
-4904 -6788 0
-4905 -4913 0
-4906 -4914 0
-4907 -4915 0
-4908 -4916 0
-4905 -4949 0
-4906 -4950 0
-4907 -4951 0
-4908 -4952 0
-4905 -6789 0
-4906 -6790 0
-4907 -6791 0
-4908 -6792 0
-4905 -7153 0
-4906 -7154 0
-4907 -7155 0
-4908 -7156 0
-4909 -4913 0
-4910 -4914 0
-4911 -4915 0
-4912 -4916 0
-4909 -4977 0
-4910 -4978 0
-4911 -4979 0
-4912 -4980 0
-4909 -4981 0
-4910 -4982 0
-4911 -4983 0
-4912 -4984 0
-4909 -5305 0
-4910 -5306 0
-4911 -5307 0
-4912 -5308 0
-4909 -5649 0
-4910 -5650 0
-4911 -5651 0
-4912 -5652 0
-4909 -6009 0
-4910 -6010 0
-4911 -6011 0
-4912 -6012 0
-4909 -6785 0
-4910 -6786 0
-4911 -6787 0
-4912 -6788 0
-4909 -6793 0
-4910 -6794 0
-4911 -6795 0
-4912 -6796 0
-4913 -4981 0
-4914 -4982 0
-4915 -4983 0
-4916 -4984 0
-4913 -4985 0
-4914 -4986 0
-4915 -4987 0
-4916 -4988 0
-4913 -5345 0
-4914 -5346 0
-4915 -5347 0
-4916 -5348 0
-4913 -5653 0
-4914 -5654 0
-4915 -5655 0
-4916 -5656 0
-4913 -6013 0
-4914 -6014 0
-4915 -6015 0
-4916 -6016 0
-4913 -6789 0
-4914 -6790 0
-4915 -6791 0
-4916 -6792 0
-4913 -6797 0
-4914 -6798 0
-4915 -6799 0
-4916 -6800 0
-4913 -7157 0
-4914 -7158 0
-4915 -7159 0
-4916 -7160 0
-4917 -4921 0
-4918 -4922 0
-4919 -4923 0
-4920 -4924 0
-4917 -5461 0
-4918 -5462 0
-4919 -5463 0
-4920 -5464 0
-4917 -6149 0
-4918 -6150 0
-4919 -6151 0
-4920 -6152 0
-4917 -6801 0
-4918 -6802 0
-4919 -6803 0
-4920 -6804 0
-4917 -6973 0
-4918 -6974 0
-4919 -6975 0
-4920 -6976 0
-4921 -4981 0
-4922 -4982 0
-4923 -4983 0
-4924 -4984 0
-4921 -5041 0
-4922 -5042 0
-4923 -5043 0
-4924 -5044 0
-4921 -5273 0
-4922 -5274 0
-4923 -5275 0
-4924 -5276 0
-4921 -5465 0
-4922 -5466 0
-4923 -5467 0
-4924 -5468 0
-4921 -5669 0
-4922 -5670 0
-4923 -5671 0
-4924 -5672 0
-4921 -6153 0
-4922 -6154 0
-4923 -6155 0
-4924 -6156 0
-4921 -6713 0
-4922 -6714 0
-4923 -6715 0
-4924 -6716 0
-4921 -6801 0
-4922 -6802 0
-4923 -6803 0
-4924 -6804 0
-4921 -6805 0
-4922 -6806 0
-4923 -6807 0
-4924 -6808 0
-4921 -6977 0
-4922 -6978 0
-4923 -6979 0
-4924 -6980 0
-4925 -4929 0
-4926 -4930 0
-4927 -4931 0
-4928 -4932 0
-4925 -5477 0
-4926 -5478 0
-4927 -5479 0
-4928 -5480 0
-4925 -6717 0
-4926 -6718 0
-4927 -6719 0
-4928 -6720 0
-4925 -6809 0
-4926 -6810 0
-4927 -6811 0
-4928 -6812 0
-4925 -7161 0
-4926 -7162 0
-4927 -7163 0
-4928 -7164 0
-4929 -4981 0
-4930 -4982 0
-4931 -4983 0
-4932 -4984 0
-4929 -5801 0
-4930 -5802 0
-4931 -5803 0
-4932 -5804 0
-4929 -6041 0
-4930 -6042 0
-4931 -6043 0
-4932 -6044 0
-4929 -6721 0
-4930 -6722 0
-4931 -6723 0
-4932 -6724 0
-4929 -6809 0
-4930 -6810 0
-4931 -6811 0
-4932 -6812 0
-4929 -6813 0
-4930 -6814 0
-4931 -6815 0
-4932 -6816 0
-4929 -7165 0
-4930 -7166 0
-4931 -7167 0
-4932 -7168 0
-4933 -4965 0
-4934 -4966 0
-4935 -4967 0
-4936 -4968 0
-4933 -5113 0
-4934 -5114 0
-4935 -5115 0
-4936 -5116 0
-4933 -5413 0
-4934 -5414 0
-4935 -5415 0
-4936 -5416 0
-4933 -6157 0
-4934 -6158 0
-4935 -6159 0
-4936 -6160 0
-4933 -6821 0
-4934 -6822 0
-4935 -6823 0
-4936 -6824 0
-4933 -7169 0
-4934 -7170 0
-4935 -7171 0
-4936 -7172 0
-4937 -4969 0
-4938 -4970 0
-4939 -4971 0
-4940 -4972 0
-4937 -5065 0
-4938 -5066 0
-4939 -5067 0
-4940 -5068 0
-4937 -5405 0
-4938 -5406 0
-4939 -5407 0
-4940 -5408 0
-4937 -5473 0
-4938 -5474 0
-4939 -5475 0
-4940 -5476 0
-4937 -6829 0
-4938 -6830 0
-4939 -6831 0
-4940 -6832 0
-4941 -4973 0
-4942 -4974 0
-4943 -4975 0
-4944 -4976 0
-4941 -5045 0
-4942 -5046 0
-4943 -5047 0
-4944 -5048 0
-4941 -5417 0
-4942 -5418 0
-4943 -5419 0
-4944 -5420 0
-4941 -6833 0
-4942 -6834 0
-4943 -6835 0
-4944 -6836 0
-4945 -4977 0
-4946 -4978 0
-4947 -4979 0
-4948 -4980 0
-4945 -5025 0
-4946 -5026 0
-4947 -5027 0
-4948 -5028 0
-4945 -5309 0
-4946 -5310 0
-4947 -5311 0
-4948 -5312 0
-4945 -6525 0
-4946 -6526 0
-4947 -6527 0
-4948 -6528 0
-4945 -6837 0
-4946 -6838 0
-4947 -6839 0
-4948 -6840 0
-4949 -4985 0
-4950 -4986 0
-4951 -4987 0
-4952 -4988 0
-4949 -5029 0
-4950 -5030 0
-4951 -5031 0
-4952 -5032 0
-4949 -5489 0
-4950 -5490 0
-4951 -5491 0
-4952 -5492 0
-4949 -6005 0
-4950 -6006 0
-4951 -6007 0
-4952 -6008 0
-4949 -6845 0
-4950 -6846 0
-4951 -6847 0
-4952 -6848 0
-4953 -4989 0
-4954 -4990 0
-4955 -4991 0
-4956 -4992 0
-4953 -5049 0
-4954 -5050 0
-4955 -5051 0
-4956 -5052 0
-4953 -5493 0
-4954 -5494 0
-4955 -5495 0
-4956 -5496 0
-4953 -6165 0
-4954 -6166 0
-4955 -6167 0
-4956 -6168 0
-4953 -6181 0
-4954 -6182 0
-4955 -6183 0
-4956 -6184 0
-4953 -6849 0
-4954 -6850 0
-4955 -6851 0
-4956 -6852 0
-4957 -4993 0
-4958 -4994 0
-4959 -4995 0
-4960 -4996 0
-4957 -5069 0
-4958 -5070 0
-4959 -5071 0
-4960 -5072 0
-4957 -5681 0
-4958 -5682 0
-4959 -5683 0
-4960 -5684 0
-4957 -6009 0
-4958 -6010 0
-4959 -6011 0
-4960 -6012 0
-4957 -6853 0
-4958 -6854 0
-4959 -6855 0
-4960 -6856 0
-4961 -5001 0
-4962 -5002 0
-4963 -5003 0
-4964 -5004 0
-4961 -5117 0
-4962 -5118 0
-4963 -5119 0
-4964 -5120 0
-4961 -5685 0
-4962 -5686 0
-4963 -5687 0
-4964 -5688 0
-4961 -6017 0
-4962 -6018 0
-4963 -6019 0
-4964 -6020 0
-4961 -6857 0
-4962 -6858 0
-4963 -6859 0
-4964 -6860 0
-4965 -4981 0
-4966 -4982 0
-4967 -4983 0
-4968 -4984 0
-4965 -5121 0
-4966 -5122 0
-4967 -5123 0
-4968 -5124 0
-4965 -6169 0
-4966 -6170 0
-4967 -6171 0
-4968 -6172 0
-4965 -6821 0
-4966 -6822 0
-4967 -6823 0
-4968 -6824 0
-4965 -6861 0
-4966 -6862 0
-4967 -6863 0
-4968 -6864 0
-4965 -7181 0
-4966 -7182 0
-4967 -7183 0
-4968 -7184 0
-4969 -4981 0
-4970 -4982 0
-4971 -4983 0
-4972 -4984 0
-4969 -5073 0
-4970 -5074 0
-4971 -5075 0
-4972 -5076 0
-4969 -5129 0
-4970 -5130 0
-4971 -5131 0
-4972 -5132 0
-4969 -5501 0
-4970 -5502 0
-4971 -5503 0
-4972 -5504 0
-4969 -6053 0
-4970 -6054 0
-4971 -6055 0
-4972 -6056 0
-4969 -6533 0
-4970 -6534 0
-4971 -6535 0
-4972 -6536 0
-4969 -6829 0
-4970 -6830 0
-4971 -6831 0
-4972 -6832 0
-4969 -6865 0
-4970 -6866 0
-4971 -6867 0
-4972 -6868 0
-4973 -4981 0
-4974 -4982 0
-4975 -4983 0
-4976 -4984 0
-4973 -5053 0
-4974 -5054 0
-4975 -5055 0
-4976 -5056 0
-4973 -5813 0
-4974 -5814 0
-4975 -5815 0
-4976 -5816 0
-4973 -5953 0
-4974 -5954 0
-4975 -5955 0
-4976 -5956 0
-4973 -6833 0
-4974 -6834 0
-4975 -6835 0
-4976 -6836 0
-4973 -6869 0
-4974 -6870 0
-4975 -6871 0
-4976 -6872 0
-4977 -4981 0
-4978 -4982 0
-4979 -4983 0
-4980 -4984 0
-4977 -4997 0
-4978 -4998 0
-4979 -4999 0
-4980 -5000 0
-4977 -5033 0
-4978 -5034 0
-4979 -5035 0
-4980 -5036 0
-4977 -5077 0
-4978 -5078 0
-4979 -5079 0
-4980 -5080 0
-4977 -5133 0
-4978 -5134 0
-4979 -5135 0
-4980 -5136 0
-4977 -5321 0
-4978 -5322 0
-4979 -5323 0
-4980 -5324 0
-4977 -5525 0
-4978 -5526 0
-4979 -5527 0
-4980 -5528 0
-4977 -5957 0
-4978 -5958 0
-4979 -5959 0
-4980 -5960 0
-4977 -6537 0
-4978 -6538 0
-4979 -6539 0
-4980 -6540 0
-4977 -6837 0
-4978 -6838 0
-4979 -6839 0
-4980 -6840 0
-4977 -6873 0
-4978 -6874 0
-4979 -6875 0
-4980 -6876 0
-4981 -4985 0
-4982 -4986 0
-4983 -4987 0
-4984 -4988 0
-4981 -4989 0
-4982 -4990 0
-4983 -4991 0
-4984 -4992 0
-4981 -4993 0
-4982 -4994 0
-4983 -4995 0
-4984 -4996 0
-4981 -5001 0
-4982 -5002 0
-4983 -5003 0
-4984 -5004 0
-4981 -5005 0
-4982 -5006 0
-4983 -5007 0
-4984 -5008 0
-4981 -5013 0
-4982 -5014 0
-4983 -5015 0
-4984 -5016 0
-4981 -5021 0
-4982 -5022 0
-4983 -5023 0
-4984 -5024 0
-4981 -5033 0
-4982 -5034 0
-4983 -5035 0
-4984 -5036 0
-4981 -5037 0
-4982 -5038 0
-4983 -5039 0
-4984 -5040 0
-4981 -5053 0
-4982 -5054 0
-4983 -5055 0
-4984 -5056 0
-4981 -5057 0
-4982 -5058 0
-4983 -5059 0
-4984 -5060 0
-4981 -5073 0
-4982 -5074 0
-4983 -5075 0
-4984 -5076 0
-4981 -5081 0
-4982 -5082 0
-4983 -5083 0
-4984 -5084 0
-4981 -5121 0
-4982 -5122 0
-4983 -5123 0
-4984 -5124 0
-4981 -5125 0
-4982 -5126 0
-4983 -5127 0
-4984 -5128 0
-4981 -5137 0
-4982 -5138 0
-4983 -5139 0
-4984 -5140 0
-4981 -5285 0
-4982 -5286 0
-4983 -5287 0
-4984 -5288 0
-4981 -5325 0
-4982 -5326 0
-4983 -5327 0
-4984 -5328 0
-4981 -5353 0
-4982 -5354 0
-4983 -5355 0
-4984 -5356 0
-4981 -5425 0
-4982 -5426 0
-4983 -5427 0
-4984 -5428 0
-4981 -5509 0
-4982 -5510 0
-4983 -5511 0
-4984 -5512 0
-4981 -5693 0
-4982 -5694 0
-4983 -5695 0
-4984 -5696 0
-4981 -5817 0
-4982 -5818 0
-4983 -5819 0
-4984 -5820 0
-4981 -5961 0
-4982 -5962 0
-4983 -5963 0
-4984 -5964 0
-4981 -6025 0
-4982 -6026 0
-4983 -6027 0
-4984 -6028 0
-4981 -6057 0
-4982 -6058 0
-4983 -6059 0
-4984 -6060 0
-4981 -6173 0
-4982 -6174 0
-4983 -6175 0
-4984 -6176 0
-4981 -6185 0
-4982 -6186 0
-4983 -6187 0
-4984 -6188 0
-4981 -6541 0
-4982 -6542 0
-4983 -6543 0
-4984 -6544 0
-4981 -6553 0
-4982 -6554 0
-4983 -6555 0
-4984 -6556 0
-4981 -6721 0
-4982 -6722 0
-4983 -6723 0
-4984 -6724 0
-4981 -6729 0
-4982 -6730 0
-4983 -6731 0
-4984 -6732 0
-4981 -6841 0
-4982 -6842 0
-4983 -6843 0
-4984 -6844 0
-4981 -6877 0
-4982 -6878 0
-4983 -6879 0
-4984 -6880 0
-4981 -6977 0
-4982 -6978 0
-4983 -6979 0
-4984 -6980 0
-4981 -6985 0
-4982 -6986 0
-4983 -6987 0
-4984 -6988 0
-4981 -7185 0
-4982 -7186 0
-4983 -7187 0
-4984 -7188 0
-4985 -5037 0
-4986 -5038 0
-4987 -5039 0
-4988 -5040 0
-4985 -5513 0
-4986 -5514 0
-4987 -5515 0
-4988 -5516 0
-4985 -5821 0
-4986 -5822 0
-4987 -5823 0
-4988 -5824 0
-4985 -6845 0
-4986 -6846 0
-4987 -6847 0
-4988 -6848 0
-4985 -6881 0
-4986 -6882 0
-4987 -6883 0
-4988 -6884 0
-4989 -5057 0
-4990 -5058 0
-4991 -5059 0
-4992 -5060 0
-4989 -5141 0
-4990 -5142 0
-4991 -5143 0
-4992 -5144 0
-4989 -5289 0
-4990 -5290 0
-4991 -5291 0
-4992 -5292 0
-4989 -5517 0
-4990 -5518 0
-4991 -5519 0
-4992 -5520 0
-4989 -6189 0
-4990 -6190 0
-4991 -6191 0
-4992 -6192 0
-4989 -6849 0
-4990 -6850 0
-4991 -6851 0
-4992 -6852 0
-4989 -6885 0
-4990 -6886 0
-4991 -6887 0
-4992 -6888 0
-4993 -5081 0
-4994 -5082 0
-4995 -5083 0
-4996 -5084 0
-4993 -5293 0
-4994 -5294 0
-4995 -5295 0
-4996 -5296 0
-4993 -5357 0
-4994 -5358 0
-4995 -5359 0
-4996 -5360 0
-4993 -5697 0
-4994 -5698 0
-4995 -5699 0
-4996 -5700 0
-4993 -6029 0
-4994 -6030 0
-4995 -6031 0
-4996 -6032 0
-4993 -6193 0
-4994 -6194 0
-4995 -6195 0
-4996 -6196 0
-4993 -6853 0
-4994 -6854 0
-4995 -6855 0
-4996 -6856 0
-4993 -6889 0
-4994 -6890 0
-4995 -6891 0
-4996 -6892 0
-4997 -5001 0
-4998 -5002 0
-4999 -5003 0
-5000 -5004 0
-4997 -5329 0
-4998 -5330 0
-4999 -5331 0
-5000 -5332 0
-4997 -5701 0
-4998 -5702 0
-4999 -5703 0
-5000 -5704 0
-4997 -6061 0
-4998 -6062 0
-4999 -6063 0
-5000 -6064 0
-4997 -6545 0
-4998 -6546 0
-4999 -6547 0
-5000 -6548 0
-5001 -5085 0
-5002 -5086 0
-5003 -5087 0
-5004 -5088 0
-5001 -5125 0
-5002 -5126 0
-5003 -5127 0
-5004 -5128 0
-5001 -5161 0
-5002 -5162 0
-5003 -5163 0
-5004 -5164 0
-5001 -5705 0
-5002 -5706 0
-5003 -5707 0
-5004 -5708 0
-5001 -6033 0
-5002 -6034 0
-5003 -6035 0
-5004 -6036 0
-5001 -6065 0
-5002 -6066 0
-5003 -6067 0
-5004 -6068 0
-5001 -6857 0
-5002 -6858 0
-5003 -6859 0
-5004 -6860 0
-5001 -6893 0
-5002 -6894 0
-5003 -6895 0
-5004 -6896 0
-5005 -5149 0
-5006 -5150 0
-5007 -5151 0
-5008 -5152 0
-5005 -5365 0
-5006 -5366 0
-5007 -5367 0
-5008 -5368 0
-5005 -5829 0
-5006 -5830 0
-5007 -5831 0
-5008 -5832 0
-5005 -6073 0
-5006 -6074 0
-5007 -6075 0
-5008 -6076 0
-5005 -6557 0
-5006 -6558 0
-5007 -6559 0
-5008 -6560 0
-5005 -6877 0
-5006 -6878 0
-5007 -6879 0
-5008 -6880 0
-5009 -5013 0
-5010 -5014 0
-5011 -5015 0
-5012 -5016 0
-5009 -5433 0
-5010 -5434 0
-5011 -5435 0
-5012 -5436 0
-5009 -5717 0
-5010 -5718 0
-5011 -5719 0
-5012 -5720 0
-5009 -6725 0
-5010 -6726 0
-5011 -6727 0
-5012 -6728 0
-5009 -6897 0
-5010 -6898 0
-5011 -6899 0
-5012 -6900 0
-5013 -5297 0
-5014 -5298 0
-5015 -5299 0
-5016 -5300 0
-5013 -5437 0
-5014 -5438 0
-5015 -5439 0
-5016 -5440 0
-5013 -5529 0
-5014 -5530 0
-5015 -5531 0
-5016 -5532 0
-5013 -5721 0
-5014 -5722 0
-5015 -5723 0
-5016 -5724 0
-5013 -6561 0
-5014 -6562 0
-5015 -6563 0
-5016 -6564 0
-5013 -6729 0
-5014 -6730 0
-5015 -6731 0
-5016 -6732 0
-5013 -6897 0
-5014 -6898 0
-5015 -6899 0
-5016 -6900 0
-5013 -6901 0
-5014 -6902 0
-5015 -6903 0
-5016 -6904 0
-5017 -5021 0
-5018 -5022 0
-5019 -5023 0
-5020 -5024 0
-5017 -5333 0
-5018 -5334 0
-5019 -5335 0
-5020 -5336 0
-5017 -5725 0
-5018 -5726 0
-5019 -5727 0
-5020 -5728 0
-5017 -6905 0
-5018 -6906 0
-5019 -6907 0
-5020 -6908 0
-5017 -6981 0
-5018 -6982 0
-5019 -6983 0
-5020 -6984 0
-5021 -5157 0
-5022 -5158 0
-5023 -5159 0
-5024 -5160 0
-5021 -5337 0
-5022 -5338 0
-5023 -5339 0
-5024 -5340 0
-5021 -5729 0
-5022 -5730 0
-5023 -5731 0
-5024 -5732 0
-5021 -6905 0
-5022 -6906 0
-5023 -6907 0
-5024 -6908 0
-5021 -6909 0
-5022 -6910 0
-5023 -6911 0
-5024 -6912 0
-5021 -6985 0
-5022 -6986 0
-5023 -6987 0
-5024 -6988 0
-5025 -5029 0
-5026 -5030 0
-5027 -5031 0
-5028 -5032 0
-5025 -5033 0
-5026 -5034 0
-5027 -5035 0
-5028 -5036 0
-5025 -5445 0
-5026 -5446 0
-5027 -5447 0
-5028 -5448 0
-5025 -5733 0
-5026 -5734 0
-5027 -5735 0
-5028 -5736 0
-5025 -6209 0
-5026 -6210 0
-5027 -6211 0
-5028 -6212 0
-5025 -6913 0
-5026 -6914 0
-5027 -6915 0
-5028 -6916 0
-5029 -5037 0
-5030 -5038 0
-5031 -5039 0
-5032 -5040 0
-5029 -5449 0
-5030 -5450 0
-5031 -5451 0
-5032 -5452 0
-5029 -5533 0
-5030 -5534 0
-5031 -5535 0
-5032 -5536 0
-5029 -6053 0
-5030 -6054 0
-5031 -6055 0
-5032 -6056 0
-5029 -6213 0
-5030 -6214 0
-5031 -6215 0
-5032 -6216 0
-5029 -6917 0
-5030 -6918 0
-5031 -6919 0
-5032 -6920 0
-5033 -5037 0
-5034 -5038 0
-5035 -5039 0
-5036 -5040 0
-5033 -5169 0
-5034 -5170 0
-5035 -5171 0
-5036 -5172 0
-5033 -5453 0
-5034 -5454 0
-5035 -5455 0
-5036 -5456 0
-5033 -5973 0
-5034 -5974 0
-5035 -5975 0
-5036 -5976 0
-5033 -6233 0
-5034 -6234 0
-5035 -6235 0
-5036 -6236 0
-5033 -6549 0
-5034 -6550 0
-5035 -6551 0
-5036 -6552 0
-5033 -6569 0
-5034 -6570 0
-5035 -6571 0
-5036 -6572 0
-5033 -6913 0
-5034 -6914 0
-5035 -6915 0
-5036 -6916 0
-5033 -6921 0
-5034 -6922 0
-5035 -6923 0
-5036 -6924 0
-5037 -5541 0
-5038 -5542 0
-5039 -5543 0
-5040 -5544 0
-5037 -6069 0
-5038 -6070 0
-5039 -6071 0
-5040 -6072 0
-5037 -6237 0
-5038 -6238 0
-5039 -6239 0
-5040 -6240 0
-5037 -6573 0
-5038 -6574 0
-5039 -6575 0
-5040 -6576 0
-5037 -6917 0
-5038 -6918 0
-5039 -6919 0
-5040 -6920 0
-5037 -6925 0
-5038 -6926 0
-5039 -6927 0
-5040 -6928 0
-5041 -5053 0
-5042 -5054 0
-5043 -5055 0
-5044 -5056 0
-5041 -5557 0
-5042 -5558 0
-5043 -5559 0
-5044 -5560 0
-5041 -6237 0
-5042 -6238 0
-5043 -6239 0
-5044 -6240 0
-5041 -6577 0
-5042 -6578 0
-5043 -6579 0
-5044 -6580 0
-5041 -7197 0
-5042 -7198 0
-5043 -7199 0
-5044 -7200 0
-5045 -5049 0
-5046 -5050 0
-5047 -5051 0
-5048 -5052 0
-5045 -5053 0
-5046 -5054 0
-5047 -5055 0
-5048 -5056 0
-5045 -6929 0
-5046 -6930 0
-5047 -6931 0
-5048 -6932 0
-5045 -7225 0
-5046 -7226 0
-5047 -7227 0
-5048 -7228 0
-5049 -5057 0
-5050 -5058 0
-5051 -5059 0
-5052 -5060 0
-5049 -5429 0
-5050 -5430 0
-5051 -5431 0
-5052 -5432 0
-5049 -5569 0
-5050 -5570 0
-5051 -5571 0
-5052 -5572 0
-5049 -6261 0
-5050 -6262 0
-5051 -6263 0
-5052 -6264 0
-5049 -6933 0
-5050 -6934 0
-5051 -6935 0
-5052 -6936 0
-5053 -5057 0
-5054 -5058 0
-5055 -5059 0
-5056 -5060 0
-5053 -6005 0
-5054 -6006 0
-5055 -6007 0
-5056 -6008 0
-5053 -6593 0
-5054 -6594 0
-5055 -6595 0
-5056 -6596 0
-5053 -6757 0
-5054 -6758 0
-5055 -6759 0
-5056 -6760 0
-5053 -6929 0
-5054 -6930 0
-5055 -6931 0
-5056 -6932 0
-5053 -6937 0
-5054 -6938 0
-5055 -6939 0
-5056 -6940 0
-5053 -7229 0
-5054 -7230 0
-5055 -7231 0
-5056 -7232 0
-5057 -5193 0
-5058 -5194 0
-5059 -5195 0
-5060 -5196 0
-5057 -5573 0
-5058 -5574 0
-5059 -5575 0
-5060 -5576 0
-5057 -6265 0
-5058 -6266 0
-5059 -6267 0
-5060 -6268 0
-5057 -6597 0
-5058 -6598 0
-5059 -6599 0
-5060 -6600 0
-5057 -6933 0
-5058 -6934 0
-5059 -6935 0
-5060 -6936 0
-5057 -6941 0
-5058 -6942 0
-5059 -6943 0
-5060 -6944 0
-5057 -7233 0
-5058 -7234 0
-5059 -7235 0
-5060 -7236 0
-5061 -5101 0
-5062 -5102 0
-5063 -5103 0
-5064 -5104 0
-5061 -5317 0
-5062 -5318 0
-5063 -5319 0
-5064 -5320 0
-5061 -5793 0
-5062 -5794 0
-5063 -5795 0
-5064 -5796 0
-5061 -6621 0
-5062 -6622 0
-5063 -6623 0
-5064 -6624 0
-5061 -6769 0
-5062 -6770 0
-5063 -6771 0
-5064 -6772 0
-5065 -5069 0
-5066 -5070 0
-5067 -5071 0
-5068 -5072 0
-5065 -5073 0
-5066 -5074 0
-5067 -5075 0
-5068 -5076 0
-5065 -5457 0
-5066 -5458 0
-5067 -5459 0
-5068 -5460 0
-5065 -5481 0
-5066 -5482 0
-5067 -5483 0
-5068 -5484 0
-5065 -6629 0
-5066 -6630 0
-5067 -6631 0
-5068 -6632 0
-5065 -6949 0
-5066 -6950 0
-5067 -6951 0
-5068 -6952 0
-5069 -5081 0
-5070 -5082 0
-5071 -5083 0
-5072 -5084 0
-5069 -5497 0
-5070 -5498 0
-5071 -5499 0
-5072 -5500 0
-5069 -6273 0
-5070 -6274 0
-5071 -6275 0
-5072 -6276 0
-5069 -6953 0
-5070 -6954 0
-5071 -6955 0
-5072 -6956 0
-5073 -5081 0
-5074 -5082 0
-5075 -5083 0
-5076 -5084 0
-5073 -5221 0
-5074 -5222 0
-5075 -5223 0
-5076 -5224 0
-5073 -5505 0
-5074 -5506 0
-5075 -5507 0
-5076 -5508 0
-5073 -6641 0
-5074 -6642 0
-5075 -6643 0
-5076 -6644 0
-5073 -6949 0
-5074 -6950 0
-5075 -6951 0
-5076 -6952 0
-5073 -6957 0
-5074 -6958 0
-5075 -6959 0
-5076 -6960 0
-5077 -5081 0
-5078 -5082 0
-5079 -5083 0
-5080 -5084 0
-5077 -5225 0
-5078 -5226 0
-5079 -5227 0
-5080 -5228 0
-5077 -5517 0
-5078 -5518 0
-5079 -5519 0
-5080 -5520 0
-5077 -6277 0
-5078 -6278 0
-5079 -6279 0
-5080 -6280 0
-5077 -6645 0
-5078 -6646 0
-5079 -6647 0
-5080 -6648 0
-5081 -5085 0
-5082 -5086 0
-5083 -5087 0
-5084 -5088 0
-5081 -5333 0
-5082 -5334 0
-5083 -5335 0
-5084 -5336 0
-5081 -5373 0
-5082 -5374 0
-5083 -5375 0
-5084 -5376 0
-5081 -5521 0
-5082 -5522 0
-5083 -5523 0
-5084 -5524 0
-5081 -6281 0
-5082 -6282 0
-5083 -6283 0
-5084 -6284 0
-5081 -6953 0
-5082 -6954 0
-5083 -6955 0
-5084 -6956 0
-5081 -6961 0
-5082 -6962 0
-5083 -6963 0
-5084 -6964 0
-5085 -5377 0
-5086 -5378 0
-5087 -5379 0
-5088 -5380 0
-5085 -5781 0
-5086 -5782 0
-5087 -5783 0
-5088 -5784 0
-5085 -5797 0
-5086 -5798 0
-5087 -5799 0
-5088 -5800 0
-5085 -6105 0
-5086 -6106 0
-5087 -6107 0
-5088 -6108 0
-5085 -6289 0
-5086 -6290 0
-5087 -6291 0
-5088 -6292 0
-5089 -5093 0
-5090 -5094 0
-5091 -5095 0
-5092 -5096 0
-5089 -5097 0
-5090 -5098 0
-5091 -5099 0
-5092 -5100 0
-5089 -5101 0
-5090 -5102 0
-5091 -5103 0
-5092 -5104 0
-5089 -5465 0
-5090 -5466 0
-5091 -5467 0
-5092 -5468 0
-5089 -5785 0
-5090 -5786 0
-5091 -5787 0
-5092 -5788 0
-5089 -6085 0
-5090 -6086 0
-5091 -6087 0
-5092 -6088 0
-5089 -6305 0
-5090 -6306 0
-5091 -6307 0
-5092 -6308 0
-5089 -6657 0
-5090 -6658 0
-5091 -6659 0
-5092 -6660 0
-5089 -6809 0
-5090 -6810 0
-5091 -6811 0
-5092 -6812 0
-5089 -6841 0
-5090 -6842 0
-5091 -6843 0
-5092 -6844 0
-5089 -6965 0
-5090 -6966 0
-5091 -6967 0
-5092 -6968 0
-5089 -7009 0
-5090 -7010 0
-5091 -7011 0
-5092 -7012 0
-5089 -7249 0
-5090 -7250 0
-5091 -7251 0
-5092 -7252 0
-5093 -5469 0
-5094 -5470 0
-5095 -5471 0
-5096 -5472 0
-5093 -5801 0
-5094 -5802 0
-5095 -5803 0
-5096 -5804 0
-5093 -6109 0
-5094 -6110 0
-5095 -6111 0
-5096 -6112 0
-5093 -6309 0
-5094 -6310 0
-5095 -6311 0
-5096 -6312 0
-5093 -6849 0
-5094 -6850 0
-5095 -6851 0
-5096 -6852 0
-5097 -5105 0
-5098 -5106 0
-5099 -5107 0
-5100 -5108 0
-5097 -6089 0
-5098 -6090 0
-5099 -6091 0
-5100 -6092 0
-5097 -6113 0
-5098 -6114 0
-5099 -6115 0
-5100 -6116 0
-5097 -6661 0
-5098 -6662 0
-5099 -6663 0
-5100 -6664 0
-5097 -6813 0
-5098 -6814 0
-5099 -6815 0
-5100 -6816 0
-5097 -6877 0
-5098 -6878 0
-5099 -6879 0
-5100 -6880 0
-5097 -6965 0
-5098 -6966 0
-5099 -6967 0
-5100 -6968 0
-5101 -5105 0
-5102 -5106 0
-5103 -5107 0
-5104 -5108 0
-5101 -5109 0
-5102 -5110 0
-5103 -5111 0
-5104 -5112 0
-5101 -5249 0
-5102 -5250 0
-5103 -5251 0
-5104 -5252 0
-5101 -5565 0
-5102 -5566 0
-5103 -5567 0
-5104 -5568 0
-5101 -5813 0
-5102 -5814 0
-5103 -5815 0
-5104 -5816 0
-5101 -6093 0
-5102 -6094 0
-5103 -6095 0
-5104 -6096 0
-5101 -6329 0
-5102 -6330 0
-5103 -6331 0
-5104 -6332 0
-5101 -6665 0
-5102 -6666 0
-5103 -6667 0
-5104 -6668 0
-5101 -6841 0
-5102 -6842 0
-5103 -6843 0
-5104 -6844 0
-5101 -6897 0
-5102 -6898 0
-5103 -6899 0
-5104 -6900 0
-5101 -6969 0
-5102 -6970 0
-5103 -6971 0
-5104 -6972 0
-5105 -5341 0
-5106 -5342 0
-5107 -5343 0
-5108 -5344 0
-5105 -5397 0
-5106 -5398 0
-5107 -5399 0
-5108 -5400 0
-5105 -5825 0
-5106 -5826 0
-5107 -5827 0
-5108 -5828 0
-5105 -6097 0
-5106 -6098 0
-5107 -6099 0
-5108 -6100 0
-5105 -6669 0
-5106 -6670 0
-5107 -6671 0
-5108 -6672 0
-5105 -6673 0
-5106 -6674 0
-5107 -6675 0
-5108 -6676 0
-5105 -6877 0
-5106 -6878 0
-5107 -6879 0
-5108 -6880 0
-5105 -6901 0
-5106 -6902 0
-5107 -6903 0
-5108 -6904 0
-5105 -6969 0
-5106 -6970 0
-5107 -6971 0
-5108 -6972 0
-5109 -5529 0
-5110 -5530 0
-5111 -5531 0
-5112 -5532 0
-5109 -5789 0
-5110 -5790 0
-5111 -5791 0
-5112 -5792 0
-5109 -5833 0
-5110 -5834 0
-5111 -5835 0
-5112 -5836 0
-5109 -6101 0
-5110 -6102 0
-5111 -6103 0
-5112 -6104 0
-5109 -6905 0
-5110 -6906 0
-5111 -6907 0
-5112 -6908 0
-5113 -5117 0
-5114 -5118 0
-5115 -5119 0
-5116 -5120 0
-5113 -5121 0
-5114 -5122 0
-5115 -5123 0
-5116 -5124 0
-5113 -6357 0
-5114 -6358 0
-5115 -6359 0
-5116 -6360 0
-5113 -6993 0
-5114 -6994 0
-5115 -6995 0
-5116 -6996 0
-5117 -5125 0
-5118 -5126 0
-5119 -5127 0
-5120 -5128 0
-5117 -6117 0
-5118 -6118 0
-5119 -6119 0
-5120 -6120 0
-5117 -6365 0
-5118 -6366 0
-5119 -6367 0
-5120 -6368 0
-5117 -6997 0
-5118 -6998 0
-5119 -6999 0
-5120 -7000 0
-5121 -5125 0
-5122 -5126 0
-5123 -5127 0
-5124 -5128 0
-5121 -5277 0
-5122 -5278 0
-5123 -5279 0
-5124 -5280 0
-5121 -5441 0
-5122 -5442 0
-5123 -5443 0
-5124 -5444 0
-5121 -6361 0
-5122 -6362 0
-5123 -6363 0
-5124 -6364 0
-5121 -6369 0
-5122 -6370 0
-5123 -6371 0
-5124 -6372 0
-5121 -6993 0
-5122 -6994 0
-5123 -6995 0
-5124 -6996 0
-5121 -7001 0
-5122 -7002 0
-5123 -7003 0
-5124 -7004 0
-5125 -5445 0
-5126 -5446 0
-5127 -5447 0
-5128 -5448 0
-5125 -6121 0
-5126 -6122 0
-5127 -6123 0
-5128 -6124 0
-5125 -6373 0
-5126 -6374 0
-5127 -6375 0
-5128 -6376 0
-5125 -6997 0
-5126 -6998 0
-5127 -6999 0
-5128 -7000 0
-5125 -7005 0
-5126 -7006 0
-5127 -7007 0
-5128 -7008 0
-5129 -5137 0
-5130 -5138 0
-5131 -5139 0
-5132 -5140 0
-5129 -5221 0
-5130 -5222 0
-5131 -5223 0
-5132 -5224 0
-5129 -5273 0
-5130 -5274 0
-5131 -5275 0
-5132 -5276 0
-5129 -5345 0
-5130 -5346 0
-5131 -5347 0
-5132 -5348 0
-5129 -6213 0
-5130 -6214 0
-5131 -6215 0
-5132 -6216 0
-5129 -6741 0
-5130 -6742 0
-5131 -6743 0
-5132 -6744 0
-5133 -5137 0
-5134 -5138 0
-5135 -5139 0
-5136 -5140 0
-5133 -5145 0
-5134 -5146 0
-5135 -5147 0
-5136 -5148 0
-5133 -5169 0
-5134 -5170 0
-5135 -5171 0
-5136 -5172 0
-5133 -5189 0
-5134 -5190 0
-5135 -5191 0
-5136 -5192 0
-5133 -5217 0
-5134 -5218 0
-5135 -5219 0
-5136 -5220 0
-5133 -5225 0
-5134 -5226 0
-5135 -5227 0
-5136 -5228 0
-5133 -5465 0
-5134 -5466 0
-5135 -5467 0
-5136 -5468 0
-5133 -5845 0
-5134 -5846 0
-5135 -5847 0
-5136 -5848 0
-5133 -6137 0
-5134 -6138 0
-5135 -6139 0
-5136 -6140 0
-5133 -6225 0
-5134 -6226 0
-5135 -6227 0
-5136 -6228 0
-5133 -6745 0
-5134 -6746 0
-5135 -6747 0
-5136 -6748 0
-5133 -7045 0
-5134 -7046 0
-5135 -7047 0
-5136 -7048 0
-5137 -5141 0
-5138 -5142 0
-5139 -5143 0
-5140 -5144 0
-5137 -5149 0
-5138 -5150 0
-5139 -5151 0
-5140 -5152 0
-5137 -5157 0
-5138 -5158 0
-5139 -5159 0
-5140 -5160 0
-5137 -5169 0
-5138 -5170 0
-5139 -5171 0
-5140 -5172 0
-5137 -5193 0
-5138 -5194 0
-5139 -5195 0
-5140 -5196 0
-5137 -5221 0
-5138 -5222 0
-5139 -5223 0
-5140 -5224 0
-5137 -5277 0
-5138 -5278 0
-5139 -5279 0
-5140 -5280 0
-5137 -5417 0
-5138 -5418 0
-5139 -5419 0
-5140 -5420 0
-5137 -5849 0
-5138 -5850 0
-5139 -5851 0
-5140 -5852 0
-5137 -5985 0
-5138 -5986 0
-5139 -5987 0
-5140 -5988 0
-5137 -6185 0
-5138 -6186 0
-5139 -6187 0
-5140 -6188 0
-5137 -7049 0
-5138 -7050 0
-5139 -7051 0
-5140 -7052 0
-5137 -7313 0
-5138 -7314 0
-5139 -7315 0
-5140 -7316 0
-5141 -5161 0
-5142 -5162 0
-5143 -5163 0
-5144 -5164 0
-5141 -5173 0
-5142 -5174 0
-5143 -5175 0
-5144 -5176 0
-5141 -5193 0
-5142 -5194 0
-5143 -5195 0
-5144 -5196 0
-5141 -5421 0
-5142 -5422 0
-5143 -5423 0
-5144 -5424 0
-5141 -5661 0
-5142 -5662 0
-5143 -5663 0
-5144 -5664 0
-5141 -5853 0
-5142 -5854 0
-5143 -5855 0
-5144 -5856 0
-5141 -5941 0
-5142 -5942 0
-5143 -5943 0
-5144 -5944 0
-5141 -6189 0
-5142 -6190 0
-5143 -6191 0
-5144 -6192 0
-5141 -6229 0
-5142 -6230 0
-5143 -6231 0
-5144 -6232 0
-5141 -7053 0
-5142 -7054 0
-5143 -7055 0
-5144 -7056 0
-5141 -7157 0
-5142 -7158 0
-5143 -7159 0
-5144 -7160 0
-5145 -5149 0
-5146 -5150 0
-5147 -5151 0
-5148 -5152 0
-5145 -5177 0
-5146 -5178 0
-5147 -5179 0
-5148 -5180 0
-5145 -5229 0
-5146 -5230 0
-5147 -5231 0
-5148 -5232 0
-5145 -5237 0
-5146 -5238 0
-5147 -5239 0
-5148 -5240 0
-5145 -6141 0
-5146 -6142 0
-5147 -6143 0
-5148 -6144 0
-5145 -6249 0
-5146 -6250 0
-5147 -6251 0
-5148 -6252 0
-5145 -6753 0
-5146 -6754 0
-5147 -6755 0
-5148 -6756 0
-5145 -7045 0
-5146 -7046 0
-5147 -7047 0
-5148 -7048 0
-5149 -5177 0
-5150 -5178 0
-5151 -5179 0
-5152 -5180 0
-5149 -5233 0
-5150 -5234 0
-5151 -5235 0
-5152 -5236 0
-5149 -5281 0
-5150 -5282 0
-5151 -5283 0
-5152 -5284 0
-5149 -5989 0
-5150 -5990 0
-5151 -5991 0
-5152 -5992 0
-5149 -7049 0
-5150 -7050 0
-5151 -7051 0
-5152 -7052 0
-5153 -5285 0
-5154 -5286 0
-5155 -5287 0
-5156 -5288 0
-5153 -6001 0
-5154 -6002 0
-5155 -6003 0
-5156 -6004 0
-5153 -6757 0
-5154 -6758 0
-5155 -6759 0
-5156 -6760 0
-5153 -7057 0
-5154 -7058 0
-5155 -7059 0
-5156 -7060 0
-5153 -7321 0
-5154 -7322 0
-5155 -7323 0
-5156 -7324 0
-5157 -5161 0
-5158 -5162 0
-5159 -5163 0
-5160 -5164 0
-5157 -5181 0
-5158 -5182 0
-5159 -5183 0
-5160 -5184 0
-5157 -5293 0
-5158 -5294 0
-5159 -5295 0
-5160 -5296 0
-5157 -5513 0
-5158 -5514 0
-5159 -5515 0
-5160 -5516 0
-5157 -5869 0
-5158 -5870 0
-5159 -5871 0
-5160 -5872 0
-5157 -6021 0
-5158 -6022 0
-5159 -6023 0
-5160 -6024 0
-5157 -7069 0
-5158 -7070 0
-5159 -7071 0
-5160 -7072 0
-5161 -5185 0
-5162 -5186 0
-5163 -5187 0
-5164 -5188 0
-5161 -5521 0
-5162 -5522 0
-5163 -5523 0
-5164 -5524 0
-5161 -5873 0
-5162 -5874 0
-5163 -5875 0
-5164 -5876 0
-5161 -7157 0
-5162 -7158 0
-5163 -7159 0
-5164 -7160 0
-5165 -5173 0
-5166 -5174 0
-5167 -5175 0
-5168 -5176 0
-5165 -5205 0
-5166 -5206 0
-5167 -5207 0
-5168 -5208 0
-5165 -6217 0
-5166 -6218 0
-5167 -6219 0
-5168 -6220 0
-5165 -6409 0
-5166 -6410 0
-5167 -6411 0
-5168 -6412 0
-5165 -7077 0
-5166 -7078 0
-5167 -7079 0
-5168 -7080 0
-5165 -7177 0
-5166 -7178 0
-5167 -7179 0
-5168 -7180 0
-5169 -5173 0
-5170 -5174 0
-5171 -5175 0
-5172 -5176 0
-5169 -5177 0
-5170 -5178 0
-5171 -5179 0
-5172 -5180 0
-5169 -5181 0
-5170 -5182 0
-5171 -5183 0
-5172 -5184 0
-5169 -5209 0
-5170 -5210 0
-5171 -5211 0
-5172 -5212 0
-5169 -5241 0
-5170 -5242 0
-5171 -5243 0
-5172 -5244 0
-5169 -5357 0
-5170 -5358 0
-5171 -5359 0
-5172 -5360 0
-5169 -5617 0
-5170 -5618 0
-5171 -5619 0
-5172 -5620 0
-5169 -5881 0
-5170 -5882 0
-5171 -5883 0
-5172 -5884 0
-5169 -6149 0
-5170 -6150 0
-5171 -6151 0
-5172 -6152 0
-5169 -6233 0
-5170 -6234 0
-5171 -6235 0
-5172 -6236 0
-5169 -6761 0
-5170 -6762 0
-5171 -6763 0
-5172 -6764 0
-5169 -6765 0
-5170 -6766 0
-5171 -6767 0
-5172 -6768 0
-5169 -7073 0
-5170 -7074 0
-5171 -7075 0
-5172 -7076 0
-5169 -7081 0
-5170 -7082 0
-5171 -7083 0
-5172 -7084 0
-5173 -5185 0
-5174 -5186 0
-5175 -5187 0
-5176 -5188 0
-5173 -5209 0
-5174 -5210 0
-5175 -5211 0
-5176 -5212 0
-5173 -5445 0
-5174 -5446 0
-5175 -5447 0
-5176 -5448 0
-5173 -5709 0
-5174 -5710 0
-5175 -5711 0
-5176 -5712 0
-5173 -6241 0
-5174 -6242 0
-5175 -6243 0
-5176 -6244 0
-5173 -6413 0
-5174 -6414 0
-5175 -6415 0
-5176 -6416 0
-5173 -6769 0
-5174 -6770 0
-5175 -6771 0
-5176 -6772 0
-5173 -7077 0
-5174 -7078 0
-5175 -7079 0
-5176 -7080 0
-5173 -7085 0
-5174 -7086 0
-5175 -7087 0
-5176 -7088 0
-5173 -7185 0
-5174 -7186 0
-5175 -7187 0
-5176 -7188 0
-5177 -5369 0
-5178 -5370 0
-5179 -5371 0
-5180 -5372 0
-5177 -5885 0
-5178 -5886 0
-5179 -5887 0
-5180 -5888 0
-5177 -6153 0
-5178 -6154 0
-5179 -6155 0
-5180 -6156 0
-5177 -6773 0
-5178 -6774 0
-5179 -6775 0
-5180 -6776 0
-5177 -7081 0
-5178 -7082 0
-5179 -7083 0
-5180 -7084 0
-5181 -5185 0
-5182 -5186 0
-5183 -5187 0
-5184 -5188 0
-5181 -5541 0
-5182 -5542 0
-5183 -5543 0
-5184 -5544 0
-5181 -6061 0
-5182 -6062 0
-5183 -6063 0
-5184 -6064 0
-5181 -6161 0
-5182 -6162 0
-5183 -6163 0
-5184 -6164 0
-5185 -5361 0
-5186 -5362 0
-5187 -5363 0
-5188 -5364 0
-5185 -5545 0
-5186 -5546 0
-5187 -5547 0
-5188 -5548 0
-5185 -6165 0
-5186 -6166 0
-5187 -6167 0
-5188 -6168 0
-5185 -6437 0
-5186 -6438 0
-5187 -6439 0
-5188 -6440 0
-5185 -6781 0
-5186 -6782 0
-5187 -6783 0
-5188 -6784 0
-5185 -7093 0
-5186 -7094 0
-5187 -7095 0
-5188 -7096 0
-5185 -7097 0
-5186 -7098 0
-5187 -7099 0
-5188 -7100 0
-5185 -7185 0
-5186 -7186 0
-5187 -7187 0
-5188 -7188 0
-5189 -5193 0
-5190 -5194 0
-5191 -5195 0
-5192 -5196 0
-5189 -5209 0
-5190 -5210 0
-5191 -5211 0
-5192 -5212 0
-5189 -5245 0
-5190 -5246 0
-5191 -5247 0
-5192 -5248 0
-5189 -5249 0
-5190 -5250 0
-5191 -5251 0
-5192 -5252 0
-5189 -5561 0
-5190 -5562 0
-5191 -5563 0
-5192 -5564 0
-5189 -5889 0
-5190 -5890 0
-5191 -5891 0
-5192 -5892 0
-5189 -5945 0
-5190 -5946 0
-5191 -5947 0
-5192 -5948 0
-5189 -6181 0
-5190 -6182 0
-5191 -6183 0
-5192 -6184 0
-5189 -6437 0
-5190 -6438 0
-5191 -6439 0
-5192 -6440 0
-5189 -6785 0
-5190 -6786 0
-5191 -6787 0
-5192 -6788 0
-5189 -7101 0
-5190 -7102 0
-5191 -7103 0
-5192 -7104 0
-5193 -5209 0
-5194 -5210 0
-5195 -5211 0
-5196 -5212 0
-5193 -5741 0
-5194 -5742 0
-5195 -5743 0
-5196 -5744 0
-5193 -5893 0
-5194 -5894 0
-5195 -5895 0
-5196 -5896 0
-5193 -6441 0
-5194 -6442 0
-5195 -6443 0
-5196 -6444 0
-5193 -6789 0
-5194 -6790 0
-5195 -6791 0
-5196 -6792 0
-5193 -7105 0
-5194 -7106 0
-5195 -7107 0
-5196 -7108 0
-5193 -7365 0
-5194 -7366 0
-5195 -7367 0
-5196 -7368 0
-5197 -5201 0
-5198 -5202 0
-5199 -5203 0
-5200 -5204 0
-5197 -5205 0
-5198 -5206 0
-5199 -5207 0
-5200 -5208 0
-5197 -5609 0
-5198 -5610 0
-5199 -5611 0
-5200 -5612 0
-5197 -7201 0
-5198 -7202 0
-5199 -7203 0
-5200 -7204 0
-5201 -5209 0
-5202 -5210 0
-5203 -5211 0
-5204 -5212 0
-5201 -5257 0
-5202 -5258 0
-5203 -5259 0
-5204 -5260 0
-5201 -5613 0
-5202 -5614 0
-5203 -5615 0
-5204 -5616 0
-5201 -5913 0
-5202 -5914 0
-5203 -5915 0
-5204 -5916 0
-5201 -6197 0
-5202 -6198 0
-5203 -6199 0
-5204 -6200 0
-5201 -6809 0
-5202 -6810 0
-5203 -6811 0
-5204 -6812 0
-5201 -7017 0
-5202 -7018 0
-5203 -7019 0
-5204 -7020 0
-5201 -7109 0
-5202 -7110 0
-5203 -7111 0
-5204 -7112 0
-5201 -7189 0
-5202 -7190 0
-5203 -7191 0
-5204 -7192 0
-5201 -7213 0
-5202 -7214 0
-5203 -7215 0
-5204 -7216 0
-5201 -7373 0
-5202 -7374 0
-5203 -7375 0
-5204 -7376 0
-5205 -5209 0
-5206 -5210 0
-5207 -5211 0
-5208 -5212 0
-5205 -6445 0
-5206 -6446 0
-5207 -6447 0
-5208 -6448 0
-5205 -6817 0
-5206 -6818 0
-5207 -6819 0
-5208 -6820 0
-5205 -7113 0
-5206 -7114 0
-5207 -7115 0
-5208 -7116 0
-5205 -7225 0
-5206 -7226 0
-5207 -7227 0
-5208 -7228 0
-5209 -5261 0
-5210 -5262 0
-5211 -5263 0
-5212 -5264 0
-5209 -5577 0
-5210 -5578 0
-5211 -5579 0
-5212 -5580 0
-5209 -5757 0
-5210 -5758 0
-5211 -5759 0
-5212 -5760 0
-5209 -6221 0
-5210 -6222 0
-5211 -6223 0
-5212 -6224 0
-5209 -6449 0
-5210 -6450 0
-5211 -6451 0
-5212 -6452 0
-5209 -6841 0
-5210 -6842 0
-5211 -6843 0
-5212 -6844 0
-5209 -7017 0
-5210 -7018 0
-5211 -7019 0
-5212 -7020 0
-5209 -7113 0
-5210 -7114 0
-5211 -7115 0
-5212 -7116 0
-5209 -7117 0
-5210 -7118 0
-5211 -7119 0
-5212 -7120 0
-5209 -7197 0
-5210 -7198 0
-5211 -7199 0
-5212 -7200 0
-5209 -7229 0
-5210 -7230 0
-5211 -7231 0
-5212 -7232 0
-5213 -5221 0
-5214 -5222 0
-5215 -5223 0
-5216 -5224 0
-5213 -5313 0
-5214 -5314 0
-5215 -5315 0
-5216 -5316 0
-5213 -5653 0
-5214 -5654 0
-5215 -5655 0
-5216 -5656 0
-5213 -6825 0
-5214 -6826 0
-5215 -6827 0
-5216 -6828 0
-5213 -7377 0
-5214 -7378 0
-5215 -7379 0
-5216 -7380 0
-5217 -5221 0
-5218 -5222 0
-5219 -5223 0
-5220 -5224 0
-5217 -5225 0
-5218 -5226 0
-5219 -5227 0
-5220 -5228 0
-5217 -5229 0
-5218 -5230 0
-5219 -5231 0
-5220 -5232 0
-5217 -5245 0
-5218 -5246 0
-5219 -5247 0
-5220 -5248 0
-5217 -5309 0
-5218 -5310 0
-5219 -5311 0
-5220 -5312 0
-5217 -5317 0
-5218 -5318 0
-5219 -5319 0
-5220 -5320 0
-5217 -5473 0
-5218 -5474 0
-5219 -5475 0
-5220 -5476 0
-5217 -5657 0
-5218 -5658 0
-5219 -5659 0
-5220 -5660 0
-5217 -5949 0
-5218 -5950 0
-5219 -5951 0
-5220 -5952 0
-5217 -6313 0
-5218 -6314 0
-5219 -6315 0
-5220 -6316 0
-5217 -6841 0
-5218 -6842 0
-5219 -6843 0
-5220 -6844 0
-5217 -7021 0
-5218 -7022 0
-5219 -7023 0
-5220 -7024 0
-5217 -7029 0
-5218 -7030 0
-5219 -7031 0
-5220 -7032 0
-5217 -7125 0
-5218 -7126 0
-5219 -7127 0
-5220 -7128 0
-5221 -5233 0
-5222 -5234 0
-5223 -5235 0
-5224 -5236 0
-5221 -5313 0
-5222 -5314 0
-5223 -5315 0
-5224 -5316 0
-5221 -5477 0
-5222 -5478 0
-5223 -5479 0
-5224 -5480 0
-5221 -5953 0
-5222 -5954 0
-5223 -5955 0
-5224 -5956 0
-5221 -6093 0
-5222 -6094 0
-5223 -6095 0
-5224 -6096 0
-5221 -6845 0
-5222 -6846 0
-5223 -6847 0
-5224 -6848 0
-5221 -7129 0
-5222 -7130 0
-5223 -7131 0
-5224 -7132 0
-5221 -7381 0
-5222 -7382 0
-5223 -7383 0
-5224 -7384 0
-5225 -5237 0
-5226 -5238 0
-5227 -5239 0
-5228 -5240 0
-5225 -5241 0
-5226 -5242 0
-5227 -5243 0
-5228 -5244 0
-5225 -5249 0
-5226 -5250 0
-5227 -5251 0
-5228 -5252 0
-5225 -5485 0
-5226 -5486 0
-5227 -5487 0
-5228 -5488 0
-5225 -5661 0
-5226 -5662 0
-5227 -5663 0
-5228 -5664 0
-5225 -6277 0
-5226 -6278 0
-5227 -6279 0
-5228 -6280 0
-5225 -6853 0
-5226 -6854 0
-5227 -6855 0
-5228 -6856 0
-5225 -7133 0
-5226 -7134 0
-5227 -7135 0
-5228 -7136 0
-5229 -5233 0
-5230 -5234 0
-5231 -5235 0
-5232 -5236 0
-5229 -5237 0
-5230 -5238 0
-5231 -5239 0
-5232 -5240 0
-5229 -5253 0
-5230 -5254 0
-5231 -5255 0
-5232 -5256 0
-5229 -5321 0
-5230 -5322 0
-5231 -5323 0
-5232 -5324 0
-5229 -5329 0
-5230 -5330 0
-5231 -5331 0
-5232 -5332 0
-5229 -5501 0
-5230 -5502 0
-5231 -5503 0
-5232 -5504 0
-5229 -5965 0
-5230 -5966 0
-5231 -5967 0
-5232 -5968 0
-5229 -6317 0
-5230 -6318 0
-5231 -6319 0
-5232 -6320 0
-5229 -6877 0
-5230 -6878 0
-5231 -6879 0
-5232 -6880 0
-5229 -7025 0
-5230 -7026 0
-5231 -7027 0
-5232 -7028 0
-5229 -7033 0
-5230 -7034 0
-5231 -7035 0
-5232 -7036 0
-5229 -7125 0
-5230 -7126 0
-5231 -7127 0
-5232 -7128 0
-5233 -5325 0
-5234 -5326 0
-5235 -5327 0
-5236 -5328 0
-5233 -5597 0
-5234 -5598 0
-5235 -5599 0
-5236 -5600 0
-5233 -6097 0
-5234 -6098 0
-5235 -6099 0
-5236 -6100 0
-5233 -6321 0
-5234 -6322 0
-5235 -6323 0
-5236 -6324 0
-5233 -6881 0
-5234 -6882 0
-5235 -6883 0
-5236 -6884 0
-5233 -7129 0
-5234 -7130 0
-5235 -7131 0
-5236 -7132 0
-5237 -5509 0
-5238 -5510 0
-5239 -5511 0
-5240 -5512 0
-5237 -6889 0
-5238 -6890 0
-5239 -6891 0
-5240 -6892 0
-5237 -7133 0
-5238 -7134 0
-5239 -7135 0
-5240 -7136 0
-5241 -5261 0
-5242 -5262 0
-5243 -5263 0
-5244 -5264 0
-5241 -5533 0
-5242 -5534 0
-5243 -5535 0
-5244 -5536 0
-5241 -5713 0
-5242 -5714 0
-5243 -5715 0
-5244 -5716 0
-5241 -6317 0
-5242 -6318 0
-5243 -6319 0
-5244 -6320 0
-5241 -6465 0
-5242 -6466 0
-5243 -6467 0
-5244 -6468 0
-5245 -5249 0
-5246 -5250 0
-5247 -5251 0
-5248 -5252 0
-5245 -5253 0
-5246 -5254 0
-5247 -5255 0
-5248 -5256 0
-5245 -5389 0
-5246 -5390 0
-5247 -5391 0
-5248 -5392 0
-5245 -5665 0
-5246 -5666 0
-5247 -5667 0
-5248 -5668 0
-5245 -6001 0
-5246 -6002 0
-5247 -6003 0
-5248 -6004 0
-5245 -6477 0
-5246 -6478 0
-5247 -6479 0
-5248 -6480 0
-5245 -6933 0
-5246 -6934 0
-5247 -6935 0
-5248 -6936 0
-5245 -7137 0
-5246 -7138 0
-5247 -7139 0
-5248 -7140 0
-5249 -5261 0
-5250 -5262 0
-5251 -5263 0
-5252 -5264 0
-5249 -5569 0
-5250 -5570 0
-5251 -5571 0
-5252 -5572 0
-5249 -6009 0
-5250 -6010 0
-5251 -6011 0
-5252 -6012 0
-5249 -6481 0
-5250 -6482 0
-5251 -6483 0
-5252 -6484 0
-5249 -7141 0
-5250 -7142 0
-5251 -7143 0
-5252 -7144 0
-5253 -5393 0
-5254 -5394 0
-5255 -5395 0
-5256 -5396 0
-5253 -6025 0
-5254 -6026 0
-5255 -6027 0
-5256 -6028 0
-5253 -6941 0
-5254 -6942 0
-5255 -6943 0
-5256 -6944 0
-5253 -6945 0
-5254 -6946 0
-5255 -6947 0
-5256 -6948 0
-5253 -7061 0
-5254 -7062 0
-5255 -7063 0
-5256 -7064 0
-5253 -7137 0
-5254 -7138 0
-5255 -7139 0
-5256 -7140 0
-5257 -5261 0
-5258 -5262 0
-5259 -5263 0
-5260 -5264 0
-5257 -5697 0
-5258 -5698 0
-5259 -5699 0
-5260 -5700 0
-5257 -6041 0
-5258 -6042 0
-5259 -6043 0
-5260 -6044 0
-5257 -6109 0
-5258 -6110 0
-5259 -6111 0
-5260 -6112 0
-5257 -6345 0
-5258 -6346 0
-5259 -6347 0
-5260 -6348 0
-5257 -6485 0
-5258 -6486 0
-5259 -6487 0
-5260 -6488 0
-5257 -7089 0
-5258 -7090 0
-5259 -7091 0
-5260 -7092 0
-5257 -7245 0
-5258 -7246 0
-5259 -7247 0
-5260 -7248 0
-5257 -7261 0
-5258 -7262 0
-5259 -7263 0
-5260 -7264 0
-5257 -7441 0
-5258 -7442 0
-5259 -7443 0
-5260 -7444 0
-5261 -5581 0
-5262 -5582 0
-5263 -5583 0
-5264 -5584 0
-5261 -5769 0
-5262 -5770 0
-5263 -5771 0
-5264 -5772 0
-5261 -6057 0
-5262 -6058 0
-5263 -6059 0
-5264 -6060 0
-5261 -6493 0
-5262 -6494 0
-5263 -6495 0
-5264 -6496 0
-5261 -6953 0
-5262 -6954 0
-5263 -6955 0
-5264 -6956 0
-5261 -7089 0
-5262 -7090 0
-5263 -7091 0
-5264 -7092 0
-5261 -7145 0
-5262 -7146 0
-5263 -7147 0
-5264 -7148 0
-5265 -5269 0
-5266 -5270 0
-5267 -5271 0
-5268 -5272 0
-5265 -5285 0
-5266 -5286 0
-5267 -5287 0
-5268 -5288 0
-5265 -5289 0
-5266 -5290 0
-5267 -5291 0
-5268 -5292 0
-5265 -6357 0
-5266 -6358 0
-5267 -6359 0
-5268 -6360 0
-5265 -6501 0
-5266 -6502 0
-5267 -6503 0
-5268 -6504 0
-5265 -7161 0
-5266 -7162 0
-5267 -7163 0
-5268 -7164 0
-5265 -7165 0
-5266 -7166 0
-5267 -7167 0
-5268 -7168 0
-5269 -5297 0
-5270 -5298 0
-5271 -5299 0
-5272 -5300 0
-5269 -5973 0
-5270 -5974 0
-5271 -5975 0
-5272 -5976 0
-5269 -6505 0
-5270 -6506 0
-5271 -6507 0
-5272 -6508 0
-5269 -7177 0
-5270 -7178 0
-5271 -7179 0
-5272 -7180 0
-5269 -7185 0
-5270 -7186 0
-5271 -7187 0
-5272 -7188 0
-5273 -5277 0
-5274 -5278 0
-5275 -5279 0
-5276 -5280 0
-5273 -5285 0
-5274 -5286 0
-5275 -5287 0
-5276 -5288 0
-5273 -5313 0
-5274 -5314 0
-5275 -5315 0
-5276 -5316 0
-5273 -5413 0
-5274 -5414 0
-5275 -5415 0
-5276 -5416 0
-5273 -6005 0
-5274 -6006 0
-5275 -6007 0
-5276 -6008 0
-5273 -6513 0
-5274 -6514 0
-5275 -6515 0
-5276 -6516 0
-5273 -7189 0
-5274 -7190 0
-5275 -7191 0
-5276 -7192 0
-5277 -5281 0
-5278 -5282 0
-5279 -5283 0
-5280 -5284 0
-5277 -5293 0
-5278 -5294 0
-5279 -5295 0
-5280 -5296 0
-5277 -5313 0
-5278 -5314 0
-5279 -5315 0
-5280 -5316 0
-5277 -5609 0
-5278 -5610 0
-5279 -5611 0
-5280 -5612 0
-5277 -6013 0
-5278 -6014 0
-5279 -6015 0
-5280 -6016 0
-5277 -6369 0
-5278 -6370 0
-5279 -6371 0
-5280 -6372 0
-5277 -6517 0
-5278 -6518 0
-5279 -6519 0
-5280 -6520 0
-5277 -7193 0
-5278 -7194 0
-5279 -7195 0
-5280 -7196 0
-5281 -5325 0
-5282 -5326 0
-5283 -5327 0
-5284 -5328 0
-5281 -5613 0
-5282 -5614 0
-5283 -5615 0
-5284 -5616 0
-5281 -7193 0
-5282 -7194 0
-5283 -7195 0
-5284 -7196 0
-5285 -5289 0
-5286 -5290 0
-5287 -5291 0
-5288 -5292 0
-5285 -5293 0
-5286 -5294 0
-5287 -5295 0
-5288 -5296 0
-5285 -5297 0
-5286 -5298 0
-5287 -5299 0
-5288 -5300 0
-5285 -5333 0
-5286 -5334 0
-5287 -5335 0
-5288 -5336 0
-5285 -5417 0
-5286 -5418 0
-5287 -5419 0
-5288 -5420 0
-5285 -6117 0
-5286 -6118 0
-5287 -6119 0
-5288 -6120 0
-5285 -7201 0
-5286 -7202 0
-5287 -7203 0
-5288 -7204 0
-5285 -7213 0
-5286 -7214 0
-5287 -7215 0
-5288 -7216 0
-5289 -5421 0
-5290 -5422 0
-5291 -5423 0
-5292 -5424 0
-5289 -6521 0
-5290 -6522 0
-5291 -6523 0
-5292 -6524 0
-5289 -7205 0
-5290 -7206 0
-5291 -7207 0
-5292 -7208 0
-5289 -7217 0
-5290 -7218 0
-5291 -7219 0
-5292 -7220 0
-5293 -5333 0
-5294 -5334 0
-5295 -5335 0
-5296 -5336 0
-5293 -5621 0
-5294 -5622 0
-5295 -5623 0
-5296 -5624 0
-5293 -6041 0
-5294 -6042 0
-5295 -6043 0
-5296 -6044 0
-5293 -7209 0
-5294 -7210 0
-5295 -7211 0
-5296 -7212 0
-5293 -7221 0
-5294 -7222 0
-5295 -7223 0
-5296 -7224 0
-5297 -5833 0
-5298 -5834 0
-5299 -5835 0
-5300 -5836 0
-5297 -6053 0
-5298 -6054 0
-5299 -6055 0
-5300 -6056 0
-5297 -6981 0
-5298 -6982 0
-5299 -6983 0
-5300 -6984 0
-5297 -7225 0
-5298 -7226 0
-5299 -7227 0
-5300 -7228 0
-5297 -7229 0
-5298 -7230 0
-5299 -7231 0
-5300 -7232 0
-5301 -5305 0
-5302 -5306 0
-5303 -5307 0
-5304 -5308 0
-5301 -5309 0
-5302 -5310 0
-5303 -5311 0
-5304 -5312 0
-5301 -5313 0
-5302 -5314 0
-5303 -5315 0
-5304 -5316 0
-5301 -5637 0
-5302 -5638 0
-5303 -5639 0
-5304 -5640 0
-5301 -6553 0
-5302 -6554 0
-5303 -6555 0
-5304 -6556 0
-5301 -7149 0
-5302 -7150 0
-5303 -7151 0
-5304 -7152 0
-5301 -7237 0
-5302 -7238 0
-5303 -7239 0
-5304 -7240 0
-5305 -5321 0
-5306 -5322 0
-5307 -5323 0
-5308 -5324 0
-5305 -5325 0
-5306 -5326 0
-5307 -5327 0
-5308 -5328 0
-5305 -5649 0
-5306 -5650 0
-5307 -5651 0
-5308 -5652 0
-5305 -6557 0
-5306 -6558 0
-5307 -6559 0
-5308 -6560 0
-5305 -7237 0
-5306 -7238 0
-5307 -7239 0
-5308 -7240 0
-5309 -5313 0
-5310 -5314 0
-5311 -5315 0
-5312 -5316 0
-5309 -5317 0
-5310 -5318 0
-5311 -5319 0
-5312 -5320 0
-5309 -5321 0
-5310 -5322 0
-5311 -5323 0
-5312 -5324 0
-5309 -5461 0
-5310 -5462 0
-5311 -5463 0
-5312 -5464 0
-5309 -5801 0
-5310 -5802 0
-5311 -5803 0
-5312 -5804 0
-5309 -6569 0
-5310 -6570 0
-5311 -6571 0
-5312 -6572 0
-5309 -6993 0
-5310 -6994 0
-5311 -6995 0
-5312 -6996 0
-5309 -7169 0
-5310 -7170 0
-5311 -7171 0
-5312 -7172 0
-5309 -7241 0
-5310 -7242 0
-5311 -7243 0
-5312 -7244 0
-5313 -5325 0
-5314 -5326 0
-5315 -5327 0
-5316 -5328 0
-5313 -5333 0
-5314 -5334 0
-5315 -5335 0
-5316 -5336 0
-5313 -5677 0
-5314 -5678 0
-5315 -5679 0
-5316 -5680 0
-5313 -5805 0
-5314 -5806 0
-5315 -5807 0
-5316 -5808 0
-5313 -6381 0
-5314 -6382 0
-5315 -6383 0
-5316 -6384 0
-5313 -6573 0
-5314 -6574 0
-5315 -6575 0
-5316 -6576 0
-5313 -6577 0
-5314 -6578 0
-5315 -6579 0
-5316 -6580 0
-5313 -7173 0
-5314 -7174 0
-5315 -7175 0
-5316 -7176 0
-5313 -7245 0
-5314 -7246 0
-5315 -7247 0
-5316 -7248 0
-5313 -7477 0
-5314 -7478 0
-5315 -7479 0
-5316 -7480 0
-5317 -5329 0
-5318 -5330 0
-5319 -5331 0
-5320 -5332 0
-5317 -5493 0
-5318 -5494 0
-5319 -5495 0
-5320 -5496 0
-5317 -5793 0
-5318 -5794 0
-5319 -5795 0
-5320 -5796 0
-5317 -6101 0
-5318 -6102 0
-5319 -6103 0
-5320 -6104 0
-5317 -6401 0
-5318 -6402 0
-5319 -6403 0
-5320 -6404 0
-5317 -6997 0
-5318 -6998 0
-5319 -6999 0
-5320 -7000 0
-5317 -7161 0
-5318 -7162 0
-5319 -7163 0
-5320 -7164 0
-5317 -7177 0
-5318 -7178 0
-5319 -7179 0
-5320 -7180 0
-5317 -7249 0
-5318 -7250 0
-5319 -7251 0
-5320 -7252 0
-5321 -5325 0
-5322 -5326 0
-5323 -5327 0
-5324 -5328 0
-5321 -5329 0
-5322 -5330 0
-5323 -5331 0
-5324 -5332 0
-5321 -5465 0
-5322 -5466 0
-5323 -5467 0
-5324 -5468 0
-5321 -5809 0
-5322 -5810 0
-5323 -5811 0
-5324 -5812 0
-5321 -7001 0
-5322 -7002 0
-5323 -7003 0
-5324 -7004 0
-5321 -7181 0
-5322 -7182 0
-5323 -7183 0
-5324 -7184 0
-5321 -7241 0
-5322 -7242 0
-5323 -7243 0
-5324 -7244 0
-5325 -5337 0
-5326 -5338 0
-5327 -5339 0
-5328 -5340 0
-5325 -5693 0
-5326 -5694 0
-5327 -5695 0
-5328 -5696 0
-5325 -6585 0
-5326 -6586 0
-5327 -6587 0
-5328 -6588 0
-5325 -7245 0
-5326 -7246 0
-5327 -7247 0
-5328 -7248 0
-5325 -7481 0
-5326 -7482 0
-5327 -7483 0
-5328 -7484 0
-5329 -5341 0
-5330 -5342 0
-5331 -5343 0
-5332 -5344 0
-5329 -5517 0
-5330 -5518 0
-5331 -5519 0
-5332 -5520 0
-5329 -5701 0
-5330 -5702 0
-5331 -5703 0
-5332 -5704 0
-5329 -6105 0
-5330 -6106 0
-5331 -6107 0
-5332 -6108 0
-5329 -6405 0
-5330 -6406 0
-5331 -6407 0
-5332 -6408 0
-5329 -6589 0
-5330 -6590 0
-5331 -6591 0
-5332 -6592 0
-5329 -7005 0
-5330 -7006 0
-5331 -7007 0
-5332 -7008 0
-5329 -7165 0
-5330 -7166 0
-5331 -7167 0
-5332 -7168 0
-5329 -7185 0
-5330 -7186 0
-5331 -7187 0
-5332 -7188 0
-5329 -7249 0
-5330 -7250 0
-5331 -7251 0
-5332 -7252 0
-5333 -5337 0
-5334 -5338 0
-5335 -5339 0
-5336 -5340 0
-5333 -5489 0
-5334 -5490 0
-5335 -5491 0
-5336 -5492 0
-5333 -5725 0
-5334 -5726 0
-5335 -5727 0
-5336 -5728 0
-5333 -6593 0
-5334 -6594 0
-5335 -6595 0
-5336 -6596 0
-5333 -7257 0
-5334 -7258 0
-5335 -7259 0
-5336 -7260 0
-5333 -7261 0
-5334 -7262 0
-5335 -7263 0
-5336 -7264 0
-5337 -5513 0
-5338 -5514 0
-5339 -5515 0
-5340 -5516 0
-5337 -5729 0
-5338 -5730 0
-5339 -5731 0
-5340 -5732 0
-5337 -6601 0
-5338 -6602 0
-5339 -6603 0
-5340 -6604 0
-5337 -7261 0
-5338 -7262 0
-5339 -7263 0
-5340 -7264 0
-5341 -5573 0
-5342 -5574 0
-5343 -5575 0
-5344 -5576 0
-5341 -5825 0
-5342 -5826 0
-5343 -5827 0
-5344 -5828 0
-5341 -6385 0
-5342 -6386 0
-5343 -6387 0
-5344 -6388 0
-5341 -7009 0
-5342 -7010 0
-5343 -7011 0
-5344 -7012 0
-5341 -7213 0
-5342 -7214 0
-5343 -7215 0
-5344 -7216 0
-5341 -7229 0
-5342 -7230 0
-5343 -7231 0
-5344 -7232 0
-5345 -5349 0
-5346 -5350 0
-5347 -5351 0
-5348 -5352 0
-5345 -5353 0
-5346 -5354 0
-5347 -5355 0
-5348 -5356 0
-5345 -5413 0
-5346 -5414 0
-5347 -5415 0
-5348 -5416 0
-5345 -5421 0
-5346 -5422 0
-5347 -5423 0
-5348 -5424 0
-5345 -5653 0
-5346 -5654 0
-5347 -5655 0
-5348 -5656 0
-5345 -6181 0
-5346 -6182 0
-5347 -6183 0
-5348 -6184 0
-5345 -6417 0
-5346 -6418 0
-5347 -6419 0
-5348 -6420 0
-5345 -7265 0
-5346 -7266 0
-5347 -7267 0
-5348 -7268 0
-5345 -7501 0
-5346 -7502 0
-5347 -7503 0
-5348 -7504 0
-5349 -5365 0
-5350 -5366 0
-5351 -5367 0
-5352 -5368 0
-5349 -5425 0
-5350 -5426 0
-5351 -5427 0
-5352 -5428 0
-5349 -6189 0
-5350 -6190 0
-5351 -6191 0
-5352 -6192 0
-5349 -6433 0
-5350 -6434 0
-5351 -6435 0
-5352 -6436 0
-5349 -7265 0
-5350 -7266 0
-5351 -7267 0
-5352 -7268 0
-5353 -5357 0
-5354 -5358 0
-5355 -5359 0
-5356 -5360 0
-5353 -5365 0
-5354 -5366 0
-5355 -5367 0
-5356 -5368 0
-5353 -5373 0
-5354 -5374 0
-5355 -5375 0
-5356 -5376 0
-5353 -5441 0
-5354 -5442 0
-5355 -5443 0
-5356 -5444 0
-5353 -5445 0
-5354 -5446 0
-5355 -5447 0
-5356 -5448 0
-5353 -5693 0
-5354 -5694 0
-5355 -5695 0
-5356 -5696 0
-5353 -5865 0
-5354 -5866 0
-5355 -5867 0
-5356 -5868 0
-5353 -6217 0
-5354 -6218 0
-5355 -6219 0
-5356 -6220 0
-5353 -7017 0
-5354 -7018 0
-5355 -7019 0
-5356 -7020 0
-5353 -7021 0
-5354 -7022 0
-5355 -7023 0
-5356 -7024 0
-5353 -7273 0
-5354 -7274 0
-5355 -7275 0
-5356 -7276 0
-5353 -7305 0
-5354 -7306 0
-5355 -7307 0
-5356 -7308 0
-5353 -7321 0
-5354 -7322 0
-5355 -7323 0
-5356 -7324 0
-5357 -5361 0
-5358 -5362 0
-5359 -5363 0
-5360 -5364 0
-5357 -5369 0
-5358 -5370 0
-5359 -5371 0
-5360 -5372 0
-5357 -5373 0
-5358 -5374 0
-5359 -5375 0
-5360 -5376 0
-5357 -5621 0
-5358 -5622 0
-5359 -5623 0
-5360 -5624 0
-5357 -5697 0
-5358 -5698 0
-5359 -5699 0
-5360 -5700 0
-5357 -5881 0
-5358 -5882 0
-5359 -5883 0
-5360 -5884 0
-5357 -6429 0
-5358 -6430 0
-5359 -6431 0
-5360 -6432 0
-5357 -6677 0
-5358 -6678 0
-5359 -6679 0
-5360 -6680 0
-5357 -7269 0
-5358 -7270 0
-5359 -7271 0
-5360 -7272 0
-5357 -7281 0
-5358 -7282 0
-5359 -7283 0
-5360 -7284 0
-5357 -7309 0
-5358 -7310 0
-5359 -7311 0
-5360 -7312 0
-5357 -7325 0
-5358 -7326 0
-5359 -7327 0
-5360 -7328 0
-5361 -5377 0
-5362 -5378 0
-5363 -5379 0
-5364 -5380 0
-5361 -5713 0
-5362 -5714 0
-5363 -5715 0
-5364 -5716 0
-5361 -6125 0
-5362 -6126 0
-5363 -6127 0
-5364 -6128 0
-5361 -6437 0
-5362 -6438 0
-5363 -6439 0
-5364 -6440 0
-5361 -7313 0
-5362 -7314 0
-5363 -7315 0
-5364 -7316 0
-5365 -5369 0
-5366 -5370 0
-5367 -5371 0
-5368 -5372 0
-5365 -5381 0
-5366 -5382 0
-5367 -5383 0
-5368 -5384 0
-5365 -5453 0
-5366 -5454 0
-5367 -5455 0
-5368 -5456 0
-5365 -6241 0
-5366 -6242 0
-5367 -6243 0
-5368 -6244 0
-5365 -7025 0
-5366 -7026 0
-5367 -7027 0
-5368 -7028 0
-5365 -7273 0
-5366 -7274 0
-5367 -7275 0
-5368 -7276 0
-5369 -5381 0
-5370 -5382 0
-5371 -5383 0
-5372 -5384 0
-5369 -5625 0
-5370 -5626 0
-5371 -5627 0
-5372 -5628 0
-5369 -5885 0
-5370 -5886 0
-5371 -5887 0
-5372 -5888 0
-5369 -6253 0
-5370 -6254 0
-5371 -6255 0
-5372 -6256 0
-5369 -7281 0
-5370 -7282 0
-5371 -7283 0
-5372 -7284 0
-5373 -5377 0
-5374 -5378 0
-5375 -5379 0
-5376 -5380 0
-5373 -5381 0
-5374 -5382 0
-5375 -5383 0
-5376 -5384 0
-5373 -5537 0
-5374 -5538 0
-5375 -5539 0
-5376 -5540 0
-5373 -5593 0
-5374 -5594 0
-5375 -5595 0
-5376 -5596 0
-5373 -5725 0
-5374 -5726 0
-5375 -5727 0
-5376 -5728 0
-5373 -5873 0
-5374 -5874 0
-5375 -5875 0
-5376 -5876 0
-5373 -6157 0
-5374 -6158 0
-5375 -6159 0
-5376 -6160 0
-5373 -6685 0
-5374 -6686 0
-5375 -6687 0
-5376 -6688 0
-5373 -7089 0
-5374 -7090 0
-5375 -7091 0
-5376 -7092 0
-5373 -7285 0
-5374 -7286 0
-5375 -7287 0
-5376 -7288 0
-5373 -7377 0
-5374 -7378 0
-5375 -7379 0
-5376 -7380 0
-5377 -5385 0
-5378 -5386 0
-5379 -5387 0
-5380 -5388 0
-5377 -5537 0
-5378 -5538 0
-5379 -5539 0
-5380 -5540 0
-5377 -5781 0
-5378 -5782 0
-5379 -5783 0
-5380 -5784 0
-5377 -5841 0
-5378 -5842 0
-5379 -5843 0
-5380 -5844 0
-5377 -6161 0
-5378 -6162 0
-5379 -6163 0
-5380 -6164 0
-5377 -6477 0
-5378 -6478 0
-5379 -6479 0
-5380 -6480 0
-5377 -6689 0
-5378 -6690 0
-5379 -6691 0
-5380 -6692 0
-5377 -7289 0
-5378 -7290 0
-5379 -7291 0
-5380 -7292 0
-5377 -7381 0
-5378 -7382 0
-5379 -7383 0
-5380 -7384 0
-5381 -5385 0
-5382 -5386 0
-5383 -5387 0
-5384 -5388 0
-5381 -5545 0
-5382 -5546 0
-5383 -5547 0
-5384 -5548 0
-5381 -5601 0
-5382 -5602 0
-5383 -5603 0
-5384 -5604 0
-5381 -5729 0
-5382 -5730 0
-5383 -5731 0
-5384 -5732 0
-5381 -6169 0
-5382 -6170 0
-5383 -6171 0
-5384 -6172 0
-5381 -6325 0
-5382 -6326 0
-5383 -6327 0
-5384 -6328 0
-5381 -6693 0
-5382 -6694 0
-5383 -6695 0
-5384 -6696 0
-5381 -7285 0
-5382 -7286 0
-5383 -7287 0
-5384 -7288 0
-5385 -5545 0
-5386 -5546 0
-5387 -5547 0
-5388 -5548 0
-5385 -6173 0
-5386 -6174 0
-5387 -6175 0
-5388 -6176 0
-5385 -6333 0
-5386 -6334 0
-5387 -6335 0
-5388 -6336 0
-5385 -6697 0
-5386 -6698 0
-5387 -6699 0
-5388 -6700 0
-5385 -7289 0
-5386 -7290 0
-5387 -7291 0
-5388 -7292 0
-5389 -5393 0
-5390 -5394 0
-5391 -5395 0
-5392 -5396 0
-5389 -5549 0
-5390 -5550 0
-5391 -5551 0
-5392 -5552 0
-5389 -5553 0
-5390 -5554 0
-5391 -5555 0
-5392 -5556 0
-5389 -6177 0
-5390 -6178 0
-5391 -6179 0
-5392 -6180 0
-5389 -6689 0
-5390 -6690 0
-5391 -6691 0
-5392 -6692 0
-5389 -7293 0
-5390 -7294 0
-5391 -7295 0
-5392 -7296 0
-5393 -5397 0
-5394 -5398 0
-5395 -5399 0
-5396 -5400 0
-5393 -5401 0
-5394 -5402 0
-5395 -5403 0
-5396 -5404 0
-5393 -5561 0
-5394 -5562 0
-5395 -5563 0
-5396 -5564 0
-5393 -5565 0
-5394 -5566 0
-5395 -5567 0
-5396 -5568 0
-5393 -5737 0
-5394 -5738 0
-5395 -5739 0
-5396 -5740 0
-5393 -6185 0
-5394 -6186 0
-5395 -6187 0
-5396 -6188 0
-5393 -6493 0
-5394 -6494 0
-5395 -6495 0
-5396 -6496 0
-5393 -6697 0
-5394 -6698 0
-5395 -6699 0
-5396 -6700 0
-5393 -7105 0
-5394 -7106 0
-5395 -7107 0
-5396 -7108 0
-5393 -7121 0
-5394 -7122 0
-5395 -7123 0
-5396 -7124 0
-5393 -7265 0
-5394 -7266 0
-5395 -7267 0
-5396 -7268 0
-5393 -7293 0
-5394 -7294 0
-5395 -7295 0
-5396 -7296 0
-5393 -7561 0
-5394 -7562 0
-5395 -7563 0
-5396 -7564 0
-5397 -5401 0
-5398 -5402 0
-5399 -5403 0
-5400 -5404 0
-5397 -5905 0
-5398 -5906 0
-5399 -5907 0
-5400 -5908 0
-5397 -6233 0
-5398 -6234 0
-5399 -6235 0
-5400 -6236 0
-5397 -6461 0
-5398 -6462 0
-5399 -6463 0
-5400 -6464 0
-5397 -7117 0
-5398 -7118 0
-5399 -7119 0
-5400 -7120 0
-5397 -7125 0
-5398 -7126 0
-5399 -7127 0
-5400 -7128 0
-5397 -7273 0
-5398 -7274 0
-5399 -7275 0
-5400 -7276 0
-5401 -5577 0
-5402 -5578 0
-5403 -5579 0
-5404 -5580 0
-5401 -5933 0
-5402 -5934 0
-5403 -5935 0
-5404 -5936 0
-5401 -6237 0
-5402 -6238 0
-5403 -6239 0
-5404 -6240 0
-5401 -7129 0
-5402 -7130 0
-5403 -7131 0
-5404 -7132 0
-5401 -7277 0
-5402 -7278 0
-5403 -7279 0
-5404 -7280 0
-5405 -5409 0
-5406 -5410 0
-5407 -5411 0
-5408 -5412 0
-5405 -5457 0
-5406 -5458 0
-5407 -5459 0
-5408 -5460 0
-5405 -5949 0
-5406 -5950 0
-5407 -5951 0
-5408 -5952 0
-5405 -7305 0
-5406 -7306 0
-5407 -7307 0
-5408 -7308 0
-5409 -5429 0
-5410 -5430 0
-5411 -5431 0
-5412 -5432 0
-5409 -5457 0
-5410 -5458 0
-5411 -5459 0
-5412 -5460 0
-5409 -5941 0
-5410 -5942 0
-5411 -5943 0
-5412 -5944 0
-5409 -7301 0
-5410 -7302 0
-5411 -7303 0
-5412 -7304 0
-5409 -7309 0
-5410 -7310 0
-5411 -7311 0
-5412 -7312 0
-5413 -5421 0
-5414 -5422 0
-5415 -5423 0
-5416 -5424 0
-5413 -5429 0
-5414 -5430 0
-5415 -5431 0
-5416 -5432 0
-5413 -5441 0
-5414 -5442 0
-5415 -5443 0
-5416 -5444 0
-5413 -6005 0
-5414 -6006 0
-5415 -6007 0
-5416 -6008 0
-5413 -6721 0
-5414 -6722 0
-5415 -6723 0
-5416 -6724 0
-5413 -7333 0
-5414 -7334 0
-5415 -7335 0
-5416 -7336 0
-5413 -7625 0
-5414 -7626 0
-5415 -7627 0
-5416 -7628 0
-5417 -5421 0
-5418 -5422 0
-5419 -5423 0
-5420 -5424 0
-5417 -5477 0
-5418 -5478 0
-5419 -5479 0
-5420 -5480 0
-5417 -5489 0
-5418 -5490 0
-5419 -5491 0
-5420 -5492 0
-5417 -6365 0
-5418 -6366 0
-5419 -6367 0
-5420 -6368 0
-5417 -7337 0
-5418 -7338 0
-5419 -7339 0
-5420 -7340 0
-5421 -5425 0
-5422 -5426 0
-5423 -5427 0
-5424 -5428 0
-5421 -5433 0
-5422 -5434 0
-5423 -5435 0
-5424 -5436 0
-5421 -5445 0
-5422 -5446 0
-5423 -5447 0
-5424 -5448 0
-5421 -5449 0
-5422 -5450 0
-5423 -5451 0
-5424 -5452 0
-5421 -5481 0
-5422 -5482 0
-5423 -5483 0
-5424 -5484 0
-5421 -5497 0
-5422 -5498 0
-5423 -5499 0
-5424 -5500 0
-5421 -5805 0
-5422 -5806 0
-5423 -5807 0
-5424 -5808 0
-5421 -5941 0
-5422 -5942 0
-5423 -5943 0
-5424 -5944 0
-5421 -5993 0
-5422 -5994 0
-5423 -5995 0
-5424 -5996 0
-5421 -6197 0
-5422 -6198 0
-5423 -6199 0
-5424 -6200 0
-5421 -6521 0
-5422 -6522 0
-5423 -6523 0
-5424 -6524 0
-5421 -6529 0
-5422 -6530 0
-5423 -6531 0
-5424 -6532 0
-5421 -7345 0
-5422 -7346 0
-5423 -7347 0
-5424 -7348 0
-5425 -5437 0
-5426 -5438 0
-5427 -5439 0
-5428 -5440 0
-5425 -5453 0
-5426 -5454 0
-5427 -5455 0
-5428 -5456 0
-5425 -5505 0
-5426 -5506 0
-5427 -5507 0
-5428 -5508 0
-5425 -5521 0
-5426 -5522 0
-5427 -5523 0
-5428 -5524 0
-5425 -5997 0
-5426 -5998 0
-5427 -5999 0
-5428 -6000 0
-5425 -6205 0
-5426 -6206 0
-5427 -6207 0
-5428 -6208 0
-5425 -6541 0
-5426 -6542 0
-5427 -6543 0
-5428 -6544 0
-5425 -7345 0
-5426 -7346 0
-5427 -7347 0
-5428 -7348 0
-5429 -5433 0
-5430 -5434 0
-5431 -5435 0
-5432 -5436 0
-5429 -6009 0
-5430 -6010 0
-5431 -6011 0
-5432 -6012 0
-5429 -6729 0
-5430 -6730 0
-5431 -6731 0
-5432 -6732 0
-5429 -7149 0
-5430 -7150 0
-5431 -7151 0
-5432 -7152 0
-5429 -7349 0
-5430 -7350 0
-5431 -7351 0
-5432 -7352 0
-5429 -7357 0
-5430 -7358 0
-5431 -7359 0
-5432 -7360 0
-5433 -5437 0
-5434 -5438 0
-5435 -5439 0
-5436 -5440 0
-5433 -5821 0
-5434 -5822 0
-5435 -5823 0
-5436 -5824 0
-5433 -6021 0
-5434 -6022 0
-5435 -6023 0
-5436 -6024 0
-5433 -6221 0
-5434 -6222 0
-5435 -6223 0
-5436 -6224 0
-5433 -7153 0
-5434 -7154 0
-5435 -7155 0
-5436 -7156 0
-5433 -7365 0
-5434 -7366 0
-5435 -7367 0
-5436 -7368 0
-5437 -6037 0
-5438 -6038 0
-5439 -6039 0
-5440 -6040 0
-5437 -6245 0
-5438 -6246 0
-5439 -6247 0
-5440 -6248 0
-5437 -7157 0
-5438 -7158 0
-5439 -7159 0
-5440 -7160 0
-5437 -7365 0
-5438 -7366 0
-5439 -7367 0
-5440 -7368 0
-5441 -5445 0
-5442 -5446 0
-5443 -5447 0
-5444 -5448 0
-5441 -5609 0
-5442 -5610 0
-5443 -5611 0
-5444 -5612 0
-5441 -6053 0
-5442 -6054 0
-5443 -6055 0
-5444 -6056 0
-5441 -6733 0
-5442 -6734 0
-5443 -6735 0
-5444 -6736 0
-5445 -5449 0
-5446 -5450 0
-5447 -5451 0
-5448 -5452 0
-5445 -5453 0
-5446 -5454 0
-5447 -5455 0
-5448 -5456 0
-5445 -5537 0
-5446 -5538 0
-5447 -5539 0
-5448 -5540 0
-5445 -6045 0
-5446 -6046 0
-5447 -6047 0
-5448 -6048 0
-5445 -6261 0
-5446 -6262 0
-5447 -6263 0
-5448 -6264 0
-5445 -6737 0
-5446 -6738 0
-5447 -6739 0
-5448 -6740 0
-5445 -7161 0
-5446 -7162 0
-5447 -7163 0
-5448 -7164 0
-5445 -7373 0
-5446 -7374 0
-5447 -7375 0
-5448 -7376 0
-5449 -6049 0
-5450 -6050 0
-5451 -6051 0
-5452 -6052 0
-5449 -6533 0
-5450 -6534 0
-5451 -6535 0
-5452 -6536 0
-5449 -6741 0
-5450 -6742 0
-5451 -6743 0
-5452 -6744 0
-5453 -5545 0
-5454 -5546 0
-5455 -5547 0
-5456 -5548 0
-5453 -5617 0
-5454 -5618 0
-5455 -5619 0
-5456 -5620 0
-5453 -6265 0
-5454 -6266 0
-5455 -6267 0
-5456 -6268 0
-5453 -6549 0
-5454 -6550 0
-5455 -6551 0
-5456 -6552 0
-5453 -6749 0
-5454 -6750 0
-5455 -6751 0
-5456 -6752 0
-5453 -7165 0
-5454 -7166 0
-5455 -7167 0
-5456 -7168 0
-5453 -7373 0
-5454 -7374 0
-5455 -7375 0
-5456 -7376 0
-5457 -5961 0
-5458 -5962 0
-5459 -5963 0
-5460 -5964 0
-5457 -7173 0
-5458 -7174 0
-5459 -7175 0
-5460 -7176 0
-5457 -7377 0
-5458 -7378 0
-5459 -7379 0
-5460 -7380 0
-5461 -5465 0
-5462 -5466 0
-5463 -5467 0
-5464 -5468 0
-5461 -5485 0
-5462 -5486 0
-5463 -5487 0
-5464 -5488 0
-5461 -5549 0
-5462 -5550 0
-5463 -5551 0
-5464 -5552 0
-5461 -6273 0
-5462 -6274 0
-5463 -6275 0
-5464 -6276 0
-5461 -6765 0
-5462 -6766 0
-5463 -6767 0
-5464 -6768 0
-5461 -7301 0
-5462 -7302 0
-5463 -7303 0
-5464 -7304 0
-5461 -7385 0
-5462 -7386 0
-5463 -7387 0
-5464 -7388 0
-5465 -5469 0
-5466 -5470 0
-5467 -5471 0
-5468 -5472 0
-5465 -5509 0
-5466 -5510 0
-5467 -5511 0
-5468 -5512 0
-5465 -5557 0
-5466 -5558 0
-5467 -5559 0
-5468 -5560 0
-5465 -5561 0
-5466 -5562 0
-5467 -5563 0
-5468 -5564 0
-5465 -5845 0
-5466 -5846 0
-5467 -5847 0
-5468 -5848 0
-5465 -5981 0
-5466 -5982 0
-5467 -5983 0
-5468 -5984 0
-5465 -6281 0
-5466 -6282 0
-5467 -6283 0
-5468 -6284 0
-5465 -6773 0
-5466 -6774 0
-5467 -6775 0
-5468 -6776 0
-5465 -7193 0
-5466 -7194 0
-5467 -7195 0
-5468 -7196 0
-5465 -7297 0
-5466 -7298 0
-5467 -7299 0
-5468 -7300 0
-5465 -7309 0
-5466 -7310 0
-5467 -7311 0
-5468 -7312 0
-5465 -7385 0
-5466 -7386 0
-5467 -7387 0
-5468 -7388 0
-5465 -7389 0
-5466 -7390 0
-5467 -7391 0
-5468 -7392 0
-5465 -7473 0
-5466 -7474 0
-5467 -7475 0
-5468 -7476 0
-5469 -5517 0
-5470 -5518 0
-5471 -5519 0
-5472 -5520 0
-5469 -5561 0
-5470 -5562 0
-5471 -5563 0
-5472 -5564 0
-5469 -5801 0
-5470 -5802 0
-5471 -5803 0
-5472 -5804 0
-5469 -6097 0
-5470 -6098 0
-5471 -6099 0
-5472 -6100 0
-5469 -6777 0
-5470 -6778 0
-5471 -6779 0
-5472 -6780 0
-5473 -5477 0
-5474 -5478 0
-5475 -5479 0
-5476 -5480 0
-5473 -5485 0
-5474 -5486 0
-5475 -5487 0
-5476 -5488 0
-5473 -5501 0
-5474 -5502 0
-5475 -5503 0
-5476 -5504 0
-5473 -5949 0
-5474 -5950 0
-5475 -5951 0
-5476 -5952 0
-5473 -7201 0
-5474 -7202 0
-5475 -7203 0
-5476 -7204 0
-5473 -7393 0
-5474 -7394 0
-5475 -7395 0
-5476 -7396 0
-5477 -5481 0
-5478 -5482 0
-5479 -5483 0
-5480 -5484 0
-5477 -5489 0
-5478 -5490 0
-5479 -5491 0
-5480 -5492 0
-5477 -5953 0
-5478 -5954 0
-5479 -5955 0
-5480 -5956 0
-5481 -5497 0
-5482 -5498 0
-5483 -5499 0
-5484 -5500 0
-5481 -5505 0
-5482 -5506 0
-5483 -5507 0
-5484 -5508 0
-5481 -5961 0
-5482 -5962 0
-5483 -5963 0
-5484 -5964 0
-5481 -6629 0
-5482 -6630 0
-5483 -6631 0
-5484 -6632 0
-5481 -7397 0
-5482 -7398 0
-5483 -7399 0
-5484 -7400 0
-5485 -5489 0
-5486 -5490 0
-5487 -5491 0
-5488 -5492 0
-5485 -5493 0
-5486 -5494 0
-5487 -5495 0
-5488 -5496 0
-5485 -5509 0
-5486 -5510 0
-5487 -5511 0
-5488 -5512 0
-5485 -5533 0
-5486 -5534 0
-5487 -5535 0
-5488 -5536 0
-5485 -5569 0
-5486 -5570 0
-5487 -5571 0
-5488 -5572 0
-5485 -5993 0
-5486 -5994 0
-5487 -5995 0
-5488 -5996 0
-5485 -6293 0
-5486 -6294 0
-5487 -6295 0
-5488 -6296 0
-5485 -7209 0
-5486 -7210 0
-5487 -7211 0
-5488 -7212 0
-5485 -7317 0
-5486 -7318 0
-5487 -7319 0
-5488 -7320 0
-5485 -7401 0
-5486 -7402 0
-5487 -7403 0
-5488 -7404 0
-5489 -5497 0
-5490 -5498 0
-5491 -5499 0
-5492 -5500 0
-5489 -5513 0
-5490 -5514 0
-5491 -5515 0
-5492 -5516 0
-5489 -5533 0
-5490 -5534 0
-5491 -5535 0
-5492 -5536 0
-5489 -5857 0
-5490 -5858 0
-5491 -5859 0
-5492 -5860 0
-5489 -6377 0
-5490 -6378 0
-5491 -6379 0
-5492 -6380 0
-5489 -6593 0
-5490 -6594 0
-5491 -6595 0
-5492 -6596 0
-5489 -7405 0
-5490 -7406 0
-5491 -7407 0
-5492 -7408 0
-5493 -5497 0
-5494 -5498 0
-5495 -5499 0
-5496 -5500 0
-5493 -5517 0
-5494 -5518 0
-5495 -5519 0
-5496 -5520 0
-5493 -5537 0
-5494 -5538 0
-5495 -5539 0
-5496 -5540 0
-5493 -5569 0
-5494 -5570 0
-5495 -5571 0
-5496 -5572 0
-5493 -5645 0
-5494 -5646 0
-5495 -5647 0
-5496 -5648 0
-5493 -6101 0
-5494 -6102 0
-5495 -6103 0
-5496 -6104 0
-5493 -6781 0
-5494 -6782 0
-5495 -6783 0
-5496 -6784 0
-5493 -6785 0
-5494 -6786 0
-5495 -6787 0
-5496 -6788 0
-5493 -7409 0
-5494 -7410 0
-5495 -7411 0
-5496 -7412 0
-5497 -5521 0
-5498 -5522 0
-5499 -5523 0
-5500 -5524 0
-5497 -5537 0
-5498 -5538 0
-5499 -5539 0
-5500 -5540 0
-5497 -5861 0
-5498 -5862 0
-5499 -5863 0
-5500 -5864 0
-5497 -6597 0
-5498 -6598 0
-5499 -6599 0
-5500 -6600 0
-5497 -6789 0
-5498 -6790 0
-5499 -6791 0
-5500 -6792 0
-5497 -7413 0
-5498 -7414 0
-5499 -7415 0
-5500 -7416 0
-5501 -5509 0
-5502 -5510 0
-5503 -5511 0
-5504 -5512 0
-5501 -5525 0
-5502 -5526 0
-5503 -5527 0
-5504 -5528 0
-5501 -5965 0
-5502 -5966 0
-5503 -5967 0
-5504 -5968 0
-5501 -6633 0
-5502 -6634 0
-5503 -6635 0
-5504 -6636 0
-5501 -7213 0
-5502 -7214 0
-5503 -7215 0
-5504 -7216 0
-5501 -7321 0
-5502 -7322 0
-5503 -7323 0
-5504 -7324 0
-5501 -7393 0
-5502 -7394 0
-5503 -7395 0
-5504 -7396 0
-5505 -5521 0
-5506 -5522 0
-5507 -5523 0
-5508 -5524 0
-5505 -6641 0
-5506 -6642 0
-5507 -6643 0
-5508 -6644 0
-5505 -7397 0
-5506 -7398 0
-5507 -7399 0
-5508 -7400 0
-5509 -5513 0
-5510 -5514 0
-5511 -5515 0
-5512 -5516 0
-5509 -5517 0
-5510 -5518 0
-5511 -5519 0
-5512 -5520 0
-5509 -5529 0
-5510 -5530 0
-5511 -5531 0
-5512 -5532 0
-5509 -5541 0
-5510 -5542 0
-5511 -5543 0
-5512 -5544 0
-5509 -5573 0
-5510 -5574 0
-5511 -5575 0
-5512 -5576 0
-5509 -5865 0
-5510 -5866 0
-5511 -5867 0
-5512 -5868 0
-5509 -5997 0
-5510 -5998 0
-5511 -5999 0
-5512 -6000 0
-5509 -6297 0
-5510 -6298 0
-5511 -6299 0
-5512 -6300 0
-5509 -6389 0
-5510 -6390 0
-5511 -6391 0
-5512 -6392 0
-5509 -6553 0
-5510 -6554 0
-5511 -6555 0
-5512 -6556 0
-5509 -7221 0
-5510 -7222 0
-5511 -7223 0
-5512 -7224 0
-5509 -7325 0
-5510 -7326 0
-5511 -7327 0
-5512 -7328 0
-5509 -7401 0
-5510 -7402 0
-5511 -7403 0
-5512 -7404 0
-5509 -7417 0
-5510 -7418 0
-5511 -7419 0
-5512 -7420 0
-5509 -7473 0
-5510 -7474 0
-5511 -7475 0
-5512 -7476 0
-5509 -7661 0
-5510 -7662 0
-5511 -7663 0
-5512 -7664 0
-5513 -5521 0
-5514 -5522 0
-5515 -5523 0
-5516 -5524 0
-5513 -5541 0
-5514 -5542 0
-5515 -5543 0
-5516 -5544 0
-5513 -5869 0
-5514 -5870 0
-5515 -5871 0
-5516 -5872 0
-5513 -6393 0
-5514 -6394 0
-5515 -6395 0
-5516 -6396 0
-5513 -6601 0
-5514 -6602 0
-5515 -6603 0
-5516 -6604 0
-5513 -7405 0
-5514 -7406 0
-5515 -7407 0
-5516 -7408 0
-5513 -7421 0
-5514 -7422 0
-5515 -7423 0
-5516 -7424 0
-5513 -7665 0
-5514 -7666 0
-5515 -7667 0
-5516 -7668 0
-5517 -5521 0
-5518 -5522 0
-5519 -5523 0
-5520 -5524 0
-5517 -5545 0
-5518 -5546 0
-5519 -5547 0
-5520 -5548 0
-5517 -5573 0
-5518 -5574 0
-5519 -5575 0
-5520 -5576 0
-5517 -5661 0
-5518 -5662 0
-5519 -5663 0
-5520 -5664 0
-5517 -6105 0
-5518 -6106 0
-5519 -6107 0
-5520 -6108 0
-5517 -6301 0
-5518 -6302 0
-5519 -6303 0
-5520 -6304 0
-5517 -6645 0
-5518 -6646 0
-5519 -6647 0
-5520 -6648 0
-5517 -6793 0
-5518 -6794 0
-5519 -6795 0
-5520 -6796 0
-5517 -7409 0
-5518 -7410 0
-5519 -7411 0
-5520 -7412 0
-5521 -5545 0
-5522 -5546 0
-5523 -5547 0
-5524 -5548 0
-5521 -5873 0
-5522 -5874 0
-5523 -5875 0
-5524 -5876 0
-5521 -6605 0
-5522 -6606 0
-5523 -6607 0
-5524 -6608 0
-5521 -6797 0
-5522 -6798 0
-5523 -6799 0
-5524 -6800 0
-5521 -7413 0
-5522 -7414 0
-5523 -7415 0
-5524 -7416 0
-5525 -5529 0
-5526 -5530 0
-5527 -5531 0
-5528 -5532 0
-5525 -6033 0
-5526 -6034 0
-5527 -6035 0
-5528 -6036 0
-5525 -7229 0
-5526 -7230 0
-5527 -7231 0
-5528 -7232 0
-5525 -7321 0
-5526 -7322 0
-5527 -7323 0
-5528 -7324 0
-5529 -5833 0
-5530 -5834 0
-5531 -5835 0
-5532 -5836 0
-5529 -5877 0
-5530 -5878 0
-5531 -5879 0
-5532 -5880 0
-5529 -6037 0
-5530 -6038 0
-5531 -6039 0
-5532 -6040 0
-5529 -6317 0
-5530 -6318 0
-5531 -6319 0
-5532 -6320 0
-5529 -6561 0
-5530 -6562 0
-5531 -6563 0
-5532 -6564 0
-5529 -7325 0
-5530 -7326 0
-5531 -7327 0
-5532 -7328 0
-5529 -7425 0
-5530 -7426 0
-5531 -7427 0
-5532 -7428 0
-5529 -7429 0
-5530 -7430 0
-5531 -7431 0
-5532 -7432 0
-5533 -5537 0
-5534 -5538 0
-5535 -5539 0
-5536 -5540 0
-5533 -5541 0
-5534 -5542 0
-5535 -5543 0
-5536 -5544 0
-5533 -5581 0
-5534 -5582 0
-5535 -5583 0
-5536 -5584 0
-5533 -6049 0
-5534 -6050 0
-5535 -6051 0
-5536 -6052 0
-5533 -6401 0
-5534 -6402 0
-5535 -6403 0
-5536 -6404 0
-5533 -6633 0
-5534 -6634 0
-5535 -6635 0
-5536 -6636 0
-5533 -6833 0
-5534 -6834 0
-5535 -6835 0
-5536 -6836 0
-5533 -7437 0
-5534 -7438 0
-5535 -7439 0
-5536 -7440 0
-5537 -5545 0
-5538 -5546 0
-5539 -5547 0
-5540 -5548 0
-5537 -5581 0
-5538 -5582 0
-5539 -5583 0
-5540 -5584 0
-5537 -5689 0
-5538 -5690 0
-5539 -5691 0
-5540 -5692 0
-5537 -5977 0
-5538 -5978 0
-5539 -5979 0
-5540 -5980 0
-5537 -6357 0
-5538 -6358 0
-5539 -6359 0
-5540 -6360 0
-5537 -6637 0
-5538 -6638 0
-5539 -6639 0
-5540 -6640 0
-5537 -6841 0
-5538 -6842 0
-5539 -6843 0
-5540 -6844 0
-5537 -7441 0
-5538 -7442 0
-5539 -7443 0
-5540 -7444 0
-5537 -7477 0
-5538 -7478 0
-5539 -7479 0
-5540 -7480 0
-5541 -5545 0
-5542 -5546 0
-5543 -5547 0
-5544 -5548 0
-5541 -5585 0
-5542 -5586 0
-5543 -5587 0
-5544 -5588 0
-5541 -6405 0
-5542 -6406 0
-5543 -6407 0
-5544 -6408 0
-5541 -6573 0
-5542 -6574 0
-5543 -6575 0
-5544 -6576 0
-5541 -6869 0
-5542 -6870 0
-5543 -6871 0
-5544 -6872 0
-5541 -7437 0
-5542 -7438 0
-5543 -7439 0
-5544 -7440 0
-5541 -7445 0
-5542 -7446 0
-5543 -7447 0
-5544 -7448 0
-5545 -5585 0
-5546 -5586 0
-5547 -5587 0
-5548 -5588 0
-5545 -5713 0
-5546 -5714 0
-5547 -5715 0
-5548 -5716 0
-5545 -6361 0
-5546 -6362 0
-5547 -6363 0
-5548 -6364 0
-5545 -6877 0
-5546 -6878 0
-5547 -6879 0
-5548 -6880 0
-5545 -7441 0
-5546 -7442 0
-5547 -7443 0
-5548 -7444 0
-5545 -7481 0
-5546 -7482 0
-5547 -7483 0
-5548 -7484 0
-5549 -5553 0
-5550 -5554 0
-5551 -5555 0
-5552 -5556 0
-5549 -5561 0
-5550 -5562 0
-5551 -5563 0
-5552 -5564 0
-5549 -5569 0
-5550 -5570 0
-5551 -5571 0
-5552 -5572 0
-5549 -6841 0
-5550 -6842 0
-5551 -6843 0
-5552 -6844 0
-5549 -7349 0
-5550 -7350 0
-5551 -7351 0
-5552 -7352 0
-5549 -7449 0
-5550 -7450 0
-5551 -7451 0
-5552 -7452 0
-5549 -7485 0
-5550 -7486 0
-5551 -7487 0
-5552 -7488 0
-5553 -5565 0
-5554 -5566 0
-5555 -5567 0
-5556 -5568 0
-5553 -5985 0
-5554 -5986 0
-5555 -5987 0
-5556 -5988 0
-5553 -6365 0
-5554 -6366 0
-5555 -6367 0
-5556 -6368 0
-5553 -6857 0
-5554 -6858 0
-5555 -6859 0
-5556 -6860 0
-5553 -7453 0
-5554 -7454 0
-5555 -7455 0
-5556 -7456 0
-5557 -5561 0
-5558 -5562 0
-5559 -5563 0
-5560 -5564 0
-5557 -6577 0
-5558 -6578 0
-5559 -6579 0
-5560 -6580 0
-5557 -6869 0
-5558 -6870 0
-5559 -6871 0
-5560 -6872 0
-5557 -7329 0
-5558 -7330 0
-5559 -7331 0
-5560 -7332 0
-5557 -7353 0
-5558 -7354 0
-5559 -7355 0
-5560 -7356 0
-5557 -7677 0
-5558 -7678 0
-5559 -7679 0
-5560 -7680 0
-5561 -5565 0
-5562 -5566 0
-5563 -5567 0
-5564 -5568 0
-5561 -5573 0
-5562 -5574 0
-5563 -5575 0
-5564 -5576 0
-5561 -5577 0
-5562 -5578 0
-5563 -5579 0
-5564 -5580 0
-5561 -5837 0
-5562 -5838 0
-5563 -5839 0
-5564 -5840 0
-5561 -5889 0
-5562 -5890 0
-5563 -5891 0
-5564 -5892 0
-5561 -6369 0
-5562 -6370 0
-5563 -6371 0
-5564 -6372 0
-5561 -6581 0
-5562 -6582 0
-5563 -6583 0
-5564 -6584 0
-5561 -6877 0
-5562 -6878 0
-5563 -6879 0
-5564 -6880 0
-5561 -7237 0
-5562 -7238 0
-5563 -7239 0
-5564 -7240 0
-5561 -7333 0
-5562 -7334 0
-5563 -7335 0
-5564 -7336 0
-5561 -7357 0
-5562 -7358 0
-5563 -7359 0
-5564 -7360 0
-5561 -7449 0
-5562 -7450 0
-5563 -7451 0
-5564 -7452 0
-5561 -7457 0
-5562 -7458 0
-5563 -7459 0
-5564 -7460 0
-5561 -7489 0
-5562 -7490 0
-5563 -7491 0
-5564 -7492 0
-5561 -7681 0
-5562 -7682 0
-5563 -7683 0
-5564 -7684 0
-5565 -5897 0
-5566 -5898 0
-5567 -5899 0
-5568 -5900 0
-5565 -5989 0
-5566 -5990 0
-5567 -5991 0
-5568 -5992 0
-5565 -6337 0
-5566 -6338 0
-5567 -6339 0
-5568 -6340 0
-5565 -6373 0
-5566 -6374 0
-5567 -6375 0
-5568 -6376 0
-5565 -6665 0
-5566 -6666 0
-5567 -6667 0
-5568 -6668 0
-5565 -6893 0
-5566 -6894 0
-5567 -6895 0
-5568 -6896 0
-5565 -7345 0
-5566 -7346 0
-5567 -7347 0
-5568 -7348 0
-5565 -7365 0
-5566 -7366 0
-5567 -7367 0
-5568 -7368 0
-5565 -7453 0
-5566 -7454 0
-5567 -7455 0
-5568 -7456 0
-5569 -5573 0
-5570 -5574 0
-5571 -5575 0
-5572 -5576 0
-5569 -5581 0
-5570 -5582 0
-5571 -5583 0
-5572 -5584 0
-5569 -6009 0
-5570 -6010 0
-5571 -6011 0
-5572 -6012 0
-5569 -6905 0
-5570 -6906 0
-5571 -6907 0
-5572 -6908 0
-5569 -7461 0
-5570 -7462 0
-5571 -7463 0
-5572 -7464 0
-5569 -7485 0
-5570 -7486 0
-5571 -7487 0
-5572 -7488 0
-5573 -5585 0
-5574 -5586 0
-5575 -5587 0
-5576 -5588 0
-5573 -5741 0
-5574 -5742 0
-5575 -5743 0
-5576 -5744 0
-5573 -6029 0
-5574 -6030 0
-5575 -6031 0
-5576 -6032 0
-5573 -6345 0
-5574 -6346 0
-5575 -6347 0
-5576 -6348 0
-5573 -6597 0
-5574 -6598 0
-5575 -6599 0
-5576 -6600 0
-5573 -6909 0
-5574 -6910 0
-5575 -6911 0
-5576 -6912 0
-5573 -7461 0
-5574 -7462 0
-5575 -7463 0
-5576 -7464 0
-5573 -7465 0
-5574 -7466 0
-5575 -7467 0
-5576 -7468 0
-5573 -7489 0
-5574 -7490 0
-5575 -7491 0
-5576 -7492 0
-5573 -7689 0
-5574 -7690 0
-5575 -7691 0
-5576 -7692 0
-5577 -5585 0
-5578 -5586 0
-5579 -5587 0
-5580 -5588 0
-5577 -6113 0
-5578 -6114 0
-5579 -6115 0
-5580 -6116 0
-5577 -6925 0
-5578 -6926 0
-5579 -6927 0
-5580 -6928 0
-5577 -7245 0
-5578 -7246 0
-5579 -7247 0
-5580 -7248 0
-5577 -7369 0
-5578 -7370 0
-5579 -7371 0
-5580 -7372 0
-5577 -7493 0
-5578 -7494 0
-5579 -7495 0
-5580 -7496 0
-5581 -5585 0
-5582 -5586 0
-5583 -5587 0
-5584 -5588 0
-5581 -5749 0
-5582 -5750 0
-5583 -5751 0
-5584 -5752 0
-5581 -6057 0
-5582 -6058 0
-5583 -6059 0
-5584 -6060 0
-5581 -6629 0
-5582 -6630 0
-5583 -6631 0
-5584 -6632 0
-5581 -6929 0
-5582 -6930 0
-5583 -6931 0
-5584 -6932 0
-5581 -7257 0
-5582 -7258 0
-5583 -7259 0
-5584 -7260 0
-5581 -7469 0
-5582 -7470 0
-5583 -7471 0
-5584 -7472 0
-5585 -5761 0
-5586 -5762 0
-5587 -5763 0
-5588 -5764 0
-5585 -6073 0
-5586 -6074 0
-5587 -6075 0
-5588 -6076 0
-5585 -6641 0
-5586 -6642 0
-5587 -6643 0
-5588 -6644 0
-5585 -6937 0
-5586 -6938 0
-5587 -6939 0
-5588 -6940 0
-5585 -7261 0
-5586 -7262 0
-5587 -7263 0
-5588 -7264 0
-5585 -7469 0
-5586 -7470 0
-5587 -7471 0
-5588 -7472 0
-5585 -7493 0
-5586 -7494 0
-5587 -7495 0
-5588 -7496 0
-5589 -6001 0
-5590 -6002 0
-5591 -6003 0
-5592 -6004 0
-5589 -6381 0
-5590 -6382 0
-5591 -6383 0
-5592 -6384 0
-5589 -6985 0
-5590 -6986 0
-5591 -6987 0
-5592 -6988 0
-5589 -7485 0
-5590 -7486 0
-5591 -7487 0
-5592 -7488 0
-5589 -7489 0
-5590 -7490 0
-5591 -7491 0
-5592 -7492 0
-5593 -5601 0
-5594 -5602 0
-5595 -5603 0
-5596 -5604 0
-5593 -5681 0
-5594 -5682 0
-5595 -5683 0
-5596 -5684 0
-5593 -5689 0
-5594 -5690 0
-5595 -5691 0
-5596 -5692 0
-5593 -5857 0
-5594 -5858 0
-5595 -5859 0
-5596 -5860 0
-5593 -6685 0
-5594 -6686 0
-5595 -6687 0
-5596 -6688 0
-5597 -5601 0
-5598 -5602 0
-5599 -5603 0
-5600 -5604 0
-5597 -5693 0
-5598 -5694 0
-5599 -5695 0
-5600 -5696 0
-5597 -5705 0
-5598 -5706 0
-5599 -5707 0
-5600 -5708 0
-5597 -6461 0
-5598 -6462 0
-5599 -6463 0
-5600 -6464 0
-5597 -6701 0
-5598 -6702 0
-5599 -6703 0
-5600 -6704 0
-5597 -7277 0
-5598 -7278 0
-5599 -7279 0
-5600 -7280 0
-5601 -5697 0
-5602 -5698 0
-5603 -5699 0
-5604 -5700 0
-5601 -5713 0
-5602 -5714 0
-5603 -5715 0
-5604 -5716 0
-5601 -5869 0
-5602 -5870 0
-5603 -5871 0
-5604 -5872 0
-5601 -6469 0
-5602 -6470 0
-5603 -6471 0
-5604 -6472 0
-5601 -6693 0
-5602 -6694 0
-5603 -6695 0
-5604 -6696 0
-5601 -7525 0
-5602 -7526 0
-5603 -7527 0
-5604 -7528 0
-5605 -5961 0
-5606 -5962 0
-5607 -5963 0
-5608 -5964 0
-5605 -6145 0
-5606 -6146 0
-5607 -6147 0
-5608 -6148 0
-5605 -6725 0
-5606 -6726 0
-5607 -6727 0
-5608 -6728 0
-5605 -7501 0
-5606 -7502 0
-5607 -7503 0
-5608 -7504 0
-5609 -5613 0
-5610 -5614 0
-5611 -5615 0
-5612 -5616 0
-5609 -5621 0
-5610 -5622 0
-5611 -5623 0
-5612 -5624 0
-5609 -5677 0
-5610 -5678 0
-5611 -5679 0
-5612 -5680 0
-5609 -5681 0
-5610 -5682 0
-5611 -5683 0
-5612 -5684 0
-5609 -6213 0
-5610 -6214 0
-5611 -6215 0
-5612 -6216 0
-5609 -6417 0
-5610 -6418 0
-5611 -6419 0
-5612 -6420 0
-5609 -6733 0
-5610 -6734 0
-5611 -6735 0
-5612 -6736 0
-5609 -7513 0
-5610 -7514 0
-5611 -7515 0
-5612 -7516 0
-5609 -7621 0
-5610 -7622 0
-5611 -7623 0
-5612 -7624 0
-5613 -5617 0
-5614 -5618 0
-5615 -5619 0
-5616 -5620 0
-5613 -5625 0
-5614 -5626 0
-5615 -5627 0
-5616 -5628 0
-5613 -5693 0
-5614 -5694 0
-5615 -5695 0
-5616 -5696 0
-5613 -5697 0
-5614 -5698 0
-5615 -5699 0
-5616 -5700 0
-5613 -6237 0
-5614 -6238 0
-5615 -6239 0
-5616 -6240 0
-5613 -6433 0
-5614 -6434 0
-5615 -6435 0
-5616 -6436 0
-5613 -6713 0
-5614 -6714 0
-5615 -6715 0
-5616 -6716 0
-5613 -7297 0
-5614 -7298 0
-5615 -7299 0
-5616 -7300 0
-5613 -7513 0
-5614 -7514 0
-5615 -7515 0
-5616 -7516 0
-5613 -7629 0
-5614 -7630 0
-5615 -7631 0
-5616 -7632 0
-5613 -7729 0
-5614 -7730 0
-5615 -7731 0
-5616 -7732 0
-5617 -5705 0
-5618 -5706 0
-5619 -5707 0
-5620 -5708 0
-5617 -5713 0
-5618 -5714 0
-5619 -5715 0
-5620 -5716 0
-5617 -6441 0
-5618 -6442 0
-5619 -6443 0
-5620 -6444 0
-5617 -6749 0
-5618 -6750 0
-5619 -6751 0
-5620 -6752 0
-5617 -6761 0
-5618 -6762 0
-5619 -6763 0
-5620 -6764 0
-5621 -5625 0
-5622 -5626 0
-5623 -5627 0
-5624 -5628 0
-5621 -5629 0
-5622 -5630 0
-5623 -5631 0
-5624 -5632 0
-5621 -5725 0
-5622 -5726 0
-5623 -5727 0
-5624 -5728 0
-5621 -6041 0
-5622 -6042 0
-5623 -6043 0
-5624 -6044 0
-5621 -6525 0
-5622 -6526 0
-5623 -6527 0
-5624 -6528 0
-5621 -6717 0
-5622 -6718 0
-5623 -6719 0
-5624 -6720 0
-5621 -7517 0
-5622 -7518 0
-5623 -7519 0
-5624 -7520 0
-5621 -7621 0
-5622 -7622 0
-5623 -7623 0
-5624 -7624 0
-5625 -5633 0
-5626 -5634 0
-5627 -5635 0
-5628 -5636 0
-5625 -5729 0
-5626 -5730 0
-5627 -5731 0
-5628 -5732 0
-5625 -6537 0
-5626 -6538 0
-5627 -6539 0
-5628 -6540 0
-5625 -6721 0
-5626 -6722 0
-5627 -6723 0
-5628 -6724 0
-5625 -7517 0
-5626 -7518 0
-5627 -7519 0
-5628 -7520 0
-5625 -7629 0
-5626 -7630 0
-5627 -7631 0
-5628 -7632 0
-5629 -5633 0
-5630 -5634 0
-5631 -5635 0
-5632 -5636 0
-5629 -5733 0
-5630 -5734 0
-5631 -5735 0
-5632 -5736 0
-5629 -6057 0
-5630 -6058 0
-5631 -6059 0
-5632 -6060 0
-5629 -6725 0
-5630 -6726 0
-5631 -6727 0
-5632 -6728 0
-5629 -7317 0
-5630 -7318 0
-5631 -7319 0
-5632 -7320 0
-5629 -7521 0
-5630 -7522 0
-5631 -7523 0
-5632 -7524 0
-5633 -6073 0
-5634 -6074 0
-5635 -6075 0
-5636 -6076 0
-5633 -6729 0
-5634 -6730 0
-5635 -6731 0
-5636 -6732 0
-5633 -7325 0
-5634 -7326 0
-5635 -7327 0
-5636 -7328 0
-5633 -7521 0
-5634 -7522 0
-5635 -7523 0
-5636 -7524 0
-5637 -5641 0
-5638 -5642 0
-5639 -5643 0
-5640 -5644 0
-5637 -5649 0
-5638 -5650 0
-5639 -5651 0
-5640 -5652 0
-5637 -5677 0
-5638 -5678 0
-5639 -5679 0
-5640 -5680 0
-5637 -7021 0
-5638 -7022 0
-5639 -7023 0
-5640 -7024 0
-5637 -7529 0
-5638 -7530 0
-5639 -7531 0
-5640 -7532 0
-5637 -7745 0
-5638 -7746 0
-5639 -7747 0
-5640 -7748 0
-5641 -5645 0
-5642 -5646 0
-5643 -5647 0
-5644 -5648 0
-5641 -5657 0
-5642 -5658 0
-5643 -5659 0
-5644 -5660 0
-5641 -5685 0
-5642 -5686 0
-5643 -5687 0
-5644 -5688 0
-5641 -6085 0
-5642 -6086 0
-5643 -6087 0
-5644 -6088 0
-5641 -6137 0
-5642 -6138 0
-5643 -6139 0
-5644 -6140 0
-5641 -6817 0
-5642 -6818 0
-5643 -6819 0
-5644 -6820 0
-5641 -7537 0
-5642 -7538 0
-5643 -7539 0
-5644 -7540 0
-5645 -5661 0
-5646 -5662 0
-5647 -5663 0
-5648 -5664 0
-5645 -5689 0
-5646 -5690 0
-5647 -5691 0
-5648 -5692 0
-5645 -6785 0
-5646 -6786 0
-5647 -6787 0
-5648 -6788 0
-5649 -5653 0
-5650 -5654 0
-5651 -5655 0
-5652 -5656 0
-5649 -5657 0
-5650 -5658 0
-5651 -5659 0
-5652 -5660 0
-5649 -5665 0
-5650 -5666 0
-5651 -5667 0
-5652 -5668 0
-5649 -5693 0
-5650 -5694 0
-5651 -5695 0
-5652 -5696 0
-5649 -5801 0
-5650 -5802 0
-5651 -5803 0
-5652 -5804 0
-5649 -6821 0
-5650 -6822 0
-5651 -6823 0
-5652 -6824 0
-5649 -7025 0
-5650 -7026 0
-5651 -7027 0
-5652 -7028 0
-5649 -7333 0
-5650 -7334 0
-5651 -7335 0
-5652 -7336 0
-5649 -7529 0
-5650 -7530 0
-5651 -7531 0
-5652 -7532 0
-5649 -7541 0
-5650 -7542 0
-5651 -7543 0
-5652 -7544 0
-5649 -7761 0
-5650 -7762 0
-5651 -7763 0
-5652 -7764 0
-5653 -5669 0
-5654 -5670 0
-5655 -5671 0
-5656 -5672 0
-5653 -5693 0
-5654 -5694 0
-5655 -5695 0
-5656 -5696 0
-5653 -5805 0
-5654 -5806 0
-5655 -5807 0
-5656 -5808 0
-5653 -6581 0
-5654 -6582 0
-5655 -6583 0
-5656 -6584 0
-5653 -6825 0
-5654 -6826 0
-5655 -6827 0
-5656 -6828 0
-5653 -7533 0
-5654 -7534 0
-5655 -7535 0
-5656 -7536 0
-5653 -7545 0
-5654 -7546 0
-5655 -7547 0
-5656 -7548 0
-5653 -7765 0
-5654 -7766 0
-5655 -7767 0
-5656 -7768 0
-5657 -5661 0
-5658 -5662 0
-5659 -5663 0
-5660 -5664 0
-5657 -5673 0
-5658 -5674 0
-5659 -5675 0
-5660 -5676 0
-5657 -5701 0
-5658 -5702 0
-5659 -5703 0
-5660 -5704 0
-5657 -5705 0
-5658 -5706 0
-5659 -5707 0
-5660 -5708 0
-5657 -5737 0
-5658 -5738 0
-5659 -5739 0
-5660 -5740 0
-5657 -5773 0
-5658 -5774 0
-5659 -5775 0
-5660 -5776 0
-5657 -5801 0
-5658 -5802 0
-5659 -5803 0
-5660 -5804 0
-5657 -6089 0
-5658 -6090 0
-5659 -6091 0
-5660 -6092 0
-5657 -6141 0
-5658 -6142 0
-5659 -6143 0
-5660 -6144 0
-5657 -6501 0
-5658 -6502 0
-5659 -6503 0
-5660 -6504 0
-5657 -6841 0
-5658 -6842 0
-5659 -6843 0
-5660 -6844 0
-5657 -7345 0
-5658 -7346 0
-5659 -7347 0
-5660 -7348 0
-5657 -7501 0
-5658 -7502 0
-5659 -7503 0
-5660 -7504 0
-5657 -7537 0
-5658 -7538 0
-5659 -7539 0
-5660 -7540 0
-5657 -7549 0
-5658 -7550 0
-5659 -7551 0
-5660 -7552 0
-5661 -5709 0
-5662 -5710 0
-5663 -5711 0
-5664 -5712 0
-5661 -5713 0
-5662 -5714 0
-5663 -5715 0
-5664 -5716 0
-5661 -5741 0
-5662 -5742 0
-5663 -5743 0
-5664 -5744 0
-5661 -5773 0
-5662 -5774 0
-5663 -5775 0
-5664 -5776 0
-5661 -5993 0
-5662 -5994 0
-5663 -5995 0
-5664 -5996 0
-5661 -6289 0
-5662 -6290 0
-5663 -6291 0
-5664 -6292 0
-5661 -6457 0
-5662 -6458 0
-5663 -6459 0
-5664 -6460 0
-5661 -6793 0
-5662 -6794 0
-5663 -6795 0
-5664 -6796 0
-5661 -6853 0
-5662 -6854 0
-5663 -6855 0
-5664 -6856 0
-5661 -7553 0
-5662 -7554 0
-5663 -7555 0
-5664 -7556 0
-5665 -5669 0
-5666 -5670 0
-5667 -5671 0
-5668 -5672 0
-5665 -5673 0
-5666 -5674 0
-5667 -5675 0
-5668 -5676 0
-5665 -5721 0
-5666 -5722 0
-5667 -5723 0
-5668 -5724 0
-5665 -5817 0
-5666 -5818 0
-5667 -5819 0
-5668 -5820 0
-5665 -6001 0
-5666 -6002 0
-5667 -6003 0
-5668 -6004 0
-5665 -6189 0
-5666 -6190 0
-5667 -6191 0
-5668 -6192 0
-5665 -6277 0
-5666 -6278 0
-5667 -6279 0
-5668 -6280 0
-5665 -7033 0
-5666 -7034 0
-5667 -7035 0
-5668 -7036 0
-5665 -7357 0
-5666 -7358 0
-5667 -7359 0
-5668 -7360 0
-5665 -7557 0
-5666 -7558 0
-5667 -7559 0
-5668 -7560 0
-5669 -5721 0
-5670 -5722 0
-5671 -5723 0
-5672 -5724 0
-5669 -5821 0
-5670 -5822 0
-5671 -5823 0
-5672 -5824 0
-5669 -6005 0
-5670 -6006 0
-5671 -6007 0
-5672 -6008 0
-5669 -6281 0
-5670 -6282 0
-5671 -6283 0
-5672 -6284 0
-5673 -5817 0
-5674 -5818 0
-5675 -5819 0
-5676 -5820 0
-5673 -6017 0
-5674 -6018 0
-5675 -6019 0
-5676 -6020 0
-5673 -6097 0
-5674 -6098 0
-5675 -6099 0
-5676 -6100 0
-5673 -6285 0
-5674 -6286 0
-5675 -6287 0
-5676 -6288 0
-5673 -6461 0
-5674 -6462 0
-5675 -6463 0
-5676 -6464 0
-5673 -6505 0
-5674 -6506 0
-5675 -6507 0
-5676 -6508 0
-5673 -6897 0
-5674 -6898 0
-5675 -6899 0
-5676 -6900 0
-5673 -7365 0
-5674 -7366 0
-5675 -7367 0
-5676 -7368 0
-5673 -7501 0
-5674 -7502 0
-5675 -7503 0
-5676 -7504 0
-5673 -7561 0
-5674 -7562 0
-5675 -7563 0
-5676 -7564 0
-5677 -5681 0
-5678 -5682 0
-5679 -5683 0
-5680 -5684 0
-5677 -5685 0
-5678 -5686 0
-5679 -5687 0
-5680 -5688 0
-5677 -5693 0
-5678 -5694 0
-5679 -5695 0
-5680 -5696 0
-5677 -5717 0
-5678 -5718 0
-5679 -5719 0
-5680 -5720 0
-5677 -5725 0
-5678 -5726 0
-5679 -5727 0
-5680 -5728 0
-5677 -6197 0
-5678 -6198 0
-5679 -6199 0
-5680 -6200 0
-5677 -6293 0
-5678 -6294 0
-5679 -6295 0
-5680 -6296 0
-5677 -7565 0
-5678 -7566 0
-5679 -7567 0
-5680 -7568 0
-5677 -7645 0
-5678 -7646 0
-5679 -7647 0
-5680 -7648 0
-5677 -7773 0
-5678 -7774 0
-5679 -7775 0
-5680 -7776 0
-5681 -5689 0
-5682 -5690 0
-5683 -5691 0
-5684 -5692 0
-5681 -5697 0
-5682 -5698 0
-5683 -5699 0
-5684 -5700 0
-5681 -6201 0
-5682 -6202 0
-5683 -6203 0
-5684 -6204 0
-5681 -6821 0
-5682 -6822 0
-5683 -6823 0
-5684 -6824 0
-5681 -7569 0
-5682 -7570 0
-5683 -7571 0
-5684 -7572 0
-5681 -7649 0
-5682 -7650 0
-5683 -7651 0
-5684 -7652 0
-5685 -5689 0
-5686 -5690 0
-5687 -5691 0
-5688 -5692 0
-5685 -5705 0
-5686 -5706 0
-5687 -5707 0
-5688 -5708 0
-5685 -5861 0
-5686 -5862 0
-5687 -5863 0
-5688 -5864 0
-5685 -6149 0
-5686 -6150 0
-5687 -6151 0
-5688 -6152 0
-5685 -6829 0
-5686 -6830 0
-5687 -6831 0
-5688 -6832 0
-5685 -7573 0
-5686 -7574 0
-5687 -7575 0
-5688 -7576 0
-5689 -5713 0
-5690 -5714 0
-5691 -5715 0
-5692 -5716 0
-5689 -5749 0
-5690 -5750 0
-5691 -5751 0
-5692 -5752 0
-5689 -5753 0
-5690 -5754 0
-5691 -5755 0
-5692 -5756 0
-5689 -6509 0
-5690 -6510 0
-5691 -6511 0
-5692 -6512 0
-5689 -6841 0
-5690 -6842 0
-5691 -6843 0
-5692 -6844 0
-5689 -7577 0
-5690 -7578 0
-5691 -7579 0
-5692 -7580 0
-5693 -5697 0
-5694 -5698 0
-5695 -5699 0
-5696 -5700 0
-5693 -5705 0
-5694 -5706 0
-5695 -5707 0
-5696 -5708 0
-5693 -5721 0
-5694 -5722 0
-5695 -5723 0
-5696 -5724 0
-5693 -5729 0
-5694 -5730 0
-5695 -5731 0
-5696 -5732 0
-5693 -5849 0
-5694 -5850 0
-5695 -5851 0
-5696 -5852 0
-5693 -6205 0
-5694 -6206 0
-5695 -6207 0
-5696 -6208 0
-5693 -6297 0
-5694 -6298 0
-5695 -6299 0
-5696 -6300 0
-5693 -6613 0
-5694 -6614 0
-5695 -6615 0
-5696 -6616 0
-5693 -7037 0
-5694 -7038 0
-5695 -7039 0
-5696 -7040 0
-5693 -7369 0
-5694 -7370 0
-5695 -7371 0
-5696 -7372 0
-5693 -7565 0
-5694 -7566 0
-5695 -7567 0
-5696 -7568 0
-5693 -7581 0
-5694 -7582 0
-5695 -7583 0
-5696 -7584 0
-5693 -7653 0
-5694 -7654 0
-5695 -7655 0
-5696 -7656 0
-5693 -7777 0
-5694 -7778 0
-5695 -7779 0
-5696 -7780 0
-5697 -5713 0
-5698 -5714 0
-5699 -5715 0
-5700 -5716 0
-5697 -6041 0
-5698 -6042 0
-5699 -6043 0
-5700 -6044 0
-5697 -6321 0
-5698 -6322 0
-5699 -6323 0
-5700 -6324 0
-5697 -6861 0
-5698 -6862 0
-5699 -6863 0
-5700 -6864 0
-5697 -7041 0
-5698 -7042 0
-5699 -7043 0
-5700 -7044 0
-5697 -7569 0
-5698 -7570 0
-5699 -7571 0
-5700 -7572 0
-5697 -7585 0
-5698 -7586 0
-5699 -7587 0
-5700 -7588 0
-5697 -7657 0
-5698 -7658 0
-5699 -7659 0
-5700 -7660 0
-5697 -7781 0
-5698 -7782 0
-5699 -7783 0
-5700 -7784 0
-5701 -5705 0
-5702 -5706 0
-5703 -5707 0
-5704 -5708 0
-5701 -5709 0
-5702 -5710 0
-5703 -5711 0
-5704 -5712 0
-5701 -5777 0
-5702 -5778 0
-5703 -5779 0
-5704 -5780 0
-5701 -6477 0
-5702 -6478 0
-5703 -6479 0
-5704 -6480 0
-5701 -6913 0
-5702 -6914 0
-5703 -6915 0
-5704 -6916 0
-5701 -7373 0
-5702 -7374 0
-5703 -7375 0
-5704 -7376 0
-5705 -5713 0
-5706 -5714 0
-5707 -5715 0
-5708 -5716 0
-5705 -5781 0
-5706 -5782 0
-5707 -5783 0
-5708 -5784 0
-5705 -5873 0
-5706 -5874 0
-5707 -5875 0
-5708 -5876 0
-5705 -6153 0
-5706 -6154 0
-5707 -6155 0
-5708 -6156 0
-5705 -6305 0
-5706 -6306 0
-5707 -6307 0
-5708 -6308 0
-5705 -6513 0
-5706 -6514 0
-5707 -6515 0
-5708 -6516 0
-5705 -6617 0
-5706 -6618 0
-5707 -6619 0
-5708 -6620 0
-5705 -6865 0
-5706 -6866 0
-5707 -6867 0
-5708 -6868 0
-5705 -6917 0
-5706 -6918 0
-5707 -6919 0
-5708 -6920 0
-5705 -7573 0
-5706 -7574 0
-5707 -7575 0
-5708 -7576 0
-5705 -7589 0
-5706 -7590 0
-5707 -7591 0
-5708 -7592 0
-5709 -5713 0
-5710 -5714 0
-5711 -5715 0
-5712 -5716 0
-5709 -5757 0
-5710 -5758 0
-5711 -5759 0
-5712 -5760 0
-5709 -5765 0
-5710 -5766 0
-5711 -5767 0
-5712 -5768 0
-5709 -5777 0
-5710 -5778 0
-5711 -5779 0
-5712 -5780 0
-5709 -6045 0
-5710 -6046 0
-5711 -6047 0
-5712 -6048 0
-5709 -6329 0
-5710 -6330 0
-5711 -6331 0
-5712 -6332 0
-5709 -6481 0
-5710 -6482 0
-5711 -6483 0
-5712 -6484 0
-5709 -6769 0
-5710 -6770 0
-5711 -6771 0
-5712 -6772 0
-5709 -6873 0
-5710 -6874 0
-5711 -6875 0
-5712 -6876 0
-5709 -7045 0
-5710 -7046 0
-5711 -7047 0
-5712 -7048 0
-5709 -7661 0
-5710 -7662 0
-5711 -7663 0
-5712 -7664 0
-5713 -5761 0
-5714 -5762 0
-5715 -5763 0
-5716 -5764 0
-5713 -5769 0
-5714 -5770 0
-5715 -5771 0
-5716 -5772 0
-5713 -5781 0
-5714 -5782 0
-5715 -5783 0
-5716 -5784 0
-5713 -6049 0
-5714 -6050 0
-5715 -6051 0
-5716 -6052 0
-5713 -6125 0
-5714 -6126 0
-5715 -6127 0
-5716 -6128 0
-5713 -6517 0
-5714 -6518 0
-5715 -6519 0
-5716 -6520 0
-5713 -6621 0
-5714 -6622 0
-5715 -6623 0
-5716 -6624 0
-5713 -6877 0
-5714 -6878 0
-5715 -6879 0
-5716 -6880 0
-5713 -7049 0
-5714 -7050 0
-5715 -7051 0
-5716 -7052 0
-5713 -7577 0
-5714 -7578 0
-5715 -7579 0
-5716 -7580 0
-5713 -7593 0
-5714 -7594 0
-5715 -7595 0
-5716 -7596 0
-5713 -7665 0
-5714 -7666 0
-5715 -7667 0
-5716 -7668 0
-5717 -5721 0
-5718 -5722 0
-5719 -5723 0
-5720 -5724 0
-5717 -5733 0
-5718 -5734 0
-5719 -5735 0
-5720 -5736 0
-5717 -6221 0
-5718 -6222 0
-5719 -6223 0
-5720 -6224 0
-5717 -6313 0
-5718 -6314 0
-5719 -6315 0
-5720 -6316 0
-5717 -7597 0
-5718 -7598 0
-5719 -7599 0
-5720 -7600 0
-5721 -6053 0
-5722 -6054 0
-5723 -6055 0
-5724 -6056 0
-5721 -6245 0
-5722 -6246 0
-5723 -6247 0
-5724 -6248 0
-5721 -6317 0
-5722 -6318 0
-5723 -6319 0
-5724 -6320 0
-5721 -7377 0
-5722 -7378 0
-5723 -7379 0
-5724 -7380 0
-5721 -7597 0
-5722 -7598 0
-5723 -7599 0
-5724 -7600 0
-5725 -5729 0
-5726 -5730 0
-5727 -5731 0
-5728 -5732 0
-5725 -5733 0
-5726 -5734 0
-5727 -5735 0
-5728 -5736 0
-5725 -5857 0
-5726 -5858 0
-5727 -5859 0
-5728 -5860 0
-5725 -6157 0
-5726 -6158 0
-5727 -6159 0
-5728 -6160 0
-5725 -6625 0
-5726 -6626 0
-5727 -6627 0
-5728 -6628 0
-5725 -7601 0
-5726 -7602 0
-5727 -7603 0
-5728 -7604 0
-5725 -7645 0
-5726 -7646 0
-5727 -7647 0
-5728 -7648 0
-5729 -5869 0
-5730 -5870 0
-5731 -5871 0
-5732 -5872 0
-5729 -6169 0
-5730 -6170 0
-5731 -6171 0
-5732 -6172 0
-5729 -6637 0
-5730 -6638 0
-5731 -6639 0
-5732 -6640 0
-5729 -7057 0
-5730 -7058 0
-5731 -7059 0
-5732 -7060 0
-5729 -7601 0
-5730 -7602 0
-5731 -7603 0
-5732 -7604 0
-5729 -7605 0
-5730 -7606 0
-5731 -7607 0
-5732 -7608 0
-5729 -7653 0
-5730 -7654 0
-5731 -7655 0
-5732 -7656 0
-5733 -6261 0
-5734 -6262 0
-5735 -6263 0
-5736 -6264 0
-5737 -5741 0
-5738 -5742 0
-5739 -5743 0
-5740 -5744 0
-5737 -5785 0
-5738 -5786 0
-5739 -5787 0
-5740 -5788 0
-5737 -5837 0
-5738 -5838 0
-5739 -5839 0
-5740 -5840 0
-5737 -6185 0
-5738 -6186 0
-5739 -6187 0
-5740 -6188 0
-5737 -6929 0
-5738 -6930 0
-5739 -6931 0
-5740 -6932 0
-5737 -7509 0
-5738 -7510 0
-5739 -7511 0
-5740 -7512 0
-5737 -7609 0
-5738 -7610 0
-5739 -7611 0
-5740 -7612 0
-5737 -7805 0
-5738 -7806 0
-5739 -7807 0
-5740 -7808 0
-5741 -5757 0
-5742 -5758 0
-5743 -5759 0
-5744 -5760 0
-5741 -5761 0
-5742 -5762 0
-5743 -5763 0
-5744 -5764 0
-5741 -5785 0
-5742 -5786 0
-5743 -5787 0
-5744 -5788 0
-5741 -6129 0
-5742 -6130 0
-5743 -6131 0
-5744 -6132 0
-5741 -6193 0
-5742 -6194 0
-5743 -6195 0
-5744 -6196 0
-5741 -6485 0
-5742 -6486 0
-5743 -6487 0
-5744 -6488 0
-5741 -6789 0
-5742 -6790 0
-5743 -6791 0
-5744 -6792 0
-5741 -7069 0
-5742 -7070 0
-5743 -7071 0
-5744 -7072 0
-5741 -7809 0
-5742 -7810 0
-5743 -7811 0
-5744 -7812 0
-5745 -5757 0
-5746 -5758 0
-5747 -5759 0
-5748 -5760 0
-5745 -6493 0
-5746 -6494 0
-5747 -6495 0
-5748 -6496 0
-5745 -6801 0
-5746 -6802 0
-5747 -6803 0
-5748 -6804 0
-5745 -7081 0
-5746 -7082 0
-5747 -7083 0
-5748 -7084 0
-5745 -7385 0
-5746 -7386 0
-5747 -7387 0
-5748 -7388 0
-5745 -7513 0
-5746 -7514 0
-5747 -7515 0
-5748 -7516 0
-5745 -7677 0
-5746 -7678 0
-5747 -7679 0
-5748 -7680 0
-5749 -5753 0
-5750 -5754 0
-5751 -5755 0
-5752 -5756 0
-5749 -5761 0
-5750 -5762 0
-5751 -5763 0
-5752 -5764 0
-5749 -6929 0
-5750 -6930 0
-5751 -6931 0
-5752 -6932 0
-5749 -7613 0
-5750 -7614 0
-5751 -7615 0
-5752 -7616 0
-5753 -5769 0
-5754 -5770 0
-5755 -5771 0
-5756 -5772 0
-5753 -6229 0
-5754 -6230 0
-5755 -6231 0
-5756 -6232 0
-5753 -6529 0
-5754 -6530 0
-5755 -6531 0
-5756 -6532 0
-5753 -6933 0
-5754 -6934 0
-5755 -6935 0
-5756 -6936 0
-5753 -7617 0
-5754 -7618 0
-5755 -7619 0
-5756 -7620 0
-5757 -5761 0
-5758 -5762 0
-5759 -5763 0
-5760 -5764 0
-5757 -5765 0
-5758 -5766 0
-5759 -5767 0
-5760 -5768 0
-5757 -5789 0
-5758 -5790 0
-5759 -5791 0
-5760 -5792 0
-5757 -6113 0
-5758 -6114 0
-5759 -6115 0
-5760 -6116 0
-5757 -6249 0
-5758 -6250 0
-5759 -6251 0
-5760 -6252 0
-5757 -6269 0
-5758 -6270 0
-5759 -6271 0
-5760 -6272 0
-5757 -6497 0
-5758 -6498 0
-5759 -6499 0
-5760 -6500 0
-5757 -6841 0
-5758 -6842 0
-5759 -6843 0
-5760 -6844 0
-5757 -7401 0
-5758 -7402 0
-5759 -7403 0
-5760 -7404 0
-5757 -7517 0
-5758 -7518 0
-5759 -7519 0
-5760 -7520 0
-5757 -7521 0
-5758 -7522 0
-5759 -7523 0
-5760 -7524 0
-5757 -7677 0
-5758 -7678 0
-5759 -7679 0
-5760 -7680 0
-5757 -7833 0
-5758 -7834 0
-5759 -7835 0
-5760 -7836 0
-5761 -5769 0
-5762 -5770 0
-5763 -5771 0
-5764 -5772 0
-5761 -6665 0
-5762 -6666 0
-5763 -6667 0
-5764 -6668 0
-5761 -6845 0
-5762 -6846 0
-5763 -6847 0
-5764 -6848 0
-5761 -6937 0
-5762 -6938 0
-5763 -6939 0
-5764 -6940 0
-5761 -7405 0
-5762 -7406 0
-5763 -7407 0
-5764 -7408 0
-5761 -7613 0
-5762 -7614 0
-5763 -7615 0
-5764 -7616 0
-5761 -7837 0
-5762 -7838 0
-5763 -7839 0
-5764 -7840 0
-5765 -5769 0
-5766 -5770 0
-5767 -5771 0
-5768 -5772 0
-5765 -5901 0
-5766 -5902 0
-5767 -5903 0
-5768 -5904 0
-5765 -6253 0
-5766 -6254 0
-5767 -6255 0
-5768 -6256 0
-5765 -6537 0
-5766 -6538 0
-5767 -6539 0
-5768 -6540 0
-5765 -6849 0
-5766 -6850 0
-5767 -6851 0
-5768 -6852 0
-5765 -7097 0
-5766 -7098 0
-5767 -7099 0
-5768 -7100 0
-5765 -7101 0
-5766 -7102 0
-5767 -7103 0
-5768 -7104 0
-5765 -7409 0
-5766 -7410 0
-5767 -7411 0
-5768 -7412 0
-5765 -7681 0
-5766 -7682 0
-5767 -7683 0
-5768 -7684 0
-5765 -7689 0
-5766 -7690 0
-5767 -7691 0
-5768 -7692 0
-5769 -6133 0
-5770 -6134 0
-5771 -6135 0
-5772 -6136 0
-5769 -6257 0
-5770 -6258 0
-5771 -6259 0
-5772 -6260 0
-5769 -6353 0
-5770 -6354 0
-5771 -6355 0
-5772 -6356 0
-5769 -6541 0
-5770 -6542 0
-5771 -6543 0
-5772 -6544 0
-5769 -6941 0
-5770 -6942 0
-5771 -6943 0
-5772 -6944 0
-5769 -7105 0
-5770 -7106 0
-5771 -7107 0
-5772 -7108 0
-5769 -7413 0
-5770 -7414 0
-5771 -7415 0
-5772 -7416 0
-5769 -7617 0
-5770 -7618 0
-5771 -7619 0
-5772 -7620 0
-5769 -7685 0
-5770 -7686 0
-5771 -7687 0
-5772 -7688 0
-5769 -7693 0
-5770 -7694 0
-5771 -7695 0
-5772 -7696 0
-5773 -5777 0
-5774 -5778 0
-5775 -5779 0
-5776 -5780 0
-5773 -5781 0
-5774 -5782 0
-5775 -5783 0
-5776 -5784 0
-5773 -5785 0
-5774 -5786 0
-5775 -5787 0
-5776 -5788 0
-5773 -6553 0
-5774 -6554 0
-5775 -6555 0
-5776 -6556 0
-5773 -6945 0
-5774 -6946 0
-5775 -6947 0
-5776 -6948 0
-5773 -6953 0
-5774 -6954 0
-5775 -6955 0
-5776 -6956 0
-5773 -7121 0
-5774 -7122 0
-5775 -7123 0
-5776 -7124 0
-5773 -7413 0
-5774 -7414 0
-5775 -7415 0
-5776 -7416 0
-5777 -5781 0
-5778 -5782 0
-5779 -5783 0
-5780 -5784 0
-5777 -5789 0
-5778 -5790 0
-5779 -5791 0
-5780 -5792 0
-5777 -5917 0
-5778 -5918 0
-5779 -5919 0
-5780 -5920 0
-5777 -6309 0
-5778 -6310 0
-5779 -6311 0
-5780 -6312 0
-5777 -6569 0
-5778 -6570 0
-5779 -6571 0
-5780 -6572 0
-5777 -7125 0
-5778 -7126 0
-5779 -7127 0
-5780 -7128 0
-5777 -7441 0
-5778 -7442 0
-5779 -7443 0
-5780 -7444 0
-5781 -6573 0
-5782 -6574 0
-5783 -6575 0
-5784 -6576 0
-5781 -6957 0
-5782 -6958 0
-5783 -6959 0
-5784 -6960 0
-5781 -7129 0
-5782 -7130 0
-5783 -7131 0
-5784 -7132 0
-5785 -5789 0
-5786 -5790 0
-5787 -5791 0
-5788 -5792 0
-5785 -6281 0
-5786 -6282 0
-5787 -6283 0
-5788 -6284 0
-5785 -6593 0
-5786 -6594 0
-5787 -6595 0
-5788 -6596 0
-5785 -7853 0
-5786 -7854 0
-5787 -7855 0
-5788 -7856 0
-5789 -5925 0
-5790 -5926 0
-5791 -5927 0
-5792 -5928 0
-5789 -6317 0
-5790 -6318 0
-5791 -6319 0
-5792 -6320 0
-5789 -6349 0
-5790 -6350 0
-5791 -6351 0
-5792 -6352 0
-5789 -6633 0
-5790 -6634 0
-5791 -6635 0
-5792 -6636 0
-5789 -6949 0
-5790 -6950 0
-5791 -6951 0
-5792 -6952 0
-5789 -7469 0
-5790 -7470 0
-5791 -7471 0
-5792 -7472 0
-5789 -7601 0
-5790 -7602 0
-5791 -7603 0
-5792 -7604 0
-5793 -5813 0
-5794 -5814 0
-5795 -5815 0
-5796 -5816 0
-5793 -5817 0
-5794 -5818 0
-5795 -5819 0
-5796 -5820 0
-5793 -6561 0
-5794 -6562 0
-5795 -6563 0
-5796 -6564 0
-5797 -6161 0
-5798 -6162 0
-5799 -6163 0
-5800 -6164 0
-5797 -6573 0
-5798 -6574 0
-5799 -6575 0
-5800 -6576 0
-5797 -6985 0
-5798 -6986 0
-5799 -6987 0
-5800 -6988 0
-5797 -7665 0
-5798 -7666 0
-5799 -7667 0
-5800 -7668 0
-5801 -5805 0
-5802 -5806 0
-5803 -5807 0
-5804 -5808 0
-5801 -5809 0
-5802 -5810 0
-5803 -5811 0
-5804 -5812 0
-5801 -5817 0
-5802 -5818 0
-5803 -5819 0
-5804 -5820 0
-5801 -5837 0
-5802 -5838 0
-5803 -5839 0
-5804 -5840 0
-5801 -6385 0
-5802 -6386 0
-5803 -6387 0
-5804 -6388 0
-5801 -6597 0
-5802 -6598 0
-5803 -6599 0
-5804 -6600 0
-5801 -6993 0
-5802 -6994 0
-5803 -6995 0
-5804 -6996 0
-5801 -7165 0
-5802 -7166 0
-5803 -7167 0
-5804 -7168 0
-5801 -7625 0
-5802 -7626 0
-5803 -7627 0
-5804 -7628 0
-5801 -7669 0
-5802 -7670 0
-5803 -7671 0
-5804 -7672 0
-5801 -7673 0
-5802 -7674 0
-5803 -7675 0
-5804 -7676 0
-5805 -5821 0
-5806 -5822 0
-5807 -5823 0
-5808 -5824 0
-5805 -6197 0
-5806 -6198 0
-5807 -6199 0
-5808 -6200 0
-5809 -5829 0
-5810 -5830 0
-5811 -5831 0
-5812 -5832 0
-5809 -5981 0
-5810 -5982 0
-5811 -5983 0
-5812 -5984 0
-5809 -6397 0
-5810 -6398 0
-5811 -6399 0
-5812 -6400 0
-5809 -6605 0
-5810 -6606 0
-5811 -6607 0
-5812 -6608 0
-5809 -7001 0
-5810 -7002 0
-5811 -7003 0
-5812 -7004 0
-5809 -7633 0
-5810 -7634 0
-5811 -7635 0
-5812 -7636 0
-5809 -7673 0
-5810 -7674 0
-5811 -7675 0
-5812 -7676 0
-5813 -5817 0
-5814 -5818 0
-5815 -5819 0
-5816 -5820 0
-5813 -5825 0
-5814 -5826 0
-5815 -5827 0
-5816 -5828 0
-5813 -5833 0
-5814 -5834 0
-5815 -5835 0
-5816 -5836 0
-5813 -6009 0
-5814 -6010 0
-5815 -6011 0
-5816 -6012 0
-5813 -6209 0
-5814 -6210 0
-5815 -6211 0
-5816 -6212 0
-5813 -6373 0
-5814 -6374 0
-5815 -6375 0
-5816 -6376 0
-5813 -6609 0
-5814 -6610 0
-5815 -6611 0
-5816 -6612 0
-5813 -6973 0
-5814 -6974 0
-5815 -6975 0
-5816 -6976 0
-5813 -7621 0
-5814 -7622 0
-5815 -7623 0
-5816 -7624 0
-5813 -7677 0
-5814 -7678 0
-5815 -7679 0
-5816 -7680 0
-5817 -5821 0
-5818 -5822 0
-5819 -5823 0
-5820 -5824 0
-5817 -5829 0
-5818 -5830 0
-5819 -5831 0
-5820 -5832 0
-5817 -5985 0
-5818 -5986 0
-5819 -5987 0
-5820 -5988 0
-5817 -6117 0
-5818 -6118 0
-5819 -6119 0
-5820 -6120 0
-5817 -6217 0
-5818 -6218 0
-5819 -6219 0
-5820 -6220 0
-5817 -6389 0
-5818 -6390 0
-5819 -6391 0
-5820 -6392 0
-5817 -6613 0
-5818 -6614 0
-5819 -6615 0
-5820 -6616 0
-5817 -7185 0
-5818 -7186 0
-5819 -7187 0
-5820 -7188 0
-5817 -7625 0
-5818 -7626 0
-5819 -7627 0
-5820 -7628 0
-5817 -7681 0
-5818 -7682 0
-5819 -7683 0
-5820 -7684 0
-5821 -6221 0
-5822 -6222 0
-5823 -6223 0
-5824 -6224 0
-5821 -6393 0
-5822 -6394 0
-5823 -6395 0
-5824 -6396 0
-5821 -7685 0
-5822 -7686 0
-5823 -7687 0
-5824 -7688 0
-5825 -5829 0
-5826 -5830 0
-5827 -5831 0
-5828 -5832 0
-5825 -6029 0
-5826 -6030 0
-5827 -6031 0
-5828 -6032 0
-5825 -6233 0
-5826 -6234 0
-5827 -6235 0
-5828 -6236 0
-5825 -6977 0
-5826 -6978 0
-5827 -6979 0
-5828 -6980 0
-5825 -7473 0
-5826 -7474 0
-5827 -7475 0
-5828 -7476 0
-5825 -7629 0
-5826 -7630 0
-5827 -7631 0
-5828 -7632 0
-5825 -7677 0
-5826 -7678 0
-5827 -7679 0
-5828 -7680 0
-5829 -5989 0
-5830 -5990 0
-5831 -5991 0
-5832 -5992 0
-5829 -6121 0
-5830 -6122 0
-5831 -6123 0
-5832 -6124 0
-5829 -6241 0
-5830 -6242 0
-5831 -6243 0
-5832 -6244 0
-5829 -7633 0
-5830 -7634 0
-5831 -7635 0
-5832 -7636 0
-5829 -7681 0
-5830 -7682 0
-5831 -7683 0
-5832 -7684 0
-5833 -6633 0
-5834 -6634 0
-5835 -6635 0
-5836 -6636 0
-5833 -6981 0
-5834 -6982 0
-5835 -6983 0
-5836 -6984 0
-5837 -6369 0
-5838 -6370 0
-5839 -6371 0
-5840 -6372 0
-5837 -7213 0
-5838 -7214 0
-5839 -7215 0
-5840 -7216 0
-5837 -7637 0
-5838 -7638 0
-5839 -7639 0
-5840 -7640 0
-5837 -7857 0
-5838 -7858 0
-5839 -7859 0
-5840 -7860 0
-5841 -5881 0
-5842 -5882 0
-5843 -5883 0
-5844 -5884 0
-5841 -5977 0
-5842 -5978 0
-5843 -5979 0
-5844 -5980 0
-5841 -6161 0
-5842 -6162 0
-5843 -6163 0
-5844 -6164 0
-5841 -7033 0
-5842 -7034 0
-5843 -7035 0
-5844 -7036 0
-5845 -5849 0
-5846 -5850 0
-5847 -5851 0
-5848 -5852 0
-5845 -5865 0
-5846 -5866 0
-5847 -5867 0
-5848 -5868 0
-5845 -5889 0
-5846 -5890 0
-5847 -5891 0
-5848 -5892 0
-5845 -6685 0
-5846 -6686 0
-5847 -6687 0
-5848 -6688 0
-5845 -7513 0
-5846 -7514 0
-5847 -7515 0
-5848 -7516 0
-5845 -7753 0
-5846 -7754 0
-5847 -7755 0
-5848 -7756 0
-5849 -5853 0
-5850 -5854 0
-5851 -5855 0
-5852 -5856 0
-5849 -5869 0
-5850 -5870 0
-5851 -5871 0
-5852 -5872 0
-5849 -5893 0
-5850 -5894 0
-5851 -5895 0
-5852 -5896 0
-5849 -6453 0
-5850 -6454 0
-5851 -6455 0
-5852 -6456 0
-5849 -6801 0
-5850 -6802 0
-5851 -6803 0
-5852 -6804 0
-5849 -7037 0
-5850 -7038 0
-5851 -7039 0
-5852 -7040 0
-5849 -7757 0
-5850 -7758 0
-5851 -7759 0
-5852 -7760 0
-5849 -7877 0
-5850 -7878 0
-5851 -7879 0
-5852 -7880 0
-5853 -5873 0
-5854 -5874 0
-5855 -5875 0
-5856 -5876 0
-5853 -5893 0
-5854 -5894 0
-5855 -5895 0
-5856 -5896 0
-5853 -6197 0
-5854 -6198 0
-5855 -6199 0
-5856 -6200 0
-5853 -6457 0
-5854 -6458 0
-5855 -6459 0
-5856 -6460 0
-5853 -6713 0
-5854 -6714 0
-5855 -6715 0
-5856 -6716 0
-5853 -7765 0
-5854 -7766 0
-5855 -7767 0
-5856 -7768 0
-5857 -5861 0
-5858 -5862 0
-5859 -5863 0
-5860 -5864 0
-5857 -5869 0
-5858 -5870 0
-5859 -5871 0
-5860 -5872 0
-5857 -6817 0
-5858 -6818 0
-5859 -6819 0
-5860 -6820 0
-5857 -7697 0
-5858 -7698 0
-5859 -7699 0
-5860 -7700 0
-5857 -7741 0
-5858 -7742 0
-5859 -7743 0
-5860 -7744 0
-5861 -5873 0
-5862 -5874 0
-5863 -5875 0
-5864 -5876 0
-5861 -6717 0
-5862 -6718 0
-5863 -6719 0
-5864 -6720 0
-5861 -7701 0
-5862 -7702 0
-5863 -7703 0
-5864 -7704 0
-5861 -7749 0
-5862 -7750 0
-5863 -7751 0
-5864 -7752 0
-5865 -5869 0
-5866 -5870 0
-5867 -5871 0
-5868 -5872 0
-5865 -5877 0
-5866 -5878 0
-5867 -5879 0
-5868 -5880 0
-5865 -6045 0
-5866 -6046 0
-5867 -6047 0
-5868 -6048 0
-5865 -6297 0
-5866 -6298 0
-5867 -6299 0
-5868 -6300 0
-5865 -6837 0
-5866 -6838 0
-5867 -6839 0
-5868 -6840 0
-5865 -7021 0
-5866 -7022 0
-5867 -7023 0
-5868 -7024 0
-5865 -7517 0
-5866 -7518 0
-5867 -7519 0
-5868 -7520 0
-5865 -7705 0
-5866 -7706 0
-5867 -7707 0
-5868 -7708 0
-5865 -7753 0
-5866 -7754 0
-5867 -7755 0
-5868 -7756 0
-5869 -5873 0
-5870 -5874 0
-5871 -5875 0
-5872 -5876 0
-5869 -5881 0
-5870 -5882 0
-5871 -5883 0
-5872 -5884 0
-5869 -5913 0
-5870 -5914 0
-5871 -5915 0
-5872 -5916 0
-5869 -6041 0
-5870 -6042 0
-5871 -6043 0
-5872 -6044 0
-5869 -6049 0
-5870 -6050 0
-5871 -6051 0
-5872 -6052 0
-5869 -6841 0
-5870 -6842 0
-5871 -6843 0
-5872 -6844 0
-5869 -7057 0
-5870 -7058 0
-5871 -7059 0
-5872 -7060 0
-5869 -7697 0
-5870 -7698 0
-5871 -7699 0
-5872 -7700 0
-5869 -7709 0
-5870 -7710 0
-5871 -7711 0
-5872 -7712 0
-5869 -7757 0
-5870 -7758 0
-5871 -7759 0
-5872 -7760 0
-5869 -7889 0
-5870 -7890 0
-5871 -7891 0
-5872 -7892 0
-5873 -5913 0
-5874 -5914 0
-5875 -5915 0
-5876 -5916 0
-5873 -6721 0
-5874 -6722 0
-5875 -6723 0
-5876 -6724 0
-5873 -6849 0
-5874 -6850 0
-5875 -6851 0
-5876 -6852 0
-5873 -7061 0
-5874 -7062 0
-5875 -7063 0
-5876 -7064 0
-5873 -7089 0
-5874 -7090 0
-5875 -7091 0
-5876 -7092 0
-5873 -7265 0
-5874 -7266 0
-5875 -7267 0
-5876 -7268 0
-5873 -7701 0
-5874 -7702 0
-5875 -7703 0
-5876 -7704 0
-5873 -7713 0
-5874 -7714 0
-5875 -7715 0
-5876 -7716 0
-5873 -7765 0
-5874 -7766 0
-5875 -7767 0
-5876 -7768 0
-5873 -7769 0
-5874 -7770 0
-5875 -7771 0
-5876 -7772 0
-5877 -5881 0
-5878 -5882 0
-5879 -5883 0
-5880 -5884 0
-5877 -6061 0
-5878 -6062 0
-5879 -6063 0
-5880 -6064 0
-5877 -6317 0
-5878 -6318 0
-5879 -6319 0
-5880 -6320 0
-5877 -6437 0
-5878 -6438 0
-5879 -6439 0
-5880 -6440 0
-5877 -7029 0
-5878 -7030 0
-5879 -7031 0
-5880 -7032 0
-5877 -7521 0
-5878 -7522 0
-5879 -7523 0
-5880 -7524 0
-5881 -5885 0
-5882 -5886 0
-5883 -5887 0
-5884 -5888 0
-5881 -6057 0
-5882 -6058 0
-5883 -6059 0
-5884 -6060 0
-5881 -6065 0
-5882 -6066 0
-5883 -6067 0
-5884 -6068 0
-5881 -6321 0
-5882 -6322 0
-5883 -6323 0
-5884 -6324 0
-5881 -6441 0
-5882 -6442 0
-5883 -6443 0
-5884 -6444 0
-5881 -6701 0
-5882 -6702 0
-5883 -6703 0
-5884 -6704 0
-5881 -6897 0
-5882 -6898 0
-5883 -6899 0
-5884 -6900 0
-5881 -7717 0
-5882 -7718 0
-5883 -7719 0
-5884 -7720 0
-5881 -7721 0
-5882 -7722 0
-5883 -7723 0
-5884 -7724 0
-5885 -6073 0
-5886 -6074 0
-5887 -6075 0
-5888 -6076 0
-5885 -6081 0
-5886 -6082 0
-5887 -6083 0
-5888 -6084 0
-5885 -6901 0
-5886 -6902 0
-5887 -6903 0
-5888 -6904 0
-5885 -7525 0
-5886 -7526 0
-5887 -7527 0
-5888 -7528 0
-5885 -7721 0
-5886 -7722 0
-5887 -7723 0
-5888 -7724 0
-5889 -5893 0
-5890 -5894 0
-5891 -5895 0
-5892 -5896 0
-5889 -5897 0
-5890 -5898 0
-5891 -5899 0
-5892 -5900 0
-5889 -6733 0
-5890 -6734 0
-5891 -6735 0
-5892 -6736 0
-5889 -7273 0
-5890 -7274 0
-5891 -7275 0
-5892 -7276 0
-5889 -7529 0
-5890 -7530 0
-5891 -7531 0
-5892 -7532 0
-5889 -7793 0
-5890 -7794 0
-5891 -7795 0
-5892 -7796 0
-5889 -7925 0
-5890 -7926 0
-5891 -7927 0
-5892 -7928 0
-5893 -5913 0
-5894 -5914 0
-5895 -5915 0
-5896 -5916 0
-5893 -6485 0
-5894 -6486 0
-5895 -6487 0
-5896 -6488 0
-5893 -7277 0
-5894 -7278 0
-5895 -7279 0
-5896 -7280 0
-5893 -7533 0
-5894 -7534 0
-5895 -7535 0
-5896 -7536 0
-5893 -7797 0
-5894 -7798 0
-5895 -7799 0
-5896 -7800 0
-5893 -7929 0
-5894 -7930 0
-5895 -7931 0
-5896 -7932 0
-5897 -5901 0
-5898 -5902 0
-5899 -5903 0
-5900 -5904 0
-5897 -5905 0
-5898 -5906 0
-5899 -5907 0
-5900 -5908 0
-5897 -5929 0
-5898 -5930 0
-5899 -5931 0
-5900 -5932 0
-5897 -6337 0
-5898 -6338 0
-5899 -6339 0
-5900 -6340 0
-5897 -6413 0
-5898 -6414 0
-5899 -6415 0
-5900 -6416 0
-5897 -6737 0
-5898 -6738 0
-5899 -6739 0
-5900 -6740 0
-5897 -7113 0
-5898 -7114 0
-5899 -7115 0
-5900 -7116 0
-5897 -7537 0
-5898 -7538 0
-5899 -7539 0
-5900 -7540 0
-5897 -7805 0
-5898 -7806 0
-5899 -7807 0
-5900 -7808 0
-5901 -5909 0
-5902 -5910 0
-5903 -5911 0
-5904 -5912 0
-5901 -5929 0
-5902 -5930 0
-5903 -5931 0
-5904 -5932 0
-5901 -6341 0
-5902 -6342 0
-5903 -6343 0
-5904 -6344 0
-5901 -6705 0
-5902 -6706 0
-5903 -6707 0
-5904 -6708 0
-5901 -6745 0
-5902 -6746 0
-5903 -6747 0
-5904 -6748 0
-5901 -7101 0
-5902 -7102 0
-5903 -7103 0
-5904 -7104 0
-5901 -7785 0
-5902 -7786 0
-5903 -7787 0
-5904 -7788 0
-5901 -7809 0
-5902 -7810 0
-5903 -7811 0
-5904 -7812 0
-5905 -5909 0
-5906 -5910 0
-5907 -5911 0
-5908 -5912 0
-5905 -5937 0
-5906 -5938 0
-5907 -5939 0
-5908 -5940 0
-5905 -6749 0
-5906 -6750 0
-5907 -6751 0
-5908 -6752 0
-5905 -7117 0
-5906 -7118 0
-5907 -7119 0
-5908 -7120 0
-5905 -7549 0
-5906 -7550 0
-5907 -7551 0
-5908 -7552 0
-5909 -5937 0
-5910 -5938 0
-5911 -5939 0
-5912 -5940 0
-5909 -6269 0
-5910 -6270 0
-5911 -6271 0
-5912 -6272 0
-5909 -6753 0
-5910 -6754 0
-5911 -6755 0
-5912 -6756 0
-5909 -7053 0
-5910 -7054 0
-5911 -7055 0
-5912 -7056 0
-5909 -7553 0
-5910 -7554 0
-5911 -7555 0
-5912 -7556 0
-5913 -6433 0
-5914 -6434 0
-5915 -6435 0
-5916 -6436 0
-5913 -6757 0
-5914 -6758 0
-5915 -6759 0
-5916 -6760 0
-5913 -6933 0
-5914 -6934 0
-5915 -6935 0
-5916 -6936 0
-5913 -7797 0
-5914 -7798 0
-5915 -7799 0
-5916 -7800 0
-5913 -7945 0
-5914 -7946 0
-5915 -7947 0
-5916 -7948 0
-5917 -5921 0
-5918 -5922 0
-5919 -5923 0
-5920 -5924 0
-5917 -5925 0
-5918 -5926 0
-5919 -5927 0
-5920 -5928 0
-5917 -5929 0
-5918 -5930 0
-5919 -5931 0
-5920 -5932 0
-5917 -6765 0
-5918 -6766 0
-5919 -6767 0
-5920 -6768 0
-5917 -7125 0
-5918 -7126 0
-5919 -7127 0
-5920 -7128 0
-5917 -7577 0
-5918 -7578 0
-5919 -7579 0
-5920 -7580 0
-5921 -5933 0
-5922 -5934 0
-5923 -5935 0
-5924 -5936 0
-5921 -5937 0
-5922 -5938 0
-5923 -5939 0
-5924 -5940 0
-5921 -6305 0
-5922 -6306 0
-5923 -6307 0
-5924 -6308 0
-5921 -6773 0
-5922 -6774 0
-5923 -6775 0
-5924 -6776 0
-5921 -7593 0
-5922 -7594 0
-5923 -7595 0
-5924 -7596 0
-5925 -5929 0
-5926 -5930 0
-5927 -5931 0
-5928 -5932 0
-5925 -5933 0
-5926 -5934 0
-5927 -5935 0
-5928 -5936 0
-5925 -6465 0
-5926 -6466 0
-5927 -6467 0
-5928 -6468 0
-5925 -6489 0
-5926 -6490 0
-5927 -6491 0
-5928 -6492 0
-5925 -6833 0
-5926 -6834 0
-5927 -6835 0
-5928 -6836 0
-5925 -7613 0
-5926 -7614 0
-5927 -7615 0
-5928 -7616 0
-5925 -7697 0
-5926 -7698 0
-5927 -7699 0
-5928 -7700 0
-5925 -7717 0
-5926 -7718 0
-5927 -7719 0
-5928 -7720 0
-5929 -5937 0
-5930 -5938 0
-5931 -5939 0
-5932 -5940 0
-5929 -6109 0
-5930 -6110 0
-5931 -6111 0
-5932 -6112 0
-5929 -6469 0
-5930 -6470 0
-5931 -6471 0
-5932 -6472 0
-5929 -6841 0
-5930 -6842 0
-5931 -6843 0
-5932 -6844 0
-5929 -7137 0
-5930 -7138 0
-5931 -7139 0
-5932 -7140 0
-5929 -7289 0
-5930 -7290 0
-5931 -7291 0
-5932 -7292 0
-5929 -7293 0
-5930 -7294 0
-5931 -7295 0
-5932 -7296 0
-5929 -7617 0
-5930 -7618 0
-5931 -7619 0
-5932 -7620 0
-5929 -7701 0
-5930 -7702 0
-5931 -7703 0
-5932 -7704 0
-5929 -7841 0
-5930 -7842 0
-5931 -7843 0
-5932 -7844 0
-5929 -7853 0
-5930 -7854 0
-5931 -7855 0
-5932 -7856 0
-5933 -5937 0
-5934 -5938 0
-5935 -5939 0
-5936 -5940 0
-5933 -6113 0
-5934 -6114 0
-5935 -6115 0
-5936 -6116 0
-5933 -6869 0
-5934 -6870 0
-5935 -6871 0
-5936 -6872 0
-5933 -6969 0
-5934 -6970 0
-5935 -6971 0
-5936 -6972 0
-5933 -7129 0
-5934 -7130 0
-5935 -7131 0
-5936 -7132 0
-5933 -7709 0
-5934 -7710 0
-5935 -7711 0
-5936 -7712 0
-5933 -7721 0
-5934 -7722 0
-5935 -7723 0
-5936 -7724 0
-5937 -6349 0
-5938 -6350 0
-5939 -6351 0
-5940 -6352 0
-5937 -6877 0
-5938 -6878 0
-5939 -6879 0
-5940 -6880 0
-5937 -7145 0
-5938 -7146 0
-5939 -7147 0
-5940 -7148 0
-5937 -7713 0
-5938 -7714 0
-5939 -7715 0
-5940 -7716 0
-5937 -7845 0
-5938 -7846 0
-5939 -7847 0
-5940 -7848 0
-5941 -5961 0
-5942 -5962 0
-5943 -5963 0
-5944 -5964 0
-5941 -6713 0
-5942 -6714 0
-5943 -6715 0
-5944 -6716 0
-5941 -7725 0
-5942 -7726 0
-5943 -7727 0
-5944 -7728 0
-5945 -6001 0
-5946 -6002 0
-5947 -6003 0
-5948 -6004 0
-5945 -6009 0
-5946 -6010 0
-5947 -6011 0
-5948 -6012 0
-5945 -6369 0
-5946 -6370 0
-5947 -6371 0
-5948 -6372 0
-5945 -6733 0
-5946 -6734 0
-5947 -6735 0
-5948 -6736 0
-5949 -5953 0
-5950 -5954 0
-5951 -5955 0
-5952 -5956 0
-5949 -5957 0
-5950 -5958 0
-5951 -5959 0
-5952 -5960 0
-5949 -5965 0
-5950 -5966 0
-5951 -5967 0
-5952 -5968 0
-5949 -6001 0
-5950 -6002 0
-5951 -6003 0
-5952 -6004 0
-5949 -6501 0
-5950 -6502 0
-5951 -6503 0
-5952 -6504 0
-5949 -7621 0
-5950 -7622 0
-5951 -7623 0
-5952 -7624 0
-5949 -7753 0
-5950 -7754 0
-5951 -7755 0
-5952 -7756 0
-5953 -5961 0
-5954 -5962 0
-5955 -5963 0
-5956 -5964 0
-5953 -6005 0
-5954 -6006 0
-5955 -6007 0
-5956 -6008 0
-5953 -6973 0
-5954 -6974 0
-5955 -6975 0
-5956 -6976 0
-5953 -7741 0
-5954 -7742 0
-5955 -7743 0
-5956 -7744 0
-5953 -7757 0
-5954 -7758 0
-5955 -7759 0
-5956 -7760 0
-5957 -5961 0
-5958 -5962 0
-5959 -5963 0
-5960 -5964 0
-5957 -5969 0
-5958 -5970 0
-5959 -5971 0
-5960 -5972 0
-5957 -5973 0
-5958 -5974 0
-5959 -5975 0
-5960 -5976 0
-5957 -6001 0
-5958 -6002 0
-5959 -6003 0
-5960 -6004 0
-5957 -6137 0
-5958 -6138 0
-5959 -6139 0
-5960 -6140 0
-5957 -7169 0
-5958 -7170 0
-5959 -7171 0
-5960 -7172 0
-5957 -7625 0
-5958 -7626 0
-5959 -7627 0
-5960 -7628 0
-5957 -7745 0
-5958 -7746 0
-5959 -7747 0
-5960 -7748 0
-5957 -7761 0
-5958 -7762 0
-5959 -7763 0
-5960 -7764 0
-5961 -5973 0
-5962 -5974 0
-5963 -5975 0
-5964 -5976 0
-5961 -6005 0
-5962 -6006 0
-5963 -6007 0
-5964 -6008 0
-5961 -6553 0
-5962 -6554 0
-5963 -6555 0
-5964 -6556 0
-5961 -7173 0
-5962 -7174 0
-5963 -7175 0
-5964 -7176 0
-5961 -7749 0
-5962 -7750 0
-5963 -7751 0
-5964 -7752 0
-5961 -7765 0
-5962 -7766 0
-5963 -7767 0
-5964 -7768 0
-5965 -5969 0
-5966 -5970 0
-5967 -5971 0
-5968 -5972 0
-5965 -6025 0
-5966 -6026 0
-5967 -6027 0
-5968 -6028 0
-5965 -7629 0
-5966 -7630 0
-5967 -7631 0
-5968 -7632 0
-5965 -7753 0
-5966 -7754 0
-5967 -7755 0
-5968 -7756 0
-5969 -6025 0
-5970 -6026 0
-5971 -6027 0
-5972 -6028 0
-5969 -6141 0
-5970 -6142 0
-5971 -6143 0
-5972 -6144 0
-5969 -7181 0
-5970 -7182 0
-5971 -7183 0
-5972 -7184 0
-5969 -7633 0
-5970 -7634 0
-5971 -7635 0
-5972 -7636 0
-5969 -7761 0
-5970 -7762 0
-5971 -7763 0
-5972 -7764 0
-5973 -5977 0
-5974 -5978 0
-5975 -5979 0
-5976 -5980 0
-5973 -6053 0
-5974 -6054 0
-5975 -6055 0
-5976 -6056 0
-5973 -6149 0
-5974 -6150 0
-5975 -6151 0
-5976 -6152 0
-5973 -6569 0
-5974 -6570 0
-5975 -6571 0
-5976 -6572 0
-5973 -7305 0
-5974 -7306 0
-5975 -7307 0
-5976 -7308 0
-5973 -7773 0
-5974 -7774 0
-5975 -7775 0
-5976 -7776 0
-5973 -7777 0
-5974 -7778 0
-5975 -7779 0
-5976 -7780 0
-5977 -6057 0
-5978 -6058 0
-5979 -6059 0
-5980 -6060 0
-5977 -6357 0
-5978 -6358 0
-5979 -6359 0
-5980 -6360 0
-5977 -7181 0
-5978 -7182 0
-5979 -7183 0
-5980 -7184 0
-5977 -7309 0
-5978 -7310 0
-5979 -7311 0
-5980 -7312 0
-5977 -7781 0
-5978 -7782 0
-5979 -7783 0
-5980 -7784 0
-5981 -5989 0
-5982 -5990 0
-5983 -5991 0
-5984 -5992 0
-5981 -5997 0
-5982 -5998 0
-5983 -5999 0
-5984 -6000 0
-5981 -6089 0
-5982 -6090 0
-5983 -6091 0
-5984 -6092 0
-5981 -6797 0
-5982 -6798 0
-5983 -6799 0
-5984 -6800 0
-5981 -7193 0
-5982 -7194 0
-5983 -7195 0
-5984 -7196 0
-5981 -7725 0
-5982 -7726 0
-5983 -7727 0
-5984 -7728 0
-5985 -5989 0
-5986 -5990 0
-5987 -5991 0
-5988 -5992 0
-5985 -6021 0
-5986 -6022 0
-5987 -6023 0
-5988 -6024 0
-5985 -6093 0
-5986 -6094 0
-5987 -6095 0
-5988 -6096 0
-5985 -6365 0
-5986 -6366 0
-5987 -6367 0
-5988 -6368 0
-5985 -6409 0
-5986 -6410 0
-5987 -6411 0
-5988 -6412 0
-5985 -6801 0
-5986 -6802 0
-5987 -6803 0
-5988 -6804 0
-5985 -7313 0
-5986 -7314 0
-5987 -7315 0
-5988 -7316 0
-5985 -7785 0
-5986 -7786 0
-5987 -7787 0
-5988 -7788 0
-5989 -6037 0
-5990 -6038 0
-5991 -6039 0
-5992 -6040 0
-5989 -6097 0
-5990 -6098 0
-5991 -6099 0
-5992 -6100 0
-5989 -6373 0
-5990 -6374 0
-5991 -6375 0
-5992 -6376 0
-5989 -6413 0
-5990 -6414 0
-5991 -6415 0
-5992 -6416 0
-5989 -6805 0
-5990 -6806 0
-5991 -6807 0
-5992 -6808 0
-5989 -7725 0
-5990 -7726 0
-5991 -7727 0
-5992 -7728 0
-5989 -7785 0
-5990 -7786 0
-5991 -7787 0
-5992 -7788 0
-5993 -5997 0
-5994 -5998 0
-5995 -5999 0
-5996 -6000 0
-5993 -6021 0
-5994 -6022 0
-5995 -6023 0
-5996 -6024 0
-5993 -6045 0
-5994 -6046 0
-5995 -6047 0
-5996 -6048 0
-5993 -6049 0
-5994 -6050 0
-5995 -6051 0
-5996 -6052 0
-5993 -6809 0
-5994 -6810 0
-5995 -6811 0
-5996 -6812 0
-5993 -7209 0
-5994 -7210 0
-5995 -7211 0
-5996 -7212 0
-5993 -7789 0
-5994 -7790 0
-5995 -7791 0
-5996 -7792 0
-5997 -6037 0
-5998 -6038 0
-5999 -6039 0
-6000 -6040 0
-5997 -6813 0
-5998 -6814 0
-5999 -6815 0
-6000 -6816 0
-5997 -6989 0
-5998 -6990 0
-5999 -6991 0
-6000 -6992 0
-5997 -7221 0
-5998 -7222 0
-5999 -7223 0
-6000 -7224 0
-5997 -7789 0
-5998 -7790 0
-5999 -7791 0
-6000 -7792 0
-6001 -6005 0
-6002 -6006 0
-6003 -6007 0
-6004 -6008 0
-6001 -6009 0
-6002 -6010 0
-6003 -6011 0
-6004 -6012 0
-6001 -6017 0
-6002 -6018 0
-6003 -6019 0
-6004 -6020 0
-6001 -6025 0
-6002 -6026 0
-6003 -6027 0
-6004 -6028 0
-6001 -6053 0
-6002 -6054 0
-6003 -6055 0
-6004 -6056 0
-6001 -6117 0
-6002 -6118 0
-6003 -6119 0
-6004 -6120 0
-6001 -6177 0
-6002 -6178 0
-6003 -6179 0
-6004 -6180 0
-6001 -6381 0
-6002 -6382 0
-6003 -6383 0
-6004 -6384 0
-6001 -6521 0
-6002 -6522 0
-6003 -6523 0
-6004 -6524 0
-6001 -7321 0
-6002 -7322 0
-6003 -7323 0
-6004 -7324 0
-6001 -7637 0
-6002 -7638 0
-6003 -7639 0
-6004 -7640 0
-6001 -7793 0
-6002 -7794 0
-6003 -7795 0
-6004 -7796 0
-6005 -6013 0
-6006 -6014 0
-6007 -6015 0
-6008 -6016 0
-6005 -6053 0
-6006 -6054 0
-6007 -6055 0
-6008 -6056 0
-6005 -6593 0
-6006 -6594 0
-6007 -6595 0
-6008 -6596 0
-6005 -7797 0
-6006 -7798 0
-6007 -7799 0
-6008 -7800 0
-6009 -6013 0
-6010 -6014 0
-6011 -6015 0
-6012 -6016 0
-6009 -6021 0
-6010 -6022 0
-6011 -6023 0
-6012 -6024 0
-6009 -6029 0
-6010 -6030 0
-6011 -6031 0
-6012 -6032 0
-6009 -6057 0
-6010 -6058 0
-6011 -6059 0
-6012 -6060 0
-6009 -6821 0
-6010 -6822 0
-6011 -6823 0
-6012 -6824 0
-6009 -7149 0
-6010 -7150 0
-6011 -7151 0
-6012 -7152 0
-6009 -7325 0
-6010 -7326 0
-6011 -7327 0
-6012 -7328 0
-6009 -7801 0
-6010 -7802 0
-6011 -7803 0
-6012 -7804 0
-6013 -6057 0
-6014 -6058 0
-6015 -6059 0
-6016 -6060 0
-6013 -6417 0
-6014 -6418 0
-6015 -6419 0
-6016 -6420 0
-6013 -6825 0
-6014 -6826 0
-6015 -6827 0
-6016 -6828 0
-6017 -6021 0
-6018 -6022 0
-6019 -6023 0
-6020 -6024 0
-6017 -6033 0
-6018 -6034 0
-6019 -6035 0
-6020 -6036 0
-6017 -6101 0
-6018 -6102 0
-6019 -6103 0
-6020 -6104 0
-6017 -6117 0
-6018 -6118 0
-6019 -6119 0
-6020 -6120 0
-6017 -6385 0
-6018 -6386 0
-6019 -6387 0
-6020 -6388 0
-6017 -6505 0
-6018 -6506 0
-6019 -6507 0
-6020 -6508 0
-6017 -6829 0
-6018 -6830 0
-6019 -6831 0
-6020 -6832 0
-6017 -7225 0
-6018 -7226 0
-6019 -7227 0
-6020 -7228 0
-6017 -7805 0
-6018 -7806 0
-6019 -7807 0
-6020 -7808 0
-6021 -6037 0
-6022 -6038 0
-6023 -6039 0
-6024 -6040 0
-6021 -6061 0
-6022 -6062 0
-6023 -6063 0
-6024 -6064 0
-6021 -6065 0
-6022 -6066 0
-6023 -6067 0
-6024 -6068 0
-6021 -6101 0
-6022 -6102 0
-6023 -6103 0
-6024 -6104 0
-6021 -6393 0
-6022 -6394 0
-6023 -6395 0
-6024 -6396 0
-6021 -6421 0
-6022 -6422 0
-6023 -6423 0
-6024 -6424 0
-6021 -6841 0
-6022 -6842 0
-6023 -6843 0
-6024 -6844 0
-6021 -7153 0
-6022 -7154 0
-6023 -7155 0
-6024 -7156 0
-6021 -7809 0
-6022 -7810 0
-6023 -7811 0
-6024 -7812 0
-6025 -6029 0
-6026 -6030 0
-6027 -6031 0
-6028 -6032 0
-6025 -6033 0
-6026 -6034 0
-6027 -6035 0
-6028 -6036 0
-6025 -6069 0
-6026 -6070 0
-6027 -6071 0
-6028 -6072 0
-6025 -6121 0
-6026 -6122 0
-6027 -6123 0
-6028 -6124 0
-6025 -6185 0
-6026 -6186 0
-6027 -6187 0
-6028 -6188 0
-6025 -7641 0
-6026 -7642 0
-6027 -7643 0
-6028 -7644 0
-6025 -7793 0
-6026 -7794 0
-6027 -7795 0
-6028 -7796 0
-6029 -6037 0
-6030 -6038 0
-6031 -6039 0
-6032 -6040 0
-6029 -6073 0
-6030 -6074 0
-6031 -6075 0
-6032 -6076 0
-6029 -6193 0
-6030 -6194 0
-6031 -6195 0
-6032 -6196 0
-6029 -6429 0
-6030 -6430 0
-6031 -6431 0
-6032 -6432 0
-6029 -6861 0
-6030 -6862 0
-6031 -6863 0
-6032 -6864 0
-6029 -7801 0
-6030 -7802 0
-6031 -7803 0
-6032 -7804 0
-6033 -6037 0
-6034 -6038 0
-6035 -6039 0
-6036 -6040 0
-6033 -6105 0
-6034 -6106 0
-6035 -6107 0
-6036 -6108 0
-6033 -6121 0
-6034 -6122 0
-6035 -6123 0
-6036 -6124 0
-6033 -6397 0
-6034 -6398 0
-6035 -6399 0
-6036 -6400 0
-6033 -6865 0
-6034 -6866 0
-6035 -6867 0
-6036 -6868 0
-6033 -7229 0
-6034 -7230 0
-6035 -7231 0
-6036 -7232 0
-6033 -7805 0
-6034 -7806 0
-6035 -7807 0
-6036 -7808 0
-6037 -6077 0
-6038 -6078 0
-6039 -6079 0
-6040 -6080 0
-6037 -6081 0
-6038 -6082 0
-6039 -6083 0
-6040 -6084 0
-6037 -6105 0
-6038 -6106 0
-6039 -6107 0
-6040 -6108 0
-6037 -6437 0
-6038 -6438 0
-6039 -6439 0
-6040 -6440 0
-6037 -6877 0
-6038 -6878 0
-6039 -6879 0
-6040 -6880 0
-6037 -7157 0
-6038 -7158 0
-6039 -7159 0
-6040 -7160 0
-6037 -7809 0
-6038 -7810 0
-6039 -7811 0
-6040 -7812 0
-6041 -6049 0
-6042 -6050 0
-6043 -6051 0
-6044 -6052 0
-6041 -6057 0
-6042 -6058 0
-6043 -6059 0
-6044 -6060 0
-6041 -6993 0
-6042 -6994 0
-6043 -6995 0
-6044 -6996 0
-6041 -7329 0
-6042 -7330 0
-6043 -7331 0
-6044 -7332 0
-6041 -7813 0
-6042 -7814 0
-6043 -7815 0
-6044 -7816 0
-6041 -7981 0
-6042 -7982 0
-6043 -7983 0
-6044 -7984 0
-6045 -6049 0
-6046 -6050 0
-6047 -6051 0
-6048 -6052 0
-6045 -6061 0
-6046 -6062 0
-6047 -6063 0
-6048 -6064 0
-6045 -6905 0
-6046 -6906 0
-6047 -6907 0
-6048 -6908 0
-6045 -7161 0
-6046 -7162 0
-6047 -7163 0
-6048 -7164 0
-6045 -7817 0
-6046 -7818 0
-6047 -7819 0
-6048 -7820 0
-6049 -6065 0
-6050 -6066 0
-6051 -6067 0
-6052 -6068 0
-6049 -6517 0
-6050 -6518 0
-6051 -6519 0
-6052 -6520 0
-6049 -6997 0
-6050 -6998 0
-6051 -6999 0
-6052 -7000 0
-6049 -7213 0
-6050 -7214 0
-6051 -7215 0
-6052 -7216 0
-6049 -7337 0
-6050 -7338 0
-6051 -7339 0
-6052 -7340 0
-6049 -7821 0
-6050 -7822 0
-6051 -7823 0
-6052 -7824 0
-6053 -6057 0
-6054 -6058 0
-6055 -6059 0
-6056 -6060 0
-6053 -6069 0
-6054 -6070 0
-6055 -6071 0
-6056 -6072 0
-6053 -6213 0
-6054 -6214 0
-6055 -6215 0
-6056 -6216 0
-6053 -6533 0
-6054 -6534 0
-6055 -6535 0
-6056 -6536 0
-6053 -6633 0
-6054 -6634 0
-6055 -6635 0
-6056 -6636 0
-6053 -7645 0
-6054 -7646 0
-6055 -7647 0
-6056 -7648 0
-6053 -7825 0
-6054 -7826 0
-6055 -7827 0
-6056 -7828 0
-6057 -6065 0
-6058 -6066 0
-6059 -6067 0
-6060 -6068 0
-6057 -6073 0
-6058 -6074 0
-6059 -6075 0
-6060 -6076 0
-6057 -6541 0
-6058 -6542 0
-6059 -6543 0
-6060 -6544 0
-6057 -7173 0
-6058 -7174 0
-6059 -7175 0
-6060 -7176 0
-6057 -7353 0
-6058 -7354 0
-6059 -7355 0
-6060 -7356 0
-6057 -7649 0
-6058 -7650 0
-6059 -7651 0
-6060 -7652 0
-6057 -7829 0
-6058 -7830 0
-6059 -7831 0
-6060 -7832 0
-6061 -6065 0
-6062 -6066 0
-6063 -6067 0
-6064 -6068 0
-6061 -6077 0
-6062 -6078 0
-6063 -6079 0
-6064 -6080 0
-6061 -6405 0
-6062 -6406 0
-6063 -6407 0
-6064 -6408 0
-6061 -6545 0
-6062 -6546 0
-6063 -6547 0
-6064 -6548 0
-6061 -6913 0
-6062 -6914 0
-6063 -6915 0
-6064 -6916 0
-6061 -7177 0
-6062 -7178 0
-6063 -7179 0
-6064 -7180 0
-6061 -7833 0
-6062 -7834 0
-6063 -7835 0
-6064 -7836 0
-6065 -6081 0
-6066 -6082 0
-6067 -6083 0
-6068 -6084 0
-6065 -6445 0
-6066 -6446 0
-6067 -6447 0
-6068 -6448 0
-6065 -6917 0
-6066 -6918 0
-6067 -6919 0
-6068 -6920 0
-6065 -7229 0
-6066 -7230 0
-6067 -7231 0
-6068 -7232 0
-6065 -7361 0
-6066 -7362 0
-6067 -7363 0
-6068 -7364 0
-6065 -7837 0
-6066 -7838 0
-6067 -7839 0
-6068 -7840 0
-6069 -6073 0
-6070 -6074 0
-6071 -6075 0
-6072 -6076 0
-6069 -6237 0
-6070 -6238 0
-6071 -6239 0
-6072 -6240 0
-6069 -7653 0
-6070 -7654 0
-6071 -7655 0
-6072 -7656 0
-6069 -7825 0
-6070 -7826 0
-6071 -7827 0
-6072 -7828 0
-6073 -6081 0
-6074 -6082 0
-6075 -6083 0
-6076 -6084 0
-6073 -7657 0
-6074 -7658 0
-6075 -7659 0
-6076 -7660 0
-6073 -7829 0
-6074 -7830 0
-6075 -7831 0
-6076 -7832 0
-6077 -6081 0
-6078 -6082 0
-6079 -6083 0
-6080 -6084 0
-6077 -6921 0
-6078 -6922 0
-6079 -6923 0
-6080 -6924 0
-6077 -7185 0
-6078 -7186 0
-6079 -7187 0
-6080 -7188 0
-6077 -7661 0
-6078 -7662 0
-6079 -7663 0
-6080 -7664 0
-6077 -7833 0
-6078 -7834 0
-6079 -7835 0
-6080 -7836 0
-6081 -6449 0
-6082 -6450 0
-6083 -6451 0
-6084 -6452 0
-6081 -6925 0
-6082 -6926 0
-6083 -6927 0
-6084 -6928 0
-6081 -7665 0
-6082 -7666 0
-6083 -7667 0
-6084 -7668 0
-6081 -7837 0
-6082 -7838 0
-6083 -7839 0
-6084 -7840 0
-6085 -6089 0
-6086 -6090 0
-6087 -6091 0
-6088 -6092 0
-6085 -6093 0
-6086 -6094 0
-6087 -6095 0
-6088 -6096 0
-6085 -7749 0
-6086 -7750 0
-6087 -7751 0
-6088 -7752 0
-6089 -6097 0
-6090 -6098 0
-6091 -6099 0
-6092 -6100 0
-6089 -7245 0
-6090 -7246 0
-6091 -7247 0
-6092 -7248 0
-6089 -7765 0
-6090 -7766 0
-6091 -7767 0
-6092 -7768 0
-6093 -6097 0
-6094 -6098 0
-6095 -6099 0
-6096 -6100 0
-6093 -6101 0
-6094 -6102 0
-6095 -6103 0
-6096 -6104 0
-6093 -6973 0
-6094 -6974 0
-6095 -6975 0
-6096 -6976 0
-6093 -7381 0
-6094 -7382 0
-6095 -7383 0
-6096 -7384 0
-6093 -7749 0
-6094 -7750 0
-6095 -7751 0
-6096 -7752 0
-6093 -7841 0
-6094 -7842 0
-6095 -7843 0
-6096 -7844 0
-6097 -6105 0
-6098 -6106 0
-6099 -6107 0
-6100 -6108 0
-6097 -6385 0
-6098 -6386 0
-6099 -6387 0
-6100 -6388 0
-6097 -6461 0
-6098 -6462 0
-6099 -6463 0
-6100 -6464 0
-6097 -6673 0
-6098 -6674 0
-6099 -6675 0
-6100 -6676 0
-6097 -6977 0
-6098 -6978 0
-6099 -6979 0
-6100 -6980 0
-6097 -7685 0
-6098 -7686 0
-6099 -7687 0
-6100 -7688 0
-6097 -7765 0
-6098 -7766 0
-6099 -7767 0
-6100 -7768 0
-6097 -7841 0
-6098 -7842 0
-6099 -7843 0
-6100 -7844 0
-6097 -7845 0
-6098 -7846 0
-6099 -7847 0
-6100 -7848 0
-6101 -6105 0
-6102 -6106 0
-6103 -6107 0
-6104 -6108 0
-6101 -6473 0
-6102 -6474 0
-6103 -6475 0
-6104 -6476 0
-6101 -6561 0
-6102 -6562 0
-6103 -6563 0
-6104 -6564 0
-6101 -6949 0
-6102 -6950 0
-6103 -6951 0
-6104 -6952 0
-6101 -6981 0
-6102 -6982 0
-6103 -6983 0
-6104 -6984 0
-6101 -7853 0
-6102 -7854 0
-6103 -7855 0
-6104 -7856 0
-6105 -6289 0
-6106 -6290 0
-6107 -6291 0
-6108 -6292 0
-6105 -6477 0
-6106 -6478 0
-6107 -6479 0
-6108 -6480 0
-6105 -6565 0
-6106 -6566 0
-6107 -6567 0
-6108 -6568 0
-6105 -6957 0
-6106 -6958 0
-6107 -6959 0
-6108 -6960 0
-6105 -6985 0
-6106 -6986 0
-6107 -6987 0
-6108 -6988 0
-6105 -7693 0
-6106 -7694 0
-6107 -7695 0
-6108 -7696 0
-6105 -7769 0
-6106 -7770 0
-6107 -7771 0
-6108 -7772 0
-6105 -7853 0
-6106 -7854 0
-6107 -7855 0
-6108 -7856 0
-6109 -6993 0
-6110 -6994 0
-6111 -6995 0
-6112 -6996 0
-6109 -7441 0
-6110 -7442 0
-6111 -7443 0
-6112 -7444 0
-6109 -7449 0
-6110 -7450 0
-6111 -7451 0
-6112 -7452 0
-6113 -6497 0
-6114 -6498 0
-6115 -6499 0
-6116 -6500 0
-6113 -6661 0
-6114 -6662 0
-6115 -6663 0
-6116 -6664 0
-6113 -7245 0
-6114 -7246 0
-6115 -7247 0
-6116 -7248 0
-6113 -7445 0
-6114 -7446 0
-6115 -7447 0
-6116 -7448 0
-6113 -7813 0
-6114 -7814 0
-6115 -7815 0
-6116 -7816 0
-6113 -7829 0
-6114 -7830 0
-6115 -7831 0
-6116 -7832 0
-6113 -8017 0
-6114 -8018 0
-6115 -8019 0
-6116 -8020 0
-6117 -6121 0
-6118 -6122 0
-6119 -6123 0
-6120 -6124 0
-6117 -6365 0
-6118 -6366 0
-6119 -6367 0
-6120 -6368 0
-6117 -7857 0
-6118 -7858 0
-6119 -7859 0
-6120 -7860 0
-6121 -6373 0
-6122 -6374 0
-6123 -6375 0
-6124 -6376 0
-6121 -7857 0
-6122 -7858 0
-6123 -7859 0
-6124 -7860 0
-6125 -6133 0
-6126 -6134 0
-6127 -6135 0
-6128 -6136 0
-6125 -7077 0
-6126 -7078 0
-6127 -7079 0
-6128 -7080 0
-6125 -7273 0
-6126 -7274 0
-6127 -7275 0
-6128 -7276 0
-6125 -7877 0
-6126 -7878 0
-6127 -7879 0
-6128 -7880 0
-6125 -7889 0
-6126 -7890 0
-6127 -7891 0
-6128 -7892 0
-6129 -6485 0
-6130 -6486 0
-6131 -6487 0
-6132 -6488 0
-6129 -6677 0
-6130 -6678 0
-6131 -6679 0
-6132 -6680 0
-6129 -7893 0
-6130 -7894 0
-6131 -7895 0
-6132 -7896 0
-6129 -8033 0
-6130 -8034 0
-6131 -8035 0
-6132 -8036 0
-6133 -6681 0
-6134 -6682 0
-6135 -6683 0
-6136 -6684 0
-6133 -6709 0
-6134 -6710 0
-6135 -6711 0
-6136 -6712 0
-6133 -7017 0
-6134 -7018 0
-6135 -7019 0
-6136 -7020 0
-6133 -7701 0
-6134 -7702 0
-6135 -7703 0
-6136 -7704 0
-6133 -7929 0
-6134 -7930 0
-6135 -7931 0
-6136 -7932 0
-6133 -7945 0
-6134 -7946 0
-6135 -7947 0
-6136 -7948 0
-6137 -6141 0
-6138 -6142 0
-6139 -6143 0
-6140 -6144 0
-6137 -6145 0
-6138 -6146 0
-6139 -6147 0
-6140 -6148 0
-6137 -6149 0
-6138 -6150 0
-6139 -6151 0
-6140 -6152 0
-6137 -6177 0
-6138 -6178 0
-6139 -6179 0
-6140 -6180 0
-6137 -6181 0
-6138 -6182 0
-6139 -6183 0
-6140 -6184 0
-6137 -7301 0
-6138 -7302 0
-6139 -7303 0
-6140 -7304 0
-6137 -7865 0
-6138 -7866 0
-6139 -7867 0
-6140 -7868 0
-6141 -6153 0
-6142 -6154 0
-6143 -6155 0
-6144 -6156 0
-6141 -6185 0
-6142 -6186 0
-6143 -6187 0
-6144 -6188 0
-6141 -6189 0
-6142 -6190 0
-6143 -6191 0
-6144 -6192 0
-6141 -6501 0
-6142 -6502 0
-6143 -6503 0
-6144 -6504 0
-6141 -7309 0
-6142 -7310 0
-6143 -7311 0
-6144 -7312 0
-6141 -7725 0
-6142 -7726 0
-6143 -7727 0
-6144 -7728 0
-6141 -7865 0
-6142 -7866 0
-6143 -7867 0
-6144 -7868 0
-6141 -7869 0
-6142 -7870 0
-6143 -7871 0
-6144 -7872 0
-6145 -6161 0
-6146 -6162 0
-6147 -6163 0
-6148 -6164 0
-6145 -6553 0
-6146 -6554 0
-6147 -6555 0
-6148 -6556 0
-6145 -7021 0
-6146 -7022 0
-6147 -7023 0
-6148 -7024 0
-6145 -7317 0
-6146 -7318 0
-6147 -7319 0
-6148 -7320 0
-6145 -7873 0
-6146 -7874 0
-6147 -7875 0
-6148 -7876 0
-6149 -6153 0
-6150 -6154 0
-6151 -6155 0
-6152 -6156 0
-6149 -6161 0
-6150 -6162 0
-6151 -6163 0
-6152 -6164 0
-6149 -6213 0
-6150 -6214 0
-6151 -6215 0
-6152 -6216 0
-6149 -6221 0
-6150 -6222 0
-6151 -6223 0
-6152 -6224 0
-6149 -6765 0
-6150 -6766 0
-6151 -6767 0
-6152 -6768 0
-6149 -7305 0
-6150 -7306 0
-6151 -7307 0
-6152 -7308 0
-6149 -7877 0
-6150 -7878 0
-6151 -7879 0
-6152 -7880 0
-6153 -6173 0
-6154 -6174 0
-6155 -6175 0
-6156 -6176 0
-6153 -6237 0
-6154 -6238 0
-6155 -6239 0
-6156 -6240 0
-6153 -6245 0
-6154 -6246 0
-6155 -6247 0
-6156 -6248 0
-6153 -6513 0
-6154 -6514 0
-6155 -6515 0
-6156 -6516 0
-6153 -6773 0
-6154 -6774 0
-6155 -6775 0
-6156 -6776 0
-6153 -7877 0
-6154 -7878 0
-6155 -7879 0
-6156 -7880 0
-6157 -6161 0
-6158 -6162 0
-6159 -6163 0
-6160 -6164 0
-6157 -6169 0
-6158 -6170 0
-6159 -6171 0
-6160 -6172 0
-6157 -6357 0
-6158 -6358 0
-6159 -6359 0
-6160 -6360 0
-6157 -6721 0
-6158 -6722 0
-6159 -6723 0
-6160 -6724 0
-6157 -7169 0
-6158 -7170 0
-6159 -7171 0
-6160 -7172 0
-6157 -7881 0
-6158 -7882 0
-6159 -7883 0
-6160 -7884 0
-6157 -7885 0
-6158 -7886 0
-6159 -7887 0
-6160 -7888 0
-6161 -6165 0
-6162 -6166 0
-6163 -6167 0
-6164 -6168 0
-6161 -6173 0
-6162 -6174 0
-6163 -6175 0
-6164 -6176 0
-6161 -6261 0
-6162 -6262 0
-6163 -6263 0
-6164 -6264 0
-6161 -6357 0
-6162 -6358 0
-6163 -6359 0
-6164 -6360 0
-6161 -6573 0
-6162 -6574 0
-6163 -6575 0
-6164 -6576 0
-6161 -7177 0
-6162 -7178 0
-6163 -7179 0
-6164 -7180 0
-6161 -7321 0
-6162 -7322 0
-6163 -7323 0
-6164 -7324 0
-6161 -7497 0
-6162 -7498 0
-6163 -7499 0
-6164 -7500 0
-6161 -7889 0
-6162 -7890 0
-6163 -7891 0
-6164 -7892 0
-6165 -6261 0
-6166 -6262 0
-6167 -6263 0
-6168 -6264 0
-6165 -6781 0
-6166 -6782 0
-6167 -6783 0
-6168 -6784 0
-6165 -7501 0
-6166 -7502 0
-6167 -7503 0
-6168 -7504 0
-6169 -6173 0
-6170 -6174 0
-6171 -6175 0
-6172 -6176 0
-6169 -6361 0
-6170 -6362 0
-6171 -6363 0
-6172 -6364 0
-6169 -7181 0
-6170 -7182 0
-6171 -7183 0
-6172 -7184 0
-6169 -7885 0
-6170 -7886 0
-6171 -7887 0
-6172 -7888 0
-6173 -6265 0
-6174 -6266 0
-6175 -6267 0
-6176 -6268 0
-6173 -6361 0
-6174 -6362 0
-6175 -6363 0
-6176 -6364 0
-6173 -7185 0
-6174 -7186 0
-6175 -7187 0
-6176 -7188 0
-6173 -7505 0
-6174 -7506 0
-6175 -7507 0
-6176 -7508 0
-6173 -7889 0
-6174 -7890 0
-6175 -7891 0
-6176 -7892 0
-6177 -6181 0
-6178 -6182 0
-6179 -6183 0
-6180 -6184 0
-6177 -6185 0
-6178 -6186 0
-6179 -6187 0
-6180 -6188 0
-6177 -6209 0
-6178 -6210 0
-6179 -6211 0
-6180 -6212 0
-6177 -6213 0
-6178 -6214 0
-6179 -6215 0
-6180 -6216 0
-6177 -6273 0
-6178 -6274 0
-6179 -6275 0
-6180 -6276 0
-6177 -6365 0
-6178 -6366 0
-6179 -6367 0
-6180 -6368 0
-6177 -6577 0
-6178 -6578 0
-6179 -6579 0
-6180 -6580 0
-6177 -7497 0
-6178 -7498 0
-6179 -7499 0
-6180 -7500 0
-6177 -7893 0
-6178 -7894 0
-6179 -7895 0
-6180 -7896 0
-6177 -8057 0
-6178 -8058 0
-6179 -8059 0
-6180 -8060 0
-6181 -6189 0
-6182 -6190 0
-6183 -6191 0
-6184 -6192 0
-6181 -6217 0
-6182 -6218 0
-6183 -6219 0
-6184 -6220 0
-6181 -6221 0
-6182 -6222 0
-6183 -6223 0
-6184 -6224 0
-6181 -6581 0
-6182 -6582 0
-6183 -6583 0
-6184 -6584 0
-6181 -6785 0
-6182 -6786 0
-6183 -6787 0
-6184 -6788 0
-6181 -7349 0
-6182 -7350 0
-6183 -7351 0
-6184 -7352 0
-6181 -7501 0
-6182 -7502 0
-6183 -7503 0
-6184 -7504 0
-6181 -7897 0
-6182 -7898 0
-6183 -7899 0
-6184 -7900 0
-6185 -6189 0
-6186 -6190 0
-6187 -6191 0
-6188 -6192 0
-6185 -6193 0
-6186 -6194 0
-6187 -6195 0
-6188 -6196 0
-6185 -6233 0
-6186 -6234 0
-6187 -6235 0
-6188 -6236 0
-6185 -6237 0
-6186 -6238 0
-6187 -6239 0
-6188 -6240 0
-6185 -6281 0
-6186 -6282 0
-6187 -6283 0
-6188 -6284 0
-6185 -6369 0
-6186 -6370 0
-6187 -6371 0
-6188 -6372 0
-6185 -6373 0
-6186 -6374 0
-6187 -6375 0
-6188 -6376 0
-6185 -6585 0
-6186 -6586 0
-6187 -6587 0
-6188 -6588 0
-6185 -7037 0
-6186 -7038 0
-6187 -7039 0
-6188 -7040 0
-6185 -7353 0
-6186 -7354 0
-6187 -7355 0
-6188 -7356 0
-6185 -7505 0
-6186 -7506 0
-6187 -7507 0
-6188 -7508 0
-6185 -7733 0
-6186 -7734 0
-6187 -7735 0
-6188 -7736 0
-6185 -7893 0
-6186 -7894 0
-6187 -7895 0
-6188 -7896 0
-6185 -7901 0
-6186 -7902 0
-6187 -7903 0
-6188 -7904 0
-6185 -8061 0
-6186 -8062 0
-6187 -8063 0
-6188 -8064 0
-6189 -6241 0
-6190 -6242 0
-6191 -6243 0
-6192 -6244 0
-6189 -6245 0
-6190 -6246 0
-6191 -6247 0
-6192 -6248 0
-6189 -6521 0
-6190 -6522 0
-6191 -6523 0
-6192 -6524 0
-6189 -6793 0
-6190 -6794 0
-6191 -6795 0
-6192 -6796 0
-6189 -7357 0
-6190 -7358 0
-6191 -7359 0
-6192 -7360 0
-6189 -7897 0
-6190 -7898 0
-6191 -7899 0
-6192 -7900 0
-6189 -7905 0
-6190 -7906 0
-6191 -7907 0
-6192 -7908 0
-6193 -6249 0
-6194 -6250 0
-6195 -6251 0
-6196 -6252 0
-6193 -6281 0
-6194 -6282 0
-6195 -6283 0
-6196 -6284 0
-6193 -6677 0
-6194 -6678 0
-6195 -6679 0
-6196 -6680 0
-6193 -7041 0
-6194 -7042 0
-6195 -7043 0
-6196 -7044 0
-6197 -6201 0
-6198 -6202 0
-6199 -6203 0
-6200 -6204 0
-6197 -6205 0
-6198 -6206 0
-6199 -6207 0
-6200 -6208 0
-6197 -6221 0
-6198 -6222 0
-6199 -6223 0
-6200 -6224 0
-6197 -6713 0
-6198 -6714 0
-6199 -6715 0
-6200 -6716 0
-6197 -6809 0
-6198 -6810 0
-6199 -6811 0
-6200 -6812 0
-6197 -7909 0
-6198 -7910 0
-6199 -7911 0
-6200 -7912 0
-6197 -7969 0
-6198 -7970 0
-6199 -7971 0
-6200 -7972 0
-6201 -6229 0
-6202 -6230 0
-6203 -6231 0
-6204 -6232 0
-6201 -6845 0
-6202 -6846 0
-6203 -6847 0
-6204 -6848 0
-6201 -7333 0
-6202 -7334 0
-6203 -7335 0
-6204 -7336 0
-6201 -7913 0
-6202 -7914 0
-6203 -7915 0
-6204 -7916 0
-6201 -7977 0
-6202 -7978 0
-6203 -7979 0
-6204 -7980 0
-6205 -6245 0
-6206 -6246 0
-6207 -6247 0
-6208 -6248 0
-6205 -6813 0
-6206 -6814 0
-6207 -6815 0
-6208 -6816 0
-6205 -7369 0
-6206 -7370 0
-6207 -7371 0
-6208 -7372 0
-6205 -7909 0
-6206 -7910 0
-6207 -7911 0
-6208 -7912 0
-6209 -6213 0
-6210 -6214 0
-6211 -6215 0
-6212 -6216 0
-6209 -6217 0
-6210 -6218 0
-6211 -6219 0
-6212 -6220 0
-6209 -6225 0
-6210 -6226 0
-6211 -6227 0
-6212 -6228 0
-6209 -6233 0
-6210 -6234 0
-6211 -6235 0
-6212 -6236 0
-6209 -6313 0
-6210 -6314 0
-6211 -6315 0
-6212 -6316 0
-6209 -6609 0
-6210 -6610 0
-6211 -6611 0
-6212 -6612 0
-6209 -6737 0
-6210 -6738 0
-6211 -6739 0
-6212 -6740 0
-6209 -7917 0
-6210 -7918 0
-6211 -7919 0
-6212 -7920 0
-6213 -6221 0
-6214 -6222 0
-6215 -6223 0
-6216 -6224 0
-6213 -6237 0
-6214 -6238 0
-6215 -6239 0
-6216 -6240 0
-6213 -6417 0
-6214 -6418 0
-6215 -6419 0
-6216 -6420 0
-6213 -6741 0
-6214 -6742 0
-6215 -6743 0
-6216 -6744 0
-6213 -6833 0
-6214 -6834 0
-6215 -6835 0
-6216 -6836 0
-6213 -7741 0
-6214 -7742 0
-6215 -7743 0
-6216 -7744 0
-6213 -7921 0
-6214 -7922 0
-6215 -7923 0
-6216 -7924 0
-6217 -6221 0
-6218 -6222 0
-6219 -6223 0
-6220 -6224 0
-6217 -6241 0
-6218 -6242 0
-6219 -6243 0
-6220 -6244 0
-6217 -6409 0
-6218 -6410 0
-6219 -6411 0
-6220 -6412 0
-6217 -6613 0
-6218 -6614 0
-6219 -6615 0
-6220 -6616 0
-6217 -6837 0
-6218 -6838 0
-6219 -6839 0
-6220 -6840 0
-6217 -7745 0
-6218 -7746 0
-6219 -7747 0
-6220 -7748 0
-6217 -7925 0
-6218 -7926 0
-6219 -7927 0
-6220 -7928 0
-6221 -6229 0
-6222 -6230 0
-6223 -6231 0
-6224 -6232 0
-6221 -6245 0
-6222 -6246 0
-6223 -6247 0
-6224 -6248 0
-6221 -6261 0
-6222 -6262 0
-6223 -6263 0
-6224 -6264 0
-6221 -6841 0
-6222 -6842 0
-6223 -6843 0
-6224 -6844 0
-6221 -7749 0
-6222 -7750 0
-6223 -7751 0
-6224 -7752 0
-6221 -7929 0
-6222 -7930 0
-6223 -7931 0
-6224 -7932 0
-6225 -6249 0
-6226 -6250 0
-6227 -6251 0
-6228 -6252 0
-6225 -6313 0
-6226 -6314 0
-6227 -6315 0
-6228 -6316 0
-6225 -6745 0
-6226 -6746 0
-6227 -6747 0
-6228 -6748 0
-6225 -7301 0
-6226 -7302 0
-6227 -7303 0
-6228 -7304 0
-6229 -6257 0
-6230 -6258 0
-6231 -6259 0
-6232 -6260 0
-6229 -6529 0
-6230 -6530 0
-6231 -6531 0
-6232 -6532 0
-6229 -6853 0
-6230 -6854 0
-6231 -6855 0
-6232 -6856 0
-6229 -7357 0
-6230 -7358 0
-6231 -7359 0
-6232 -7360 0
-6229 -7933 0
-6230 -7934 0
-6231 -7935 0
-6232 -7936 0
-6233 -6237 0
-6234 -6238 0
-6235 -6239 0
-6236 -6240 0
-6233 -6241 0
-6234 -6242 0
-6235 -6243 0
-6236 -6244 0
-6233 -6249 0
-6234 -6250 0
-6235 -6251 0
-6236 -6252 0
-6233 -6317 0
-6234 -6318 0
-6235 -6319 0
-6236 -6320 0
-6233 -6429 0
-6234 -6430 0
-6235 -6431 0
-6236 -6432 0
-6233 -6749 0
-6234 -6750 0
-6235 -6751 0
-6236 -6752 0
-6233 -7305 0
-6234 -7306 0
-6235 -7307 0
-6236 -7308 0
-6233 -7737 0
-6234 -7738 0
-6235 -7739 0
-6236 -7740 0
-6233 -7753 0
-6234 -7754 0
-6235 -7755 0
-6236 -7756 0
-6233 -7917 0
-6234 -7918 0
-6235 -7919 0
-6236 -7920 0
-6233 -7937 0
-6234 -7938 0
-6235 -7939 0
-6236 -7940 0
-6237 -6245 0
-6238 -6246 0
-6239 -6247 0
-6240 -6248 0
-6237 -6321 0
-6238 -6322 0
-6239 -6323 0
-6240 -6324 0
-6237 -6433 0
-6238 -6434 0
-6239 -6435 0
-6240 -6436 0
-6237 -6869 0
-6238 -6870 0
-6239 -6871 0
-6240 -6872 0
-6237 -7197 0
-6238 -7198 0
-6239 -7199 0
-6240 -7200 0
-6237 -7757 0
-6238 -7758 0
-6239 -7759 0
-6240 -7760 0
-6237 -7921 0
-6238 -7922 0
-6239 -7923 0
-6240 -7924 0
-6241 -6245 0
-6242 -6246 0
-6243 -6247 0
-6244 -6248 0
-6241 -6253 0
-6242 -6254 0
-6243 -6255 0
-6244 -6256 0
-6241 -6325 0
-6242 -6326 0
-6243 -6327 0
-6244 -6328 0
-6241 -6413 0
-6242 -6414 0
-6243 -6415 0
-6244 -6416 0
-6241 -6873 0
-6242 -6874 0
-6243 -6875 0
-6244 -6876 0
-6241 -7761 0
-6242 -7762 0
-6243 -7763 0
-6244 -7764 0
-6241 -7925 0
-6242 -7926 0
-6243 -7927 0
-6244 -7928 0
-6245 -6257 0
-6246 -6258 0
-6247 -6259 0
-6248 -6260 0
-6245 -6265 0
-6246 -6266 0
-6247 -6267 0
-6248 -6268 0
-6245 -6533 0
-6246 -6534 0
-6247 -6535 0
-6248 -6536 0
-6245 -6877 0
-6246 -6878 0
-6247 -6879 0
-6248 -6880 0
-6245 -7765 0
-6246 -7766 0
-6247 -7767 0
-6248 -7768 0
-6245 -7929 0
-6246 -7930 0
-6247 -7931 0
-6248 -7932 0
-6249 -6253 0
-6250 -6254 0
-6251 -6255 0
-6252 -6256 0
-6249 -6317 0
-6250 -6318 0
-6251 -6319 0
-6252 -6320 0
-6249 -6753 0
-6250 -6754 0
-6251 -6755 0
-6252 -6756 0
-6249 -7309 0
-6250 -7310 0
-6251 -7311 0
-6252 -7312 0
-6253 -6257 0
-6254 -6258 0
-6255 -6259 0
-6256 -6260 0
-6253 -6325 0
-6254 -6326 0
-6255 -6327 0
-6256 -6328 0
-6253 -6537 0
-6254 -6538 0
-6255 -6539 0
-6256 -6540 0
-6253 -6901 0
-6254 -6902 0
-6255 -6903 0
-6256 -6904 0
-6257 -6541 0
-6258 -6542 0
-6259 -6543 0
-6260 -6544 0
-6257 -6681 0
-6258 -6682 0
-6259 -6683 0
-6260 -6684 0
-6257 -6889 0
-6258 -6890 0
-6259 -6891 0
-6260 -6892 0
-6257 -7933 0
-6258 -7934 0
-6259 -7935 0
-6260 -7936 0
-6261 -6265 0
-6262 -6266 0
-6263 -6267 0
-6264 -6268 0
-6261 -6425 0
-6262 -6426 0
-6263 -6427 0
-6264 -6428 0
-6261 -6641 0
-6262 -6642 0
-6263 -6643 0
-6264 -6644 0
-6261 -6729 0
-6262 -6730 0
-6263 -6731 0
-6264 -6732 0
-6261 -6905 0
-6262 -6906 0
-6263 -6907 0
-6264 -6908 0
-6261 -7509 0
-6262 -7510 0
-6263 -7511 0
-6264 -7512 0
-6261 -7945 0
-6262 -7946 0
-6263 -7947 0
-6264 -7948 0
-6265 -6441 0
-6266 -6442 0
-6267 -6443 0
-6268 -6444 0
-6265 -6909 0
-6266 -6910 0
-6267 -6911 0
-6268 -6912 0
-6265 -7233 0
-6266 -7234 0
-6267 -7235 0
-6268 -7236 0
-6265 -7769 0
-6266 -7770 0
-6267 -7771 0
-6268 -7772 0
-6265 -7945 0
-6266 -7946 0
-6267 -7947 0
-6268 -7948 0
-6269 -6349 0
-6270 -6350 0
-6271 -6351 0
-6272 -6352 0
-6269 -6353 0
-6270 -6354 0
-6271 -6355 0
-6272 -6356 0
-6269 -6661 0
-6270 -6662 0
-6271 -6663 0
-6272 -6664 0
-6269 -6753 0
-6270 -6754 0
-6271 -6755 0
-6272 -6756 0
-6269 -7109 0
-6270 -7110 0
-6271 -7111 0
-6272 -7112 0
-6269 -7345 0
-6270 -7346 0
-6271 -7347 0
-6272 -7348 0
-6269 -7789 0
-6270 -7790 0
-6271 -7791 0
-6272 -7792 0
-6269 -7997 0
-6270 -7998 0
-6271 -7999 0
-6272 -8000 0
-6273 -6281 0
-6274 -6282 0
-6275 -6283 0
-6276 -6284 0
-6273 -6313 0
-6274 -6314 0
-6275 -6315 0
-6276 -6316 0
-6273 -6377 0
-6274 -6378 0
-6275 -6379 0
-6276 -6380 0
-6273 -6789 0
-6274 -6790 0
-6275 -6791 0
-6276 -6792 0
-6273 -7949 0
-6274 -7950 0
-6275 -7951 0
-6276 -7952 0
-6277 -6281 0
-6278 -6282 0
-6279 -6283 0
-6280 -6284 0
-6277 -6285 0
-6278 -6286 0
-6279 -6287 0
-6280 -6288 0
-6277 -6317 0
-6278 -6318 0
-6279 -6319 0
-6280 -6320 0
-6277 -6389 0
-6278 -6390 0
-6279 -6391 0
-6280 -6392 0
-6277 -6793 0
-6278 -6794 0
-6279 -6795 0
-6280 -6796 0
-6277 -7801 0
-6278 -7802 0
-6279 -7803 0
-6280 -7804 0
-6281 -6289 0
-6282 -6290 0
-6283 -6291 0
-6284 -6292 0
-6281 -6317 0
-6282 -6318 0
-6283 -6319 0
-6284 -6320 0
-6281 -6321 0
-6282 -6322 0
-6283 -6323 0
-6284 -6324 0
-6281 -6393 0
-6282 -6394 0
-6283 -6395 0
-6284 -6396 0
-6281 -6593 0
-6282 -6594 0
-6283 -6595 0
-6284 -6596 0
-6281 -6685 0
-6282 -6686 0
-6283 -6687 0
-6284 -6688 0
-6281 -6797 0
-6282 -6798 0
-6283 -6799 0
-6284 -6800 0
-6281 -7525 0
-6282 -7526 0
-6283 -7527 0
-6284 -7528 0
-6281 -7949 0
-6282 -7950 0
-6283 -7951 0
-6284 -7952 0
-6281 -7953 0
-6282 -7954 0
-6283 -7955 0
-6284 -7956 0
-6281 -8097 0
-6282 -8098 0
-6283 -8099 0
-6284 -8100 0
-6285 -6289 0
-6286 -6290 0
-6287 -6291 0
-6288 -6292 0
-6285 -6329 0
-6286 -6330 0
-6287 -6331 0
-6288 -6332 0
-6285 -6389 0
-6286 -6390 0
-6287 -6391 0
-6288 -6392 0
-6285 -6673 0
-6286 -6674 0
-6287 -6675 0
-6288 -6676 0
-6285 -7125 0
-6286 -7126 0
-6287 -7127 0
-6288 -7128 0
-6285 -7425 0
-6286 -7426 0
-6287 -7427 0
-6288 -7428 0
-6285 -7809 0
-6286 -7810 0
-6287 -7811 0
-6288 -7812 0
-6285 -7873 0
-6286 -7874 0
-6287 -7875 0
-6288 -7876 0
-6289 -6329 0
-6290 -6330 0
-6291 -6331 0
-6292 -6332 0
-6289 -6393 0
-6290 -6394 0
-6291 -6395 0
-6292 -6396 0
-6289 -6689 0
-6290 -6690 0
-6291 -6691 0
-6292 -6692 0
-6289 -7129 0
-6290 -7130 0
-6291 -7131 0
-6292 -7132 0
-6293 -6297 0
-6294 -6298 0
-6295 -6299 0
-6296 -6300 0
-6293 -6313 0
-6294 -6314 0
-6295 -6315 0
-6296 -6316 0
-6293 -6809 0
-6294 -6810 0
-6295 -6811 0
-6296 -6812 0
-6293 -7881 0
-6294 -7882 0
-6295 -7883 0
-6296 -7884 0
-6293 -7957 0
-6294 -7958 0
-6295 -7959 0
-6296 -7960 0
-6297 -6301 0
-6298 -6302 0
-6299 -6303 0
-6300 -6304 0
-6297 -6305 0
-6298 -6306 0
-6299 -6307 0
-6300 -6308 0
-6297 -6317 0
-6298 -6318 0
-6299 -6319 0
-6300 -6320 0
-6297 -6345 0
-6298 -6346 0
-6299 -6347 0
-6300 -6348 0
-6297 -6453 0
-6298 -6454 0
-6299 -6455 0
-6300 -6456 0
-6297 -6813 0
-6298 -6814 0
-6299 -6815 0
-6300 -6816 0
-6297 -7241 0
-6298 -7242 0
-6299 -7243 0
-6300 -7244 0
-6297 -7813 0
-6298 -7814 0
-6299 -7815 0
-6300 -7816 0
-6297 -7885 0
-6298 -7886 0
-6299 -7887 0
-6300 -7888 0
-6297 -7957 0
-6298 -7958 0
-6299 -7959 0
-6300 -7960 0
-6297 -8101 0
-6298 -8102 0
-6299 -8103 0
-6300 -8104 0
-6301 -6309 0
-6302 -6310 0
-6303 -6311 0
-6304 -6312 0
-6301 -6325 0
-6302 -6326 0
-6303 -6327 0
-6304 -6328 0
-6301 -6345 0
-6302 -6346 0
-6303 -6347 0
-6304 -6348 0
-6301 -6457 0
-6302 -6458 0
-6303 -6459 0
-6304 -6460 0
-6301 -6957 0
-6302 -6958 0
-6303 -6959 0
-6304 -6960 0
-6301 -7541 0
-6302 -7542 0
-6303 -7543 0
-6304 -7544 0
-6305 -6309 0
-6306 -6310 0
-6307 -6311 0
-6308 -6312 0
-6305 -6329 0
-6306 -6330 0
-6307 -6331 0
-6308 -6332 0
-6305 -6349 0
-6306 -6350 0
-6307 -6351 0
-6308 -6352 0
-6305 -6773 0
-6306 -6774 0
-6307 -6775 0
-6308 -6776 0
-6305 -7249 0
-6306 -7250 0
-6307 -7251 0
-6308 -7252 0
-6305 -7437 0
-6306 -7438 0
-6307 -7439 0
-6308 -7440 0
-6305 -7821 0
-6306 -7822 0
-6307 -7823 0
-6308 -7824 0
-6305 -7889 0
-6306 -7890 0
-6307 -7891 0
-6308 -7892 0
-6309 -6333 0
-6310 -6334 0
-6311 -6335 0
-6312 -6336 0
-6309 -6349 0
-6310 -6350 0
-6311 -6351 0
-6312 -6352 0
-6309 -6777 0
-6310 -6778 0
-6311 -6779 0
-6312 -6780 0
-6309 -7165 0
-6310 -7166 0
-6311 -7167 0
-6312 -7168 0
-6309 -7441 0
-6310 -7442 0
-6311 -7443 0
-6312 -7444 0
-6309 -7549 0
-6310 -7550 0
-6311 -7551 0
-6312 -7552 0
-6313 -6317 0
-6314 -6318 0
-6315 -6319 0
-6316 -6320 0
-6313 -6401 0
-6314 -6402 0
-6315 -6403 0
-6316 -6404 0
-6313 -6841 0
-6314 -6842 0
-6315 -6843 0
-6316 -6844 0
-6313 -7881 0
-6314 -7882 0
-6315 -7883 0
-6316 -7884 0
-6313 -7961 0
-6314 -7962 0
-6315 -7963 0
-6316 -7964 0
-6317 -6321 0
-6318 -6322 0
-6319 -6323 0
-6320 -6324 0
-6317 -6325 0
-6318 -6326 0
-6319 -6327 0
-6320 -6328 0
-6317 -6329 0
-6318 -6330 0
-6319 -6331 0
-6320 -6332 0
-6317 -6405 0
-6318 -6406 0
-6319 -6407 0
-6320 -6408 0
-6317 -6465 0
-6318 -6466 0
-6319 -6467 0
-6320 -6468 0
-6317 -6633 0
-6318 -6634 0
-6319 -6635 0
-6320 -6636 0
-6317 -6877 0
-6318 -6878 0
-6319 -6879 0
-6320 -6880 0
-6317 -7377 0
-6318 -7378 0
-6319 -7379 0
-6320 -7380 0
-6317 -7829 0
-6318 -7830 0
-6319 -7831 0
-6320 -7832 0
-6317 -7885 0
-6318 -7886 0
-6319 -7887 0
-6320 -7888 0
-6317 -7961 0
-6318 -7962 0
-6319 -7963 0
-6320 -7964 0
-6317 -7965 0
-6318 -7966 0
-6319 -7967 0
-6320 -7968 0
-6321 -6701 0
-6322 -6702 0
-6323 -6703 0
-6324 -6704 0
-6321 -6881 0
-6322 -6882 0
-6323 -6883 0
-6324 -6884 0
-6325 -6333 0
-6326 -6334 0
-6327 -6335 0
-6328 -6336 0
-6325 -6469 0
-6326 -6470 0
-6327 -6471 0
-6328 -6472 0
-6325 -6637 0
-6326 -6638 0
-6327 -6639 0
-6328 -6640 0
-6325 -6885 0
-6326 -6886 0
-6327 -6887 0
-6328 -6888 0
-6325 -7181 0
-6326 -7182 0
-6327 -7183 0
-6328 -7184 0
-6325 -7557 0
-6326 -7558 0
-6327 -7559 0
-6328 -7560 0
-6329 -6333 0
-6330 -6334 0
-6331 -6335 0
-6332 -6336 0
-6329 -6405 0
-6330 -6406 0
-6331 -6407 0
-6332 -6408 0
-6329 -6481 0
-6330 -6482 0
-6331 -6483 0
-6332 -6484 0
-6329 -6893 0
-6330 -6894 0
-6331 -6895 0
-6332 -6896 0
-6329 -7381 0
-6330 -7382 0
-6331 -7383 0
-6332 -7384 0
-6329 -7837 0
-6330 -7838 0
-6331 -7839 0
-6332 -7840 0
-6329 -7889 0
-6330 -7890 0
-6331 -7891 0
-6332 -7892 0
-6333 -6649 0
-6334 -6650 0
-6335 -6651 0
-6336 -6652 0
-6333 -7185 0
-6334 -7186 0
-6335 -7187 0
-6336 -7188 0
-6333 -7561 0
-6334 -7562 0
-6335 -7563 0
-6336 -7564 0
-6337 -6341 0
-6338 -6342 0
-6339 -6343 0
-6340 -6344 0
-6337 -6349 0
-6338 -6350 0
-6339 -6351 0
-6340 -6352 0
-6337 -6805 0
-6338 -6806 0
-6339 -6807 0
-6340 -6808 0
-6337 -6965 0
-6338 -6966 0
-6339 -6967 0
-6340 -6968 0
-6337 -7189 0
-6338 -7190 0
-6339 -7191 0
-6340 -7192 0
-6337 -7589 0
-6338 -7590 0
-6339 -7591 0
-6340 -7592 0
-6337 -7909 0
-6338 -7910 0
-6339 -7911 0
-6340 -7912 0
-6337 -7929 0
-6338 -7930 0
-6339 -7931 0
-6340 -7932 0
-6337 -8009 0
-6338 -8010 0
-6339 -8011 0
-6340 -8012 0
-6341 -6353 0
-6342 -6354 0
-6343 -6355 0
-6344 -6356 0
-6341 -6657 0
-6342 -6658 0
-6343 -6659 0
-6344 -6660 0
-6341 -6705 0
-6342 -6706 0
-6343 -6707 0
-6344 -6708 0
-6341 -7193 0
-6342 -7194 0
-6343 -7195 0
-6344 -7196 0
-6341 -7457 0
-6342 -7458 0
-6343 -7459 0
-6344 -7460 0
-6341 -7593 0
-6342 -7594 0
-6343 -7595 0
-6344 -7596 0
-6341 -7913 0
-6342 -7914 0
-6343 -7915 0
-6344 -7916 0
-6341 -7933 0
-6342 -7934 0
-6343 -7935 0
-6344 -7936 0
-6341 -8013 0
-6342 -8014 0
-6343 -8015 0
-6344 -8016 0
-6345 -6349 0
-6346 -6350 0
-6347 -6351 0
-6348 -6352 0
-6345 -6485 0
-6346 -6486 0
-6347 -6487 0
-6348 -6488 0
-6345 -6861 0
-6346 -6862 0
-6347 -6863 0
-6348 -6864 0
-6345 -7605 0
-6346 -7606 0
-6347 -7607 0
-6348 -7608 0
-6345 -8145 0
-6346 -8146 0
-6347 -8147 0
-6348 -8148 0
-6349 -6353 0
-6350 -6354 0
-6351 -6355 0
-6352 -6356 0
-6349 -6489 0
-6350 -6490 0
-6351 -6491 0
-6352 -6492 0
-6349 -6877 0
-6350 -6878 0
-6351 -6879 0
-6352 -6880 0
-6349 -7213 0
-6350 -7214 0
-6351 -7215 0
-6352 -7216 0
-6349 -7397 0
-6350 -7398 0
-6351 -7399 0
-6352 -7400 0
-6349 -7469 0
-6350 -7470 0
-6351 -7471 0
-6352 -7472 0
-6349 -7609 0
-6350 -7610 0
-6351 -7611 0
-6352 -7612 0
-6349 -7945 0
-6350 -7946 0
-6351 -7947 0
-6352 -7948 0
-6349 -8009 0
-6350 -8010 0
-6351 -8011 0
-6352 -8012 0
-6353 -6709 0
-6354 -6710 0
-6355 -6711 0
-6356 -6712 0
-6353 -6889 0
-6354 -6890 0
-6355 -6891 0
-6356 -6892 0
-6353 -7221 0
-6354 -7222 0
-6355 -7223 0
-6356 -7224 0
-6353 -7413 0
-6354 -7414 0
-6355 -7415 0
-6356 -7416 0
-6353 -7465 0
-6354 -7466 0
-6355 -7467 0
-6356 -7468 0
-6353 -8013 0
-6354 -8014 0
-6355 -8015 0
-6356 -8016 0
-6357 -6361 0
-6358 -6362 0
-6359 -6363 0
-6360 -6364 0
-6357 -6509 0
-6358 -6510 0
-6359 -6511 0
-6360 -6512 0
-6357 -7621 0
-6358 -7622 0
-6359 -7623 0
-6360 -7624 0
-6357 -7981 0
-6358 -7982 0
-6359 -7983 0
-6360 -7984 0
-6361 -6517 0
-6362 -6518 0
-6363 -6519 0
-6364 -6520 0
-6361 -7629 0
-6362 -7630 0
-6363 -7631 0
-6364 -7632 0
-6361 -7981 0
-6362 -7982 0
-6363 -7983 0
-6364 -7984 0
-6365 -6373 0
-6366 -6374 0
-6367 -6375 0
-6368 -6376 0
-6365 -6377 0
-6366 -6378 0
-6367 -6379 0
-6368 -6380 0
-6365 -7989 0
-6366 -7990 0
-6367 -7991 0
-6368 -7992 0
-6369 -6373 0
-6370 -6374 0
-6371 -6375 0
-6372 -6376 0
-6369 -6381 0
-6370 -6382 0
-6371 -6383 0
-6372 -6384 0
-6369 -6733 0
-6370 -6734 0
-6371 -6735 0
-6372 -6736 0
-6369 -7629 0
-6370 -7630 0
-6371 -7631 0
-6372 -7632 0
-6369 -7985 0
-6370 -7986 0
-6371 -7987 0
-6372 -7988 0
-6369 -7993 0
-6370 -7994 0
-6371 -7995 0
-6372 -7996 0
-6373 -6385 0
-6374 -6386 0
-6375 -6387 0
-6376 -6388 0
-6373 -6393 0
-6374 -6394 0
-6375 -6395 0
-6376 -6396 0
-6373 -6737 0
-6374 -6738 0
-6375 -6739 0
-6376 -6740 0
-6373 -7189 0
-6374 -7190 0
-6375 -7191 0
-6376 -7192 0
-6373 -7989 0
-6374 -7990 0
-6375 -7991 0
-6376 -7992 0
-6373 -7997 0
-6374 -7998 0
-6375 -7999 0
-6376 -8000 0
-6377 -6393 0
-6378 -6394 0
-6379 -6395 0
-6380 -6396 0
-6377 -6401 0
-6378 -6402 0
-6379 -6403 0
-6380 -6404 0
-6377 -6817 0
-6378 -6818 0
-6379 -6819 0
-6380 -6820 0
-6377 -7485 0
-6378 -7486 0
-6379 -7487 0
-6380 -7488 0
-6377 -8005 0
-6378 -8006 0
-6379 -8007 0
-6380 -8008 0
-6381 -6385 0
-6382 -6386 0
-6383 -6387 0
-6384 -6388 0
-6381 -6577 0
-6382 -6578 0
-6383 -6579 0
-6384 -6580 0
-6381 -7653 0
-6382 -7654 0
-6383 -7655 0
-6384 -7656 0
-6385 -6393 0
-6386 -6394 0
-6387 -6395 0
-6388 -6396 0
-6385 -6397 0
-6386 -6398 0
-6387 -6399 0
-6388 -6400 0
-6385 -6597 0
-6386 -6598 0
-6387 -6599 0
-6388 -6600 0
-6385 -6829 0
-6386 -6830 0
-6387 -6831 0
-6388 -6832 0
-6385 -6977 0
-6386 -6978 0
-6387 -6979 0
-6388 -6980 0
-6385 -7009 0
-6386 -7010 0
-6387 -7011 0
-6388 -7012 0
-6385 -7969 0
-6386 -7970 0
-6387 -7971 0
-6388 -7972 0
-6385 -8001 0
-6386 -8002 0
-6387 -8003 0
-6388 -8004 0
-6385 -8009 0
-6386 -8010 0
-6387 -8011 0
-6388 -8012 0
-6389 -6393 0
-6390 -6394 0
-6391 -6395 0
-6392 -6396 0
-6389 -6405 0
-6390 -6406 0
-6391 -6407 0
-6392 -6408 0
-6389 -6837 0
-6390 -6838 0
-6391 -6839 0
-6392 -6840 0
-6389 -6989 0
-6390 -6990 0
-6391 -6991 0
-6392 -6992 0
-6389 -7241 0
-6390 -7242 0
-6391 -7243 0
-6392 -7244 0
-6389 -7661 0
-6390 -7662 0
-6391 -7663 0
-6392 -7664 0
-6389 -7861 0
-6390 -7862 0
-6391 -7863 0
-6392 -7864 0
-6389 -7973 0
-6390 -7974 0
-6391 -7975 0
-6392 -7976 0
-6393 -6405 0
-6394 -6406 0
-6395 -6407 0
-6396 -6408 0
-6393 -6841 0
-6394 -6842 0
-6395 -6843 0
-6396 -6844 0
-6393 -7245 0
-6394 -7246 0
-6395 -7247 0
-6396 -7248 0
-6393 -7489 0
-6394 -7490 0
-6395 -7491 0
-6396 -7492 0
-6393 -7665 0
-6394 -7666 0
-6395 -7667 0
-6396 -7668 0
-6393 -7977 0
-6394 -7978 0
-6395 -7979 0
-6396 -7980 0
-6393 -8005 0
-6394 -8006 0
-6395 -8007 0
-6396 -8008 0
-6393 -8013 0
-6394 -8014 0
-6395 -8015 0
-6396 -8016 0
-6397 -6605 0
-6398 -6606 0
-6399 -6607 0
-6400 -6608 0
-6397 -6865 0
-6398 -6866 0
-6399 -6867 0
-6400 -6868 0
-6397 -7493 0
-6398 -7494 0
-6399 -7495 0
-6400 -7496 0
-6397 -8009 0
-6398 -8010 0
-6399 -8011 0
-6400 -8012 0
-6401 -6405 0
-6402 -6406 0
-6403 -6407 0
-6404 -6408 0
-6401 -6997 0
-6402 -6998 0
-6403 -6999 0
-6404 -7000 0
-6405 -6645 0
-6406 -6646 0
-6407 -6647 0
-6408 -6648 0
-6405 -6913 0
-6406 -6914 0
-6407 -6915 0
-6408 -6916 0
-6405 -7005 0
-6406 -7006 0
-6407 -7007 0
-6408 -7008 0
-6405 -7477 0
-6406 -7478 0
-6407 -7479 0
-6408 -7480 0
-6405 -7677 0
-6406 -7678 0
-6407 -7679 0
-6408 -7680 0
-6405 -7981 0
-6406 -7982 0
-6407 -7983 0
-6408 -7984 0
-6405 -8017 0
-6406 -8018 0
-6407 -8019 0
-6408 -8020 0
-6409 -6413 0
-6410 -6414 0
-6411 -6415 0
-6412 -6416 0
-6409 -6421 0
-6410 -6422 0
-6411 -6423 0
-6412 -6424 0
-6409 -6801 0
-6410 -6802 0
-6411 -6803 0
-6412 -6804 0
-6409 -8025 0
-6410 -8026 0
-6411 -8027 0
-6412 -8028 0
-6409 -8057 0
-6410 -8058 0
-6411 -8059 0
-6412 -8060 0
-6413 -6437 0
-6414 -6438 0
-6415 -6439 0
-6416 -6440 0
-6413 -6461 0
-6414 -6462 0
-6415 -6463 0
-6416 -6464 0
-6413 -6469 0
-6414 -6470 0
-6415 -6471 0
-6416 -6472 0
-6413 -6737 0
-6414 -6738 0
-6415 -6739 0
-6416 -6740 0
-6413 -6805 0
-6414 -6806 0
-6415 -6807 0
-6416 -6808 0
-6413 -7045 0
-6414 -7046 0
-6415 -7047 0
-6416 -7048 0
-6413 -7865 0
-6414 -7866 0
-6415 -7867 0
-6416 -7868 0
-6413 -8025 0
-6414 -8026 0
-6415 -8027 0
-6416 -8028 0
-6413 -8061 0
-6414 -8062 0
-6415 -8063 0
-6416 -8064 0
-6417 -6425 0
-6418 -6426 0
-6419 -6427 0
-6420 -6428 0
-6417 -6433 0
-6418 -6434 0
-6419 -6435 0
-6420 -6436 0
-6417 -6529 0
-6418 -6530 0
-6419 -6531 0
-6420 -6532 0
-6417 -6825 0
-6418 -6826 0
-6419 -6827 0
-6420 -6828 0
-6417 -7349 0
-6418 -7350 0
-6419 -7351 0
-6420 -7352 0
-6417 -8029 0
-6418 -8030 0
-6419 -8031 0
-6420 -8032 0
-6417 -8169 0
-6418 -8170 0
-6419 -8171 0
-6420 -8172 0
-6421 -6425 0
-6422 -6426 0
-6423 -6427 0
-6424 -6428 0
-6421 -6437 0
-6422 -6438 0
-6423 -6439 0
-6424 -6440 0
-6421 -6445 0
-6422 -6446 0
-6423 -6447 0
-6424 -6448 0
-6421 -6473 0
-6422 -6474 0
-6423 -6475 0
-6424 -6476 0
-6421 -6525 0
-6422 -6526 0
-6423 -6527 0
-6424 -6528 0
-6421 -6841 0
-6422 -6842 0
-6423 -6843 0
-6424 -6844 0
-6421 -8033 0
-6422 -8034 0
-6423 -8035 0
-6424 -8036 0
-6421 -8057 0
-6422 -8058 0
-6423 -8059 0
-6424 -8060 0
-6425 -6441 0
-6426 -6442 0
-6427 -6443 0
-6428 -6444 0
-6425 -6445 0
-6426 -6446 0
-6427 -6447 0
-6428 -6448 0
-6425 -6529 0
-6426 -6530 0
-6427 -6531 0
-6428 -6532 0
-6425 -6845 0
-6426 -6846 0
-6427 -6847 0
-6428 -6848 0
-6425 -7509 0
-6426 -7510 0
-6427 -7511 0
-6428 -7512 0
-6425 -8037 0
-6426 -8038 0
-6427 -8039 0
-6428 -8040 0
-6429 -6433 0
-6430 -6434 0
-6431 -6435 0
-6432 -6436 0
-6429 -6437 0
-6430 -6438 0
-6431 -6439 0
-6432 -6440 0
-6429 -6537 0
-6430 -6538 0
-6431 -6539 0
-6432 -6540 0
-6429 -6677 0
-6430 -6678 0
-6431 -6679 0
-6432 -6680 0
-6429 -6861 0
-6430 -6862 0
-6431 -6863 0
-6432 -6864 0
-6433 -6441 0
-6434 -6442 0
-6435 -6443 0
-6436 -6444 0
-6433 -6541 0
-6434 -6542 0
-6435 -6543 0
-6436 -6544 0
-6433 -6757 0
-6434 -6758 0
-6435 -6759 0
-6436 -6760 0
-6433 -7065 0
-6434 -7066 0
-6435 -7067 0
-6436 -7068 0
-6433 -7357 0
-6434 -7358 0
-6435 -7359 0
-6436 -7360 0
-6433 -8029 0
-6434 -8030 0
-6435 -8031 0
-6436 -8032 0
-6433 -8177 0
-6434 -8178 0
-6435 -8179 0
-6436 -8180 0
-6437 -6441 0
-6438 -6442 0
-6439 -6443 0
-6440 -6444 0
-6437 -6449 0
-6438 -6450 0
-6439 -6451 0
-6440 -6452 0
-6437 -6477 0
-6438 -6478 0
-6439 -6479 0
-6440 -6480 0
-6437 -6481 0
-6438 -6482 0
-6439 -6483 0
-6440 -6484 0
-6437 -6537 0
-6438 -6538 0
-6439 -6539 0
-6440 -6540 0
-6437 -6545 0
-6438 -6546 0
-6439 -6547 0
-6440 -6548 0
-6437 -6877 0
-6438 -6878 0
-6439 -6879 0
-6440 -6880 0
-6437 -7273 0
-6438 -7274 0
-6439 -7275 0
-6440 -7276 0
-6437 -7501 0
-6438 -7502 0
-6439 -7503 0
-6440 -7504 0
-6437 -7521 0
-6438 -7522 0
-6439 -7523 0
-6440 -7524 0
-6437 -7873 0
-6438 -7874 0
-6439 -7875 0
-6440 -7876 0
-6437 -8033 0
-6438 -8034 0
-6439 -8035 0
-6440 -8036 0
-6437 -8041 0
-6438 -8042 0
-6439 -8043 0
-6440 -8044 0
-6437 -8061 0
-6438 -8062 0
-6439 -8063 0
-6440 -8064 0
-6441 -6449 0
-6442 -6450 0
-6443 -6451 0
-6444 -6452 0
-6441 -6541 0
-6442 -6542 0
-6443 -6543 0
-6444 -6544 0
-6441 -6881 0
-6442 -6882 0
-6443 -6883 0
-6444 -6884 0
-6441 -7069 0
-6442 -7070 0
-6443 -7071 0
-6444 -7072 0
-6441 -7277 0
-6442 -7278 0
-6443 -7279 0
-6444 -7280 0
-6441 -7365 0
-6442 -7366 0
-6443 -7367 0
-6444 -7368 0
-6441 -8037 0
-6442 -8038 0
-6443 -8039 0
-6444 -8040 0
-6441 -8045 0
-6442 -8046 0
-6443 -8047 0
-6444 -8048 0
-6445 -6449 0
-6446 -6450 0
-6447 -6451 0
-6448 -6452 0
-6445 -6917 0
-6446 -6918 0
-6447 -6919 0
-6448 -6920 0
-6449 -6549 0
-6450 -6550 0
-6451 -6551 0
-6452 -6552 0
-6449 -6925 0
-6450 -6926 0
-6451 -6927 0
-6452 -6928 0
-6449 -7889 0
-6450 -7890 0
-6451 -7891 0
-6452 -7892 0
-6453 -6457 0
-6454 -6458 0
-6455 -6459 0
-6456 -6460 0
-6453 -6465 0
-6454 -6466 0
-6455 -6467 0
-6456 -6468 0
-6453 -6485 0
-6454 -6486 0
-6455 -6487 0
-6456 -6488 0
-6453 -7385 0
-6454 -7386 0
-6455 -7387 0
-6456 -7388 0
-6453 -8189 0
-6454 -8190 0
-6455 -8191 0
-6456 -8192 0
-6457 -6469 0
-6458 -6470 0
-6459 -6471 0
-6460 -6472 0
-6457 -6485 0
-6458 -6486 0
-6459 -6487 0
-6460 -6488 0
-6457 -6809 0
-6458 -6810 0
-6459 -6811 0
-6460 -6812 0
-6457 -7129 0
-6458 -7130 0
-6459 -7131 0
-6460 -7132 0
-6457 -7297 0
-6458 -7298 0
-6459 -7299 0
-6460 -7300 0
-6457 -7541 0
-6458 -7542 0
-6459 -7543 0
-6460 -7544 0
-6457 -7569 0
-6458 -7570 0
-6459 -7571 0
-6460 -7572 0
-6457 -7913 0
-6458 -7914 0
-6459 -7915 0
-6460 -7916 0
-6457 -8021 0
-6458 -8022 0
-6459 -8023 0
-6460 -8024 0
-6457 -8093 0
-6458 -8094 0
-6459 -8095 0
-6460 -8096 0
-6457 -8193 0
-6458 -8194 0
-6459 -8195 0
-6460 -8196 0
-6461 -6469 0
-6462 -6470 0
-6463 -6471 0
-6464 -6472 0
-6461 -6477 0
-6462 -6478 0
-6463 -6479 0
-6464 -6480 0
-6461 -6613 0
-6462 -6614 0
-6463 -6615 0
-6464 -6616 0
-6461 -6617 0
-6462 -6618 0
-6463 -6619 0
-6464 -6620 0
-6461 -6829 0
-6462 -6830 0
-6463 -6831 0
-6464 -6832 0
-6461 -7125 0
-6462 -7126 0
-6463 -7127 0
-6464 -7128 0
-6461 -7305 0
-6462 -7306 0
-6463 -7307 0
-6464 -7308 0
-6461 -7597 0
-6462 -7598 0
-6463 -7599 0
-6464 -7600 0
-6461 -7929 0
-6462 -7930 0
-6463 -7931 0
-6464 -7932 0
-6465 -6469 0
-6466 -6470 0
-6467 -6471 0
-6468 -6472 0
-6465 -6493 0
-6466 -6494 0
-6467 -6495 0
-6468 -6496 0
-6465 -6833 0
-6466 -6834 0
-6467 -6835 0
-6468 -6836 0
-6465 -7049 0
-6466 -7050 0
-6467 -7051 0
-6468 -7052 0
-6469 -6481 0
-6470 -6482 0
-6471 -6483 0
-6472 -6484 0
-6469 -6493 0
-6470 -6494 0
-6471 -6495 0
-6472 -6496 0
-6469 -6621 0
-6470 -6622 0
-6471 -6623 0
-6472 -6624 0
-6469 -6841 0
-6470 -6842 0
-6471 -6843 0
-6472 -6844 0
-6469 -7053 0
-6470 -7054 0
-6471 -7055 0
-6472 -7056 0
-6469 -7133 0
-6470 -7134 0
-6471 -7135 0
-6472 -7136 0
-6469 -7309 0
-6470 -7310 0
-6471 -7311 0
-6472 -7312 0
-6469 -7557 0
-6470 -7558 0
-6471 -7559 0
-6472 -7560 0
-6469 -7933 0
-6470 -7934 0
-6471 -7935 0
-6472 -7936 0
-6469 -8021 0
-6470 -8022 0
-6471 -8023 0
-6472 -8024 0
-6469 -8097 0
-6470 -8098 0
-6471 -8099 0
-6472 -8100 0
-6473 -6477 0
-6474 -6478 0
-6475 -6479 0
-6476 -6480 0
-6473 -6625 0
-6474 -6626 0
-6475 -6627 0
-6476 -6628 0
-6473 -6949 0
-6474 -6950 0
-6475 -6951 0
-6476 -6952 0
-6473 -7029 0
-6474 -7030 0
-6475 -7031 0
-6476 -7032 0
-6477 -6481 0
-6478 -6482 0
-6479 -6483 0
-6480 -6484 0
-6477 -6637 0
-6478 -6638 0
-6479 -6639 0
-6480 -6640 0
-6477 -6649 0
-6478 -6650 0
-6479 -6651 0
-6480 -6652 0
-6477 -6689 0
-6478 -6690 0
-6479 -6691 0
-6480 -6692 0
-6477 -6957 0
-6478 -6958 0
-6479 -6959 0
-6480 -6960 0
-6477 -7033 0
-6478 -7034 0
-6479 -7035 0
-6480 -7036 0
-6477 -7321 0
-6478 -7322 0
-6479 -7323 0
-6480 -7324 0
-6477 -7945 0
-6478 -7946 0
-6479 -7947 0
-6480 -7948 0
-6477 -8049 0
-6478 -8050 0
-6479 -8051 0
-6480 -8052 0
-6481 -6645 0
-6482 -6646 0
-6483 -6647 0
-6484 -6648 0
-6481 -6653 0
-6482 -6654 0
-6483 -6655 0
-6484 -6656 0
-6481 -6905 0
-6482 -6906 0
-6483 -6907 0
-6484 -6908 0
-6481 -6961 0
-6482 -6962 0
-6483 -6963 0
-6484 -6964 0
-6481 -7285 0
-6482 -7286 0
-6483 -7287 0
-6484 -7288 0
-6481 -7325 0
-6482 -7326 0
-6483 -7327 0
-6484 -7328 0
-6481 -8097 0
-6482 -8098 0
-6483 -8099 0
-6484 -8100 0
-6485 -6489 0
-6486 -6490 0
-6487 -6491 0
-6488 -6492 0
-6485 -6493 0
-6486 -6494 0
-6487 -6495 0
-6488 -6496 0
-6485 -6497 0
-6486 -6498 0
-6487 -6499 0
-6488 -6500 0
-6485 -6657 0
-6486 -6658 0
-6487 -6659 0
-6488 -6660 0
-6485 -7041 0
-6486 -7042 0
-6487 -7043 0
-6488 -7044 0
-6485 -7329 0
-6486 -7330 0
-6487 -7331 0
-6488 -7332 0
-6485 -7449 0
-6486 -7450 0
-6487 -7451 0
-6488 -7452 0
-6485 -7533 0
-6486 -7534 0
-6487 -7535 0
-6488 -7536 0
-6485 -7709 0
-6486 -7710 0
-6487 -7711 0
-6488 -7712 0
-6485 -8029 0
-6486 -8030 0
-6487 -8031 0
-6488 -8032 0
-6485 -8109 0
-6486 -8110 0
-6487 -8111 0
-6488 -8112 0
-6485 -8117 0
-6486 -8118 0
-6487 -8119 0
-6488 -8120 0
-6485 -8233 0
-6486 -8234 0
-6487 -8235 0
-6488 -8236 0
-6489 -6657 0
-6490 -6658 0
-6491 -6659 0
-6492 -6660 0
-6489 -7049 0
-6490 -7050 0
-6491 -7051 0
-6492 -7052 0
-6489 -7337 0
-6490 -7338 0
-6491 -7339 0
-6492 -7340 0
-6489 -7453 0
-6490 -7454 0
-6491 -7455 0
-6492 -7456 0
-6489 -7609 0
-6490 -7610 0
-6491 -7611 0
-6492 -7612 0
-6489 -7613 0
-6490 -7614 0
-6491 -7615 0
-6492 -7616 0
-6489 -8037 0
-6490 -8038 0
-6491 -8039 0
-6492 -8040 0
-6489 -8249 0
-6490 -8250 0
-6491 -8251 0
-6492 -8252 0
-6493 -6665 0
-6494 -6666 0
-6495 -6667 0
-6496 -6668 0
-6493 -6929 0
-6494 -6930 0
-6495 -6931 0
-6496 -6932 0
-6493 -7105 0
-6494 -7106 0
-6495 -7107 0
-6496 -7108 0
-6493 -7353 0
-6494 -7354 0
-6495 -7355 0
-6496 -7356 0
-6493 -7721 0
-6494 -7722 0
-6495 -7723 0
-6496 -7724 0
-6493 -7949 0
-6494 -7950 0
-6495 -7951 0
-6496 -7952 0
-6493 -8029 0
-6494 -8030 0
-6495 -8031 0
-6496 -8032 0
-6493 -8257 0
-6494 -8258 0
-6495 -8259 0
-6496 -8260 0
-6497 -7109 0
-6498 -7110 0
-6499 -7111 0
-6500 -7112 0
-6497 -7565 0
-6498 -7566 0
-6499 -7567 0
-6500 -7568 0
-6497 -7957 0
-6498 -7958 0
-6499 -7959 0
-6500 -7960 0
-6497 -8125 0
-6498 -8126 0
-6499 -8127 0
-6500 -8128 0
-6497 -8141 0
-6498 -8142 0
-6499 -8143 0
-6500 -8144 0
-6497 -8265 0
-6498 -8266 0
-6499 -8267 0
-6500 -8268 0
-6501 -6505 0
-6502 -6506 0
-6503 -6507 0
-6504 -6508 0
-6501 -6513 0
-6502 -6514 0
-6503 -6515 0
-6504 -6516 0
-6501 -6521 0
-6502 -6522 0
-6503 -6523 0
-6504 -6524 0
-6501 -6553 0
-6502 -6554 0
-6503 -6555 0
-6504 -6556 0
-6501 -7621 0
-6502 -7622 0
-6503 -7623 0
-6504 -7624 0
-6501 -8053 0
-6502 -8054 0
-6503 -8055 0
-6504 -8056 0
-6505 -6561 0
-6506 -6562 0
-6507 -6563 0
-6508 -6564 0
-6505 -6977 0
-6506 -6978 0
-6507 -6979 0
-6508 -6980 0
-6505 -7305 0
-6506 -7306 0
-6507 -7307 0
-6508 -7308 0
-6505 -8057 0
-6506 -8058 0
-6507 -8059 0
-6508 -8060 0
-6505 -8061 0
-6506 -8062 0
-6507 -8063 0
-6508 -8064 0
-6509 -6517 0
-6510 -6518 0
-6511 -6519 0
-6512 -6520 0
-6509 -6529 0
-6510 -6530 0
-6511 -6531 0
-6512 -6532 0
-6509 -7621 0
-6510 -7622 0
-6511 -7623 0
-6512 -7624 0
-6509 -8065 0
-6510 -8066 0
-6511 -8067 0
-6512 -8068 0
-6513 -6517 0
-6514 -6518 0
-6515 -6519 0
-6516 -6520 0
-6513 -6533 0
-6514 -6534 0
-6515 -6535 0
-6516 -6536 0
-6513 -6573 0
-6514 -6574 0
-6515 -6575 0
-6516 -6576 0
-6513 -6721 0
-6514 -6722 0
-6515 -6723 0
-6516 -6724 0
-6517 -6541 0
-6518 -6542 0
-6519 -6543 0
-6520 -6544 0
-6517 -6573 0
-6518 -6574 0
-6519 -6575 0
-6520 -6576 0
-6517 -7629 0
-6518 -7630 0
-6519 -7631 0
-6520 -7632 0
-6517 -8065 0
-6518 -8066 0
-6519 -8067 0
-6520 -8068 0
-6521 -6533 0
-6522 -6534 0
-6523 -6535 0
-6524 -6536 0
-6521 -6597 0
-6522 -6598 0
-6523 -6599 0
-6524 -6600 0
-6521 -7637 0
-6522 -7638 0
-6523 -7639 0
-6524 -7640 0
-6525 -6529 0
-6526 -6530 0
-6527 -6531 0
-6528 -6532 0
-6525 -6537 0
-6526 -6538 0
-6527 -6539 0
-6528 -6540 0
-6525 -6625 0
-6526 -6626 0
-6527 -6627 0
-6528 -6628 0
-6525 -6993 0
-6526 -6994 0
-6527 -6995 0
-6528 -6996 0
-6525 -7225 0
-6526 -7226 0
-6527 -7227 0
-6528 -7228 0
-6525 -8073 0
-6526 -8074 0
-6527 -8075 0
-6528 -8076 0
-6529 -6541 0
-6530 -6542 0
-6531 -6543 0
-6532 -6544 0
-6529 -6629 0
-6530 -6630 0
-6531 -6631 0
-6532 -6632 0
-6529 -7209 0
-6530 -7210 0
-6531 -7211 0
-6532 -7212 0
-6529 -7637 0
-6530 -7638 0
-6531 -7639 0
-6532 -7640 0
-6529 -8077 0
-6530 -8078 0
-6531 -8079 0
-6532 -8080 0
-6533 -6541 0
-6534 -6542 0
-6535 -6543 0
-6536 -6544 0
-6533 -6641 0
-6534 -6642 0
-6535 -6643 0
-6536 -6644 0
-6533 -6741 0
-6534 -6742 0
-6535 -6743 0
-6536 -6744 0
-6533 -7213 0
-6534 -7214 0
-6535 -7215 0
-6536 -7216 0
-6533 -7969 0
-6534 -7970 0
-6535 -7971 0
-6536 -7972 0
-6533 -8069 0
-6534 -8070 0
-6535 -8071 0
-6536 -8072 0
-6533 -8081 0
-6534 -8082 0
-6535 -8083 0
-6536 -8084 0
-6537 -6541 0
-6538 -6542 0
-6539 -6543 0
-6540 -6544 0
-6537 -6545 0
-6538 -6546 0
-6539 -6547 0
-6540 -6548 0
-6537 -6549 0
-6538 -6550 0
-6539 -6551 0
-6540 -6552 0
-6537 -6637 0
-6538 -6638 0
-6539 -6639 0
-6540 -6640 0
-6537 -6645 0
-6538 -6646 0
-6539 -6647 0
-6540 -6648 0
-6537 -6745 0
-6538 -6746 0
-6539 -6747 0
-6540 -6748 0
-6537 -7001 0
-6538 -7002 0
-6539 -7003 0
-6540 -7004 0
-6537 -7229 0
-6538 -7230 0
-6539 -7231 0
-6540 -7232 0
-6537 -7625 0
-6538 -7626 0
-6539 -7627 0
-6540 -7628 0
-6537 -7973 0
-6538 -7974 0
-6539 -7975 0
-6540 -7976 0
-6537 -8073 0
-6538 -8074 0
-6539 -8075 0
-6540 -8076 0
-6537 -8085 0
-6538 -8086 0
-6539 -8087 0
-6540 -8088 0
-6541 -6549 0
-6542 -6550 0
-6543 -6551 0
-6544 -6552 0
-6541 -6641 0
-6542 -6642 0
-6543 -6643 0
-6544 -6644 0
-6541 -7017 0
-6542 -7018 0
-6543 -7019 0
-6544 -7020 0
-6541 -7221 0
-6542 -7222 0
-6543 -7223 0
-6544 -7224 0
-6541 -7369 0
-6542 -7370 0
-6543 -7371 0
-6544 -7372 0
-6541 -7641 0
-6542 -7642 0
-6543 -7643 0
-6544 -7644 0
-6541 -7733 0
-6542 -7734 0
-6543 -7735 0
-6544 -7736 0
-6541 -7977 0
-6542 -7978 0
-6543 -7979 0
-6544 -7980 0
-6541 -8077 0
-6542 -8078 0
-6543 -8079 0
-6544 -8080 0
-6541 -8089 0
-6542 -8090 0
-6543 -8091 0
-6544 -8092 0
-6545 -6649 0
-6546 -6650 0
-6547 -6651 0
-6548 -6652 0
-6545 -6653 0
-6546 -6654 0
-6547 -6655 0
-6548 -6656 0
-6545 -7005 0
-6546 -7006 0
-6547 -7007 0
-6548 -7008 0
-6545 -7373 0
-6546 -7374 0
-6547 -7375 0
-6548 -7376 0
-6549 -6761 0
-6550 -6762 0
-6551 -6763 0
-6552 -6764 0
-6549 -7737 0
-6550 -7738 0
-6551 -7739 0
-6552 -7740 0
-6549 -7981 0
-6550 -7982 0
-6551 -7983 0
-6552 -7984 0
-6553 -6557 0
-6554 -6558 0
-6555 -6559 0
-6556 -6560 0
-6553 -6561 0
-6554 -6562 0
-6555 -6563 0
-6556 -6564 0
-6553 -6569 0
-6554 -6570 0
-6555 -6571 0
-6556 -6572 0
-6553 -6573 0
-6554 -6574 0
-6555 -6575 0
-6556 -6576 0
-6553 -6593 0
-6554 -6594 0
-6555 -6595 0
-6556 -6596 0
-6553 -6597 0
-6554 -6598 0
-6555 -6599 0
-6556 -6600 0
-6553 -7021 0
-6554 -7022 0
-6555 -7023 0
-6556 -7024 0
-6553 -7649 0
-6554 -7650 0
-6555 -7651 0
-6556 -7652 0
-6553 -7977 0
-6554 -7978 0
-6555 -7979 0
-6556 -7980 0
-6553 -8093 0
-6554 -8094 0
-6555 -8095 0
-6556 -8096 0
-6557 -6565 0
-6558 -6566 0
-6559 -6567 0
-6560 -6568 0
-6557 -6601 0
-6558 -6602 0
-6559 -6603 0
-6560 -6604 0
-6557 -6605 0
-6558 -6606 0
-6559 -6607 0
-6560 -6608 0
-6557 -7025 0
-6558 -7026 0
-6559 -7027 0
-6560 -7028 0
-6557 -7657 0
-6558 -7658 0
-6559 -7659 0
-6560 -7660 0
-6557 -8093 0
-6558 -8094 0
-6559 -8095 0
-6560 -8096 0
-6561 -6565 0
-6562 -6566 0
-6563 -6567 0
-6564 -6568 0
-6561 -6981 0
-6562 -6982 0
-6563 -6983 0
-6564 -6984 0
-6561 -7029 0
-6562 -7030 0
-6563 -7031 0
-6564 -7032 0
-6561 -7157 0
-6562 -7158 0
-6563 -7159 0
-6564 -7160 0
-6561 -7377 0
-6562 -7378 0
-6563 -7379 0
-6564 -7380 0
-6561 -8097 0
-6562 -8098 0
-6563 -8099 0
-6564 -8100 0
-6565 -6985 0
-6566 -6986 0
-6567 -6987 0
-6568 -6988 0
-6565 -7033 0
-6566 -7034 0
-6567 -7035 0
-6568 -7036 0
-6565 -8097 0
-6566 -8098 0
-6567 -8099 0
-6568 -8100 0
-6569 -6573 0
-6570 -6574 0
-6571 -6575 0
-6572 -6576 0
-6569 -6633 0
-6570 -6634 0
-6571 -6635 0
-6572 -6636 0
-6569 -6637 0
-6570 -6638 0
-6571 -6639 0
-6572 -6640 0
-6569 -6765 0
-6570 -6766 0
-6571 -6767 0
-6572 -6768 0
-6569 -7165 0
-6570 -7166 0
-6571 -7167 0
-6572 -7168 0
-6569 -7753 0
-6570 -7754 0
-6571 -7755 0
-6572 -7756 0
-6569 -7981 0
-6570 -7982 0
-6571 -7983 0
-6572 -7984 0
-6569 -8101 0
-6570 -8102 0
-6571 -8103 0
-6572 -8104 0
-6573 -6641 0
-6574 -6642 0
-6575 -6643 0
-6576 -6644 0
-6573 -7477 0
-6574 -7478 0
-6575 -7479 0
-6576 -7480 0
-6573 -7653 0
-6574 -7654 0
-6575 -7655 0
-6576 -7656 0
-6573 -7757 0
-6574 -7758 0
-6575 -7759 0
-6576 -7760 0
-6573 -8105 0
-6574 -8106 0
-6575 -8107 0
-6576 -8108 0
-6577 -6581 0
-6578 -6582 0
-6579 -6583 0
-6580 -6584 0
-6577 -6585 0
-6578 -6586 0
-6579 -6587 0
-6580 -6588 0
-6577 -6593 0
-6578 -6594 0
-6579 -6595 0
-6580 -6596 0
-6577 -6609 0
-6578 -6610 0
-6579 -6611 0
-6580 -6612 0
-6577 -7757 0
-6578 -7758 0
-6579 -7759 0
-6580 -7760 0
-6577 -8109 0
-6578 -8110 0
-6579 -8111 0
-6580 -8112 0
-6577 -8289 0
-6578 -8290 0
-6579 -8291 0
-6580 -8292 0
-6581 -6597 0
-6582 -6598 0
-6583 -6599 0
-6584 -6600 0
-6581 -6613 0
-6582 -6614 0
-6583 -6615 0
-6584 -6616 0
-6581 -7237 0
-6582 -7238 0
-6583 -7239 0
-6584 -7240 0
-6581 -7765 0
-6582 -7766 0
-6583 -7767 0
-6584 -7768 0
-6585 -6601 0
-6586 -6602 0
-6587 -6603 0
-6588 -6604 0
-6585 -7037 0
-6586 -7038 0
-6587 -7039 0
-6588 -7040 0
-6585 -8109 0
-6586 -8110 0
-6587 -8111 0
-6588 -8112 0
-6585 -8293 0
-6586 -8294 0
-6587 -8295 0
-6588 -8296 0
-6589 -6673 0
-6590 -6674 0
-6591 -6675 0
-6592 -6676 0
-6589 -6793 0
-6590 -6794 0
-6591 -6795 0
-6592 -6796 0
-6589 -7677 0
-6590 -7678 0
-6591 -7679 0
-6592 -7680 0
-6589 -7997 0
-6590 -7998 0
-6591 -7999 0
-6592 -8000 0
-6589 -8053 0
-6590 -8054 0
-6591 -8055 0
-6592 -8056 0
-6589 -8061 0
-6590 -8062 0
-6591 -8063 0
-6592 -8064 0
-6593 -6597 0
-6594 -6598 0
-6595 -6599 0
-6596 -6600 0
-6593 -6601 0
-6594 -6602 0
-6595 -6603 0
-6596 -6604 0
-6593 -6633 0
-6594 -6634 0
-6595 -6635 0
-6596 -6636 0
-6593 -7485 0
-6594 -7486 0
-6595 -7487 0
-6596 -7488 0
-6593 -8117 0
-6594 -8118 0
-6595 -8119 0
-6596 -8120 0
-6593 -8297 0
-6594 -8298 0
-6595 -8299 0
-6596 -8300 0
-6597 -6605 0
-6598 -6606 0
-6599 -6607 0
-6600 -6608 0
-6597 -6637 0
-6598 -6638 0
-6599 -6639 0
-6600 -6640 0
-6597 -6641 0
-6598 -6642 0
-6599 -6643 0
-6600 -6644 0
-6597 -6789 0
-6598 -6790 0
-6599 -6791 0
-6600 -6792 0
-6597 -7769 0
-6598 -7770 0
-6599 -7771 0
-6600 -7772 0
-6597 -8113 0
-6598 -8114 0
-6599 -8115 0
-6600 -8116 0
-6597 -8121 0
-6598 -8122 0
-6599 -8123 0
-6600 -8124 0
-6597 -8301 0
-6598 -8302 0
-6599 -8303 0
-6600 -8304 0
-6601 -6605 0
-6602 -6606 0
-6603 -6607 0
-6604 -6608 0
-6601 -7057 0
-6602 -7058 0
-6603 -7059 0
-6604 -7060 0
-6601 -7489 0
-6602 -7490 0
-6603 -7491 0
-6604 -7492 0
-6601 -8117 0
-6602 -8118 0
-6603 -8119 0
-6604 -8120 0
-6601 -8305 0
-6602 -8306 0
-6603 -8307 0
-6604 -8308 0
-6605 -6797 0
-6606 -6798 0
-6607 -6799 0
-6608 -6800 0
-6605 -7061 0
-6606 -7062 0
-6607 -7063 0
-6608 -7064 0
-6605 -8121 0
-6606 -8122 0
-6607 -8123 0
-6608 -8124 0
-6609 -6613 0
-6610 -6614 0
-6611 -6615 0
-6612 -6616 0
-6609 -6633 0
-6610 -6634 0
-6611 -6635 0
-6612 -6636 0
-6609 -6821 0
-6610 -6822 0
-6611 -6823 0
-6612 -6824 0
-6609 -7189 0
-6610 -7190 0
-6611 -7191 0
-6612 -7192 0
-6609 -8125 0
-6610 -8126 0
-6611 -8127 0
-6612 -8128 0
-6613 -6617 0
-6614 -6618 0
-6615 -6619 0
-6616 -6620 0
-6613 -6637 0
-6614 -6638 0
-6615 -6639 0
-6616 -6640 0
-6613 -6801 0
-6614 -6802 0
-6615 -6803 0
-6616 -6804 0
-6613 -7241 0
-6614 -7242 0
-6615 -7243 0
-6616 -7244 0
-6613 -7777 0
-6614 -7778 0
-6615 -7779 0
-6616 -7780 0
-6613 -8129 0
-6614 -8130 0
-6615 -8131 0
-6616 -8132 0
-6617 -6621 0
-6618 -6622 0
-6619 -6623 0
-6620 -6624 0
-6617 -6649 0
-6618 -6650 0
-6619 -6651 0
-6620 -6652 0
-6617 -6849 0
-6618 -6850 0
-6619 -6851 0
-6620 -6852 0
-6617 -7249 0
-6618 -7250 0
-6619 -7251 0
-6620 -7252 0
-6621 -6653 0
-6622 -6654 0
-6623 -6655 0
-6624 -6656 0
-6621 -6665 0
-6622 -6666 0
-6623 -6667 0
-6624 -6668 0
-6621 -6997 0
-6622 -6998 0
-6623 -6999 0
-6624 -7000 0
-6621 -7077 0
-6622 -7078 0
-6623 -7079 0
-6624 -7080 0
-6621 -7681 0
-6622 -7682 0
-6623 -7683 0
-6624 -7684 0
-6621 -7785 0
-6622 -7786 0
-6623 -7787 0
-6624 -7788 0
-6625 -6629 0
-6626 -6630 0
-6627 -6631 0
-6628 -6632 0
-6625 -6637 0
-6626 -6638 0
-6627 -6639 0
-6628 -6640 0
-6625 -6817 0
-6626 -6818 0
-6627 -6819 0
-6628 -6820 0
-6625 -7169 0
-6626 -7170 0
-6627 -7171 0
-6628 -7172 0
-6625 -7205 0
-6626 -7206 0
-6627 -7207 0
-6628 -7208 0
-6625 -8133 0
-6626 -8134 0
-6627 -8135 0
-6628 -8136 0
-6629 -6641 0
-6630 -6642 0
-6631 -6643 0
-6632 -6644 0
-6629 -7173 0
-6630 -7174 0
-6631 -7175 0
-6632 -7176 0
-6629 -7257 0
-6630 -7258 0
-6631 -7259 0
-6632 -7260 0
-6629 -8137 0
-6630 -8138 0
-6631 -8139 0
-6632 -8140 0
-6633 -6637 0
-6634 -6638 0
-6635 -6639 0
-6636 -6640 0
-6633 -6833 0
-6634 -6834 0
-6635 -6835 0
-6636 -6836 0
-6633 -7213 0
-6634 -7214 0
-6635 -7215 0
-6636 -7216 0
-6633 -7645 0
-6634 -7646 0
-6635 -7647 0
-6636 -7648 0
-6633 -8141 0
-6634 -8142 0
-6635 -8143 0
-6636 -8144 0
-6637 -6641 0
-6638 -6642 0
-6639 -6643 0
-6640 -6644 0
-6637 -6645 0
-6638 -6646 0
-6639 -6647 0
-6640 -6648 0
-6637 -6649 0
-6638 -6650 0
-6639 -6651 0
-6640 -6652 0
-6637 -6841 0
-6638 -6842 0
-6639 -6843 0
-6640 -6844 0
-6637 -7181 0
-6638 -7182 0
-6639 -7183 0
-6640 -7184 0
-6637 -7217 0
-6638 -7218 0
-6639 -7219 0
-6640 -7220 0
-6637 -7793 0
-6638 -7794 0
-6639 -7795 0
-6640 -7796 0
-6637 -8133 0
-6638 -8134 0
-6639 -8135 0
-6640 -8136 0
-6637 -8145 0
-6638 -8146 0
-6639 -8147 0
-6640 -8148 0
-6641 -6845 0
-6642 -6846 0
-6643 -6847 0
-6644 -6848 0
-6641 -7261 0
-6642 -7262 0
-6643 -7263 0
-6644 -7264 0
-6641 -7797 0
-6642 -7798 0
-6643 -7799 0
-6644 -7800 0
-6641 -8137 0
-6642 -8138 0
-6643 -8139 0
-6644 -8140 0
-6641 -8149 0
-6642 -8150 0
-6643 -8151 0
-6644 -8152 0
-6645 -6653 0
-6646 -6654 0
-6647 -6655 0
-6648 -6656 0
-6645 -6853 0
-6646 -6854 0
-6647 -6855 0
-6648 -6856 0
-6645 -7801 0
-6646 -7802 0
-6647 -7803 0
-6648 -7804 0
-6649 -6653 0
-6650 -6654 0
-6651 -6655 0
-6652 -6656 0
-6649 -6857 0
-6650 -6858 0
-6651 -6859 0
-6652 -6860 0
-6649 -7013 0
-6650 -7014 0
-6651 -7015 0
-6652 -7016 0
-6649 -7185 0
-6650 -7186 0
-6651 -7187 0
-6652 -7188 0
-6649 -7433 0
-6650 -7434 0
-6651 -7435 0
-6652 -7436 0
-6649 -7805 0
-6650 -7806 0
-6651 -7807 0
-6652 -7808 0
-6653 -7093 0
-6654 -7094 0
-6655 -7095 0
-6656 -7096 0
-6653 -7441 0
-6654 -7442 0
-6655 -7443 0
-6656 -7444 0
-6653 -7689 0
-6654 -7690 0
-6655 -7691 0
-6656 -7692 0
-6653 -7809 0
-6654 -7810 0
-6655 -7811 0
-6656 -7812 0
-6657 -6661 0
-6658 -6662 0
-6659 -6663 0
-6660 -6664 0
-6657 -6665 0
-6658 -6666 0
-6659 -6667 0
-6660 -6668 0
-6657 -7193 0
-6658 -7194 0
-6659 -7195 0
-6660 -7196 0
-6657 -7821 0
-6658 -7822 0
-6659 -7823 0
-6660 -7824 0
-6657 -8077 0
-6658 -8078 0
-6659 -8079 0
-6660 -8080 0
-6657 -8313 0
-6658 -8314 0
-6659 -8315 0
-6660 -8316 0
-6661 -6669 0
-6662 -6670 0
-6663 -6671 0
-6664 -6672 0
-6661 -7109 0
-6662 -7110 0
-6663 -7111 0
-6664 -7112 0
-6661 -8089 0
-6662 -8090 0
-6663 -8091 0
-6664 -8092 0
-6665 -6669 0
-6666 -6670 0
-6667 -6671 0
-6668 -6672 0
-6665 -7113 0
-6666 -7114 0
-6667 -7115 0
-6668 -7116 0
-6665 -7837 0
-6666 -7838 0
-6667 -7839 0
-6668 -7840 0
-6665 -8005 0
-6666 -8006 0
-6667 -8007 0
-6668 -8008 0
-6665 -8077 0
-6666 -8078 0
-6667 -8079 0
-6668 -8080 0
-6669 -7117 0
-6670 -7118 0
-6671 -7119 0
-6672 -7120 0
-6669 -7685 0
-6670 -7686 0
-6671 -7687 0
-6672 -7688 0
-6669 -8013 0
-6670 -8014 0
-6671 -8015 0
-6672 -8016 0
-6669 -8089 0
-6670 -8090 0
-6671 -8091 0
-6672 -8092 0
-6673 -7009 0
-6674 -7010 0
-6675 -7011 0
-6676 -7012 0
-6673 -7125 0
-6674 -7126 0
-6675 -7127 0
-6676 -7128 0
-6673 -7473 0
-6674 -7474 0
-6675 -7475 0
-6676 -7476 0
-6673 -8013 0
-6674 -8014 0
-6675 -8015 0
-6676 -8016 0
-6673 -8093 0
-6674 -8094 0
-6675 -8095 0
-6676 -8096 0
-6673 -8097 0
-6674 -8098 0
-6675 -8099 0
-6676 -8100 0
-6677 -6685 0
-6678 -6686 0
-6679 -6687 0
-6680 -6688 0
-6677 -6745 0
-6678 -6746 0
-6679 -6747 0
-6680 -6748 0
-6677 -7041 0
-6678 -7042 0
-6679 -7043 0
-6680 -7044 0
-6681 -7017 0
-6682 -7018 0
-6683 -7019 0
-6684 -7020 0
-6681 -7281 0
-6682 -7282 0
-6683 -7283 0
-6684 -7284 0
-6681 -8021 0
-6682 -8022 0
-6683 -8023 0
-6684 -8024 0
-6681 -8177 0
-6682 -8178 0
-6683 -8179 0
-6684 -8180 0
-6685 -6689 0
-6686 -6690 0
-6687 -6691 0
-6688 -6692 0
-6685 -6693 0
-6686 -6694 0
-6687 -6695 0
-6688 -6696 0
-6685 -6701 0
-6686 -6702 0
-6687 -6703 0
-6688 -6704 0
-6685 -6821 0
-6686 -6822 0
-6687 -6823 0
-6688 -6824 0
-6685 -6841 0
-6686 -6842 0
-6687 -6843 0
-6688 -6844 0
-6685 -7265 0
-6686 -7266 0
-6687 -7267 0
-6688 -7268 0
-6685 -8029 0
-6686 -8030 0
-6687 -8031 0
-6688 -8032 0
-6685 -8153 0
-6686 -8154 0
-6687 -8155 0
-6688 -8156 0
-6685 -8321 0
-6686 -8322 0
-6687 -8323 0
-6688 -8324 0
-6689 -6697 0
-6690 -6698 0
-6691 -6699 0
-6692 -6700 0
-6689 -6841 0
-6690 -6842 0
-6691 -6843 0
-6692 -6844 0
-6689 -6857 0
-6690 -6858 0
-6691 -6859 0
-6692 -6860 0
-6689 -7129 0
-6690 -7130 0
-6691 -7131 0
-6692 -7132 0
-6689 -7497 0
-6690 -7498 0
-6691 -7499 0
-6692 -7500 0
-6689 -7717 0
-6690 -7718 0
-6691 -7719 0
-6692 -7720 0
-6689 -8037 0
-6690 -8038 0
-6691 -8039 0
-6692 -8040 0
-6689 -8157 0
-6690 -8158 0
-6691 -8159 0
-6692 -8160 0
-6693 -6697 0
-6694 -6698 0
-6695 -6699 0
-6696 -6700 0
-6693 -6861 0
-6694 -6862 0
-6695 -6863 0
-6696 -6864 0
-6693 -6877 0
-6694 -6878 0
-6695 -6879 0
-6696 -6880 0
-6693 -7057 0
-6694 -7058 0
-6695 -7059 0
-6696 -7060 0
-6693 -7557 0
-6694 -7558 0
-6695 -7559 0
-6696 -7560 0
-6693 -8153 0
-6694 -8154 0
-6695 -8155 0
-6696 -8156 0
-6693 -8325 0
-6694 -8326 0
-6695 -8327 0
-6696 -8328 0
-6697 -6877 0
-6698 -6878 0
-6699 -6879 0
-6700 -6880 0
-6697 -6893 0
-6698 -6894 0
-6699 -6895 0
-6700 -6896 0
-6697 -7505 0
-6698 -7506 0
-6699 -7507 0
-6700 -7508 0
-6697 -7561 0
-6698 -7562 0
-6699 -7563 0
-6700 -7564 0
-6697 -7721 0
-6698 -7722 0
-6699 -7723 0
-6700 -7724 0
-6697 -8045 0
-6698 -8046 0
-6699 -8047 0
-6700 -8048 0
-6697 -8157 0
-6698 -8158 0
-6699 -8159 0
-6700 -8160 0
-6701 -6917 0
-6702 -6918 0
-6703 -6919 0
-6704 -6920 0
-6701 -7277 0
-6702 -7278 0
-6703 -7279 0
-6704 -7280 0
-6701 -7597 0
-6702 -7598 0
-6703 -7599 0
-6704 -7600 0
-6705 -6709 0
-6706 -6710 0
-6707 -6711 0
-6708 -6712 0
-6705 -7513 0
-6706 -7514 0
-6707 -7515 0
-6708 -7516 0
-6705 -8205 0
-6706 -8206 0
-6707 -8207 0
-6708 -8208 0
-6705 -8233 0
-6706 -8234 0
-6707 -8235 0
-6708 -8236 0
-6709 -7281 0
-6710 -7282 0
-6711 -7283 0
-6712 -7284 0
-6709 -7517 0
-6710 -7518 0
-6711 -7519 0
-6712 -7520 0
-6709 -7701 0
-6710 -7702 0
-6711 -7703 0
-6712 -7704 0
-6709 -8233 0
-6710 -8234 0
-6711 -8235 0
-6712 -8236 0
-6709 -8261 0
-6710 -8262 0
-6711 -8263 0
-6712 -8264 0
-6713 -6721 0
-6714 -6722 0
-6715 -6723 0
-6716 -6724 0
-6713 -7297 0
-6714 -7298 0
-6715 -7299 0
-6716 -7300 0
-6717 -6721 0
-6718 -6722 0
-6719 -6723 0
-6720 -6724 0
-6717 -6725 0
-6718 -6726 0
-6719 -6727 0
-6720 -6728 0
-6717 -8161 0
-6718 -8162 0
-6719 -8163 0
-6720 -8164 0
-6721 -6729 0
-6722 -6730 0
-6723 -6731 0
-6724 -6732 0
-6721 -6757 0
-6722 -6758 0
-6723 -6759 0
-6724 -6760 0
-6721 -7625 0
-6722 -7626 0
-6723 -7627 0
-6724 -7628 0
-6721 -8161 0
-6722 -8162 0
-6723 -8163 0
-6724 -8164 0
-6721 -8165 0
-6722 -8166 0
-6723 -8167 0
-6724 -8168 0
-6725 -6729 0
-6726 -6730 0
-6727 -6731 0
-6728 -6732 0
-6725 -7173 0
-6726 -7174 0
-6727 -7175 0
-6728 -7176 0
-6725 -7317 0
-6726 -7318 0
-6727 -7319 0
-6728 -7320 0
-6725 -8169 0
-6726 -8170 0
-6727 -8171 0
-6728 -8172 0
-6729 -7325 0
-6730 -7326 0
-6731 -7327 0
-6732 -7328 0
-6729 -8169 0
-6730 -8170 0
-6731 -8171 0
-6732 -8172 0
-6729 -8177 0
-6730 -8178 0
-6731 -8179 0
-6732 -8180 0
-6733 -6737 0
-6734 -6738 0
-6735 -6739 0
-6736 -6740 0
-6733 -6821 0
-6734 -6822 0
-6735 -6823 0
-6736 -6824 0
-6737 -6741 0
-6738 -6742 0
-6739 -6743 0
-6740 -6744 0
-6737 -6745 0
-6738 -6746 0
-6739 -6747 0
-6740 -6748 0
-6737 -6749 0
-6738 -6750 0
-6739 -6751 0
-6740 -6752 0
-6737 -6829 0
-6738 -6830 0
-6739 -6831 0
-6740 -6832 0
-6737 -6841 0
-6738 -6842 0
-6739 -6843 0
-6740 -6844 0
-6737 -7189 0
-6738 -7190 0
-6739 -7191 0
-6740 -7192 0
-6737 -7509 0
-6738 -7510 0
-6739 -7511 0
-6740 -7512 0
-6737 -8181 0
-6738 -8182 0
-6739 -8183 0
-6740 -8184 0
-6741 -6845 0
-6742 -6846 0
-6743 -6847 0
-6744 -6848 0
-6741 -7337 0
-6742 -7338 0
-6743 -7339 0
-6744 -7340 0
-6745 -6753 0
-6746 -6754 0
-6747 -6755 0
-6748 -6756 0
-6745 -6761 0
-6746 -6762 0
-6747 -6763 0
-6748 -6764 0
-6745 -6841 0
-6746 -6842 0
-6747 -6843 0
-6748 -6844 0
-6745 -6853 0
-6746 -6854 0
-6747 -6855 0
-6748 -6856 0
-6745 -7193 0
-6746 -7194 0
-6747 -7195 0
-6748 -7196 0
-6745 -7361 0
-6746 -7362 0
-6747 -7363 0
-6748 -7364 0
-6745 -7513 0
-6746 -7514 0
-6747 -7515 0
-6748 -7516 0
-6745 -8185 0
-6746 -8186 0
-6747 -8187 0
-6748 -8188 0
-6749 -6753 0
-6750 -6754 0
-6751 -6755 0
-6752 -6756 0
-6749 -6865 0
-6750 -6866 0
-6751 -6867 0
-6752 -6868 0
-6749 -6877 0
-6750 -6878 0
-6751 -6879 0
-6752 -6880 0
-6749 -7737 0
-6750 -7738 0
-6751 -7739 0
-6752 -7740 0
-6749 -8053 0
-6750 -8054 0
-6751 -8055 0
-6752 -8056 0
-6749 -8181 0
-6750 -8182 0
-6751 -8183 0
-6752 -8184 0
-6753 -6877 0
-6754 -6878 0
-6755 -6879 0
-6756 -6880 0
-6753 -6889 0
-6754 -6890 0
-6755 -6891 0
-6756 -6892 0
-6753 -7725 0
-6754 -7726 0
-6755 -7727 0
-6756 -7728 0
-6753 -8185 0
-6754 -8186 0
-6755 -8187 0
-6756 -8188 0
-6757 -7637 0
-6758 -7638 0
-6759 -7639 0
-6760 -7640 0
-6757 -8333 0
-6758 -8334 0
-6759 -8335 0
-6760 -8336 0
-6761 -6917 0
-6762 -6918 0
-6763 -6919 0
-6764 -6920 0
-6761 -7737 0
-6762 -7738 0
-6763 -7739 0
-6764 -7740 0
-6761 -8065 0
-6762 -8066 0
-6763 -8067 0
-6764 -8068 0
-6765 -6769 0
-6766 -6770 0
-6767 -6771 0
-6768 -6772 0
-6765 -6773 0
-6766 -6774 0
-6767 -6775 0
-6768 -6776 0
-6765 -6833 0
-6766 -6834 0
-6767 -6835 0
-6768 -6836 0
-6765 -6841 0
-6766 -6842 0
-6767 -6843 0
-6768 -6844 0
-6765 -7753 0
-6766 -7754 0
-6767 -7755 0
-6768 -7756 0
-6765 -8065 0
-6766 -8066 0
-6767 -8067 0
-6768 -8068 0
-6765 -8189 0
-6766 -8190 0
-6767 -8191 0
-6768 -8192 0
-6769 -6777 0
-6770 -6778 0
-6771 -6779 0
-6772 -6780 0
-6769 -6781 0
-6770 -6782 0
-6771 -6783 0
-6772 -6784 0
-6769 -6841 0
-6770 -6842 0
-6771 -6843 0
-6772 -6844 0
-6769 -6849 0
-6770 -6850 0
-6771 -6851 0
-6772 -6852 0
-6769 -7161 0
-6770 -7162 0
-6771 -7163 0
-6772 -7164 0
-6769 -7381 0
-6770 -7382 0
-6771 -7383 0
-6772 -7384 0
-6769 -7761 0
-6770 -7762 0
-6771 -7763 0
-6772 -7764 0
-6769 -7865 0
-6770 -7866 0
-6771 -7867 0
-6772 -7868 0
-6769 -8193 0
-6770 -8194 0
-6771 -8195 0
-6772 -8196 0
-6773 -6777 0
-6774 -6778 0
-6775 -6779 0
-6776 -6780 0
-6773 -6869 0
-6774 -6870 0
-6775 -6871 0
-6776 -6872 0
-6773 -6877 0
-6774 -6878 0
-6775 -6879 0
-6776 -6880 0
-6773 -7525 0
-6774 -7526 0
-6775 -7527 0
-6776 -7528 0
-6773 -8189 0
-6774 -8190 0
-6775 -8191 0
-6776 -8192 0
-6777 -6877 0
-6778 -6878 0
-6779 -6879 0
-6780 -6880 0
-6777 -6885 0
-6778 -6886 0
-6779 -6887 0
-6780 -6888 0
-6777 -7165 0
-6778 -7166 0
-6779 -7167 0
-6780 -7168 0
-6777 -7781 0
-6778 -7782 0
-6779 -7783 0
-6780 -7784 0
-6777 -7869 0
-6778 -7870 0
-6779 -7871 0
-6780 -7872 0
-6777 -8193 0
-6778 -8194 0
-6779 -8195 0
-6780 -8196 0
-6781 -6905 0
-6782 -6906 0
-6783 -6907 0
-6784 -6908 0
-6781 -7873 0
-6782 -7874 0
-6783 -7875 0
-6784 -7876 0
-6785 -6789 0
-6786 -6790 0
-6787 -6791 0
-6788 -6792 0
-6785 -6793 0
-6786 -6794 0
-6787 -6795 0
-6788 -6796 0
-6785 -6837 0
-6786 -6838 0
-6787 -6839 0
-6788 -6840 0
-6785 -6841 0
-6786 -6842 0
-6787 -6843 0
-6788 -6844 0
-6785 -7237 0
-6786 -7238 0
-6787 -7239 0
-6788 -7240 0
-6785 -7529 0
-6786 -7530 0
-6787 -7531 0
-6788 -7532 0
-6785 -7873 0
-6786 -7874 0
-6787 -7875 0
-6788 -7876 0
-6785 -8197 0
-6786 -8198 0
-6787 -8199 0
-6788 -8200 0
-6789 -6797 0
-6790 -6798 0
-6791 -6799 0
-6792 -6800 0
-6789 -6841 0
-6790 -6842 0
-6791 -6843 0
-6792 -6844 0
-6789 -6845 0
-6790 -6846 0
-6791 -6847 0
-6792 -6848 0
-6789 -7533 0
-6790 -7534 0
-6791 -7535 0
-6792 -7536 0
-6789 -8201 0
-6790 -8202 0
-6791 -8203 0
-6792 -8204 0
-6789 -8337 0
-6790 -8338 0
-6791 -8339 0
-6792 -8340 0
-6793 -6797 0
-6794 -6798 0
-6795 -6799 0
-6796 -6800 0
-6793 -6873 0
-6794 -6874 0
-6795 -6875 0
-6796 -6876 0
-6793 -6877 0
-6794 -6878 0
-6795 -6879 0
-6796 -6880 0
-6793 -6945 0
-6794 -6946 0
-6795 -6947 0
-6796 -6948 0
-6793 -6989 0
-6794 -6990 0
-6795 -6991 0
-6796 -6992 0
-6793 -7541 0
-6794 -7542 0
-6795 -7543 0
-6796 -7544 0
-6793 -7801 0
-6794 -7802 0
-6795 -7803 0
-6796 -7804 0
-6793 -8197 0
-6794 -8198 0
-6795 -8199 0
-6796 -8200 0
-6797 -6877 0
-6798 -6878 0
-6799 -6879 0
-6800 -6880 0
-6797 -6881 0
-6798 -6882 0
-6799 -6883 0
-6800 -6884 0
-6797 -7265 0
-6798 -7266 0
-6799 -7267 0
-6800 -7268 0
-6797 -7545 0
-6798 -7546 0
-6799 -7547 0
-6800 -7548 0
-6797 -8201 0
-6798 -8202 0
-6799 -8203 0
-6800 -8204 0
-6801 -6805 0
-6802 -6806 0
-6803 -6807 0
-6804 -6808 0
-6801 -6841 0
-6802 -6842 0
-6803 -6843 0
-6804 -6844 0
-6801 -7385 0
-6802 -7386 0
-6803 -7387 0
-6804 -7388 0
-6801 -7877 0
-6802 -7878 0
-6803 -7879 0
-6804 -7880 0
-6801 -8205 0
-6802 -8206 0
-6803 -8207 0
-6804 -8208 0
-6801 -8289 0
-6802 -8290 0
-6803 -8291 0
-6804 -8292 0
-6805 -6877 0
-6806 -6878 0
-6807 -6879 0
-6808 -6880 0
-6805 -7189 0
-6806 -7190 0
-6807 -7191 0
-6808 -7192 0
-6805 -7389 0
-6806 -7390 0
-6807 -7391 0
-6808 -7392 0
-6805 -8205 0
-6806 -8206 0
-6807 -8207 0
-6808 -8208 0
-6805 -8293 0
-6806 -8294 0
-6807 -8295 0
-6808 -8296 0
-6809 -6813 0
-6810 -6814 0
-6811 -6815 0
-6812 -6816 0
-6809 -6841 0
-6810 -6842 0
-6811 -6843 0
-6812 -6844 0
-6809 -7297 0
-6810 -7298 0
-6811 -7299 0
-6812 -7300 0
-6809 -7669 0
-6810 -7670 0
-6811 -7671 0
-6812 -7672 0
-6809 -8161 0
-6810 -8162 0
-6811 -8163 0
-6812 -8164 0
-6809 -8209 0
-6810 -8210 0
-6811 -8211 0
-6812 -8212 0
-6809 -8341 0
-6810 -8342 0
-6811 -8343 0
-6812 -8344 0
-6813 -6877 0
-6814 -6878 0
-6815 -6879 0
-6816 -6880 0
-6813 -7673 0
-6814 -7674 0
-6815 -7675 0
-6816 -7676 0
-6813 -7813 0
-6814 -7814 0
-6815 -7815 0
-6816 -7816 0
-6813 -8165 0
-6814 -8166 0
-6815 -8167 0
-6816 -8168 0
-6813 -8209 0
-6814 -8210 0
-6815 -8211 0
-6816 -8212 0
-6813 -8345 0
-6814 -8346 0
-6815 -8347 0
-6816 -8348 0
-6817 -6841 0
-6818 -6842 0
-6819 -6843 0
-6820 -6844 0
-6817 -7301 0
-6818 -7302 0
-6819 -7303 0
-6820 -7304 0
-6817 -8213 0
-6818 -8214 0
-6819 -8215 0
-6820 -8216 0
-6821 -6825 0
-6822 -6826 0
-6823 -6827 0
-6824 -6828 0
-6821 -6841 0
-6822 -6842 0
-6823 -6843 0
-6824 -6844 0
-6821 -6861 0
-6822 -6862 0
-6823 -6863 0
-6824 -6864 0
-6821 -6993 0
-6822 -6994 0
-6823 -6995 0
-6824 -6996 0
-6821 -7333 0
-6822 -7334 0
-6823 -7335 0
-6824 -7336 0
-6821 -7885 0
-6822 -7886 0
-6823 -7887 0
-6824 -7888 0
-6821 -8217 0
-6822 -8218 0
-6823 -8219 0
-6824 -8220 0
-6821 -8349 0
-6822 -8350 0
-6823 -8351 0
-6824 -8352 0
-6825 -6845 0
-6826 -6846 0
-6827 -6847 0
-6828 -6848 0
-6825 -8353 0
-6826 -8354 0
-6827 -8355 0
-6828 -8356 0
-6829 -6841 0
-6830 -6842 0
-6831 -6843 0
-6832 -6844 0
-6829 -6865 0
-6830 -6866 0
-6831 -6867 0
-6832 -6868 0
-6829 -6949 0
-6830 -6950 0
-6831 -6951 0
-6832 -6952 0
-6829 -7305 0
-6830 -7306 0
-6831 -7307 0
-6832 -7308 0
-6829 -7393 0
-6830 -7394 0
-6831 -7395 0
-6832 -7396 0
-6829 -8069 0
-6830 -8070 0
-6831 -8071 0
-6832 -8072 0
-6829 -8221 0
-6830 -8222 0
-6831 -8223 0
-6832 -8224 0
-6833 -6841 0
-6834 -6842 0
-6835 -6843 0
-6836 -6844 0
-6833 -6869 0
-6834 -6870 0
-6835 -6871 0
-6836 -6872 0
-6833 -6929 0
-6834 -6930 0
-6835 -6931 0
-6836 -6932 0
-6833 -7337 0
-6834 -7338 0
-6835 -7339 0
-6836 -7340 0
-6833 -7741 0
-6834 -7742 0
-6835 -7743 0
-6836 -7744 0
-6833 -8225 0
-6834 -8226 0
-6835 -8227 0
-6836 -8228 0
-6837 -6841 0
-6838 -6842 0
-6839 -6843 0
-6840 -6844 0
-6837 -6873 0
-6838 -6874 0
-6839 -6875 0
-6840 -6876 0
-6837 -6913 0
-6838 -6914 0
-6839 -6915 0
-6840 -6916 0
-6837 -7241 0
-6838 -7242 0
-6839 -7243 0
-6840 -7244 0
-6837 -7341 0
-6838 -7342 0
-6839 -7343 0
-6840 -7344 0
-6837 -7745 0
-6838 -7746 0
-6839 -7747 0
-6840 -7748 0
-6837 -8073 0
-6838 -8074 0
-6839 -8075 0
-6840 -8076 0
-6837 -8229 0
-6838 -8230 0
-6839 -8231 0
-6840 -8232 0
-6841 -6845 0
-6842 -6846 0
-6843 -6847 0
-6844 -6848 0
-6841 -6849 0
-6842 -6850 0
-6843 -6851 0
-6844 -6852 0
-6841 -6853 0
-6842 -6854 0
-6843 -6855 0
-6844 -6856 0
-6841 -6857 0
-6842 -6858 0
-6843 -6859 0
-6844 -6860 0
-6841 -6877 0
-6842 -6878 0
-6843 -6879 0
-6844 -6880 0
-6841 -6897 0
-6842 -6898 0
-6843 -6899 0
-6844 -6900 0
-6841 -6905 0
-6842 -6906 0
-6843 -6907 0
-6844 -6908 0
-6841 -6913 0
-6842 -6914 0
-6843 -6915 0
-6844 -6916 0
-6841 -6917 0
-6842 -6918 0
-6843 -6919 0
-6844 -6920 0
-6841 -6929 0
-6842 -6930 0
-6843 -6931 0
-6844 -6932 0
-6841 -6933 0
-6842 -6934 0
-6843 -6935 0
-6844 -6936 0
-6841 -6949 0
-6842 -6950 0
-6843 -6951 0
-6844 -6952 0
-6841 -6953 0
-6842 -6954 0
-6843 -6955 0
-6844 -6956 0
-6841 -6993 0
-6842 -6994 0
-6843 -6995 0
-6844 -6996 0
-6841 -6997 0
-6842 -6998 0
-6843 -6999 0
-6844 -7000 0
-6841 -7201 0
-6842 -7202 0
-6843 -7203 0
-6844 -7204 0
-6841 -7245 0
-6842 -7246 0
-6843 -7247 0
-6844 -7248 0
-6841 -7309 0
-6842 -7310 0
-6843 -7311 0
-6844 -7312 0
-6841 -7345 0
-6842 -7346 0
-6843 -7347 0
-6844 -7348 0
-6841 -7401 0
-6842 -7402 0
-6843 -7403 0
-6844 -7404 0
-6841 -7565 0
-6842 -7566 0
-6843 -7567 0
-6844 -7568 0
-6841 -7621 0
-6842 -7622 0
-6843 -7623 0
-6844 -7624 0
-6841 -7749 0
-6842 -7750 0
-6843 -7751 0
-6844 -7752 0
-6841 -7793 0
-6842 -7794 0
-6843 -7795 0
-6844 -7796 0
-6841 -7889 0
-6842 -7890 0
-6843 -7891 0
-6844 -7892 0
-6841 -7893 0
-6842 -7894 0
-6843 -7895 0
-6844 -7896 0
-6841 -8077 0
-6842 -8078 0
-6843 -8079 0
-6844 -8080 0
-6841 -8161 0
-6842 -8162 0
-6843 -8163 0
-6844 -8164 0
-6841 -8169 0
-6842 -8170 0
-6843 -8171 0
-6844 -8172 0
-6841 -8213 0
-6842 -8214 0
-6843 -8215 0
-6844 -8216 0
-6841 -8233 0
-6842 -8234 0
-6843 -8235 0
-6844 -8236 0
-6841 -8289 0
-6842 -8290 0
-6843 -8291 0
-6844 -8292 0
-6841 -8297 0
-6842 -8298 0
-6843 -8299 0
-6844 -8300 0
-6841 -8357 0
-6842 -8358 0
-6843 -8359 0
-6844 -8360 0
-6845 -6881 0
-6846 -6882 0
-6847 -6883 0
-6848 -6884 0
-6845 -6917 0
-6846 -6918 0
-6847 -6919 0
-6848 -6920 0
-6845 -7405 0
-6846 -7406 0
-6847 -7407 0
-6848 -7408 0
-6845 -7797 0
-6846 -7798 0
-6847 -7799 0
-6848 -7800 0
-6845 -8237 0
-6846 -8238 0
-6847 -8239 0
-6848 -8240 0
-6849 -6885 0
-6850 -6886 0
-6851 -6887 0
-6852 -6888 0
-6849 -6933 0
-6850 -6934 0
-6851 -6935 0
-6852 -6936 0
-6849 -7205 0
-6850 -7206 0
-6851 -7207 0
-6852 -7208 0
-6849 -7409 0
-6850 -7410 0
-6851 -7411 0
-6852 -7412 0
-6849 -7625 0
-6850 -7626 0
-6851 -7627 0
-6852 -7628 0
-6849 -7897 0
-6850 -7898 0
-6851 -7899 0
-6852 -7900 0
-6849 -8241 0
-6850 -8242 0
-6851 -8243 0
-6852 -8244 0
-6849 -8301 0
-6850 -8302 0
-6851 -8303 0
-6852 -8304 0
-6853 -6889 0
-6854 -6890 0
-6855 -6891 0
-6856 -6892 0
-6853 -6953 0
-6854 -6954 0
-6855 -6955 0
-6856 -6956 0
-6853 -7209 0
-6854 -7210 0
-6855 -7211 0
-6856 -7212 0
-6853 -7269 0
-6854 -7270 0
-6855 -7271 0
-6856 -7272 0
-6853 -7569 0
-6854 -7570 0
-6855 -7571 0
-6856 -7572 0
-6853 -7801 0
-6854 -7802 0
-6855 -7803 0
-6856 -7804 0
-6853 -8245 0
-6854 -8246 0
-6855 -8247 0
-6856 -8248 0
-6857 -6893 0
-6858 -6894 0
-6859 -6895 0
-6860 -6896 0
-6857 -6997 0
-6858 -6998 0
-6859 -6999 0
-6860 -7000 0
-6857 -7253 0
-6858 -7254 0
-6859 -7255 0
-6860 -7256 0
-6857 -7313 0
-6858 -7314 0
-6859 -7315 0
-6860 -7316 0
-6857 -7573 0
-6858 -7574 0
-6859 -7575 0
-6860 -7576 0
-6857 -7805 0
-6858 -7806 0
-6859 -7807 0
-6860 -7808 0
-6857 -8249 0
-6858 -8250 0
-6859 -8251 0
-6860 -8252 0
-6861 -6877 0
-6862 -6878 0
-6863 -6879 0
-6864 -6880 0
-6861 -7001 0
-6862 -7002 0
-6863 -7003 0
-6864 -7004 0
-6861 -7041 0
-6862 -7042 0
-6863 -7043 0
-6864 -7044 0
-6861 -8217 0
-6862 -8218 0
-6863 -8219 0
-6864 -8220 0
-6861 -8361 0
-6862 -8362 0
-6863 -8363 0
-6864 -8364 0
-6865 -6877 0
-6866 -6878 0
-6867 -6879 0
-6868 -6880 0
-6865 -6957 0
-6866 -6958 0
-6867 -6959 0
-6868 -6960 0
-6865 -7061 0
-6866 -7062 0
-6867 -7063 0
-6868 -7064 0
-6865 -7825 0
-6866 -7826 0
-6867 -7827 0
-6868 -7828 0
-6865 -8081 0
-6866 -8082 0
-6867 -8083 0
-6868 -8084 0
-6865 -8221 0
-6866 -8222 0
-6867 -8223 0
-6868 -8224 0
-6869 -6877 0
-6870 -6878 0
-6871 -6879 0
-6872 -6880 0
-6869 -6937 0
-6870 -6938 0
-6871 -6939 0
-6872 -6940 0
-6869 -7065 0
-6870 -7066 0
-6871 -7067 0
-6872 -7068 0
-6869 -7677 0
-6870 -7678 0
-6871 -7679 0
-6872 -7680 0
-6869 -7757 0
-6870 -7758 0
-6871 -7759 0
-6872 -7760 0
-6869 -8173 0
-6870 -8174 0
-6871 -8175 0
-6872 -8176 0
-6869 -8225 0
-6870 -8226 0
-6871 -8227 0
-6872 -8228 0
-6873 -6877 0
-6874 -6878 0
-6875 -6879 0
-6876 -6880 0
-6873 -6921 0
-6874 -6922 0
-6875 -6923 0
-6876 -6924 0
-6873 -7045 0
-6874 -7046 0
-6875 -7047 0
-6876 -7048 0
-6873 -7761 0
-6874 -7762 0
-6875 -7763 0
-6876 -7764 0
-6873 -8085 0
-6874 -8086 0
-6875 -8087 0
-6876 -8088 0
-6873 -8229 0
-6874 -8230 0
-6875 -8231 0
-6876 -8232 0
-6877 -6881 0
-6878 -6882 0
-6879 -6883 0
-6880 -6884 0
-6877 -6885 0
-6878 -6886 0
-6879 -6887 0
-6880 -6888 0
-6877 -6889 0
-6878 -6890 0
-6879 -6891 0
-6880 -6892 0
-6877 -6893 0
-6878 -6894 0
-6879 -6895 0
-6880 -6896 0
-6877 -6901 0
-6878 -6902 0
-6879 -6903 0
-6880 -6904 0
-6877 -6909 0
-6878 -6910 0
-6879 -6911 0
-6880 -6912 0
-6877 -6921 0
-6878 -6922 0
-6879 -6923 0
-6880 -6924 0
-6877 -6925 0
-6878 -6926 0
-6879 -6927 0
-6880 -6928 0
-6877 -6937 0
-6878 -6938 0
-6879 -6939 0
-6880 -6940 0
-6877 -6941 0
-6878 -6942 0
-6879 -6943 0
-6880 -6944 0
-6877 -6957 0
-6878 -6958 0
-6879 -6959 0
-6880 -6960 0
-6877 -6961 0
-6878 -6962 0
-6879 -6963 0
-6880 -6964 0
-6877 -7001 0
-6878 -7002 0
-6879 -7003 0
-6880 -7004 0
-6877 -7005 0
-6878 -7006 0
-6879 -7007 0
-6880 -7008 0
-6877 -7049 0
-6878 -7050 0
-6879 -7051 0
-6880 -7052 0
-6877 -7213 0
-6878 -7214 0
-6879 -7215 0
-6880 -7216 0
-6877 -7273 0
-6878 -7274 0
-6879 -7275 0
-6880 -7276 0
-6877 -7417 0
-6878 -7418 0
-6879 -7419 0
-6880 -7420 0
-6877 -7581 0
-6878 -7582 0
-6879 -7583 0
-6880 -7584 0
-6877 -7629 0
-6878 -7630 0
-6879 -7631 0
-6880 -7632 0
-6877 -7681 0
-6878 -7682 0
-6879 -7683 0
-6880 -7684 0
-6877 -7765 0
-6878 -7766 0
-6879 -7767 0
-6880 -7768 0
-6877 -7829 0
-6878 -7830 0
-6879 -7831 0
-6880 -7832 0
-6877 -7901 0
-6878 -7902 0
-6879 -7903 0
-6880 -7904 0
-6877 -8089 0
-6878 -8090 0
-6879 -8091 0
-6880 -8092 0
-6877 -8093 0
-6878 -8094 0
-6879 -8095 0
-6880 -8096 0
-6877 -8165 0
-6878 -8166 0
-6879 -8167 0
-6880 -8168 0
-6877 -8177 0
-6878 -8178 0
-6879 -8179 0
-6880 -8180 0
-6877 -8233 0
-6878 -8234 0
-6879 -8235 0
-6880 -8236 0
-6877 -8253 0
-6878 -8254 0
-6879 -8255 0
-6880 -8256 0
-6877 -8293 0
-6878 -8294 0
-6879 -8295 0
-6880 -8296 0
-6877 -8305 0
-6878 -8306 0
-6879 -8307 0
-6880 -8308 0
-6877 -8365 0
-6878 -8366 0
-6879 -8367 0
-6880 -8368 0
-6881 -6925 0
-6882 -6926 0
-6883 -6927 0
-6884 -6928 0
-6881 -7277 0
-6882 -7278 0
-6883 -7279 0
-6884 -7280 0
-6881 -7421 0
-6882 -7422 0
-6883 -7423 0
-6884 -7424 0
-6881 -7685 0
-6882 -7686 0
-6883 -7687 0
-6884 -7688 0
-6881 -8237 0
-6882 -8238 0
-6883 -8239 0
-6884 -8240 0
-6885 -6941 0
-6886 -6942 0
-6887 -6943 0
-6888 -6944 0
-6885 -7053 0
-6886 -7054 0
-6887 -7055 0
-6888 -7056 0
-6885 -7217 0
-6886 -7218 0
-6887 -7219 0
-6888 -7220 0
-6885 -7633 0
-6886 -7634 0
-6887 -7635 0
-6888 -7636 0
-6885 -7905 0
-6886 -7906 0
-6887 -7907 0
-6888 -7908 0
-6885 -8241 0
-6886 -8242 0
-6887 -8243 0
-6888 -8244 0
-6889 -6961 0
-6890 -6962 0
-6891 -6963 0
-6892 -6964 0
-6889 -7221 0
-6890 -7222 0
-6891 -7223 0
-6892 -7224 0
-6889 -7281 0
-6890 -7282 0
-6891 -7283 0
-6892 -7284 0
-6889 -7585 0
-6890 -7586 0
-6891 -7587 0
-6892 -7588 0
-6889 -8245 0
-6890 -8246 0
-6891 -8247 0
-6892 -8248 0
-6893 -7005 0
-6894 -7006 0
-6895 -7007 0
-6896 -7008 0
-6893 -7589 0
-6894 -7590 0
-6895 -7591 0
-6896 -7592 0
-6893 -7837 0
-6894 -7838 0
-6895 -7839 0
-6896 -7840 0
-6893 -8249 0
-6894 -8250 0
-6895 -8251 0
-6896 -8252 0
-6897 -6901 0
-6898 -6902 0
-6899 -6903 0
-6900 -6904 0
-6897 -7225 0
-6898 -7226 0
-6899 -7227 0
-6900 -7228 0
-6897 -7365 0
-6898 -7366 0
-6899 -7367 0
-6900 -7368 0
-6897 -7425 0
-6898 -7426 0
-6899 -7427 0
-6900 -7428 0
-6897 -7597 0
-6898 -7598 0
-6899 -7599 0
-6900 -7600 0
-6897 -8169 0
-6898 -8170 0
-6899 -8171 0
-6900 -8172 0
-6897 -8257 0
-6898 -8258 0
-6899 -8259 0
-6900 -8260 0
-6901 -7229 0
-6902 -7230 0
-6903 -7231 0
-6904 -7232 0
-6901 -7429 0
-6902 -7430 0
-6903 -7431 0
-6904 -7432 0
-6901 -8097 0
-6902 -8098 0
-6903 -8099 0
-6904 -8100 0
-6901 -8177 0
-6902 -8178 0
-6903 -8179 0
-6904 -8180 0
-6901 -8257 0
-6902 -8258 0
-6903 -8259 0
-6904 -8260 0
-6905 -6909 0
-6906 -6910 0
-6907 -6911 0
-6908 -6912 0
-6905 -7261 0
-6906 -7262 0
-6907 -7263 0
-6908 -7264 0
-6905 -7325 0
-6906 -7326 0
-6907 -7327 0
-6908 -7328 0
-6905 -7601 0
-6906 -7602 0
-6907 -7603 0
-6908 -7604 0
-6905 -8261 0
-6906 -8262 0
-6907 -8263 0
-6908 -8264 0
-6905 -8297 0
-6906 -8298 0
-6907 -8299 0
-6908 -8300 0
-6909 -7069 0
-6910 -7070 0
-6911 -7071 0
-6912 -7072 0
-6909 -7605 0
-6910 -7606 0
-6911 -7607 0
-6912 -7608 0
-6909 -7689 0
-6910 -7690 0
-6911 -7691 0
-6912 -7692 0
-6909 -7769 0
-6910 -7770 0
-6911 -7771 0
-6912 -7772 0
-6909 -8261 0
-6910 -8262 0
-6911 -8263 0
-6912 -8264 0
-6909 -8305 0
-6910 -8306 0
-6911 -8307 0
-6912 -8308 0
-6913 -6917 0
-6914 -6918 0
-6915 -6919 0
-6916 -6920 0
-6913 -6921 0
-6914 -6922 0
-6915 -6923 0
-6916 -6924 0
-6913 -7073 0
-6914 -7074 0
-6915 -7075 0
-6916 -7076 0
-6913 -7373 0
-6914 -7374 0
-6915 -7375 0
-6916 -7376 0
-6913 -7773 0
-6914 -7774 0
-6915 -7775 0
-6916 -7776 0
-6913 -7917 0
-6914 -7918 0
-6915 -7919 0
-6916 -7920 0
-6913 -8265 0
-6914 -8266 0
-6915 -8267 0
-6916 -8268 0
-6917 -6925 0
-6918 -6926 0
-6919 -6927 0
-6920 -6928 0
-6917 -7089 0
-6918 -7090 0
-6919 -7091 0
-6920 -7092 0
-6917 -7437 0
-6918 -7438 0
-6919 -7439 0
-6920 -7440 0
-6917 -7825 0
-6918 -7826 0
-6919 -7827 0
-6920 -7828 0
-6917 -7921 0
-6918 -7922 0
-6919 -7923 0
-6920 -7924 0
-6917 -8269 0
-6918 -8270 0
-6919 -8271 0
-6920 -8272 0
-6921 -6925 0
-6922 -6926 0
-6923 -6927 0
-6924 -6928 0
-6921 -7081 0
-6922 -7082 0
-6923 -7083 0
-6924 -7084 0
-6921 -7777 0
-6922 -7778 0
-6923 -7779 0
-6924 -7780 0
-6921 -7937 0
-6922 -7938 0
-6923 -7939 0
-6924 -7940 0
-6921 -8101 0
-6922 -8102 0
-6923 -8103 0
-6924 -8104 0
-6921 -8265 0
-6922 -8266 0
-6923 -8267 0
-6924 -8268 0
-6925 -7445 0
-6926 -7446 0
-6927 -7447 0
-6928 -7448 0
-6925 -8105 0
-6926 -8106 0
-6927 -8107 0
-6928 -8108 0
-6925 -8269 0
-6926 -8270 0
-6927 -8271 0
-6928 -8272 0
-6929 -6933 0
-6930 -6934 0
-6931 -6935 0
-6932 -6936 0
-6929 -6937 0
-6930 -6938 0
-6931 -6939 0
-6932 -6940 0
-6929 -7353 0
-6930 -7354 0
-6931 -7355 0
-6932 -7356 0
-6929 -7941 0
-6930 -7942 0
-6931 -7943 0
-6932 -7944 0
-6929 -8273 0
-6930 -8274 0
-6931 -8275 0
-6932 -8276 0
-6929 -8381 0
-6930 -8382 0
-6931 -8383 0
-6932 -8384 0
-6933 -6941 0
-6934 -6942 0
-6935 -6943 0
-6936 -6944 0
-6933 -7357 0
-6934 -7358 0
-6935 -7359 0
-6936 -7360 0
-6933 -7461 0
-6934 -7462 0
-6935 -7463 0
-6936 -7464 0
-6933 -7637 0
-6934 -7638 0
-6935 -7639 0
-6936 -7640 0
-6933 -7945 0
-6934 -7946 0
-6935 -7947 0
-6936 -7948 0
-6933 -8113 0
-6934 -8114 0
-6935 -8115 0
-6936 -8116 0
-6933 -8277 0
-6934 -8278 0
-6935 -8279 0
-6936 -8280 0
-6937 -6941 0
-6938 -6942 0
-6939 -6943 0
-6940 -6944 0
-6937 -7797 0
-6938 -7798 0
-6939 -7799 0
-6940 -7800 0
-6937 -8117 0
-6938 -8118 0
-6939 -8119 0
-6940 -8120 0
-6937 -8273 0
-6938 -8274 0
-6939 -8275 0
-6940 -8276 0
-6937 -8385 0
-6938 -8386 0
-6939 -8387 0
-6940 -8388 0
-6941 -7105 0
-6942 -7106 0
-6943 -7107 0
-6944 -7108 0
-6941 -7465 0
-6942 -7466 0
-6943 -7467 0
-6944 -7468 0
-6941 -7641 0
-6942 -7642 0
-6943 -7643 0
-6944 -7644 0
-6941 -8121 0
-6942 -8122 0
-6943 -8123 0
-6944 -8124 0
-6941 -8277 0
-6942 -8278 0
-6943 -8279 0
-6944 -8280 0
-6945 -6957 0
-6946 -6958 0
-6947 -6959 0
-6948 -6960 0
-6945 -7121 0
-6946 -7122 0
-6947 -7123 0
-6948 -7124 0
-6945 -7849 0
-6946 -7850 0
-6947 -7851 0
-6948 -7852 0
-6945 -8121 0
-6946 -8122 0
-6947 -8123 0
-6948 -8124 0
-6949 -6953 0
-6950 -6954 0
-6951 -6955 0
-6952 -6956 0
-6949 -6957 0
-6950 -6958 0
-6951 -6959 0
-6952 -6960 0
-6949 -7377 0
-6950 -7378 0
-6951 -7379 0
-6952 -7380 0
-6949 -7397 0
-6950 -7398 0
-6951 -7399 0
-6952 -7400 0
-6949 -7645 0
-6950 -7646 0
-6951 -7647 0
-6952 -7648 0
-6949 -8137 0
-6950 -8138 0
-6951 -8139 0
-6952 -8140 0
-6949 -8281 0
-6950 -8282 0
-6951 -8283 0
-6952 -8284 0
-6953 -6961 0
-6954 -6962 0
-6955 -6963 0
-6956 -6964 0
-6953 -7257 0
-6954 -7258 0
-6955 -7259 0
-6956 -7260 0
-6953 -7413 0
-6954 -7414 0
-6955 -7415 0
-6956 -7416 0
-6953 -7649 0
-6954 -7650 0
-6955 -7651 0
-6956 -7652 0
-6953 -7849 0
-6954 -7850 0
-6955 -7851 0
-6956 -7852 0
-6953 -7949 0
-6954 -7950 0
-6955 -7951 0
-6956 -7952 0
-6953 -8285 0
-6954 -8286 0
-6955 -8287 0
-6956 -8288 0
-6957 -6961 0
-6958 -6962 0
-6959 -6963 0
-6960 -6964 0
-6957 -7013 0
-6958 -7014 0
-6959 -7015 0
-6960 -7016 0
-6957 -7129 0
-6958 -7130 0
-6959 -7131 0
-6960 -7132 0
-6957 -7653 0
-6958 -7654 0
-6959 -7655 0
-6960 -7656 0
-6957 -8149 0
-6958 -8150 0
-6959 -8151 0
-6960 -8152 0
-6957 -8281 0
-6958 -8282 0
-6959 -8283 0
-6960 -8284 0
-6961 -7261 0
-6962 -7262 0
-6963 -7263 0
-6964 -7264 0
-6961 -7285 0
-6962 -7286 0
-6963 -7287 0
-6964 -7288 0
-6961 -7657 0
-6962 -7658 0
-6963 -7659 0
-6964 -7660 0
-6961 -7953 0
-6962 -7954 0
-6963 -7955 0
-6964 -7956 0
-6961 -8285 0
-6962 -8286 0
-6963 -8287 0
-6964 -8288 0
-6965 -6969 0
-6966 -6970 0
-6967 -6971 0
-6968 -6972 0
-6965 -7389 0
-6966 -7390 0
-6967 -7391 0
-6968 -7392 0
-6965 -8209 0
-6966 -8210 0
-6967 -8211 0
-6968 -8212 0
-6965 -8233 0
-6966 -8234 0
-6967 -8235 0
-6968 -8236 0
-6969 -7141 0
-6970 -7142 0
-6971 -7143 0
-6972 -7144 0
-6969 -7677 0
-6970 -7678 0
-6971 -7679 0
-6972 -7680 0
-6969 -7841 0
-6970 -7842 0
-6971 -7843 0
-6972 -7844 0
-6969 -8233 0
-6970 -8234 0
-6971 -8235 0
-6972 -8236 0
-6969 -8257 0
-6970 -8258 0
-6971 -8259 0
-6972 -8260 0
-6973 -6977 0
-6974 -6978 0
-6975 -6979 0
-6976 -6980 0
-6973 -6981 0
-6974 -6982 0
-6975 -6983 0
-6976 -6984 0
-6973 -7149 0
-6974 -7150 0
-6975 -7151 0
-6976 -7152 0
-6973 -8289 0
-6974 -8290 0
-6975 -8291 0
-6976 -8292 0
-6977 -6985 0
-6978 -6986 0
-6979 -6987 0
-6980 -6988 0
-6977 -7305 0
-6978 -7306 0
-6979 -7307 0
-6980 -7308 0
-6977 -7473 0
-6978 -7474 0
-6979 -7475 0
-6980 -7476 0
-6977 -8289 0
-6978 -8290 0
-6979 -8291 0
-6980 -8292 0
-6977 -8293 0
-6978 -8294 0
-6979 -8295 0
-6980 -8296 0
-6981 -6985 0
-6982 -6986 0
-6983 -6987 0
-6984 -6988 0
-6981 -7645 0
-6982 -7646 0
-6983 -7647 0
-6984 -7648 0
-6981 -8297 0
-6982 -8298 0
-6983 -8299 0
-6984 -8300 0
-6985 -7321 0
-6986 -7322 0
-6987 -7323 0
-6988 -7324 0
-6985 -7653 0
-6986 -7654 0
-6987 -7655 0
-6988 -7656 0
-6985 -8297 0
-6986 -8298 0
-6987 -8299 0
-6988 -8300 0
-6985 -8305 0
-6986 -8306 0
-6987 -8307 0
-6988 -8308 0
-6989 -7005 0
-6990 -7006 0
-6991 -7007 0
-6992 -7008 0
-6989 -7341 0
-6990 -7342 0
-6991 -7343 0
-6992 -7344 0
-6989 -7673 0
-6990 -7674 0
-6991 -7675 0
-6992 -7676 0
-6989 -7861 0
-6990 -7862 0
-6991 -7863 0
-6992 -7864 0
-6993 -6997 0
-6994 -6998 0
-6995 -6999 0
-6996 -7000 0
-6993 -7001 0
-6994 -7002 0
-6995 -7003 0
-6996 -7004 0
-6993 -7981 0
-6994 -7982 0
-6995 -7983 0
-6996 -7984 0
-6993 -7985 0
-6994 -7986 0
-6995 -7987 0
-6996 -7988 0
-6993 -8309 0
-6994 -8310 0
-6995 -8311 0
-6996 -8312 0
-6997 -7005 0
-6998 -7006 0
-6999 -7007 0
-7000 -7008 0
-6997 -7857 0
-6998 -7858 0
-6999 -7859 0
-7000 -7860 0
-6997 -7989 0
-6998 -7990 0
-6999 -7991 0
-7000 -7992 0
-6997 -8313 0
-6998 -8314 0
-6999 -8315 0
-7000 -8316 0
-7001 -7005 0
-7002 -7006 0
-7003 -7007 0
-7004 -7008 0
-7001 -7193 0
-7002 -7194 0
-7003 -7195 0
-7004 -7196 0
-7001 -7493 0
-7002 -7494 0
-7003 -7495 0
-7004 -7496 0
-7001 -7993 0
-7002 -7994 0
-7003 -7995 0
-7004 -7996 0
-7001 -8309 0
-7002 -8310 0
-7003 -8311 0
-7004 -8312 0
-7005 -7013 0
-7006 -7014 0
-7007 -7015 0
-7008 -7016 0
-7005 -7373 0
-7006 -7374 0
-7007 -7375 0
-7008 -7376 0
-7005 -7693 0
-7006 -7694 0
-7007 -7695 0
-7008 -7696 0
-7005 -7997 0
-7006 -7998 0
-7007 -7999 0
-7008 -8000 0
-7005 -8313 0
-7006 -8314 0
-7007 -8315 0
-7008 -8316 0
-7009 -7393 0
-7010 -7394 0
-7011 -7395 0
-7012 -7396 0
-7009 -7473 0
-7010 -7474 0
-7011 -7475 0
-7012 -7476 0
-7009 -8297 0
-7010 -8298 0
-7011 -8299 0
-7012 -8300 0
-7013 -7253 0
-7014 -7254 0
-7015 -7255 0
-7016 -7256 0
-7013 -7433 0
-7014 -7434 0
-7015 -7435 0
-7016 -7436 0
-7013 -7481 0
-7014 -7482 0
-7015 -7483 0
-7016 -7484 0
-7013 -8009 0
-7014 -8010 0
-7015 -8011 0
-7016 -8012 0
-7017 -7089 0
-7018 -7090 0
-7019 -7091 0
-7020 -7092 0
-7017 -7369 0
-7018 -7370 0
-7019 -7371 0
-7020 -7372 0
-7017 -7517 0
-7018 -7518 0
-7019 -7519 0
-7020 -7520 0
-7017 -8161 0
-7018 -8162 0
-7019 -8163 0
-7020 -8164 0
-7017 -8329 0
-7018 -8330 0
-7019 -8331 0
-7020 -8332 0
-7017 -8333 0
-7018 -8334 0
-7019 -8335 0
-7020 -8336 0
-7021 -7025 0
-7022 -7026 0
-7023 -7027 0
-7024 -7028 0
-7021 -7029 0
-7022 -7030 0
-7023 -7031 0
-7024 -7032 0
-7021 -7161 0
-7022 -7162 0
-7023 -7163 0
-7024 -7164 0
-7021 -7745 0
-7022 -7746 0
-7023 -7747 0
-7024 -7748 0
-7021 -7881 0
-7022 -7882 0
-7023 -7883 0
-7024 -7884 0
-7021 -8161 0
-7022 -8162 0
-7023 -8163 0
-7024 -8164 0
-7021 -8317 0
-7022 -8318 0
-7023 -8319 0
-7024 -8320 0
-7025 -7033 0
-7026 -7034 0
-7027 -7035 0
-7028 -7036 0
-7025 -7057 0
-7026 -7058 0
-7027 -7059 0
-7028 -7060 0
-7025 -7061 0
-7026 -7062 0
-7027 -7063 0
-7028 -7064 0
-7025 -7165 0
-7026 -7166 0
-7027 -7167 0
-7028 -7168 0
-7025 -7761 0
-7026 -7762 0
-7027 -7763 0
-7028 -7764 0
-7025 -7885 0
-7026 -7886 0
-7027 -7887 0
-7028 -7888 0
-7025 -8165 0
-7026 -8166 0
-7027 -8167 0
-7028 -8168 0
-7025 -8317 0
-7026 -8318 0
-7027 -8319 0
-7028 -8320 0
-7029 -7033 0
-7030 -7034 0
-7031 -7035 0
-7032 -7036 0
-7029 -7169 0
-7030 -7170 0
-7031 -7171 0
-7032 -7172 0
-7029 -7177 0
-7030 -7178 0
-7031 -7179 0
-7032 -7180 0
-7029 -7377 0
-7030 -7378 0
-7031 -7379 0
-7032 -7380 0
-7029 -7501 0
-7030 -7502 0
-7031 -7503 0
-7032 -7504 0
-7029 -8169 0
-7030 -8170 0
-7031 -8171 0
-7032 -8172 0
-7029 -8321 0
-7030 -8322 0
-7031 -8323 0
-7032 -8324 0
-7033 -7181 0
-7034 -7182 0
-7035 -7183 0
-7036 -7184 0
-7033 -7185 0
-7034 -7186 0
-7035 -7187 0
-7036 -7188 0
-7033 -7321 0
-7034 -7322 0
-7035 -7323 0
-7036 -7324 0
-7033 -8177 0
-7034 -8178 0
-7035 -8179 0
-7036 -8180 0
-7033 -8321 0
-7034 -8322 0
-7035 -8323 0
-7036 -8324 0
-7033 -8325 0
-7034 -8326 0
-7035 -8327 0
-7036 -8328 0
-7037 -7041 0
-7038 -7042 0
-7039 -7043 0
-7040 -7044 0
-7037 -7057 0
-7038 -7058 0
-7039 -7059 0
-7040 -7060 0
-7037 -7189 0
-7038 -7190 0
-7039 -7191 0
-7040 -7192 0
-7037 -8397 0
-7038 -8398 0
-7039 -8399 0
-7040 -8400 0
-7041 -7049 0
-7042 -7050 0
-7043 -7051 0
-7044 -7052 0
-7041 -7065 0
-7042 -7066 0
-7043 -7067 0
-7044 -7068 0
-7041 -7193 0
-7042 -7194 0
-7043 -7195 0
-7044 -7196 0
-7041 -7329 0
-7042 -7330 0
-7043 -7331 0
-7044 -7332 0
-7041 -8401 0
-7042 -8402 0
-7043 -8403 0
-7044 -8404 0
-7045 -7049 0
-7046 -7050 0
-7047 -7051 0
-7048 -7052 0
-7045 -7081 0
-7046 -7082 0
-7047 -7083 0
-7048 -7084 0
-7045 -7101 0
-7046 -7102 0
-7047 -7103 0
-7048 -7104 0
-7045 -7125 0
-7046 -7126 0
-7047 -7127 0
-7048 -7128 0
-7045 -7133 0
-7046 -7134 0
-7047 -7135 0
-7048 -7136 0
-7045 -7389 0
-7046 -7390 0
-7047 -7391 0
-7048 -7392 0
-7045 -7865 0
-7046 -7866 0
-7047 -7867 0
-7048 -7868 0
-7045 -8185 0
-7046 -8186 0
-7047 -8187 0
-7048 -8188 0
-7049 -7053 0
-7050 -7054 0
-7051 -7055 0
-7052 -7056 0
-7049 -7069 0
-7050 -7070 0
-7051 -7071 0
-7052 -7072 0
-7049 -7081 0
-7050 -7082 0
-7051 -7083 0
-7052 -7084 0
-7049 -7105 0
-7050 -7106 0
-7051 -7107 0
-7052 -7108 0
-7049 -7129 0
-7050 -7130 0
-7051 -7131 0
-7052 -7132 0
-7049 -7193 0
-7050 -7194 0
-7051 -7195 0
-7052 -7196 0
-7049 -7337 0
-7050 -7338 0
-7051 -7339 0
-7052 -7340 0
-7049 -7785 0
-7050 -7786 0
-7051 -7787 0
-7052 -7788 0
-7049 -7901 0
-7050 -7902 0
-7051 -7903 0
-7052 -7904 0
-7049 -8405 0
-7050 -8406 0
-7051 -8407 0
-7052 -8408 0
-7053 -7085 0
-7054 -7086 0
-7055 -7087 0
-7056 -7088 0
-7053 -7105 0
-7054 -7106 0
-7055 -7107 0
-7056 -7108 0
-7053 -7345 0
-7054 -7346 0
-7055 -7347 0
-7056 -7348 0
-7053 -7553 0
-7054 -7554 0
-7055 -7555 0
-7056 -7556 0
-7053 -7725 0
-7054 -7726 0
-7055 -7727 0
-7056 -7728 0
-7053 -7905 0
-7054 -7906 0
-7055 -7907 0
-7056 -7908 0
-7053 -7933 0
-7054 -7934 0
-7055 -7935 0
-7056 -7936 0
-7057 -7061 0
-7058 -7062 0
-7059 -7063 0
-7060 -7064 0
-7057 -7065 0
-7058 -7066 0
-7059 -7067 0
-7060 -7068 0
-7057 -7213 0
-7058 -7214 0
-7059 -7215 0
-7060 -7216 0
-7057 -7793 0
-7058 -7794 0
-7059 -7795 0
-7060 -7796 0
-7057 -8413 0
-7058 -8414 0
-7059 -8415 0
-7060 -8416 0
-7061 -7217 0
-7062 -7218 0
-7063 -7219 0
-7064 -7220 0
-7061 -7265 0
-7062 -7266 0
-7063 -7267 0
-7064 -7268 0
-7065 -7069 0
-7066 -7070 0
-7067 -7071 0
-7068 -7072 0
-7065 -7221 0
-7066 -7222 0
-7067 -7223 0
-7068 -7224 0
-7065 -7801 0
-7066 -7802 0
-7067 -7803 0
-7068 -7804 0
-7065 -8417 0
-7066 -8418 0
-7067 -8419 0
-7068 -8420 0
-7069 -7221 0
-7070 -7222 0
-7071 -7223 0
-7072 -7224 0
-7069 -7421 0
-7070 -7422 0
-7071 -7423 0
-7072 -7424 0
-7069 -7709 0
-7070 -7710 0
-7071 -7711 0
-7072 -7712 0
-7069 -7809 0
-7070 -7810 0
-7071 -7811 0
-7072 -7812 0
-7073 -7077 0
-7074 -7078 0
-7075 -7079 0
-7076 -7080 0
-7073 -7081 0
-7074 -7082 0
-7075 -7083 0
-7076 -7084 0
-7073 -7113 0
-7074 -7114 0
-7075 -7115 0
-7076 -7116 0
-7073 -7269 0
-7074 -7270 0
-7075 -7271 0
-7076 -7272 0
-7073 -7717 0
-7074 -7718 0
-7075 -7719 0
-7076 -7720 0
-7073 -7917 0
-7074 -7918 0
-7075 -7919 0
-7076 -7920 0
-7077 -7085 0
-7078 -7086 0
-7079 -7087 0
-7080 -7088 0
-7077 -7093 0
-7078 -7094 0
-7079 -7095 0
-7080 -7096 0
-7077 -7113 0
-7078 -7114 0
-7079 -7115 0
-7080 -7116 0
-7077 -7925 0
-7078 -7926 0
-7079 -7927 0
-7080 -7928 0
-7077 -8025 0
-7078 -8026 0
-7079 -8027 0
-7080 -8028 0
-7077 -8357 0
-7078 -8358 0
-7079 -8359 0
-7080 -8360 0
-7081 -7085 0
-7082 -7086 0
-7083 -7087 0
-7084 -7088 0
-7081 -7117 0
-7082 -7118 0
-7083 -7119 0
-7084 -7120 0
-7081 -7281 0
-7082 -7282 0
-7083 -7283 0
-7084 -7284 0
-7081 -7721 0
-7082 -7722 0
-7083 -7723 0
-7084 -7724 0
-7081 -7877 0
-7082 -7878 0
-7083 -7879 0
-7084 -7880 0
-7081 -7937 0
-7082 -7938 0
-7083 -7939 0
-7084 -7940 0
-7081 -8189 0
-7082 -8190 0
-7083 -8191 0
-7084 -8192 0
-7085 -7097 0
-7086 -7098 0
-7087 -7099 0
-7088 -7100 0
-7085 -7117 0
-7086 -7118 0
-7087 -7119 0
-7088 -7120 0
-7085 -7373 0
-7086 -7374 0
-7087 -7375 0
-7088 -7376 0
-7085 -7729 0
-7086 -7730 0
-7087 -7731 0
-7088 -7732 0
-7085 -8193 0
-7086 -8194 0
-7087 -8195 0
-7088 -8196 0
-7085 -8365 0
-7086 -8366 0
-7087 -8367 0
-7088 -8368 0
-7089 -8029 0
-7090 -8030 0
-7091 -8031 0
-7092 -8032 0
-7089 -8353 0
-7090 -8354 0
-7091 -8355 0
-7092 -8356 0
-7093 -7097 0
-7094 -7098 0
-7095 -7099 0
-7096 -7100 0
-7093 -7441 0
-7094 -7442 0
-7095 -7443 0
-7096 -7444 0
-7093 -8033 0
-7094 -8034 0
-7095 -8035 0
-7096 -8036 0
-7093 -8357 0
-7094 -8358 0
-7095 -8359 0
-7096 -8360 0
-7097 -8041 0
-7098 -8042 0
-7099 -8043 0
-7100 -8044 0
-7097 -8365 0
-7098 -8366 0
-7099 -8367 0
-7100 -8368 0
-7101 -7105 0
-7102 -7106 0
-7103 -7107 0
-7104 -7108 0
-7101 -7117 0
-7102 -7118 0
-7103 -7119 0
-7104 -7120 0
-7101 -7137 0
-7102 -7138 0
-7103 -7139 0
-7104 -7140 0
-7101 -7141 0
-7102 -7142 0
-7103 -7143 0
-7104 -7144 0
-7101 -7457 0
-7102 -7458 0
-7103 -7459 0
-7104 -7460 0
-7101 -7897 0
-7102 -7898 0
-7103 -7899 0
-7104 -7900 0
-7101 -8041 0
-7102 -8042 0
-7103 -8043 0
-7104 -8044 0
-7101 -8197 0
-7102 -8198 0
-7103 -8199 0
-7104 -8200 0
-7105 -7117 0
-7106 -7118 0
-7107 -7119 0
-7108 -7120 0
-7105 -7733 0
-7106 -7734 0
-7107 -7735 0
-7108 -7736 0
-7105 -8045 0
-7106 -8046 0
-7107 -8047 0
-7108 -8048 0
-7105 -8201 0
-7106 -8202 0
-7107 -8203 0
-7108 -8204 0
-7109 -7117 0
-7110 -7118 0
-7111 -7119 0
-7112 -7120 0
-7109 -7909 0
-7110 -7910 0
-7111 -7911 0
-7112 -7912 0
-7109 -8209 0
-7110 -8210 0
-7111 -8211 0
-7112 -8212 0
-7109 -8377 0
-7110 -8378 0
-7111 -8379 0
-7112 -8380 0
-7113 -7117 0
-7114 -7118 0
-7115 -7119 0
-7116 -7120 0
-7113 -8213 0
-7114 -8214 0
-7115 -8215 0
-7116 -8216 0
-7113 -8381 0
-7114 -8382 0
-7115 -8383 0
-7116 -8384 0
-7117 -7145 0
-7118 -7146 0
-7119 -7147 0
-7120 -7148 0
-7117 -7737 0
-7118 -7738 0
-7119 -7739 0
-7120 -7740 0
-7117 -7929 0
-7118 -7930 0
-7119 -7931 0
-7120 -7932 0
-7117 -8233 0
-7118 -8234 0
-7119 -8235 0
-7120 -8236 0
-7117 -8385 0
-7118 -8386 0
-7119 -8387 0
-7120 -8388 0
-7121 -7125 0
-7122 -7126 0
-7123 -7127 0
-7124 -7128 0
-7121 -7129 0
-7122 -7130 0
-7123 -7131 0
-7124 -7132 0
-7121 -7237 0
-7122 -7238 0
-7123 -7239 0
-7124 -7240 0
-7121 -7949 0
-7122 -7950 0
-7123 -7951 0
-7124 -7952 0
-7121 -8201 0
-7122 -8202 0
-7123 -8203 0
-7124 -8204 0
-7125 -7129 0
-7126 -7130 0
-7127 -7131 0
-7128 -7132 0
-7125 -7133 0
-7126 -7134 0
-7127 -7135 0
-7128 -7136 0
-7125 -7137 0
-7126 -7138 0
-7127 -7139 0
-7128 -7140 0
-7125 -7241 0
-7126 -7242 0
-7127 -7243 0
-7128 -7244 0
-7125 -7249 0
-7126 -7250 0
-7127 -7251 0
-7128 -7252 0
-7125 -7393 0
-7126 -7394 0
-7127 -7395 0
-7128 -7396 0
-7125 -7549 0
-7126 -7550 0
-7127 -7551 0
-7128 -7552 0
-7125 -7753 0
-7126 -7754 0
-7127 -7755 0
-7128 -7756 0
-7125 -7961 0
-7126 -7962 0
-7127 -7963 0
-7128 -7964 0
-7125 -8233 0
-7126 -8234 0
-7127 -8235 0
-7128 -8236 0
-7125 -8317 0
-7126 -8318 0
-7127 -8319 0
-7128 -8320 0
-7125 -8321 0
-7126 -8322 0
-7127 -8323 0
-7128 -8324 0
-7129 -7245 0
-7130 -7246 0
-7131 -7247 0
-7132 -7248 0
-7129 -7253 0
-7130 -7254 0
-7131 -7255 0
-7132 -7256 0
-7129 -7757 0
-7130 -7758 0
-7131 -7759 0
-7132 -7760 0
-7129 -7841 0
-7130 -7842 0
-7131 -7843 0
-7132 -7844 0
-7129 -8237 0
-7130 -8238 0
-7131 -8239 0
-7132 -8240 0
-7129 -8429 0
-7130 -8430 0
-7131 -8431 0
-7132 -8432 0
-7133 -7141 0
-7134 -7142 0
-7135 -7143 0
-7136 -7144 0
-7133 -7401 0
-7134 -7402 0
-7135 -7403 0
-7136 -7404 0
-7133 -7553 0
-7134 -7554 0
-7135 -7555 0
-7136 -7556 0
-7133 -8245 0
-7134 -8246 0
-7135 -8247 0
-7136 -8248 0
-7137 -7141 0
-7138 -7142 0
-7139 -7143 0
-7140 -7144 0
-7137 -7293 0
-7138 -7294 0
-7139 -7295 0
-7140 -7296 0
-7137 -7557 0
-7138 -7558 0
-7139 -7559 0
-7140 -7560 0
-7137 -7793 0
-7138 -7794 0
-7139 -7795 0
-7140 -7796 0
-7137 -8049 0
-7138 -8050 0
-7139 -8051 0
-7140 -8052 0
-7137 -8277 0
-7138 -8278 0
-7139 -8279 0
-7140 -8280 0
-7141 -7145 0
-7142 -7146 0
-7143 -7147 0
-7144 -7148 0
-7141 -7461 0
-7142 -7462 0
-7143 -7463 0
-7144 -7464 0
-7141 -7801 0
-7142 -7802 0
-7143 -7803 0
-7144 -7804 0
-7145 -7469 0
-7146 -7470 0
-7147 -7471 0
-7148 -7472 0
-7145 -7829 0
-7146 -7830 0
-7147 -7831 0
-7148 -7832 0
-7145 -8285 0
-7146 -8286 0
-7147 -8287 0
-7148 -8288 0
-7149 -7153 0
-7150 -7154 0
-7151 -7155 0
-7152 -7156 0
-7149 -7169 0
-7150 -7170 0
-7151 -7171 0
-7152 -7172 0
-7149 -7173 0
-7150 -7174 0
-7151 -7175 0
-7152 -7176 0
-7153 -7157 0
-7154 -7158 0
-7155 -7159 0
-7156 -7160 0
-7153 -7177 0
-7154 -7178 0
-7155 -7179 0
-7156 -7180 0
-7153 -7749 0
-7154 -7750 0
-7155 -7751 0
-7156 -7752 0
-7153 -8337 0
-7154 -8338 0
-7155 -8339 0
-7156 -8340 0
-7157 -7185 0
-7158 -7186 0
-7159 -7187 0
-7160 -7188 0
-7157 -7501 0
-7158 -7502 0
-7159 -7503 0
-7160 -7504 0
-7157 -7765 0
-7158 -7766 0
-7159 -7767 0
-7160 -7768 0
-7157 -8337 0
-7158 -8338 0
-7159 -8339 0
-7160 -8340 0
-7161 -7165 0
-7162 -7166 0
-7163 -7167 0
-7164 -7168 0
-7161 -7177 0
-7162 -7178 0
-7163 -7179 0
-7164 -7180 0
-7161 -7201 0
-7162 -7202 0
-7163 -7203 0
-7164 -7204 0
-7161 -7205 0
-7162 -7206 0
-7163 -7207 0
-7164 -7208 0
-7161 -8341 0
-7162 -8342 0
-7163 -8343 0
-7164 -8344 0
-7165 -7185 0
-7166 -7186 0
-7167 -7187 0
-7168 -7188 0
-7165 -7213 0
-7166 -7214 0
-7167 -7215 0
-7168 -7216 0
-7165 -7217 0
-7166 -7218 0
-7167 -7219 0
-7168 -7220 0
-7165 -7769 0
-7166 -7770 0
-7167 -7771 0
-7168 -7772 0
-7165 -7981 0
-7166 -7982 0
-7167 -7983 0
-7168 -7984 0
-7165 -8053 0
-7166 -8054 0
-7167 -8055 0
-7168 -8056 0
-7165 -8341 0
-7166 -8342 0
-7167 -8343 0
-7168 -8344 0
-7165 -8345 0
-7166 -8346 0
-7167 -8347 0
-7168 -8348 0
-7169 -7173 0
-7170 -7174 0
-7171 -7175 0
-7172 -7176 0
-7169 -7177 0
-7170 -7178 0
-7171 -7179 0
-7172 -7180 0
-7169 -7181 0
-7170 -7182 0
-7171 -7183 0
-7172 -7184 0
-7169 -7301 0
-7170 -7302 0
-7171 -7303 0
-7172 -7304 0
-7169 -7625 0
-7170 -7626 0
-7171 -7627 0
-7172 -7628 0
-7169 -8349 0
-7170 -8350 0
-7171 -8351 0
-7172 -8352 0
-7173 -7649 0
-7174 -7650 0
-7175 -7651 0
-7176 -7652 0
-7173 -8353 0
-7174 -8354 0
-7175 -8355 0
-7176 -8356 0
-7177 -7185 0
-7178 -7186 0
-7179 -7187 0
-7180 -7188 0
-7177 -7225 0
-7178 -7226 0
-7179 -7227 0
-7180 -7228 0
-7177 -7477 0
-7178 -7478 0
-7179 -7479 0
-7180 -7480 0
-7177 -7773 0
-7178 -7774 0
-7179 -7775 0
-7180 -7776 0
-7177 -8057 0
-7178 -8058 0
-7179 -8059 0
-7180 -8060 0
-7177 -8357 0
-7178 -8358 0
-7179 -8359 0
-7180 -8360 0
-7181 -7185 0
-7182 -7186 0
-7183 -7187 0
-7184 -7188 0
-7181 -7309 0
-7182 -7310 0
-7183 -7311 0
-7184 -7312 0
-7181 -7633 0
-7182 -7634 0
-7183 -7635 0
-7184 -7636 0
-7181 -8349 0
-7182 -8350 0
-7183 -8351 0
-7184 -8352 0
-7181 -8361 0
-7182 -8362 0
-7183 -8363 0
-7184 -8364 0
-7185 -7229 0
-7186 -7230 0
-7187 -7231 0
-7188 -7232 0
-7185 -7233 0
-7186 -7234 0
-7187 -7235 0
-7188 -7236 0
-7185 -7313 0
-7186 -7314 0
-7187 -7315 0
-7188 -7316 0
-7185 -7481 0
-7186 -7482 0
-7187 -7483 0
-7188 -7484 0
-7185 -7661 0
-7186 -7662 0
-7187 -7663 0
-7188 -7664 0
-7185 -7777 0
-7186 -7778 0
-7187 -7779 0
-7188 -7780 0
-7185 -8061 0
-7186 -8062 0
-7187 -8063 0
-7188 -8064 0
-7185 -8357 0
-7186 -8358 0
-7187 -8359 0
-7188 -8360 0
-7185 -8365 0
-7186 -8366 0
-7187 -8367 0
-7188 -8368 0
-7189 -7193 0
-7190 -7194 0
-7191 -7195 0
-7192 -7196 0
-7189 -7197 0
-7190 -7198 0
-7191 -7199 0
-7192 -7200 0
-7189 -7213 0
-7190 -7214 0
-7191 -7215 0
-7192 -7216 0
-7189 -7245 0
-7190 -7246 0
-7191 -7247 0
-7192 -7248 0
-7189 -7333 0
-7190 -7334 0
-7191 -7335 0
-7192 -7336 0
-7189 -7797 0
-7190 -7798 0
-7191 -7799 0
-7192 -7800 0
-7189 -8329 0
-7190 -8330 0
-7191 -8331 0
-7192 -8332 0
-7193 -7221 0
-7194 -7222 0
-7195 -7223 0
-7196 -7224 0
-7193 -7245 0
-7194 -7246 0
-7195 -7247 0
-7196 -7248 0
-7193 -7513 0
-7194 -7514 0
-7195 -7515 0
-7196 -7516 0
-7193 -7993 0
-7194 -7994 0
-7195 -7995 0
-7196 -7996 0
-7197 -7229 0
-7198 -7230 0
-7199 -7231 0
-7200 -7232 0
-7197 -7357 0
-7198 -7358 0
-7199 -7359 0
-7200 -7360 0
-7197 -7677 0
-7198 -7678 0
-7199 -7679 0
-7200 -7680 0
-7197 -8289 0
-7198 -8290 0
-7199 -8291 0
-7200 -8292 0
-7197 -8329 0
-7198 -8330 0
-7199 -8331 0
-7200 -8332 0
-7201 -7205 0
-7202 -7206 0
-7203 -7207 0
-7204 -7208 0
-7201 -7209 0
-7202 -7210 0
-7203 -7211 0
-7204 -7212 0
-7201 -7213 0
-7202 -7214 0
-7203 -7215 0
-7204 -7216 0
-7201 -7225 0
-7202 -7226 0
-7203 -7227 0
-7204 -7228 0
-7201 -7257 0
-7202 -7258 0
-7203 -7259 0
-7204 -7260 0
-7201 -7621 0
-7202 -7622 0
-7203 -7623 0
-7204 -7624 0
-7201 -8369 0
-7202 -8370 0
-7203 -8371 0
-7204 -8372 0
-7205 -7217 0
-7206 -7218 0
-7207 -7219 0
-7208 -7220 0
-7205 -7625 0
-7206 -7626 0
-7207 -7627 0
-7208 -7628 0
-7209 -7221 0
-7210 -7222 0
-7211 -7223 0
-7212 -7224 0
-7209 -7257 0
-7210 -7258 0
-7211 -7259 0
-7212 -7260 0
-7209 -8373 0
-7210 -8374 0
-7211 -8375 0
-7212 -8376 0
-7213 -7217 0
-7214 -7218 0
-7215 -7219 0
-7216 -7220 0
-7213 -7221 0
-7214 -7222 0
-7215 -7223 0
-7216 -7224 0
-7213 -7229 0
-7214 -7230 0
-7215 -7231 0
-7216 -7232 0
-7213 -7261 0
-7214 -7262 0
-7215 -7263 0
-7216 -7264 0
-7213 -7337 0
-7214 -7338 0
-7215 -7339 0
-7216 -7340 0
-7213 -7629 0
-7214 -7630 0
-7215 -7631 0
-7216 -7632 0
-7213 -7857 0
-7214 -7858 0
-7215 -7859 0
-7216 -7860 0
-7213 -7969 0
-7214 -7970 0
-7215 -7971 0
-7216 -7972 0
-7213 -8333 0
-7214 -8334 0
-7215 -8335 0
-7216 -8336 0
-7213 -8369 0
-7214 -8370 0
-7215 -8371 0
-7216 -8372 0
-7213 -8377 0
-7214 -8378 0
-7215 -8379 0
-7216 -8380 0
-7217 -7233 0
-7218 -7234 0
-7219 -7235 0
-7220 -7236 0
-7217 -7345 0
-7218 -7346 0
-7219 -7347 0
-7220 -7348 0
-7217 -7633 0
-7218 -7634 0
-7219 -7635 0
-7220 -7636 0
-7221 -7261 0
-7222 -7262 0
-7223 -7263 0
-7224 -7264 0
-7221 -7517 0
-7222 -7518 0
-7223 -7519 0
-7224 -7520 0
-7221 -7813 0
-7222 -7814 0
-7223 -7815 0
-7224 -7816 0
-7221 -7861 0
-7222 -7862 0
-7223 -7863 0
-7224 -7864 0
-7221 -7977 0
-7222 -7978 0
-7223 -7979 0
-7224 -7980 0
-7221 -8373 0
-7222 -8374 0
-7223 -8375 0
-7224 -8376 0
-7225 -7229 0
-7226 -7230 0
-7227 -7231 0
-7228 -7232 0
-7225 -8381 0
-7226 -8382 0
-7227 -8383 0
-7228 -8384 0
-7229 -7233 0
-7230 -7234 0
-7231 -7235 0
-7232 -7236 0
-7229 -7361 0
-7230 -7362 0
-7231 -7363 0
-7232 -7364 0
-7229 -7493 0
-7230 -7494 0
-7231 -7495 0
-7232 -7496 0
-7229 -7825 0
-7230 -7826 0
-7231 -7827 0
-7232 -7828 0
-7229 -8297 0
-7230 -8298 0
-7231 -8299 0
-7232 -8300 0
-7229 -8333 0
-7230 -8334 0
-7231 -8335 0
-7232 -8336 0
-7229 -8381 0
-7230 -8382 0
-7231 -8383 0
-7232 -8384 0
-7229 -8385 0
-7230 -8386 0
-7231 -8387 0
-7232 -8388 0
-7233 -7365 0
-7234 -7366 0
-7235 -7367 0
-7236 -7368 0
-7233 -7689 0
-7234 -7690 0
-7235 -7691 0
-7236 -7692 0
-7233 -8301 0
-7234 -8302 0
-7235 -8303 0
-7236 -8304 0
-7237 -7241 0
-7238 -7242 0
-7239 -7243 0
-7240 -7244 0
-7237 -7245 0
-7238 -7246 0
-7239 -7247 0
-7240 -7248 0
-7237 -7529 0
-7238 -7530 0
-7239 -7531 0
-7240 -7532 0
-7237 -8093 0
-7238 -8094 0
-7239 -8095 0
-7240 -8096 0
-7241 -7245 0
-7242 -7246 0
-7243 -7247 0
-7244 -7248 0
-7241 -7249 0
-7242 -7250 0
-7243 -7251 0
-7244 -7252 0
-7241 -7385 0
-7242 -7386 0
-7243 -7387 0
-7244 -7388 0
-7241 -7673 0
-7242 -7674 0
-7243 -7675 0
-7244 -7676 0
-7241 -7849 0
-7242 -7850 0
-7243 -7851 0
-7244 -7852 0
-7241 -8101 0
-7242 -8102 0
-7243 -8103 0
-7244 -8104 0
-7241 -8309 0
-7242 -8310 0
-7243 -8311 0
-7244 -8312 0
-7241 -8349 0
-7242 -8350 0
-7243 -8351 0
-7244 -8352 0
-7245 -7253 0
-7246 -7254 0
-7247 -7255 0
-7248 -7256 0
-7245 -7261 0
-7246 -7262 0
-7247 -7263 0
-7248 -7264 0
-7245 -7565 0
-7246 -7566 0
-7247 -7567 0
-7248 -7568 0
-7245 -8105 0
-7246 -8106 0
-7247 -8107 0
-7248 -8108 0
-7245 -8109 0
-7246 -8110 0
-7247 -8111 0
-7248 -8112 0
-7245 -8353 0
-7246 -8354 0
-7247 -8355 0
-7248 -8356 0
-7245 -8433 0
-7246 -8434 0
-7247 -8435 0
-7248 -8436 0
-7249 -7253 0
-7250 -7254 0
-7251 -7255 0
-7252 -7256 0
-7249 -7409 0
-7250 -7410 0
-7251 -7411 0
-7252 -7412 0
-7249 -7853 0
-7250 -7854 0
-7251 -7855 0
-7252 -7856 0
-7249 -8313 0
-7250 -8314 0
-7251 -8315 0
-7252 -8316 0
-7249 -8341 0
-7250 -8342 0
-7251 -8343 0
-7252 -8344 0
-7249 -8357 0
-7250 -8358 0
-7251 -8359 0
-7252 -8360 0
-7253 -7413 0
-7254 -7414 0
-7255 -7415 0
-7256 -7416 0
-7253 -7573 0
-7254 -7574 0
-7255 -7575 0
-7256 -7576 0
-7253 -8009 0
-7254 -8010 0
-7255 -8011 0
-7256 -8012 0
-7257 -7261 0
-7258 -7262 0
-7259 -7263 0
-7260 -7264 0
-7257 -7649 0
-7258 -7650 0
-7259 -7651 0
-7260 -7652 0
-7257 -8389 0
-7258 -8390 0
-7259 -8391 0
-7260 -8392 0
-7261 -7405 0
-7262 -7406 0
-7263 -7407 0
-7264 -7408 0
-7261 -7601 0
-7262 -7602 0
-7263 -7603 0
-7264 -7604 0
-7261 -7657 0
-7262 -7658 0
-7263 -7659 0
-7264 -7660 0
-7261 -8117 0
-7262 -8118 0
-7263 -8119 0
-7264 -8120 0
-7261 -8389 0
-7262 -8390 0
-7263 -8391 0
-7264 -8392 0
-7265 -7273 0
-7266 -7274 0
-7267 -7275 0
-7268 -7276 0
-7265 -7277 0
-7266 -7278 0
-7267 -7279 0
-7268 -7280 0
-7265 -7333 0
-7266 -7334 0
-7267 -7335 0
-7268 -7336 0
-7265 -7345 0
-7266 -7346 0
-7267 -7347 0
-7268 -7348 0
-7265 -7545 0
-7266 -7546 0
-7267 -7547 0
-7268 -7548 0
-7265 -7897 0
-7266 -7898 0
-7267 -7899 0
-7268 -7900 0
-7265 -8029 0
-7266 -8030 0
-7267 -8031 0
-7268 -8032 0
-7265 -8441 0
-7266 -8442 0
-7267 -8443 0
-7268 -8444 0
-7269 -7281 0
-7270 -7282 0
-7271 -7283 0
-7272 -7284 0
-7269 -7569 0
-7270 -7570 0
-7271 -7571 0
-7272 -7572 0
-7269 -7717 0
-7270 -7718 0
-7271 -7719 0
-7272 -7720 0
-7269 -8393 0
-7270 -8394 0
-7271 -8395 0
-7272 -8396 0
-7269 -8409 0
-7270 -8410 0
-7271 -8411 0
-7272 -8412 0
-7273 -7277 0
-7274 -7278 0
-7275 -7279 0
-7276 -7280 0
-7273 -7281 0
-7274 -7282 0
-7275 -7283 0
-7276 -7284 0
-7273 -7285 0
-7274 -7286 0
-7275 -7287 0
-7276 -7288 0
-7273 -7373 0
-7274 -7374 0
-7275 -7375 0
-7276 -7376 0
-7273 -7581 0
-7274 -7582 0
-7275 -7583 0
-7276 -7584 0
-7273 -7705 0
-7274 -7706 0
-7275 -7707 0
-7276 -7708 0
-7273 -7925 0
-7274 -7926 0
-7275 -7927 0
-7276 -7928 0
-7273 -8317 0
-7274 -8318 0
-7275 -8319 0
-7276 -8320 0
-7273 -8397 0
-7274 -8398 0
-7275 -8399 0
-7276 -8400 0
-7273 -8413 0
-7274 -8414 0
-7275 -8415 0
-7276 -8416 0
-7277 -7369 0
-7278 -7370 0
-7279 -7371 0
-7280 -7372 0
-7277 -7709 0
-7278 -7710 0
-7279 -7711 0
-7280 -7712 0
-7277 -7929 0
-7278 -7930 0
-7279 -7931 0
-7280 -7932 0
-7281 -7285 0
-7282 -7286 0
-7283 -7287 0
-7284 -7288 0
-7281 -7517 0
-7282 -7518 0
-7283 -7519 0
-7284 -7520 0
-7281 -7585 0
-7282 -7586 0
-7283 -7587 0
-7284 -7588 0
-7281 -7721 0
-7282 -7722 0
-7283 -7723 0
-7284 -7724 0
-7281 -8021 0
-7282 -8022 0
-7283 -8023 0
-7284 -8024 0
-7281 -8401 0
-7282 -8402 0
-7283 -8403 0
-7284 -8404 0
-7281 -8417 0
-7282 -8418 0
-7283 -8419 0
-7284 -8420 0
-7285 -7289 0
-7286 -7290 0
-7287 -7291 0
-7288 -7292 0
-7285 -7441 0
-7286 -7442 0
-7287 -7443 0
-7288 -7444 0
-7285 -7601 0
-7286 -7602 0
-7287 -7603 0
-7288 -7604 0
-7285 -7713 0
-7286 -7714 0
-7287 -7715 0
-7288 -7716 0
-7285 -7885 0
-7286 -7886 0
-7287 -7887 0
-7288 -7888 0
-7285 -8153 0
-7286 -8154 0
-7287 -8155 0
-7288 -8156 0
-7285 -8425 0
-7286 -8426 0
-7287 -8427 0
-7288 -8428 0
-7289 -7441 0
-7290 -7442 0
-7291 -7443 0
-7292 -7444 0
-7289 -7889 0
-7290 -7890 0
-7291 -7891 0
-7292 -7892 0
-7289 -8049 0
-7290 -8050 0
-7291 -8051 0
-7292 -8052 0
-7289 -8157 0
-7290 -8158 0
-7291 -8159 0
-7292 -8160 0
-7289 -8429 0
-7290 -8430 0
-7291 -8431 0
-7292 -8432 0
-7293 -7449 0
-7294 -7450 0
-7295 -7451 0
-7296 -7452 0
-7293 -7453 0
-7294 -7454 0
-7295 -7455 0
-7296 -7456 0
-7293 -7893 0
-7294 -7894 0
-7295 -7895 0
-7296 -7896 0
-7293 -8157 0
-7294 -8158 0
-7295 -8159 0
-7296 -8160 0
-7297 -7309 0
-7298 -7310 0
-7299 -7311 0
-7300 -7312 0
-7297 -7329 0
-7298 -7330 0
-7299 -7331 0
-7300 -7332 0
-7297 -7333 0
-7298 -7334 0
-7299 -7335 0
-7300 -7336 0
-7297 -7757 0
-7298 -7758 0
-7299 -7759 0
-7300 -7760 0
-7301 -7309 0
-7302 -7310 0
-7303 -7311 0
-7304 -7312 0
-7301 -7317 0
-7302 -7318 0
-7303 -7319 0
-7304 -7320 0
-7301 -7349 0
-7302 -7350 0
-7303 -7351 0
-7304 -7352 0
-7301 -8393 0
-7302 -8394 0
-7303 -8395 0
-7304 -8396 0
-7305 -7309 0
-7306 -7310 0
-7307 -7311 0
-7308 -7312 0
-7305 -7321 0
-7306 -7322 0
-7307 -7323 0
-7308 -7324 0
-7305 -7377 0
-7306 -7378 0
-7307 -7379 0
-7308 -7380 0
-7305 -7753 0
-7306 -7754 0
-7307 -7755 0
-7308 -7756 0
-7305 -8329 0
-7306 -8330 0
-7307 -8331 0
-7308 -8332 0
-7305 -8397 0
-7306 -8398 0
-7307 -8399 0
-7308 -8400 0
-7309 -7313 0
-7310 -7314 0
-7311 -7315 0
-7312 -7316 0
-7309 -7325 0
-7310 -7326 0
-7311 -7327 0
-7312 -7328 0
-7309 -7353 0
-7310 -7354 0
-7311 -7355 0
-7312 -7356 0
-7309 -7357 0
-7310 -7358 0
-7311 -7359 0
-7312 -7360 0
-7309 -7377 0
-7310 -7378 0
-7311 -7379 0
-7312 -7380 0
-7309 -7621 0
-7310 -7622 0
-7311 -7623 0
-7312 -7624 0
-7309 -7725 0
-7310 -7726 0
-7311 -7727 0
-7312 -7728 0
-7309 -8393 0
-7310 -8394 0
-7311 -8395 0
-7312 -8396 0
-7309 -8401 0
-7310 -8402 0
-7311 -8403 0
-7312 -8404 0
-7313 -7361 0
-7314 -7362 0
-7315 -7363 0
-7316 -7364 0
-7313 -7365 0
-7314 -7366 0
-7315 -7367 0
-7316 -7368 0
-7313 -7381 0
-7314 -7382 0
-7315 -7383 0
-7316 -7384 0
-7313 -7877 0
-7314 -7878 0
-7315 -7879 0
-7316 -7880 0
-7313 -8061 0
-7314 -8062 0
-7315 -8063 0
-7316 -8064 0
-7313 -8405 0
-7314 -8406 0
-7315 -8407 0
-7316 -8408 0
-7317 -7325 0
-7318 -7326 0
-7319 -7327 0
-7320 -7328 0
-7317 -7649 0
-7318 -7650 0
-7319 -7651 0
-7320 -7652 0
-7317 -7881 0
-7318 -7882 0
-7319 -7883 0
-7320 -7884 0
-7317 -8409 0
-7318 -8410 0
-7319 -8411 0
-7320 -8412 0
-7321 -7325 0
-7322 -7326 0
-7323 -7327 0
-7324 -7328 0
-7321 -7497 0
-7322 -7498 0
-7323 -7499 0
-7324 -7500 0
-7321 -7653 0
-7322 -7654 0
-7323 -7655 0
-7324 -7656 0
-7321 -8333 0
-7322 -8334 0
-7323 -8335 0
-7324 -8336 0
-7321 -8413 0
-7322 -8414 0
-7323 -8415 0
-7324 -8416 0
-7325 -7657 0
-7326 -7658 0
-7327 -7659 0
-7328 -7660 0
-7325 -7885 0
-7326 -7886 0
-7327 -7887 0
-7328 -7888 0
-7325 -8409 0
-7326 -8410 0
-7327 -8411 0
-7328 -8412 0
-7325 -8417 0
-7326 -8418 0
-7327 -8419 0
-7328 -8420 0
-7329 -7333 0
-7330 -7334 0
-7331 -7335 0
-7332 -7336 0
-7329 -7337 0
-7330 -7338 0
-7331 -7339 0
-7332 -7340 0
-7329 -7353 0
-7330 -7354 0
-7331 -7355 0
-7332 -7356 0
-7329 -7985 0
-7330 -7986 0
-7331 -7987 0
-7332 -7988 0
-7329 -8449 0
-7330 -8450 0
-7331 -8451 0
-7332 -8452 0
-7333 -7345 0
-7334 -7346 0
-7335 -7347 0
-7336 -7348 0
-7333 -7357 0
-7334 -7358 0
-7335 -7359 0
-7336 -7360 0
-7333 -7369 0
-7334 -7370 0
-7335 -7371 0
-7336 -7372 0
-7333 -7797 0
-7334 -7798 0
-7335 -7799 0
-7336 -7800 0
-7333 -8165 0
-7334 -8166 0
-7335 -8167 0
-7336 -8168 0
-7333 -8453 0
-7334 -8454 0
-7335 -8455 0
-7336 -8456 0
-7337 -7345 0
-7338 -7346 0
-7339 -7347 0
-7340 -7348 0
-7337 -7361 0
-7338 -7362 0
-7339 -7363 0
-7340 -7364 0
-7337 -7405 0
-7338 -7406 0
-7339 -7407 0
-7340 -7408 0
-7337 -7989 0
-7338 -7990 0
-7339 -7991 0
-7340 -7992 0
-7341 -7345 0
-7342 -7346 0
-7343 -7347 0
-7344 -7348 0
-7341 -7373 0
-7342 -7374 0
-7343 -7375 0
-7344 -7376 0
-7341 -7409 0
-7342 -7410 0
-7343 -7411 0
-7344 -7412 0
-7341 -7673 0
-7342 -7674 0
-7343 -7675 0
-7344 -7676 0
-7341 -7805 0
-7342 -7806 0
-7343 -7807 0
-7344 -7808 0
-7341 -8073 0
-7342 -8074 0
-7343 -8075 0
-7344 -8076 0
-7345 -7365 0
-7346 -7366 0
-7347 -7367 0
-7348 -7368 0
-7345 -7373 0
-7346 -7374 0
-7347 -7375 0
-7348 -7376 0
-7345 -7397 0
-7346 -7398 0
-7347 -7399 0
-7348 -7400 0
-7345 -7413 0
-7346 -7414 0
-7347 -7415 0
-7348 -7416 0
-7345 -7725 0
-7346 -7726 0
-7347 -7727 0
-7348 -7728 0
-7345 -7789 0
-7346 -7790 0
-7347 -7791 0
-7348 -7792 0
-7345 -7909 0
-7346 -7910 0
-7347 -7911 0
-7348 -7912 0
-7345 -8077 0
-7346 -8078 0
-7347 -8079 0
-7348 -8080 0
-7349 -7357 0
-7350 -7358 0
-7351 -7359 0
-7352 -7360 0
-7349 -8169 0
-7350 -8170 0
-7351 -8171 0
-7352 -8172 0
-7353 -7357 0
-7354 -7358 0
-7355 -7359 0
-7356 -7360 0
-7353 -7361 0
-7354 -7362 0
-7355 -7363 0
-7356 -7364 0
-7353 -7733 0
-7354 -7734 0
-7355 -7735 0
-7356 -7736 0
-7353 -8173 0
-7354 -8174 0
-7355 -8175 0
-7356 -8176 0
-7353 -8457 0
-7354 -8458 0
-7355 -8459 0
-7356 -8460 0
-7357 -7365 0
-7358 -7366 0
-7359 -7367 0
-7360 -7368 0
-7357 -7637 0
-7358 -7638 0
-7359 -7639 0
-7360 -7640 0
-7357 -7801 0
-7358 -7802 0
-7359 -7803 0
-7360 -7804 0
-7357 -8177 0
-7358 -8178 0
-7359 -8179 0
-7360 -8180 0
-7357 -8421 0
-7358 -8422 0
-7359 -8423 0
-7360 -8424 0
-7361 -7365 0
-7362 -7366 0
-7363 -7367 0
-7364 -7368 0
-7361 -7921 0
-7362 -7922 0
-7363 -7923 0
-7364 -7924 0
-7365 -7685 0
-7366 -7686 0
-7367 -7687 0
-7368 -7688 0
-7365 -7809 0
-7366 -7810 0
-7367 -7811 0
-7368 -7812 0
-7365 -7929 0
-7366 -7930 0
-7367 -7931 0
-7368 -7932 0
-7365 -8337 0
-7366 -8338 0
-7367 -8339 0
-7368 -8340 0
-7369 -7813 0
-7370 -7814 0
-7371 -7815 0
-7372 -7816 0
-7373 -7433 0
-7374 -7434 0
-7375 -7435 0
-7376 -7436 0
-7373 -7441 0
-7374 -7442 0
-7375 -7443 0
-7376 -7444 0
-7373 -7729 0
-7374 -7730 0
-7375 -7731 0
-7376 -7732 0
-7373 -7817 0
-7374 -7818 0
-7375 -7819 0
-7376 -7820 0
-7373 -7945 0
-7374 -7946 0
-7375 -7947 0
-7376 -7948 0
-7373 -8181 0
-7374 -8182 0
-7375 -8183 0
-7376 -8184 0
-7373 -8341 0
-7374 -8342 0
-7375 -8343 0
-7376 -8344 0
-7377 -7381 0
-7378 -7382 0
-7379 -7383 0
-7380 -7384 0
-7377 -7477 0
-7378 -7478 0
-7379 -7479 0
-7380 -7480 0
-7377 -7645 0
-7378 -7646 0
-7379 -7647 0
-7380 -7648 0
-7377 -7765 0
-7378 -7766 0
-7379 -7767 0
-7380 -7768 0
-7377 -8353 0
-7378 -8354 0
-7379 -8355 0
-7380 -8356 0
-7377 -8425 0
-7378 -8426 0
-7379 -8427 0
-7380 -8428 0
-7381 -7477 0
-7382 -7478 0
-7383 -7479 0
-7384 -7480 0
-7381 -8429 0
-7382 -8430 0
-7383 -8431 0
-7384 -8432 0
-7385 -7389 0
-7386 -7390 0
-7387 -7391 0
-7388 -7392 0
-7385 -7401 0
-7386 -7402 0
-7387 -7403 0
-7388 -7404 0
-7385 -7449 0
-7386 -7450 0
-7387 -7451 0
-7388 -7452 0
-7385 -7949 0
-7386 -7950 0
-7387 -7951 0
-7388 -7952 0
-7385 -8189 0
-7386 -8190 0
-7387 -8191 0
-7388 -8192 0
-7385 -8393 0
-7386 -8394 0
-7387 -8395 0
-7388 -8396 0
-7389 -7417 0
-7390 -7418 0
-7391 -7419 0
-7392 -7420 0
-7389 -7457 0
-7390 -7458 0
-7391 -7459 0
-7392 -7460 0
-7389 -7953 0
-7390 -7954 0
-7391 -7955 0
-7392 -7956 0
-7389 -8401 0
-7390 -8402 0
-7391 -8403 0
-7392 -8404 0
-7393 -7401 0
-7394 -7402 0
-7395 -7403 0
-7396 -7404 0
-7393 -7753 0
-7394 -7754 0
-7395 -7755 0
-7396 -7756 0
-7393 -8369 0
-7394 -8370 0
-7395 -8371 0
-7396 -8372 0
-7397 -7413 0
-7398 -7414 0
-7399 -7415 0
-7400 -7416 0
-7397 -7433 0
-7398 -7434 0
-7399 -7435 0
-7400 -7436 0
-7397 -7765 0
-7398 -7766 0
-7399 -7767 0
-7400 -7768 0
-7397 -7969 0
-7398 -7970 0
-7399 -7971 0
-7400 -7972 0
-7397 -8137 0
-7398 -8138 0
-7399 -8139 0
-7400 -8140 0
-7401 -7405 0
-7402 -7406 0
-7403 -7407 0
-7404 -7408 0
-7401 -7409 0
-7402 -7410 0
-7403 -7411 0
-7404 -7412 0
-7401 -7417 0
-7402 -7418 0
-7403 -7419 0
-7404 -7420 0
-7401 -7425 0
-7402 -7426 0
-7403 -7427 0
-7404 -7428 0
-7401 -7437 0
-7402 -7438 0
-7403 -7439 0
-7404 -7440 0
-7401 -7461 0
-7402 -7462 0
-7403 -7463 0
-7404 -7464 0
-7401 -7789 0
-7402 -7790 0
-7403 -7791 0
-7404 -7792 0
-7401 -7957 0
-7402 -7958 0
-7403 -7959 0
-7404 -7960 0
-7401 -8373 0
-7402 -8374 0
-7403 -8375 0
-7404 -8376 0
-7401 -8409 0
-7402 -8410 0
-7403 -8411 0
-7404 -8412 0
-7405 -7413 0
-7406 -7414 0
-7407 -7415 0
-7408 -7416 0
-7405 -7421 0
-7406 -7422 0
-7407 -7423 0
-7408 -7424 0
-7405 -7437 0
-7406 -7438 0
-7407 -7439 0
-7408 -7440 0
-7405 -7697 0
-7406 -7698 0
-7407 -7699 0
-7408 -7700 0
-7405 -8005 0
-7406 -8006 0
-7407 -8007 0
-7408 -8008 0
-7405 -8117 0
-7406 -8118 0
-7407 -8119 0
-7408 -8120 0
-7409 -7413 0
-7410 -7414 0
-7411 -7415 0
-7412 -7416 0
-7409 -7441 0
-7410 -7442 0
-7411 -7443 0
-7412 -7444 0
-7409 -7461 0
-7410 -7462 0
-7411 -7463 0
-7412 -7464 0
-7409 -7853 0
-7410 -7854 0
-7411 -7855 0
-7412 -7856 0
-7409 -7973 0
-7410 -7974 0
-7411 -7975 0
-7412 -7976 0
-7409 -8197 0
-7410 -8198 0
-7411 -8199 0
-7412 -8200 0
-7413 -7441 0
-7414 -7442 0
-7415 -7443 0
-7416 -7444 0
-7413 -7701 0
-7414 -7702 0
-7415 -7703 0
-7416 -7704 0
-7413 -7977 0
-7414 -7978 0
-7415 -7979 0
-7416 -7980 0
-7413 -8121 0
-7414 -8122 0
-7415 -8123 0
-7416 -8124 0
-7413 -8201 0
-7414 -8202 0
-7415 -8203 0
-7416 -8204 0
-7417 -7421 0
-7418 -7422 0
-7419 -7423 0
-7420 -7424 0
-7417 -7429 0
-7418 -7430 0
-7419 -7431 0
-7420 -7432 0
-7417 -7445 0
-7418 -7446 0
-7419 -7447 0
-7420 -7448 0
-7417 -7465 0
-7418 -7466 0
-7419 -7467 0
-7420 -7468 0
-7417 -7705 0
-7418 -7706 0
-7419 -7707 0
-7420 -7708 0
-7417 -8093 0
-7418 -8094 0
-7419 -8095 0
-7420 -8096 0
-7417 -8417 0
-7418 -8418 0
-7419 -8419 0
-7420 -8420 0
-7421 -7445 0
-7422 -7446 0
-7423 -7447 0
-7424 -7448 0
-7421 -7709 0
-7422 -7710 0
-7423 -7711 0
-7424 -7712 0
-7421 -8013 0
-7422 -8014 0
-7423 -8015 0
-7424 -8016 0
-7425 -7429 0
-7426 -7430 0
-7427 -7431 0
-7428 -7432 0
-7425 -7809 0
-7426 -7810 0
-7427 -7811 0
-7428 -7812 0
-7425 -7961 0
-7426 -7962 0
-7427 -7963 0
-7428 -7964 0
-7425 -8409 0
-7426 -8410 0
-7427 -8411 0
-7428 -8412 0
-7429 -7965 0
-7430 -7966 0
-7431 -7967 0
-7432 -7968 0
-7429 -8097 0
-7430 -8098 0
-7431 -8099 0
-7432 -8100 0
-7429 -8417 0
-7430 -8418 0
-7431 -8419 0
-7432 -8420 0
-7433 -7441 0
-7434 -7442 0
-7435 -7443 0
-7436 -7444 0
-7433 -7573 0
-7434 -7574 0
-7435 -7575 0
-7436 -7576 0
-7433 -7777 0
-7434 -7778 0
-7435 -7779 0
-7436 -7780 0
-7433 -8221 0
-7434 -8222 0
-7435 -8223 0
-7436 -8224 0
-7437 -7441 0
-7438 -7442 0
-7439 -7443 0
-7440 -7444 0
-7437 -7445 0
-7438 -7446 0
-7439 -7447 0
-7440 -7448 0
-7437 -7469 0
-7438 -7470 0
-7439 -7471 0
-7440 -7472 0
-7437 -7821 0
-7438 -7822 0
-7439 -7823 0
-7440 -7824 0
-7437 -8141 0
-7438 -8142 0
-7439 -8143 0
-7440 -8144 0
-7437 -8225 0
-7438 -8226 0
-7439 -8227 0
-7440 -8228 0
-7441 -7469 0
-7442 -7470 0
-7443 -7471 0
-7444 -7472 0
-7441 -7577 0
-7442 -7578 0
-7443 -7579 0
-7444 -7580 0
-7441 -7781 0
-7442 -7782 0
-7443 -7783 0
-7444 -7784 0
-7441 -7981 0
-7442 -7982 0
-7443 -7983 0
-7444 -7984 0
-7441 -8145 0
-7442 -8146 0
-7443 -8147 0
-7444 -8148 0
-7441 -8233 0
-7442 -8234 0
-7443 -8235 0
-7444 -8236 0
-7441 -8433 0
-7442 -8434 0
-7443 -8435 0
-7444 -8436 0
-7445 -8017 0
-7446 -8018 0
-7447 -8019 0
-7448 -8020 0
-7445 -8105 0
-7446 -8106 0
-7447 -8107 0
-7448 -8108 0
-7449 -7453 0
-7450 -7454 0
-7451 -7455 0
-7452 -7456 0
-7449 -7457 0
-7450 -7458 0
-7451 -7459 0
-7452 -7460 0
-7449 -7461 0
-7450 -7462 0
-7451 -7463 0
-7452 -7464 0
-7449 -7985 0
-7450 -7986 0
-7451 -7987 0
-7452 -7988 0
-7449 -8233 0
-7450 -8234 0
-7451 -8235 0
-7452 -8236 0
-7453 -7785 0
-7454 -7786 0
-7455 -7787 0
-7456 -7788 0
-7453 -7989 0
-7454 -7990 0
-7455 -7991 0
-7456 -7992 0
-7453 -8249 0
-7454 -8250 0
-7455 -8251 0
-7456 -8252 0
-7457 -7465 0
-7458 -7466 0
-7459 -7467 0
-7460 -7468 0
-7457 -7993 0
-7458 -7994 0
-7459 -7995 0
-7460 -7996 0
-7457 -8253 0
-7458 -8254 0
-7459 -8255 0
-7460 -8256 0
-7457 -8421 0
-7458 -8422 0
-7459 -8423 0
-7460 -8424 0
-7461 -7465 0
-7462 -7466 0
-7463 -7467 0
-7464 -7468 0
-7461 -7469 0
-7462 -7470 0
-7463 -7471 0
-7464 -7472 0
-7461 -7801 0
-7462 -7802 0
-7463 -7803 0
-7464 -7804 0
-7461 -8113 0
-7462 -8114 0
-7463 -8115 0
-7464 -8116 0
-7461 -8261 0
-7462 -8262 0
-7463 -8263 0
-7464 -8264 0
-7465 -8121 0
-7466 -8122 0
-7467 -8123 0
-7468 -8124 0
-7469 -7613 0
-7470 -7614 0
-7471 -7615 0
-7472 -7616 0
-7469 -7829 0
-7470 -7830 0
-7471 -7831 0
-7472 -7832 0
-7469 -8137 0
-7470 -8138 0
-7471 -8139 0
-7472 -8140 0
-7469 -8273 0
-7470 -8274 0
-7471 -8275 0
-7472 -8276 0
-7469 -8389 0
-7470 -8390 0
-7471 -8391 0
-7472 -8392 0
-7473 -7489 0
-7474 -7490 0
-7475 -7491 0
-7476 -7492 0
-7473 -7753 0
-7474 -7754 0
-7475 -7755 0
-7476 -7756 0
-7477 -7481 0
-7478 -7482 0
-7479 -7483 0
-7480 -7484 0
-7477 -7773 0
-7478 -7774 0
-7479 -7775 0
-7480 -7776 0
-7477 -8289 0
-7478 -8290 0
-7479 -8291 0
-7480 -8292 0
-7477 -8433 0
-7478 -8434 0
-7479 -8435 0
-7480 -8436 0
-7481 -7493 0
-7482 -7494 0
-7483 -7495 0
-7484 -7496 0
-7481 -7777 0
-7482 -7778 0
-7483 -7779 0
-7484 -7780 0
-7481 -8293 0
-7482 -8294 0
-7483 -8295 0
-7484 -8296 0
-7481 -8433 0
-7482 -8434 0
-7483 -8435 0
-7484 -8436 0
-7485 -7489 0
-7486 -7490 0
-7487 -7491 0
-7488 -7492 0
-7485 -8297 0
-7486 -8298 0
-7487 -8299 0
-7488 -8300 0
-7489 -7493 0
-7490 -7494 0
-7491 -7495 0
-7492 -7496 0
-7489 -7793 0
-7490 -7794 0
-7491 -7795 0
-7492 -7796 0
-7489 -8305 0
-7490 -8306 0
-7491 -8307 0
-7492 -8308 0
-7493 -7825 0
-7494 -7826 0
-7495 -7827 0
-7496 -7828 0
-7497 -7501 0
-7498 -7502 0
-7499 -7503 0
-7500 -7504 0
-7497 -7505 0
-7498 -7506 0
-7499 -7507 0
-7500 -7508 0
-7497 -7509 0
-7498 -7510 0
-7499 -7511 0
-7500 -7512 0
-7497 -7621 0
-7498 -7622 0
-7499 -7623 0
-7500 -7624 0
-7497 -7757 0
-7498 -7758 0
-7499 -7759 0
-7500 -7760 0
-7497 -8057 0
-7498 -8058 0
-7499 -8059 0
-7500 -8060 0
-7497 -8437 0
-7498 -8438 0
-7499 -8439 0
-7500 -8440 0
-7501 -7509 0
-7502 -7510 0
-7503 -7511 0
-7504 -7512 0
-7501 -7625 0
-7502 -7626 0
-7503 -7627 0
-7504 -7628 0
-7501 -7765 0
-7502 -7766 0
-7503 -7767 0
-7504 -7768 0
-7501 -7873 0
-7502 -7874 0
-7503 -7875 0
-7504 -7876 0
-7501 -8169 0
-7502 -8170 0
-7503 -8171 0
-7504 -8172 0
-7501 -8441 0
-7502 -8442 0
-7503 -8443 0
-7504 -8444 0
-7505 -7525 0
-7506 -7526 0
-7507 -7527 0
-7508 -7528 0
-7505 -7629 0
-7506 -7630 0
-7507 -7631 0
-7508 -7632 0
-7505 -8061 0
-7506 -8062 0
-7507 -8063 0
-7508 -8064 0
-7505 -8173 0
-7506 -8174 0
-7507 -8175 0
-7508 -8176 0
-7505 -8437 0
-7506 -8438 0
-7507 -8439 0
-7508 -8440 0
-7509 -7637 0
-7510 -7638 0
-7511 -7639 0
-7512 -7640 0
-7509 -7797 0
-7510 -7798 0
-7511 -7799 0
-7512 -7800 0
-7509 -8445 0
-7510 -8446 0
-7511 -8447 0
-7512 -8448 0
-7513 -7517 0
-7514 -7518 0
-7515 -7519 0
-7516 -7520 0
-7513 -7565 0
-7514 -7566 0
-7515 -7567 0
-7516 -7568 0
-7513 -7569 0
-7514 -7570 0
-7515 -7571 0
-7516 -7572 0
-7513 -7921 0
-7514 -7922 0
-7515 -7923 0
-7516 -7924 0
-7513 -8029 0
-7514 -8030 0
-7515 -8031 0
-7516 -8032 0
-7513 -8449 0
-7514 -8450 0
-7515 -8451 0
-7516 -8452 0
-7517 -7521 0
-7518 -7522 0
-7519 -7523 0
-7520 -7524 0
-7517 -7601 0
-7518 -7602 0
-7519 -7603 0
-7520 -7604 0
-7517 -7813 0
-7518 -7814 0
-7519 -7815 0
-7520 -7816 0
-7517 -7941 0
-7518 -7942 0
-7519 -7943 0
-7520 -7944 0
-7517 -8073 0
-7518 -8074 0
-7519 -8075 0
-7520 -8076 0
-7517 -8161 0
-7518 -8162 0
-7519 -8163 0
-7520 -8164 0
-7517 -8449 0
-7518 -8450 0
-7519 -8451 0
-7520 -8452 0
-7521 -7829 0
-7522 -7830 0
-7523 -7831 0
-7524 -7832 0
-7521 -8169 0
-7522 -8170 0
-7523 -8171 0
-7524 -8172 0
-7521 -8409 0
-7522 -8410 0
-7523 -8411 0
-7524 -8412 0
-7521 -8457 0
-7522 -8458 0
-7523 -8459 0
-7524 -8460 0
-7525 -7657 0
-7526 -7658 0
-7527 -7659 0
-7528 -7660 0
-7525 -7665 0
-7526 -7666 0
-7527 -7667 0
-7528 -7668 0
-7525 -8097 0
-7526 -8098 0
-7527 -8099 0
-7528 -8100 0
-7529 -7533 0
-7530 -7534 0
-7531 -7535 0
-7532 -7536 0
-7529 -7537 0
-7530 -7538 0
-7531 -7539 0
-7532 -7540 0
-7529 -7541 0
-7530 -7542 0
-7531 -7543 0
-7532 -7544 0
-7529 -7565 0
-7530 -7566 0
-7531 -7567 0
-7532 -7568 0
-7529 -7669 0
-7530 -7670 0
-7531 -7671 0
-7532 -7672 0
-7529 -8317 0
-7530 -8318 0
-7531 -8319 0
-7532 -8320 0
-7529 -8477 0
-7530 -8478 0
-7531 -8479 0
-7532 -8480 0
-7533 -7545 0
-7534 -7546 0
-7535 -7547 0
-7536 -7548 0
-7533 -7565 0
-7534 -7566 0
-7535 -7567 0
-7536 -7568 0
-7533 -8481 0
-7534 -8482 0
-7535 -8483 0
-7536 -8484 0
-7537 -7549 0
-7538 -7550 0
-7539 -7551 0
-7540 -7552 0
-7537 -7573 0
-7538 -7574 0
-7539 -7575 0
-7540 -7576 0
-7537 -7669 0
-7538 -7670 0
-7539 -7671 0
-7540 -7672 0
-7537 -7865 0
-7538 -7866 0
-7539 -7867 0
-7540 -7868 0
-7537 -8213 0
-7538 -8214 0
-7539 -8215 0
-7540 -8216 0
-7541 -7545 0
-7542 -7546 0
-7543 -7547 0
-7544 -7548 0
-7541 -7549 0
-7542 -7550 0
-7543 -7551 0
-7544 -7552 0
-7541 -7557 0
-7542 -7558 0
-7543 -7559 0
-7544 -7560 0
-7541 -7581 0
-7542 -7582 0
-7543 -7583 0
-7544 -7584 0
-7541 -7673 0
-7542 -7674 0
-7543 -7675 0
-7544 -7676 0
-7541 -8217 0
-7542 -8218 0
-7543 -8219 0
-7544 -8220 0
-7545 -7581 0
-7546 -7582 0
-7547 -7583 0
-7548 -7584 0
-7545 -8489 0
-7546 -8490 0
-7547 -8491 0
-7548 -8492 0
-7549 -7553 0
-7550 -7554 0
-7551 -7555 0
-7552 -7556 0
-7549 -7561 0
-7550 -7562 0
-7551 -7563 0
-7552 -7564 0
-7549 -7589 0
-7550 -7590 0
-7551 -7591 0
-7552 -7592 0
-7549 -7609 0
-7550 -7610 0
-7551 -7611 0
-7552 -7612 0
-7549 -7673 0
-7550 -7674 0
-7551 -7675 0
-7552 -7676 0
-7549 -7869 0
-7550 -7870 0
-7551 -7871 0
-7552 -7872 0
-7549 -8053 0
-7550 -8054 0
-7551 -8055 0
-7552 -8056 0
-7549 -8233 0
-7550 -8234 0
-7551 -8235 0
-7552 -8236 0
-7549 -8441 0
-7550 -8442 0
-7551 -8443 0
-7552 -8444 0
-7553 -7593 0
-7554 -7594 0
-7555 -7595 0
-7556 -7596 0
-7553 -7789 0
-7554 -7790 0
-7555 -7791 0
-7556 -7792 0
-7553 -8245 0
-7554 -8246 0
-7555 -8247 0
-7556 -8248 0
-7557 -7561 0
-7558 -7562 0
-7559 -7563 0
-7560 -7564 0
-7557 -7681 0
-7558 -7682 0
-7559 -7683 0
-7560 -7684 0
-7557 -7793 0
-7558 -7794 0
-7559 -7795 0
-7560 -7796 0
-7557 -7905 0
-7558 -7906 0
-7559 -7907 0
-7560 -7908 0
-7557 -8325 0
-7558 -8326 0
-7559 -8327 0
-7560 -8328 0
-7557 -8421 0
-7558 -8422 0
-7559 -8423 0
-7560 -8424 0
-7561 -7681 0
-7562 -7682 0
-7563 -7683 0
-7564 -7684 0
-7561 -7805 0
-7562 -7806 0
-7563 -7807 0
-7564 -7808 0
-7561 -7845 0
-7562 -7846 0
-7563 -7847 0
-7564 -7848 0
-7561 -8061 0
-7562 -8062 0
-7563 -8063 0
-7564 -8064 0
-7561 -8257 0
-7562 -8258 0
-7563 -8259 0
-7564 -8260 0
-7561 -8441 0
-7562 -8442 0
-7563 -8443 0
-7564 -8444 0
-7565 -7569 0
-7566 -7570 0
-7567 -7571 0
-7568 -7572 0
-7565 -7573 0
-7566 -7574 0
-7567 -7575 0
-7568 -7576 0
-7565 -7581 0
-7566 -7582 0
-7567 -7583 0
-7568 -7584 0
-7565 -7597 0
-7566 -7598 0
-7567 -7599 0
-7568 -7600 0
-7565 -7601 0
-7566 -7602 0
-7567 -7603 0
-7568 -7604 0
-7565 -7909 0
-7566 -7910 0
-7567 -7911 0
-7568 -7912 0
-7565 -7957 0
-7566 -7958 0
-7567 -7959 0
-7568 -7960 0
-7565 -8465 0
-7566 -8466 0
-7567 -8467 0
-7568 -8468 0
-7565 -8493 0
-7566 -8494 0
-7567 -8495 0
-7568 -8496 0
-7569 -7577 0
-7570 -7578 0
-7571 -7579 0
-7572 -7580 0
-7569 -7585 0
-7570 -7586 0
-7571 -7587 0
-7572 -7588 0
-7569 -7913 0
-7570 -7914 0
-7571 -7915 0
-7572 -7916 0
-7569 -8217 0
-7570 -8218 0
-7571 -8219 0
-7572 -8220 0
-7569 -8469 0
-7570 -8470 0
-7571 -8471 0
-7572 -8472 0
-7573 -7577 0
-7574 -7578 0
-7575 -7579 0
-7576 -7580 0
-7573 -7589 0
-7574 -7590 0
-7575 -7591 0
-7576 -7592 0
-7573 -7701 0
-7574 -7702 0
-7575 -7703 0
-7576 -7704 0
-7573 -7877 0
-7574 -7878 0
-7575 -7879 0
-7576 -7880 0
-7573 -8221 0
-7574 -8222 0
-7575 -8223 0
-7576 -8224 0
-7577 -7593 0
-7578 -7594 0
-7579 -7595 0
-7580 -7596 0
-7577 -7613 0
-7578 -7614 0
-7579 -7615 0
-7580 -7616 0
-7577 -7617 0
-7578 -7618 0
-7579 -7619 0
-7580 -7620 0
-7577 -8065 0
-7578 -8066 0
-7579 -8067 0
-7580 -8068 0
-7577 -8233 0
-7578 -8234 0
-7579 -8235 0
-7580 -8236 0
-7581 -7585 0
-7582 -7586 0
-7583 -7587 0
-7584 -7588 0
-7581 -7589 0
-7582 -7590 0
-7583 -7591 0
-7584 -7592 0
-7581 -7605 0
-7582 -7606 0
-7583 -7607 0
-7584 -7608 0
-7581 -8129 0
-7582 -8130 0
-7583 -8131 0
-7584 -8132 0
-7581 -8473 0
-7582 -8474 0
-7583 -8475 0
-7584 -8476 0
-7585 -7593 0
-7586 -7594 0
-7587 -7595 0
-7588 -7596 0
-7585 -7813 0
-7586 -7814 0
-7587 -7815 0
-7588 -7816 0
-7589 -7593 0
-7590 -7594 0
-7591 -7595 0
-7592 -7596 0
-7589 -7713 0
-7590 -7714 0
-7591 -7715 0
-7592 -7716 0
-7589 -8269 0
-7590 -8270 0
-7591 -8271 0
-7592 -8272 0
-7593 -7821 0
-7594 -7822 0
-7595 -7823 0
-7596 -7824 0
-7593 -8253 0
-7594 -8254 0
-7595 -8255 0
-7596 -8256 0
-7597 -7929 0
-7598 -7930 0
-7599 -7931 0
-7600 -7932 0
-7597 -7961 0
-7598 -7962 0
-7599 -7963 0
-7600 -7964 0
-7601 -7605 0
-7602 -7606 0
-7603 -7607 0
-7604 -7608 0
-7601 -7697 0
-7602 -7698 0
-7603 -7699 0
-7604 -7700 0
-7601 -7885 0
-7602 -7886 0
-7603 -7887 0
-7604 -7888 0
-7601 -8133 0
-7602 -8134 0
-7603 -8135 0
-7604 -8136 0
-7601 -8465 0
-7602 -8466 0
-7603 -8467 0
-7604 -8468 0
-7605 -7709 0
-7606 -7710 0
-7607 -7711 0
-7608 -7712 0
-7605 -8145 0
-7606 -8146 0
-7607 -8147 0
-7608 -8148 0
-7605 -8473 0
-7606 -8474 0
-7607 -8475 0
-7608 -8476 0
-7609 -7901 0
-7610 -7902 0
-7611 -7903 0
-7612 -7904 0
-7609 -8273 0
-7610 -8274 0
-7611 -8275 0
-7612 -8276 0
-7609 -8445 0
-7610 -8446 0
-7611 -8447 0
-7612 -8448 0
-7613 -7617 0
-7614 -7618 0
-7615 -7619 0
-7616 -7620 0
-7613 -8273 0
-7614 -8274 0
-7615 -8275 0
-7616 -8276 0
-7617 -7933 0
-7618 -7934 0
-7619 -7935 0
-7620 -7936 0
-7617 -8077 0
-7618 -8078 0
-7619 -8079 0
-7620 -8080 0
-7617 -8277 0
-7618 -8278 0
-7619 -8279 0
-7620 -8280 0
-7621 -7625 0
-7622 -7626 0
-7623 -7627 0
-7624 -7628 0
-7621 -7629 0
-7622 -7630 0
-7623 -7631 0
-7624 -7632 0
-7621 -7637 0
-7622 -7638 0
-7623 -7639 0
-7624 -7640 0
-7621 -7645 0
-7622 -7646 0
-7623 -7647 0
-7624 -7648 0
-7621 -7649 0
-7622 -7650 0
-7623 -7651 0
-7624 -7652 0
-7621 -8449 0
-7622 -8450 0
-7623 -8451 0
-7624 -8452 0
-7625 -7633 0
-7626 -7634 0
-7627 -7635 0
-7628 -7636 0
-7625 -7637 0
-7626 -7638 0
-7627 -7639 0
-7628 -7640 0
-7625 -7973 0
-7626 -7974 0
-7627 -7975 0
-7628 -7976 0
-7625 -8453 0
-7626 -8454 0
-7627 -8455 0
-7628 -8456 0
-7629 -7633 0
-7630 -7634 0
-7631 -7635 0
-7632 -7636 0
-7629 -7641 0
-7630 -7642 0
-7631 -7643 0
-7632 -7644 0
-7629 -7653 0
-7630 -7654 0
-7631 -7655 0
-7632 -7656 0
-7629 -7657 0
-7630 -7658 0
-7631 -7659 0
-7632 -7660 0
-7629 -8449 0
-7630 -8450 0
-7631 -8451 0
-7632 -8452 0
-7633 -7641 0
-7634 -7642 0
-7635 -7643 0
-7636 -7644 0
-7633 -7725 0
-7634 -7726 0
-7635 -7727 0
-7636 -7728 0
-7633 -8453 0
-7634 -8454 0
-7635 -8455 0
-7636 -8456 0
-7637 -7641 0
-7638 -7642 0
-7639 -7643 0
-7640 -7644 0
-7637 -8333 0
-7638 -8334 0
-7639 -8335 0
-7640 -8336 0
-7637 -8461 0
-7638 -8462 0
-7639 -8463 0
-7640 -8464 0
-7641 -7733 0
-7642 -7734 0
-7643 -7735 0
-7644 -7736 0
-7641 -8461 0
-7642 -8462 0
-7643 -8463 0
-7644 -8464 0
-7645 -7649 0
-7646 -7650 0
-7647 -7651 0
-7648 -7652 0
-7645 -7653 0
-7646 -7654 0
-7647 -7655 0
-7648 -7656 0
-7645 -7741 0
-7646 -7742 0
-7647 -7743 0
-7648 -7744 0
-7645 -7969 0
-7646 -7970 0
-7647 -7971 0
-7648 -7972 0
-7645 -8465 0
-7646 -8466 0
-7647 -8467 0
-7648 -8468 0
-7649 -7657 0
-7650 -7658 0
-7651 -7659 0
-7652 -7660 0
-7649 -7881 0
-7650 -7882 0
-7651 -7883 0
-7652 -7884 0
-7649 -7977 0
-7650 -7978 0
-7651 -7979 0
-7652 -7980 0
-7649 -8469 0
-7650 -8470 0
-7651 -8471 0
-7652 -8472 0
-7653 -7657 0
-7654 -7658 0
-7655 -7659 0
-7656 -7660 0
-7653 -7757 0
-7654 -7758 0
-7655 -7759 0
-7656 -7760 0
-7653 -8465 0
-7654 -8466 0
-7655 -8467 0
-7656 -8468 0
-7653 -8473 0
-7654 -8474 0
-7655 -8475 0
-7656 -8476 0
-7657 -7665 0
-7658 -7666 0
-7659 -7667 0
-7660 -7668 0
-7657 -7885 0
-7658 -7886 0
-7659 -7887 0
-7660 -7888 0
-7657 -8469 0
-7658 -8470 0
-7659 -8471 0
-7660 -8472 0
-7661 -7665 0
-7662 -7666 0
-7663 -7667 0
-7664 -7668 0
-7661 -7689 0
-7662 -7690 0
-7663 -7691 0
-7664 -7692 0
-7661 -8101 0
-7662 -8102 0
-7663 -8103 0
-7664 -8104 0
-7665 -7693 0
-7666 -7694 0
-7667 -7695 0
-7668 -7696 0
-7665 -7889 0
-7666 -7890 0
-7667 -7891 0
-7668 -7892 0
-7665 -8105 0
-7666 -8106 0
-7667 -8107 0
-7668 -8108 0
-7665 -8305 0
-7666 -8306 0
-7667 -8307 0
-7668 -8308 0
-7669 -7673 0
-7670 -7674 0
-7671 -7675 0
-7672 -7676 0
-7669 -8001 0
-7670 -8002 0
-7671 -8003 0
-7672 -8004 0
-7669 -8113 0
-7670 -8114 0
-7671 -8115 0
-7672 -8116 0
-7669 -8341 0
-7670 -8342 0
-7671 -8343 0
-7672 -8344 0
-7673 -7681 0
-7674 -7682 0
-7675 -7683 0
-7676 -7684 0
-7673 -8009 0
-7674 -8010 0
-7675 -8011 0
-7676 -8012 0
-7673 -8121 0
-7674 -8122 0
-7675 -8123 0
-7676 -8124 0
-7673 -8309 0
-7674 -8310 0
-7675 -8311 0
-7676 -8312 0
-7673 -8345 0
-7674 -8346 0
-7675 -8347 0
-7676 -8348 0
-7673 -8453 0
-7674 -8454 0
-7675 -8455 0
-7676 -8456 0
-7677 -7681 0
-7678 -7682 0
-7679 -7683 0
-7680 -7684 0
-7677 -7801 0
-7678 -7802 0
-7679 -7803 0
-7680 -7804 0
-7677 -7917 0
-7678 -7918 0
-7679 -7919 0
-7680 -7920 0
-7677 -7997 0
-7678 -7998 0
-7679 -7999 0
-7680 -8000 0
-7677 -8125 0
-7678 -8126 0
-7679 -8127 0
-7680 -8128 0
-7677 -8289 0
-7678 -8290 0
-7679 -8291 0
-7680 -8292 0
-7677 -8449 0
-7678 -8450 0
-7679 -8451 0
-7680 -8452 0
-7677 -8457 0
-7678 -8458 0
-7679 -8459 0
-7680 -8460 0
-7681 -7685 0
-7682 -7686 0
-7683 -7687 0
-7684 -7688 0
-7681 -7689 0
-7682 -7690 0
-7683 -7691 0
-7684 -7692 0
-7681 -7785 0
-7682 -7786 0
-7683 -7787 0
-7684 -7788 0
-7681 -7857 0
-7682 -7858 0
-7683 -7859 0
-7684 -7860 0
-7681 -7925 0
-7682 -7926 0
-7683 -7927 0
-7684 -7928 0
-7681 -8129 0
-7682 -8130 0
-7683 -8131 0
-7684 -8132 0
-7681 -8365 0
-7682 -8366 0
-7683 -8367 0
-7684 -8368 0
-7681 -8453 0
-7682 -8454 0
-7683 -8455 0
-7684 -8456 0
-7685 -7693 0
-7686 -7694 0
-7687 -7695 0
-7688 -7696 0
-7685 -7929 0
-7686 -7930 0
-7687 -7931 0
-7688 -7932 0
-7685 -8013 0
-7686 -8014 0
-7687 -8015 0
-7688 -8016 0
-7689 -7693 0
-7690 -7694 0
-7691 -7695 0
-7692 -7696 0
-7689 -7809 0
-7690 -7810 0
-7691 -7811 0
-7692 -7812 0
-7689 -8145 0
-7690 -8146 0
-7691 -8147 0
-7692 -8148 0
-7689 -8301 0
-7690 -8302 0
-7691 -8303 0
-7692 -8304 0
-7693 -7945 0
-7694 -7946 0
-7695 -7947 0
-7696 -7948 0
-7693 -8149 0
-7694 -8150 0
-7695 -8151 0
-7696 -8152 0
-7697 -7701 0
-7698 -7702 0
-7699 -7703 0
-7700 -7704 0
-7697 -7709 0
-7698 -7710 0
-7699 -7711 0
-7700 -7712 0
-7697 -7717 0
-7698 -7718 0
-7699 -7719 0
-7700 -7720 0
-7697 -8213 0
-7698 -8214 0
-7699 -8215 0
-7700 -8216 0
-7701 -7713 0
-7702 -7714 0
-7703 -7715 0
-7704 -7716 0
-7701 -8021 0
-7702 -8022 0
-7703 -8023 0
-7704 -8024 0
-7701 -8161 0
-7702 -8162 0
-7703 -8163 0
-7704 -8164 0
-7701 -8481 0
-7702 -8482 0
-7703 -8483 0
-7704 -8484 0
-7705 -7709 0
-7706 -7710 0
-7707 -7711 0
-7708 -7712 0
-7705 -7817 0
-7706 -7818 0
-7707 -7819 0
-7708 -7820 0
-7705 -8229 0
-7706 -8230 0
-7707 -8231 0
-7708 -8232 0
-7705 -8317 0
-7706 -8318 0
-7707 -8319 0
-7708 -8320 0
-7709 -7713 0
-7710 -7714 0
-7711 -7715 0
-7712 -7716 0
-7709 -7721 0
-7710 -7722 0
-7711 -7723 0
-7712 -7724 0
-7709 -7813 0
-7710 -7814 0
-7711 -7815 0
-7712 -7816 0
-7709 -7821 0
-7710 -7822 0
-7711 -7823 0
-7712 -7824 0
-7709 -8233 0
-7710 -8234 0
-7711 -8235 0
-7712 -8236 0
-7709 -8485 0
-7710 -8486 0
-7711 -8487 0
-7712 -8488 0
-7713 -8165 0
-7714 -8166 0
-7715 -8167 0
-7716 -8168 0
-7713 -8241 0
-7714 -8242 0
-7715 -8243 0
-7716 -8244 0
-7713 -8489 0
-7714 -8490 0
-7715 -8491 0
-7716 -8492 0
-7717 -7721 0
-7718 -7722 0
-7719 -7723 0
-7720 -7724 0
-7717 -8037 0
-7718 -8038 0
-7719 -8039 0
-7720 -8040 0
-7721 -7829 0
-7722 -7830 0
-7723 -7831 0
-7724 -7832 0
-7721 -7837 0
-7722 -7838 0
-7723 -7839 0
-7724 -7840 0
-7721 -7941 0
-7722 -7942 0
-7723 -7943 0
-7724 -7944 0
-7721 -8045 0
-7722 -8046 0
-7723 -8047 0
-7724 -8048 0
-7721 -8173 0
-7722 -8174 0
-7723 -8175 0
-7724 -8176 0
-7721 -8257 0
-7722 -8258 0
-7723 -8259 0
-7724 -8260 0
-7725 -7729 0
-7726 -7730 0
-7727 -7731 0
-7728 -7732 0
-7725 -7733 0
-7726 -7734 0
-7727 -7735 0
-7728 -7736 0
-7725 -7765 0
-7726 -7766 0
-7727 -7767 0
-7728 -7768 0
-7729 -7737 0
-7730 -7738 0
-7731 -7739 0
-7732 -7740 0
-7729 -7777 0
-7730 -7778 0
-7731 -7779 0
-7732 -7780 0
-7729 -7781 0
-7730 -7782 0
-7731 -7783 0
-7732 -7784 0
-7729 -8177 0
-7730 -8178 0
-7731 -8179 0
-7732 -8180 0
-7733 -7737 0
-7734 -7738 0
-7735 -7739 0
-7736 -7740 0
-7733 -7797 0
-7734 -7798 0
-7735 -7799 0
-7736 -7800 0
-7737 -7825 0
-7738 -7826 0
-7739 -7827 0
-7740 -7828 0
-7737 -7829 0
-7738 -7830 0
-7739 -7831 0
-7740 -7832 0
-7737 -8329 0
-7738 -8330 0
-7739 -8331 0
-7740 -8332 0
-7737 -8449 0
-7738 -8450 0
-7739 -8451 0
-7740 -8452 0
-7741 -7749 0
-7742 -7750 0
-7743 -7751 0
-7744 -7752 0
-7741 -7757 0
-7742 -7758 0
-7743 -7759 0
-7744 -7760 0
-7745 -7749 0
-7746 -7750 0
-7747 -7751 0
-7748 -7752 0
-7745 -7761 0
-7746 -7762 0
-7747 -7763 0
-7748 -7764 0
-7745 -7773 0
-7746 -7774 0
-7747 -7775 0
-7748 -7776 0
-7745 -8477 0
-7746 -8478 0
-7747 -8479 0
-7748 -8480 0
-7749 -7765 0
-7750 -7766 0
-7751 -7767 0
-7752 -7768 0
-7749 -7773 0
-7750 -7774 0
-7751 -7775 0
-7752 -7776 0
-7749 -8481 0
-7750 -8482 0
-7751 -8483 0
-7752 -8484 0
-7753 -7757 0
-7754 -7758 0
-7755 -7759 0
-7756 -7760 0
-7753 -7761 0
-7754 -7762 0
-7755 -7763 0
-7756 -7764 0
-7753 -7793 0
-7754 -7794 0
-7755 -7795 0
-7756 -7796 0
-7753 -8053 0
-7754 -8054 0
-7755 -8055 0
-7756 -8056 0
-7753 -8449 0
-7754 -8450 0
-7755 -8451 0
-7756 -8452 0
-7757 -7765 0
-7758 -7766 0
-7759 -7767 0
-7760 -7768 0
-7757 -7797 0
-7758 -7798 0
-7759 -7799 0
-7760 -7800 0
-7757 -8289 0
-7758 -8290 0
-7759 -8291 0
-7760 -8292 0
-7757 -8485 0
-7758 -8486 0
-7759 -8487 0
-7760 -8488 0
-7761 -7765 0
-7762 -7766 0
-7763 -7767 0
-7764 -7768 0
-7761 -7777 0
-7762 -7778 0
-7763 -7779 0
-7764 -7780 0
-7761 -7793 0
-7762 -7794 0
-7763 -7795 0
-7764 -7796 0
-7761 -7865 0
-7762 -7866 0
-7763 -7867 0
-7764 -7868 0
-7761 -8349 0
-7762 -8350 0
-7763 -8351 0
-7764 -8352 0
-7761 -8453 0
-7762 -8454 0
-7763 -8455 0
-7764 -8456 0
-7761 -8477 0
-7762 -8478 0
-7763 -8479 0
-7764 -8480 0
-7765 -7769 0
-7766 -7770 0
-7767 -7771 0
-7768 -7772 0
-7765 -7777 0
-7766 -7778 0
-7767 -7779 0
-7768 -7780 0
-7765 -7797 0
-7766 -7798 0
-7767 -7799 0
-7768 -7800 0
-7765 -7969 0
-7766 -7970 0
-7767 -7971 0
-7768 -7972 0
-7765 -8093 0
-7766 -8094 0
-7767 -8095 0
-7768 -8096 0
-7765 -8353 0
-7766 -8354 0
-7767 -8355 0
-7768 -8356 0
-7765 -8481 0
-7766 -8482 0
-7767 -8483 0
-7768 -8484 0
-7765 -8489 0
-7766 -8490 0
-7767 -8491 0
-7768 -8492 0
-7769 -8301 0
-7770 -8302 0
-7771 -8303 0
-7772 -8304 0
-7773 -7777 0
-7774 -7778 0
-7775 -7779 0
-7776 -7780 0
-7773 -8493 0
-7774 -8494 0
-7775 -8495 0
-7776 -8496 0
-7777 -7781 0
-7778 -7782 0
-7779 -7783 0
-7780 -7784 0
-7777 -7825 0
-7778 -7826 0
-7779 -7827 0
-7780 -7828 0
-7777 -7877 0
-7778 -7878 0
-7779 -7879 0
-7780 -7880 0
-7777 -8101 0
-7778 -8102 0
-7779 -8103 0
-7780 -8104 0
-7777 -8397 0
-7778 -8398 0
-7779 -8399 0
-7780 -8400 0
-7777 -8493 0
-7778 -8494 0
-7779 -8495 0
-7780 -8496 0
-7781 -7829 0
-7782 -7830 0
-7783 -7831 0
-7784 -7832 0
-7781 -7981 0
-7782 -7982 0
-7783 -7983 0
-7784 -7984 0
-7781 -8361 0
-7782 -8362 0
-7783 -8363 0
-7784 -8364 0
-7781 -8401 0
-7782 -8402 0
-7783 -8403 0
-7784 -8404 0
-7785 -7809 0
-7786 -7810 0
-7787 -7811 0
-7788 -7812 0
-7785 -7841 0
-7786 -7842 0
-7787 -7843 0
-7788 -7844 0
-7785 -7989 0
-7786 -7990 0
-7787 -7991 0
-7788 -7992 0
-7785 -8025 0
-7786 -8026 0
-7787 -8027 0
-7788 -8028 0
-7785 -8205 0
-7786 -8206 0
-7787 -8207 0
-7788 -8208 0
-7785 -8405 0
-7786 -8406 0
-7787 -8407 0
-7788 -8408 0
-7789 -7809 0
-7790 -7810 0
-7791 -7811 0
-7792 -7812 0
-7789 -7817 0
-7790 -7818 0
-7791 -7819 0
-7792 -7820 0
-7789 -7821 0
-7790 -7822 0
-7791 -7823 0
-7792 -7824 0
-7789 -8209 0
-7790 -8210 0
-7791 -8211 0
-7792 -8212 0
-7789 -8373 0
-7790 -8374 0
-7791 -8375 0
-7792 -8376 0
-7793 -7797 0
-7794 -7798 0
-7795 -7799 0
-7796 -7800 0
-7793 -7801 0
-7794 -7802 0
-7795 -7803 0
-7796 -7804 0
-7793 -7805 0
-7794 -7806 0
-7795 -7807 0
-7796 -7808 0
-7793 -7825 0
-7794 -7826 0
-7795 -7827 0
-7796 -7828 0
-7793 -7849 0
-7794 -7850 0
-7795 -7851 0
-7796 -7852 0
-7793 -7857 0
-7794 -7858 0
-7795 -7859 0
-7796 -7860 0
-7793 -7893 0
-7794 -7894 0
-7795 -7895 0
-7796 -7896 0
-7793 -8413 0
-7794 -8414 0
-7795 -8415 0
-7796 -8416 0
-7793 -8461 0
-7794 -8462 0
-7795 -8463 0
-7796 -8464 0
-7797 -7825 0
-7798 -7826 0
-7799 -7827 0
-7800 -7828 0
-7797 -8117 0
-7798 -8118 0
-7799 -8119 0
-7800 -8120 0
-7801 -7809 0
-7802 -7810 0
-7803 -7811 0
-7804 -7812 0
-7801 -7829 0
-7802 -7830 0
-7803 -7831 0
-7804 -7832 0
-7801 -7849 0
-7802 -7850 0
-7803 -7851 0
-7804 -7852 0
-7801 -7861 0
-7802 -7862 0
-7803 -7863 0
-7804 -7864 0
-7801 -8217 0
-7802 -8218 0
-7803 -8219 0
-7804 -8220 0
-7801 -8417 0
-7802 -8418 0
-7803 -8419 0
-7804 -8420 0
-7805 -7809 0
-7806 -7810 0
-7807 -7811 0
-7808 -7812 0
-7805 -7853 0
-7806 -7854 0
-7807 -7855 0
-7808 -7856 0
-7805 -7857 0
-7806 -7858 0
-7807 -7859 0
-7808 -7860 0
-7805 -8009 0
-7806 -8010 0
-7807 -8011 0
-7808 -8012 0
-7805 -8061 0
-7806 -8062 0
-7807 -8063 0
-7808 -8064 0
-7805 -8221 0
-7806 -8222 0
-7807 -8223 0
-7808 -8224 0
-7805 -8381 0
-7806 -8382 0
-7807 -8383 0
-7808 -8384 0
-7809 -7833 0
-7810 -7834 0
-7811 -7835 0
-7812 -7836 0
-7809 -7837 0
-7810 -7838 0
-7811 -7839 0
-7812 -7840 0
-7809 -7853 0
-7810 -7854 0
-7811 -7855 0
-7812 -7856 0
-7809 -7861 0
-7810 -7862 0
-7811 -7863 0
-7812 -7864 0
-7809 -8013 0
-7810 -8014 0
-7811 -8015 0
-7812 -8016 0
-7809 -8033 0
-7810 -8034 0
-7811 -8035 0
-7812 -8036 0
-7809 -8233 0
-7810 -8234 0
-7811 -8235 0
-7812 -8236 0
-7809 -8337 0
-7810 -8338 0
-7811 -8339 0
-7812 -8340 0
-7813 -7821 0
-7814 -7822 0
-7815 -7823 0
-7816 -7824 0
-7813 -7829 0
-7814 -7830 0
-7815 -7831 0
-7816 -7832 0
-7813 -8309 0
-7814 -8310 0
-7815 -8311 0
-7816 -8312 0
-7817 -7821 0
-7818 -7822 0
-7819 -7823 0
-7820 -7824 0
-7817 -7833 0
-7818 -7834 0
-7819 -7835 0
-7820 -7836 0
-7817 -8261 0
-7818 -8262 0
-7819 -8263 0
-7820 -8264 0
-7817 -8341 0
-7818 -8342 0
-7819 -8343 0
-7820 -8344 0
-7821 -7837 0
-7822 -7838 0
-7823 -7839 0
-7824 -7840 0
-7821 -8313 0
-7822 -8314 0
-7823 -8315 0
-7824 -8316 0
-7821 -8377 0
-7822 -8378 0
-7823 -8379 0
-7824 -8380 0
-7825 -7829 0
-7826 -7830 0
-7827 -7831 0
-7828 -7832 0
-7825 -7921 0
-7826 -7922 0
-7827 -7923 0
-7828 -7924 0
-7825 -8081 0
-7826 -8082 0
-7827 -8083 0
-7828 -8084 0
-7825 -8141 0
-7826 -8142 0
-7827 -8143 0
-7828 -8144 0
-7825 -8465 0
-7826 -8466 0
-7827 -8467 0
-7828 -8468 0
-7829 -7837 0
-7830 -7838 0
-7831 -7839 0
-7832 -7840 0
-7829 -8089 0
-7830 -8090 0
-7831 -8091 0
-7832 -8092 0
-7829 -8353 0
-7830 -8354 0
-7831 -8355 0
-7832 -8356 0
-7829 -8469 0
-7830 -8470 0
-7831 -8471 0
-7832 -8472 0
-7833 -7837 0
-7834 -7838 0
-7835 -7839 0
-7836 -7840 0
-7833 -8017 0
-7834 -8018 0
-7835 -8019 0
-7836 -8020 0
-7833 -8265 0
-7834 -8266 0
-7835 -8267 0
-7836 -8268 0
-7833 -8357 0
-7834 -8358 0
-7835 -8359 0
-7836 -8360 0
-7837 -8269 0
-7838 -8270 0
-7839 -8271 0
-7840 -8272 0
-7837 -8385 0
-7838 -8386 0
-7839 -8387 0
-7840 -8388 0
-7841 -7845 0
-7842 -7846 0
-7843 -7847 0
-7844 -7848 0
-7841 -7853 0
-7842 -7854 0
-7843 -7855 0
-7844 -7856 0
-7841 -8001 0
-7842 -8002 0
-7843 -8003 0
-7844 -8004 0
-7841 -8289 0
-7842 -8290 0
-7843 -8291 0
-7844 -8292 0
-7841 -8429 0
-7842 -8430 0
-7843 -8431 0
-7844 -8432 0
-7841 -8481 0
-7842 -8482 0
-7843 -8483 0
-7844 -8484 0
-7845 -8009 0
-7846 -8010 0
-7847 -8011 0
-7848 -8012 0
-7845 -8293 0
-7846 -8294 0
-7847 -8295 0
-7848 -8296 0
-7845 -8489 0
-7846 -8490 0
-7847 -8491 0
-7848 -8492 0
-7849 -7853 0
-7850 -7854 0
-7851 -7855 0
-7852 -7856 0
-7849 -7949 0
-7850 -7950 0
-7851 -7951 0
-7852 -7952 0
-7849 -8121 0
-7850 -8122 0
-7851 -8123 0
-7852 -8124 0
-7853 -8097 0
-7854 -8098 0
-7855 -8099 0
-7856 -8100 0
-7853 -8281 0
-7854 -8282 0
-7855 -8283 0
-7856 -8284 0
-7853 -8297 0
-7854 -8298 0
-7855 -8299 0
-7856 -8300 0
-7857 -7861 0
-7858 -7862 0
-7859 -7863 0
-7860 -7864 0
-7857 -7989 0
-7858 -7990 0
-7859 -7991 0
-7860 -7992 0
-7861 -8073 0
-7862 -8074 0
-7863 -8075 0
-7864 -8076 0
-7861 -8309 0
-7862 -8310 0
-7863 -8311 0
-7864 -8312 0
-7865 -7869 0
-7866 -7870 0
-7867 -7871 0
-7868 -7872 0
-7865 -7873 0
-7866 -7874 0
-7867 -7875 0
-7868 -7876 0
-7865 -7877 0
-7866 -7878 0
-7867 -7879 0
-7868 -7880 0
-7865 -7893 0
-7866 -7894 0
-7867 -7895 0
-7868 -7896 0
-7865 -7897 0
-7866 -7898 0
-7867 -7899 0
-7868 -7900 0
-7865 -8393 0
-7866 -8394 0
-7867 -8395 0
-7868 -8396 0
-7869 -7901 0
-7870 -7902 0
-7871 -7903 0
-7872 -7904 0
-7869 -7905 0
-7870 -7906 0
-7871 -7907 0
-7872 -7908 0
-7869 -8053 0
-7870 -8054 0
-7871 -8055 0
-7872 -8056 0
-7869 -8401 0
-7870 -8402 0
-7871 -8403 0
-7872 -8404 0
-7873 -7889 0
-7874 -7890 0
-7875 -7891 0
-7876 -7892 0
-7873 -7973 0
-7874 -7974 0
-7875 -7975 0
-7876 -7976 0
-7873 -8093 0
-7874 -8094 0
-7875 -8095 0
-7876 -8096 0
-7873 -8317 0
-7874 -8318 0
-7875 -8319 0
-7876 -8320 0
-7873 -8409 0
-7874 -8410 0
-7875 -8411 0
-7876 -8412 0
-7877 -7889 0
-7878 -7890 0
-7879 -7891 0
-7880 -7892 0
-7877 -7921 0
-7878 -7922 0
-7879 -7923 0
-7880 -7924 0
-7877 -7929 0
-7878 -7930 0
-7879 -7931 0
-7880 -7932 0
-7877 -8021 0
-7878 -8022 0
-7879 -8023 0
-7880 -8024 0
-7877 -8189 0
-7878 -8190 0
-7879 -8191 0
-7880 -8192 0
-7877 -8397 0
-7878 -8398 0
-7879 -8399 0
-7880 -8400 0
-7881 -7885 0
-7882 -7886 0
-7883 -7887 0
-7884 -7888 0
-7881 -8161 0
-7882 -8162 0
-7883 -8163 0
-7884 -8164 0
-7881 -8497 0
-7882 -8498 0
-7883 -8499 0
-7884 -8500 0
-7885 -7889 0
-7886 -7890 0
-7887 -7891 0
-7888 -7892 0
-7885 -7981 0
-7886 -7982 0
-7887 -7983 0
-7888 -7984 0
-7885 -8165 0
-7886 -8166 0
-7887 -8167 0
-7888 -8168 0
-7885 -8349 0
-7886 -8350 0
-7887 -8351 0
-7888 -8352 0
-7885 -8497 0
-7886 -8498 0
-7887 -8499 0
-7888 -8500 0
-7889 -7941 0
-7890 -7942 0
-7891 -7943 0
-7892 -7944 0
-7889 -7945 0
-7890 -7946 0
-7891 -7947 0
-7892 -7948 0
-7889 -7981 0
-7890 -7982 0
-7891 -7983 0
-7892 -7984 0
-7889 -8105 0
-7890 -8106 0
-7891 -8107 0
-7892 -8108 0
-7889 -8357 0
-7890 -8358 0
-7891 -8359 0
-7892 -8360 0
-7889 -8413 0
-7890 -8414 0
-7891 -8415 0
-7892 -8416 0
-7889 -8437 0
-7890 -8438 0
-7891 -8439 0
-7892 -8440 0
-7893 -7897 0
-7894 -7898 0
-7895 -7899 0
-7896 -7900 0
-7893 -7901 0
-7894 -7902 0
-7895 -7903 0
-7896 -7904 0
-7893 -7917 0
-7894 -7918 0
-7895 -7919 0
-7896 -7920 0
-7893 -7921 0
-7894 -7922 0
-7895 -7923 0
-7896 -7924 0
-7893 -7949 0
-7894 -7950 0
-7895 -7951 0
-7896 -7952 0
-7893 -7985 0
-7894 -7986 0
-7895 -7987 0
-7896 -7988 0
-7893 -7989 0
-7894 -7990 0
-7895 -7991 0
-7896 -7992 0
-7893 -8109 0
-7894 -8110 0
-7895 -8111 0
-7896 -8112 0
-7893 -8437 0
-7894 -8438 0
-7895 -8439 0
-7896 -8440 0
-7893 -8505 0
-7894 -8506 0
-7895 -8507 0
-7896 -8508 0
-7897 -7905 0
-7898 -7906 0
-7899 -7907 0
-7900 -7908 0
-7897 -7925 0
-7898 -7926 0
-7899 -7927 0
-7900 -7928 0
-7897 -7929 0
-7898 -7930 0
-7899 -7931 0
-7900 -7932 0
-7897 -8197 0
-7898 -8198 0
-7899 -8199 0
-7900 -8200 0
-7897 -8441 0
-7898 -8442 0
-7899 -8443 0
-7900 -8444 0
-7901 -7905 0
-7902 -7906 0
-7903 -7907 0
-7904 -7908 0
-7901 -7937 0
-7902 -7938 0
-7903 -7939 0
-7904 -7940 0
-7901 -7953 0
-7902 -7954 0
-7903 -7955 0
-7904 -7956 0
-7901 -7993 0
-7902 -7994 0
-7903 -7995 0
-7904 -7996 0
-7901 -7997 0
-7902 -7998 0
-7903 -7999 0
-7904 -8000 0
-7905 -8421 0
-7906 -8422 0
-7907 -8423 0
-7908 -8424 0
-7909 -7913 0
-7910 -7914 0
-7911 -7915 0
-7912 -7916 0
-7909 -7929 0
-7910 -7930 0
-7911 -7931 0
-7912 -7932 0
-7909 -8209 0
-7910 -8210 0
-7911 -8211 0
-7912 -8212 0
-7913 -7933 0
-7914 -7934 0
-7915 -7935 0
-7916 -7936 0
-7913 -8237 0
-7914 -8238 0
-7915 -8239 0
-7916 -8240 0
-7913 -8501 0
-7914 -8502 0
-7915 -8503 0
-7916 -8504 0
-7917 -7921 0
-7918 -7922 0
-7919 -7923 0
-7920 -7924 0
-7917 -7925 0
-7918 -7926 0
-7919 -7927 0
-7920 -7928 0
-7917 -7937 0
-7918 -7938 0
-7919 -7939 0
-7920 -7940 0
-7917 -7961 0
-7918 -7962 0
-7919 -7963 0
-7920 -7964 0
-7917 -8125 0
-7918 -8126 0
-7919 -8127 0
-7920 -8128 0
-7917 -8181 0
-7918 -8182 0
-7919 -8183 0
-7920 -8184 0
-7921 -7929 0
-7922 -7930 0
-7923 -7931 0
-7924 -7932 0
-7921 -7941 0
-7922 -7942 0
-7923 -7943 0
-7924 -7944 0
-7921 -8029 0
-7922 -8030 0
-7923 -8031 0
-7924 -8032 0
-7921 -8225 0
-7922 -8226 0
-7923 -8227 0
-7924 -8228 0
-7925 -7929 0
-7926 -7930 0
-7927 -7931 0
-7928 -7932 0
-7925 -8025 0
-7926 -8026 0
-7927 -8027 0
-7928 -8028 0
-7925 -8129 0
-7926 -8130 0
-7927 -8131 0
-7928 -8132 0
-7925 -8229 0
-7926 -8230 0
-7927 -8231 0
-7928 -8232 0
-7925 -8477 0
-7926 -8478 0
-7927 -8479 0
-7928 -8480 0
-7929 -7933 0
-7930 -7934 0
-7931 -7935 0
-7932 -7936 0
-7929 -7945 0
-7930 -7946 0
-7931 -7947 0
-7932 -7948 0
-7929 -8069 0
-7930 -8070 0
-7931 -8071 0
-7932 -8072 0
-7929 -8233 0
-7930 -8234 0
-7931 -8235 0
-7932 -8236 0
-7929 -8329 0
-7930 -8330 0
-7931 -8331 0
-7932 -8332 0
-7929 -8481 0
-7930 -8482 0
-7931 -8483 0
-7932 -8484 0
-7933 -8077 0
-7934 -8078 0
-7935 -8079 0
-7936 -8080 0
-7933 -8245 0
-7934 -8246 0
-7935 -8247 0
-7936 -8248 0
-7933 -8421 0
-7934 -8422 0
-7935 -8423 0
-7936 -8424 0
-7937 -7965 0
-7938 -7966 0
-7939 -7967 0
-7940 -7968 0
-7937 -8397 0
-7938 -8398 0
-7939 -8399 0
-7940 -8400 0
-7941 -7945 0
-7942 -7946 0
-7943 -7947 0
-7944 -7948 0
-7941 -8173 0
-7942 -8174 0
-7943 -8175 0
-7944 -8176 0
-7941 -8381 0
-7942 -8382 0
-7943 -8383 0
-7944 -8384 0
-7945 -8037 0
-7946 -8038 0
-7947 -8039 0
-7948 -8040 0
-7945 -8149 0
-7946 -8150 0
-7947 -8151 0
-7948 -8152 0
-7945 -8177 0
-7946 -8178 0
-7947 -8179 0
-7948 -8180 0
-7945 -8261 0
-7946 -8262 0
-7947 -8263 0
-7948 -8264 0
-7945 -8333 0
-7946 -8334 0
-7947 -8335 0
-7948 -8336 0
-7945 -8445 0
-7946 -8446 0
-7947 -8447 0
-7948 -8448 0
-7949 -7953 0
-7950 -7954 0
-7951 -7955 0
-7952 -7956 0
-7949 -7961 0
-7950 -7962 0
-7951 -7963 0
-7952 -7964 0
-7949 -8005 0
-7950 -8006 0
-7951 -8007 0
-7952 -8008 0
-7949 -8201 0
-7950 -8202 0
-7951 -8203 0
-7952 -8204 0
-7953 -7965 0
-7954 -7966 0
-7955 -7967 0
-7956 -7968 0
-7953 -8013 0
-7954 -8014 0
-7955 -8015 0
-7956 -8016 0
-7953 -8117 0
-7954 -8118 0
-7955 -8119 0
-7956 -8120 0
-7953 -8153 0
-7954 -8154 0
-7955 -8155 0
-7956 -8156 0
-7957 -7961 0
-7958 -7962 0
-7959 -7963 0
-7960 -7964 0
-7957 -8209 0
-7958 -8210 0
-7959 -8211 0
-7960 -8212 0
-7957 -8497 0
-7958 -8498 0
-7959 -8499 0
-7960 -8500 0
-7961 -7965 0
-7962 -7966 0
-7963 -7967 0
-7964 -7968 0
-7961 -8233 0
-7962 -8234 0
-7963 -8235 0
-7964 -8236 0
-7961 -8497 0
-7962 -8498 0
-7963 -8499 0
-7964 -8500 0
-7965 -8017 0
-7966 -8018 0
-7967 -8019 0
-7968 -8020 0
-7965 -8141 0
-7966 -8142 0
-7967 -8143 0
-7968 -8144 0
-7965 -8253 0
-7966 -8254 0
-7967 -8255 0
-7968 -8256 0
-7965 -8425 0
-7966 -8426 0
-7967 -8427 0
-7968 -8428 0
-7969 -7977 0
-7970 -7978 0
-7971 -7979 0
-7972 -7980 0
-7973 -7977 0
-7974 -7978 0
-7975 -7979 0
-7976 -7980 0
-7973 -7981 0
-7974 -7982 0
-7975 -7983 0
-7976 -7984 0
-7973 -8297 0
-7974 -8298 0
-7975 -8299 0
-7976 -8300 0
-7977 -7981 0
-7978 -7982 0
-7979 -7983 0
-7980 -7984 0
-7977 -8161 0
-7978 -8162 0
-7979 -8163 0
-7980 -8164 0
-7977 -8501 0
-7978 -8502 0
-7979 -8503 0
-7980 -8504 0
-7981 -8065 0
-7982 -8066 0
-7983 -8067 0
-7984 -8068 0
-7981 -8449 0
-7982 -8450 0
-7983 -8451 0
-7984 -8452 0
-7985 -7989 0
-7986 -7990 0
-7987 -7991 0
-7988 -7992 0
-7985 -7993 0
-7986 -7994 0
-7987 -7995 0
-7988 -7996 0
-7985 -8449 0
-7986 -8450 0
-7987 -8451 0
-7988 -8452 0
-7989 -7997 0
-7990 -7998 0
-7991 -7999 0
-7992 -8000 0
-7989 -8001 0
-7990 -8002 0
-7991 -8003 0
-7992 -8004 0
-7989 -8005 0
-7990 -8006 0
-7991 -8007 0
-7992 -8008 0
-7993 -7997 0
-7994 -7998 0
-7995 -7999 0
-7996 -8000 0
-7997 -8009 0
-7998 -8010 0
-7999 -8011 0
-8000 -8012 0
-7997 -8013 0
-7998 -8014 0
-7999 -8015 0
-8000 -8016 0
-7997 -8181 0
-7998 -8182 0
-7999 -8183 0
-8000 -8184 0
-8001 -8005 0
-8002 -8006 0
-8003 -8007 0
-8004 -8008 0
-8001 -8009 0
-8002 -8010 0
-8003 -8011 0
-8004 -8012 0
-8001 -8113 0
-8002 -8114 0
-8003 -8115 0
-8004 -8116 0
-8001 -8289 0
-8002 -8290 0
-8003 -8291 0
-8004 -8292 0
-8005 -8013 0
-8006 -8014 0
-8007 -8015 0
-8008 -8016 0
-8005 -8213 0
-8006 -8214 0
-8007 -8215 0
-8008 -8216 0
-8009 -8013 0
-8010 -8014 0
-8011 -8015 0
-8012 -8016 0
-8009 -8121 0
-8010 -8122 0
-8011 -8123 0
-8012 -8124 0
-8009 -8221 0
-8010 -8222 0
-8011 -8223 0
-8012 -8224 0
-8009 -8293 0
-8010 -8294 0
-8011 -8295 0
-8012 -8296 0
-8013 -8017 0
-8014 -8018 0
-8015 -8019 0
-8016 -8020 0
-8013 -8233 0
-8014 -8234 0
-8015 -8235 0
-8016 -8236 0
-8013 -8501 0
-8014 -8502 0
-8015 -8503 0
-8016 -8504 0
-8017 -8265 0
-8018 -8266 0
-8019 -8267 0
-8020 -8268 0
-8017 -8433 0
-8018 -8434 0
-8019 -8435 0
-8020 -8436 0
-8021 -8029 0
-8022 -8030 0
-8023 -8031 0
-8024 -8032 0
-8021 -8161 0
-8022 -8162 0
-8023 -8163 0
-8024 -8164 0
-8025 -8033 0
-8026 -8034 0
-8027 -8035 0
-8028 -8036 0
-8025 -8205 0
-8026 -8206 0
-8027 -8207 0
-8028 -8208 0
-8025 -8505 0
-8026 -8506 0
-8027 -8507 0
-8028 -8508 0
-8029 -8037 0
-8030 -8038 0
-8031 -8039 0
-8032 -8040 0
-8029 -8077 0
-8030 -8078 0
-8031 -8079 0
-8032 -8080 0
-8029 -8513 0
-8030 -8514 0
-8031 -8515 0
-8032 -8516 0
-8033 -8037 0
-8034 -8038 0
-8035 -8039 0
-8036 -8040 0
-8033 -8041 0
-8034 -8042 0
-8035 -8043 0
-8036 -8044 0
-8033 -8073 0
-8034 -8074 0
-8035 -8075 0
-8036 -8076 0
-8033 -8233 0
-8034 -8234 0
-8035 -8235 0
-8036 -8236 0
-8033 -8505 0
-8034 -8506 0
-8035 -8507 0
-8036 -8508 0
-8037 -8045 0
-8038 -8046 0
-8039 -8047 0
-8040 -8048 0
-8037 -8077 0
-8038 -8078 0
-8039 -8079 0
-8040 -8080 0
-8037 -8237 0
-8038 -8238 0
-8039 -8239 0
-8040 -8240 0
-8037 -8445 0
-8038 -8446 0
-8039 -8447 0
-8040 -8448 0
-8041 -8045 0
-8042 -8046 0
-8043 -8047 0
-8044 -8048 0
-8041 -8049 0
-8042 -8050 0
-8043 -8051 0
-8044 -8052 0
-8041 -8085 0
-8042 -8086 0
-8043 -8087 0
-8044 -8088 0
-8041 -8253 0
-8042 -8254 0
-8043 -8255 0
-8044 -8256 0
-8041 -8441 0
-8042 -8442 0
-8043 -8443 0
-8044 -8444 0
-8045 -8089 0
-8046 -8090 0
-8047 -8091 0
-8048 -8092 0
-8049 -8145 0
-8050 -8146 0
-8051 -8147 0
-8052 -8148 0
-8049 -8157 0
-8050 -8158 0
-8051 -8159 0
-8052 -8160 0
-8049 -8325 0
-8050 -8326 0
-8051 -8327 0
-8052 -8328 0
-8049 -8413 0
-8050 -8414 0
-8051 -8415 0
-8052 -8416 0
-8053 -8061 0
-8054 -8062 0
-8055 -8063 0
-8056 -8064 0
-8053 -8093 0
-8054 -8094 0
-8055 -8095 0
-8056 -8096 0
-8053 -8449 0
-8054 -8450 0
-8055 -8451 0
-8056 -8452 0
-8057 -8061 0
-8058 -8062 0
-8059 -8063 0
-8060 -8064 0
-8057 -8289 0
-8058 -8290 0
-8059 -8291 0
-8060 -8292 0
-8057 -8505 0
-8058 -8506 0
-8059 -8507 0
-8060 -8508 0
-8061 -8097 0
-8062 -8098 0
-8063 -8099 0
-8064 -8100 0
-8061 -8293 0
-8062 -8294 0
-8063 -8295 0
-8064 -8296 0
-8061 -8397 0
-8062 -8398 0
-8063 -8399 0
-8064 -8400 0
-8061 -8457 0
-8062 -8458 0
-8063 -8459 0
-8064 -8460 0
-8061 -8505 0
-8062 -8506 0
-8063 -8507 0
-8064 -8508 0
-8065 -8077 0
-8066 -8078 0
-8067 -8079 0
-8068 -8080 0
-8065 -8449 0
-8066 -8450 0
-8067 -8451 0
-8068 -8452 0
-8069 -8077 0
-8070 -8078 0
-8071 -8079 0
-8072 -8080 0
-8069 -8081 0
-8070 -8082 0
-8071 -8083 0
-8072 -8084 0
-8069 -8137 0
-8070 -8138 0
-8071 -8139 0
-8072 -8140 0
-8069 -8329 0
-8070 -8330 0
-8071 -8331 0
-8072 -8332 0
-8069 -8369 0
-8070 -8370 0
-8071 -8371 0
-8072 -8372 0
-8073 -8077 0
-8074 -8078 0
-8075 -8079 0
-8076 -8080 0
-8073 -8085 0
-8074 -8086 0
-8075 -8087 0
-8076 -8088 0
-8073 -8133 0
-8074 -8134 0
-8075 -8135 0
-8076 -8136 0
-8073 -8309 0
-8074 -8310 0
-8075 -8311 0
-8076 -8312 0
-8073 -8381 0
-8074 -8382 0
-8075 -8383 0
-8076 -8384 0
-8077 -8089 0
-8078 -8090 0
-8079 -8091 0
-8080 -8092 0
-8077 -8137 0
-8078 -8138 0
-8079 -8139 0
-8080 -8140 0
-8077 -8373 0
-8078 -8374 0
-8079 -8375 0
-8080 -8376 0
-8077 -8461 0
-8078 -8462 0
-8079 -8463 0
-8080 -8464 0
-8081 -8089 0
-8082 -8090 0
-8083 -8091 0
-8084 -8092 0
-8081 -8149 0
-8082 -8150 0
-8083 -8151 0
-8084 -8152 0
-8081 -8377 0
-8082 -8378 0
-8083 -8379 0
-8084 -8380 0
-8085 -8089 0
-8086 -8090 0
-8087 -8091 0
-8088 -8092 0
-8085 -8145 0
-8086 -8146 0
-8087 -8147 0
-8088 -8148 0
-8085 -8185 0
-8086 -8186 0
-8087 -8187 0
-8088 -8188 0
-8085 -8385 0
-8086 -8386 0
-8087 -8387 0
-8088 -8388 0
-8085 -8453 0
-8086 -8454 0
-8087 -8455 0
-8088 -8456 0
-8089 -8149 0
-8090 -8150 0
-8091 -8151 0
-8092 -8152 0
-8089 -8501 0
-8090 -8502 0
-8091 -8503 0
-8092 -8504 0
-8093 -8097 0
-8094 -8098 0
-8095 -8099 0
-8096 -8100 0
-8093 -8101 0
-8094 -8102 0
-8095 -8103 0
-8096 -8104 0
-8093 -8105 0
-8094 -8106 0
-8095 -8107 0
-8096 -8108 0
-8093 -8117 0
-8094 -8118 0
-8095 -8119 0
-8096 -8120 0
-8093 -8121 0
-8094 -8122 0
-8095 -8123 0
-8096 -8124 0
-8093 -8317 0
-8094 -8318 0
-8095 -8319 0
-8096 -8320 0
-8093 -8469 0
-8094 -8470 0
-8095 -8471 0
-8096 -8472 0
-8093 -8501 0
-8094 -8502 0
-8095 -8503 0
-8096 -8504 0
-8097 -8297 0
-8098 -8298 0
-8099 -8299 0
-8100 -8300 0
-8097 -8321 0
-8098 -8322 0
-8099 -8323 0
-8100 -8324 0
-8097 -8425 0
-8098 -8426 0
-8099 -8427 0
-8100 -8428 0
-8101 -8105 0
-8102 -8106 0
-8103 -8107 0
-8104 -8108 0
-8101 -8141 0
-8102 -8142 0
-8103 -8143 0
-8104 -8144 0
-8101 -8145 0
-8102 -8146 0
-8103 -8147 0
-8104 -8148 0
-8101 -8189 0
-8102 -8190 0
-8103 -8191 0
-8104 -8192 0
-8101 -8345 0
-8102 -8346 0
-8103 -8347 0
-8104 -8348 0
-8105 -8149 0
-8106 -8150 0
-8107 -8151 0
-8108 -8152 0
-8105 -8433 0
-8106 -8434 0
-8107 -8435 0
-8108 -8436 0
-8105 -8473 0
-8106 -8474 0
-8107 -8475 0
-8108 -8476 0
-8105 -8485 0
-8106 -8486 0
-8107 -8487 0
-8108 -8488 0
-8109 -8117 0
-8110 -8118 0
-8111 -8119 0
-8112 -8120 0
-8109 -8125 0
-8110 -8126 0
-8111 -8127 0
-8112 -8128 0
-8109 -8485 0
-8110 -8486 0
-8111 -8487 0
-8112 -8488 0
-8109 -8517 0
-8110 -8518 0
-8111 -8519 0
-8112 -8520 0
-8113 -8121 0
-8114 -8122 0
-8115 -8123 0
-8116 -8124 0
-8113 -8133 0
-8114 -8134 0
-8115 -8135 0
-8116 -8136 0
-8113 -8137 0
-8114 -8138 0
-8115 -8139 0
-8116 -8140 0
-8117 -8121 0
-8118 -8122 0
-8119 -8123 0
-8120 -8124 0
-8117 -8141 0
-8118 -8142 0
-8119 -8143 0
-8120 -8144 0
-8117 -8521 0
-8118 -8522 0
-8119 -8523 0
-8120 -8524 0
-8121 -8145 0
-8122 -8146 0
-8123 -8147 0
-8124 -8148 0
-8121 -8149 0
-8122 -8150 0
-8123 -8151 0
-8124 -8152 0
-8121 -8201 0
-8122 -8202 0
-8123 -8203 0
-8124 -8204 0
-8125 -8129 0
-8126 -8130 0
-8127 -8131 0
-8128 -8132 0
-8125 -8141 0
-8126 -8142 0
-8127 -8143 0
-8128 -8144 0
-8125 -8217 0
-8126 -8218 0
-8127 -8219 0
-8128 -8220 0
-8129 -8145 0
-8130 -8146 0
-8131 -8147 0
-8132 -8148 0
-8129 -8205 0
-8130 -8206 0
-8131 -8207 0
-8132 -8208 0
-8133 -8137 0
-8134 -8138 0
-8135 -8139 0
-8136 -8140 0
-8133 -8145 0
-8134 -8146 0
-8135 -8147 0
-8136 -8148 0
-8133 -8213 0
-8134 -8214 0
-8135 -8215 0
-8136 -8216 0
-8133 -8349 0
-8134 -8350 0
-8135 -8351 0
-8136 -8352 0
-8137 -8149 0
-8138 -8150 0
-8139 -8151 0
-8140 -8152 0
-8137 -8353 0
-8138 -8354 0
-8139 -8355 0
-8140 -8356 0
-8137 -8389 0
-8138 -8390 0
-8139 -8391 0
-8140 -8392 0
-8141 -8145 0
-8142 -8146 0
-8143 -8147 0
-8144 -8148 0
-8141 -8225 0
-8142 -8226 0
-8143 -8227 0
-8144 -8228 0
-8141 -8377 0
-8142 -8378 0
-8143 -8379 0
-8144 -8380 0
-8141 -8465 0
-8142 -8466 0
-8143 -8467 0
-8144 -8468 0
-8145 -8149 0
-8146 -8150 0
-8147 -8151 0
-8148 -8152 0
-8145 -8233 0
-8146 -8234 0
-8147 -8235 0
-8148 -8236 0
-8145 -8361 0
-8146 -8362 0
-8147 -8363 0
-8148 -8364 0
-8149 -8237 0
-8150 -8238 0
-8151 -8239 0
-8152 -8240 0
-8153 -8157 0
-8154 -8158 0
-8155 -8159 0
-8156 -8160 0
-8153 -8217 0
-8154 -8218 0
-8155 -8219 0
-8156 -8220 0
-8153 -8233 0
-8154 -8234 0
-8155 -8235 0
-8156 -8236 0
-8157 -8233 0
-8158 -8234 0
-8159 -8235 0
-8160 -8236 0
-8157 -8249 0
-8158 -8250 0
-8159 -8251 0
-8160 -8252 0
-8157 -8437 0
-8158 -8438 0
-8159 -8439 0
-8160 -8440 0
-8161 -8165 0
-8162 -8166 0
-8163 -8167 0
-8164 -8168 0
-8161 -8169 0
-8162 -8170 0
-8163 -8171 0
-8164 -8172 0
-8161 -8509 0
-8162 -8510 0
-8163 -8511 0
-8164 -8512 0
-8165 -8177 0
-8166 -8178 0
-8167 -8179 0
-8168 -8180 0
-8165 -8453 0
-8166 -8454 0
-8167 -8455 0
-8168 -8456 0
-8165 -8509 0
-8166 -8510 0
-8167 -8511 0
-8168 -8512 0
-8169 -8177 0
-8170 -8178 0
-8171 -8179 0
-8172 -8180 0
-8169 -8353 0
-8170 -8354 0
-8171 -8355 0
-8172 -8356 0
-8169 -8409 0
-8170 -8410 0
-8171 -8411 0
-8172 -8412 0
-8169 -8513 0
-8170 -8514 0
-8171 -8515 0
-8172 -8516 0
-8173 -8177 0
-8174 -8178 0
-8175 -8179 0
-8176 -8180 0
-8173 -8457 0
-8174 -8458 0
-8175 -8459 0
-8176 -8460 0
-8177 -8333 0
-8178 -8334 0
-8179 -8335 0
-8180 -8336 0
-8177 -8417 0
-8178 -8418 0
-8179 -8419 0
-8180 -8420 0
-8177 -8513 0
-8178 -8514 0
-8179 -8515 0
-8180 -8516 0
-8181 -8185 0
-8182 -8186 0
-8183 -8187 0
-8184 -8188 0
-8181 -8221 0
-8182 -8222 0
-8183 -8223 0
-8184 -8224 0
-8181 -8233 0
-8182 -8234 0
-8183 -8235 0
-8184 -8236 0
-8181 -8445 0
-8182 -8446 0
-8183 -8447 0
-8184 -8448 0
-8185 -8233 0
-8186 -8234 0
-8187 -8235 0
-8188 -8236 0
-8185 -8245 0
-8186 -8246 0
-8187 -8247 0
-8188 -8248 0
-8189 -8193 0
-8190 -8194 0
-8191 -8195 0
-8192 -8196 0
-8189 -8225 0
-8190 -8226 0
-8191 -8227 0
-8192 -8228 0
-8189 -8233 0
-8190 -8234 0
-8191 -8235 0
-8192 -8236 0
-8193 -8233 0
-8194 -8234 0
-8195 -8235 0
-8196 -8236 0
-8193 -8241 0
-8194 -8242 0
-8195 -8243 0
-8196 -8244 0
-8193 -8341 0
-8194 -8342 0
-8195 -8343 0
-8196 -8344 0
-8193 -8429 0
-8194 -8430 0
-8195 -8431 0
-8196 -8432 0
-8197 -8201 0
-8198 -8202 0
-8199 -8203 0
-8200 -8204 0
-8197 -8229 0
-8198 -8230 0
-8199 -8231 0
-8200 -8232 0
-8197 -8233 0
-8198 -8234 0
-8199 -8235 0
-8200 -8236 0
-8201 -8233 0
-8202 -8234 0
-8203 -8235 0
-8204 -8236 0
-8201 -8237 0
-8202 -8238 0
-8203 -8239 0
-8204 -8240 0
-8205 -8233 0
-8206 -8234 0
-8207 -8235 0
-8208 -8236 0
-8205 -8517 0
-8206 -8518 0
-8207 -8519 0
-8208 -8520 0
-8209 -8233 0
-8210 -8234 0
-8211 -8235 0
-8212 -8236 0
-8209 -8509 0
-8210 -8510 0
-8211 -8511 0
-8212 -8512 0
-8213 -8233 0
-8214 -8234 0
-8215 -8235 0
-8216 -8236 0
-8213 -8393 0
-8214 -8394 0
-8215 -8395 0
-8216 -8396 0
-8217 -8233 0
-8218 -8234 0
-8219 -8235 0
-8220 -8236 0
-8217 -8309 0
-8218 -8310 0
-8219 -8311 0
-8220 -8312 0
-8221 -8233 0
-8222 -8234 0
-8223 -8235 0
-8224 -8236 0
-8221 -8281 0
-8222 -8282 0
-8223 -8283 0
-8224 -8284 0
-8221 -8397 0
-8222 -8398 0
-8223 -8399 0
-8224 -8400 0
-8225 -8233 0
-8226 -8234 0
-8227 -8235 0
-8228 -8236 0
-8225 -8273 0
-8226 -8274 0
-8227 -8275 0
-8228 -8276 0
-8229 -8233 0
-8230 -8234 0
-8231 -8235 0
-8232 -8236 0
-8229 -8265 0
-8230 -8266 0
-8231 -8267 0
-8232 -8268 0
-8229 -8477 0
-8230 -8478 0
-8231 -8479 0
-8232 -8480 0
-8233 -8237 0
-8234 -8238 0
-8235 -8239 0
-8236 -8240 0
-8233 -8241 0
-8234 -8242 0
-8235 -8243 0
-8236 -8244 0
-8233 -8245 0
-8234 -8246 0
-8235 -8247 0
-8236 -8248 0
-8233 -8249 0
-8234 -8250 0
-8235 -8251 0
-8236 -8252 0
-8233 -8253 0
-8234 -8254 0
-8235 -8255 0
-8236 -8256 0
-8233 -8257 0
-8234 -8258 0
-8235 -8259 0
-8236 -8260 0
-8233 -8261 0
-8234 -8262 0
-8235 -8263 0
-8236 -8264 0
-8233 -8265 0
-8234 -8266 0
-8235 -8267 0
-8236 -8268 0
-8233 -8269 0
-8234 -8270 0
-8235 -8271 0
-8236 -8272 0
-8233 -8273 0
-8234 -8274 0
-8235 -8275 0
-8236 -8276 0
-8233 -8277 0
-8234 -8278 0
-8235 -8279 0
-8236 -8280 0
-8233 -8281 0
-8234 -8282 0
-8235 -8283 0
-8236 -8284 0
-8233 -8285 0
-8234 -8286 0
-8235 -8287 0
-8236 -8288 0
-8233 -8309 0
-8234 -8310 0
-8235 -8311 0
-8236 -8312 0
-8233 -8313 0
-8234 -8314 0
-8235 -8315 0
-8236 -8316 0
-8233 -8369 0
-8234 -8370 0
-8235 -8371 0
-8236 -8372 0
-8233 -8401 0
-8234 -8402 0
-8235 -8403 0
-8236 -8404 0
-8233 -8449 0
-8234 -8450 0
-8235 -8451 0
-8236 -8452 0
-8233 -8481 0
-8234 -8482 0
-8235 -8483 0
-8236 -8484 0
-8233 -8509 0
-8234 -8510 0
-8235 -8511 0
-8236 -8512 0
-8233 -8513 0
-8234 -8514 0
-8235 -8515 0
-8236 -8516 0
-8233 -8517 0
-8234 -8518 0
-8235 -8519 0
-8236 -8520 0
-8233 -8521 0
-8234 -8522 0
-8235 -8523 0
-8236 -8524 0
-8237 -8269 0
-8238 -8270 0
-8239 -8271 0
-8240 -8272 0
-8241 -8277 0
-8242 -8278 0
-8243 -8279 0
-8244 -8280 0
-8241 -8453 0
-8242 -8454 0
-8243 -8455 0
-8244 -8456 0
-8245 -8285 0
-8246 -8286 0
-8247 -8287 0
-8248 -8288 0
-8245 -8373 0
-8246 -8374 0
-8247 -8375 0
-8248 -8376 0
-8249 -8313 0
-8250 -8314 0
-8251 -8315 0
-8252 -8316 0
-8249 -8405 0
-8250 -8406 0
-8251 -8407 0
-8252 -8408 0
-8253 -8377 0
-8254 -8378 0
-8255 -8379 0
-8256 -8380 0
-8253 -8489 0
-8254 -8490 0
-8255 -8491 0
-8256 -8492 0
-8257 -8381 0
-8258 -8382 0
-8259 -8383 0
-8260 -8384 0
-8257 -8457 0
-8258 -8458 0
-8259 -8459 0
-8260 -8460 0
-8257 -8513 0
-8258 -8514 0
-8259 -8515 0
-8260 -8516 0
-8261 -8417 0
-8262 -8418 0
-8263 -8419 0
-8264 -8420 0
-8261 -8521 0
-8262 -8522 0
-8263 -8523 0
-8264 -8524 0
-8265 -8269 0
-8266 -8270 0
-8267 -8271 0
-8268 -8272 0
-8265 -8493 0
-8266 -8494 0
-8267 -8495 0
-8268 -8496 0
-8273 -8277 0
-8274 -8278 0
-8275 -8279 0
-8276 -8280 0
-8277 -8421 0
-8278 -8422 0
-8279 -8423 0
-8280 -8424 0
-8277 -8461 0
-8278 -8462 0
-8279 -8463 0
-8280 -8464 0
-8281 -8285 0
-8282 -8286 0
-8283 -8287 0
-8284 -8288 0
-8281 -8425 0
-8282 -8426 0
-8283 -8427 0
-8284 -8428 0
-8281 -8465 0
-8282 -8466 0
-8283 -8467 0
-8284 -8468 0
-8285 -8389 0
-8286 -8390 0
-8287 -8391 0
-8288 -8392 0
-8285 -8469 0
-8286 -8470 0
-8287 -8471 0
-8288 -8472 0
-8289 -8293 0
-8290 -8294 0
-8291 -8295 0
-8292 -8296 0
-8289 -8297 0
-8290 -8298 0
-8291 -8299 0
-8292 -8300 0
-8289 -8517 0
-8290 -8518 0
-8291 -8519 0
-8292 -8520 0
-8293 -8305 0
-8294 -8306 0
-8295 -8307 0
-8296 -8308 0
-8293 -8397 0
-8294 -8398 0
-8295 -8399 0
-8296 -8400 0
-8293 -8517 0
-8294 -8518 0
-8295 -8519 0
-8296 -8520 0
-8297 -8301 0
-8298 -8302 0
-8299 -8303 0
-8300 -8304 0
-8297 -8305 0
-8298 -8306 0
-8299 -8307 0
-8300 -8308 0
-8297 -8465 0
-8298 -8466 0
-8299 -8467 0
-8300 -8468 0
-8297 -8521 0
-8298 -8522 0
-8299 -8523 0
-8300 -8524 0
-8301 -8337 0
-8302 -8338 0
-8303 -8339 0
-8304 -8340 0
-8305 -8413 0
-8306 -8414 0
-8307 -8415 0
-8308 -8416 0
-8305 -8473 0
-8306 -8474 0
-8307 -8475 0
-8308 -8476 0
-8305 -8521 0
-8306 -8522 0
-8307 -8523 0
-8308 -8524 0
-8309 -8313 0
-8310 -8314 0
-8311 -8315 0
-8312 -8316 0
-8317 -8321 0
-8318 -8322 0
-8319 -8323 0
-8320 -8324 0
-8317 -8341 0
-8318 -8342 0
-8319 -8343 0
-8320 -8344 0
-8317 -8477 0
-8318 -8478 0
-8319 -8479 0
-8320 -8480 0
-8317 -8497 0
-8318 -8498 0
-8319 -8499 0
-8320 -8500 0
-8317 -8509 0
-8318 -8510 0
-8319 -8511 0
-8320 -8512 0
-8321 -8325 0
-8322 -8326 0
-8323 -8327 0
-8324 -8328 0
-8321 -8349 0
-8322 -8350 0
-8323 -8351 0
-8324 -8352 0
-8321 -8357 0
-8322 -8358 0
-8323 -8359 0
-8324 -8360 0
-8321 -8425 0
-8322 -8426 0
-8323 -8427 0
-8324 -8428 0
-8321 -8441 0
-8322 -8442 0
-8323 -8443 0
-8324 -8444 0
-8321 -8513 0
-8322 -8514 0
-8323 -8515 0
-8324 -8516 0
-8325 -8361 0
-8326 -8362 0
-8327 -8363 0
-8328 -8364 0
-8325 -8365 0
-8326 -8366 0
-8327 -8367 0
-8328 -8368 0
-8325 -8413 0
-8326 -8414 0
-8327 -8415 0
-8328 -8416 0
-8329 -8333 0
-8330 -8334 0
-8331 -8335 0
-8332 -8336 0
-8329 -8353 0
-8330 -8354 0
-8331 -8355 0
-8332 -8356 0
-8329 -8449 0
-8330 -8450 0
-8331 -8451 0
-8332 -8452 0
-8337 -8357 0
-8338 -8358 0
-8339 -8359 0
-8340 -8360 0
-8337 -8481 0
-8338 -8482 0
-8339 -8483 0
-8340 -8484 0
-8341 -8345 0
-8342 -8346 0
-8343 -8347 0
-8344 -8348 0
-8341 -8357 0
-8342 -8358 0
-8343 -8359 0
-8344 -8360 0
-8341 -8369 0
-8342 -8370 0
-8343 -8371 0
-8344 -8372 0
-8345 -8365 0
-8346 -8366 0
-8347 -8367 0
-8348 -8368 0
-8345 -8377 0
-8346 -8378 0
-8347 -8379 0
-8348 -8380 0
-8349 -8353 0
-8350 -8354 0
-8351 -8355 0
-8352 -8356 0
-8349 -8357 0
-8350 -8358 0
-8351 -8359 0
-8352 -8360 0
-8349 -8361 0
-8350 -8362 0
-8351 -8363 0
-8352 -8364 0
-8349 -8393 0
-8350 -8394 0
-8351 -8395 0
-8352 -8396 0
-8349 -8453 0
-8350 -8454 0
-8351 -8455 0
-8352 -8456 0
-8353 -8469 0
-8354 -8470 0
-8355 -8471 0
-8356 -8472 0
-8357 -8365 0
-8358 -8366 0
-8359 -8367 0
-8360 -8368 0
-8357 -8381 0
-8358 -8382 0
-8359 -8383 0
-8360 -8384 0
-8357 -8433 0
-8358 -8434 0
-8359 -8435 0
-8360 -8436 0
-8357 -8493 0
-8358 -8494 0
-8359 -8495 0
-8360 -8496 0
-8357 -8505 0
-8358 -8506 0
-8359 -8507 0
-8360 -8508 0
-8361 -8365 0
-8362 -8366 0
-8363 -8367 0
-8364 -8368 0
-8361 -8401 0
-8362 -8402 0
-8363 -8403 0
-8364 -8404 0
-8365 -8385 0
-8366 -8386 0
-8367 -8387 0
-8368 -8388 0
-8365 -8405 0
-8366 -8406 0
-8367 -8407 0
-8368 -8408 0
-8369 -8373 0
-8370 -8374 0
-8371 -8375 0
-8372 -8376 0
-8369 -8377 0
-8370 -8378 0
-8371 -8379 0
-8372 -8380 0
-8369 -8381 0
-8370 -8382 0
-8371 -8383 0
-8372 -8384 0
-8369 -8389 0
-8370 -8390 0
-8371 -8391 0
-8372 -8392 0
-8369 -8449 0
-8370 -8450 0
-8371 -8451 0
-8372 -8452 0
-8373 -8389 0
-8374 -8390 0
-8375 -8391 0
-8376 -8392 0
-8377 -8385 0
-8378 -8386 0
-8379 -8387 0
-8380 -8388 0
-8381 -8385 0
-8382 -8386 0
-8383 -8387 0
-8384 -8388 0
-8381 -8457 0
-8382 -8458 0
-8383 -8459 0
-8384 -8460 0
-8385 -8521 0
-8386 -8522 0
-8387 -8523 0
-8388 -8524 0
-8389 -8469 0
-8390 -8470 0
-8391 -8471 0
-8392 -8472 0
-8393 -8401 0
-8394 -8402 0
-8395 -8403 0
-8396 -8404 0
-8393 -8409 0
-8394 -8410 0
-8395 -8411 0
-8396 -8412 0
-8397 -8401 0
-8398 -8402 0
-8399 -8403 0
-8400 -8404 0
-8397 -8413 0
-8398 -8414 0
-8399 -8415 0
-8400 -8416 0
-8397 -8425 0
-8398 -8426 0
-8399 -8427 0
-8400 -8428 0
-8401 -8405 0
-8402 -8406 0
-8403 -8407 0
-8404 -8408 0
-8401 -8417 0
-8402 -8418 0
-8403 -8419 0
-8404 -8420 0
-8401 -8421 0
-8402 -8422 0
-8403 -8423 0
-8404 -8424 0
-8401 -8425 0
-8402 -8426 0
-8403 -8427 0
-8404 -8428 0
-8401 -8449 0
-8402 -8450 0
-8403 -8451 0
-8404 -8452 0
-8405 -8429 0
-8406 -8430 0
-8407 -8431 0
-8408 -8432 0
-8409 -8417 0
-8410 -8418 0
-8411 -8419 0
-8412 -8420 0
-8409 -8469 0
-8410 -8470 0
-8411 -8471 0
-8412 -8472 0
-8409 -8497 0
-8410 -8498 0
-8411 -8499 0
-8412 -8500 0
-8413 -8417 0
-8414 -8418 0
-8415 -8419 0
-8416 -8420 0
-8413 -8437 0
-8414 -8438 0
-8415 -8439 0
-8416 -8440 0
-8413 -8473 0
-8414 -8474 0
-8415 -8475 0
-8416 -8476 0
-8421 -8461 0
-8422 -8462 0
-8423 -8463 0
-8424 -8464 0
-8425 -8429 0
-8426 -8430 0
-8427 -8431 0
-8428 -8432 0
-8425 -8433 0
-8426 -8434 0
-8427 -8435 0
-8428 -8436 0
-8425 -8465 0
-8426 -8466 0
-8427 -8467 0
-8428 -8468 0
-8425 -8489 0
-8426 -8490 0
-8427 -8491 0
-8428 -8492 0
-8429 -8433 0
-8430 -8434 0
-8431 -8435 0
-8432 -8436 0
-8433 -8493 0
-8434 -8494 0
-8435 -8495 0
-8436 -8496 0
-8433 -8517 0
-8434 -8518 0
-8435 -8519 0
-8436 -8520 0
-8437 -8441 0
-8438 -8442 0
-8439 -8443 0
-8440 -8444 0
-8437 -8445 0
-8438 -8446 0
-8439 -8447 0
-8440 -8448 0
-8437 -8449 0
-8438 -8450 0
-8439 -8451 0
-8440 -8452 0
-8437 -8485 0
-8438 -8486 0
-8439 -8487 0
-8440 -8488 0
-8437 -8505 0
-8438 -8506 0
-8439 -8507 0
-8440 -8508 0
-8441 -8445 0
-8442 -8446 0
-8443 -8447 0
-8444 -8448 0
-8441 -8453 0
-8442 -8454 0
-8443 -8455 0
-8444 -8456 0
-8441 -8489 0
-8442 -8490 0
-8443 -8491 0
-8444 -8492 0
-8441 -8513 0
-8442 -8514 0
-8443 -8515 0
-8444 -8516 0
-8445 -8461 0
-8446 -8462 0
-8447 -8463 0
-8448 -8464 0
-8449 -8453 0
-8450 -8454 0
-8451 -8455 0
-8452 -8456 0
-8449 -8457 0
-8450 -8458 0
-8451 -8459 0
-8452 -8460 0
-8449 -8461 0
-8450 -8462 0
-8451 -8463 0
-8452 -8464 0
-8449 -8465 0
-8450 -8466 0
-8451 -8467 0
-8452 -8468 0
-8449 -8469 0
-8450 -8470 0
-8451 -8471 0
-8452 -8472 0
-8453 -8461 0
-8454 -8462 0
-8455 -8463 0
-8456 -8464 0
-8465 -8469 0
-8466 -8470 0
-8467 -8471 0
-8468 -8472 0
-8465 -8473 0
-8466 -8474 0
-8467 -8475 0
-8468 -8476 0
-8469 -8497 0
-8470 -8498 0
-8471 -8499 0
-8472 -8500 0
-8469 -8501 0
-8470 -8502 0
-8471 -8503 0
-8472 -8504 0
-8473 -8485 0
-8474 -8486 0
-8475 -8487 0
-8476 -8488 0
-8477 -8481 0
-8478 -8482 0
-8479 -8483 0
-8480 -8484 0
-8477 -8493 0
-8478 -8494 0
-8479 -8495 0
-8480 -8496 0
-8481 -8489 0
-8482 -8490 0
-8483 -8491 0
-8484 -8492 0
-8481 -8493 0
-8482 -8494 0
-8483 -8495 0
-8484 -8496 0
-8485 -8489 0
-8486 -8490 0
-8487 -8491 0
-8488 -8492 0
-8485 -8517 0
-8486 -8518 0
-8487 -8519 0
-8488 -8520 0
-8497 -8509 0
-8498 -8510 0
-8499 -8511 0
-8500 -8512 0
-8501 -8509 0
-8502 -8510 0
-8503 -8511 0
-8504 -8512 0
-8505 -8517 0
-8506 -8518 0
-8507 -8519 0
-8508 -8520 0
-8509 -8513 0
-8510 -8514 0
-8511 -8515 0
-8512 -8516 0
-8517 -8521 0
-8518 -8522 0
-8519 -8523 0
-8520 -8524 0
1 0
250 0
259 0
-685 -2617 0
-686 -2618 0
-687 -2619 0
-688 -2620 0
-3973 -721 0
-3974 -722 0
-3975 -723 0
-3976 -724 0
-685 -6877 0
-686 -6878 0
-687 -6879 0
-688 -6880 0
-8233 -4981 0
-8234 -4982 0
-8235 -4983 0
-8236 -4984 0
