p cnf 7505 41944
1 2 3 4 5 0
6 7 8 9 10 0
11 12 13 14 15 0
16 17 18 19 20 0
21 22 23 24 25 0
26 27 28 29 30 0
31 32 33 34 35 0
36 37 38 39 40 0
41 42 43 44 45 0
46 47 48 49 50 0
51 52 53 54 55 0
56 57 58 59 60 0
61 62 63 64 65 0
66 67 68 69 70 0
71 72 73 74 75 0
76 77 78 79 80 0
81 82 83 84 85 0
86 87 88 89 90 0
91 92 93 94 95 0
96 97 98 99 100 0
101 102 103 104 105 0
106 107 108 109 110 0
111 112 113 114 115 0
116 117 118 119 120 0
121 122 123 124 125 0
126 127 128 129 130 0
131 132 133 134 135 0
136 137 138 139 140 0
141 142 143 144 145 0
146 147 148 149 150 0
151 152 153 154 155 0
156 157 158 159 160 0
161 162 163 164 165 0
166 167 168 169 170 0
171 172 173 174 175 0
176 177 178 179 180 0
181 182 183 184 185 0
186 187 188 189 190 0
191 192 193 194 195 0
196 197 198 199 200 0
201 202 203 204 205 0
206 207 208 209 210 0
211 212 213 214 215 0
216 217 218 219 220 0
221 222 223 224 225 0
226 227 228 229 230 0
231 232 233 234 235 0
236 237 238 239 240 0
241 242 243 244 245 0
246 247 248 249 250 0
251 252 253 254 255 0
256 257 258 259 260 0
261 262 263 264 265 0
266 267 268 269 270 0
271 272 273 274 275 0
276 277 278 279 280 0
281 282 283 284 285 0
286 287 288 289 290 0
291 292 293 294 295 0
296 297 298 299 300 0
301 302 303 304 305 0
306 307 308 309 310 0
311 312 313 314 315 0
316 317 318 319 320 0
321 322 323 324 325 0
326 327 328 329 330 0
331 332 333 334 335 0
336 337 338 339 340 0
341 342 343 344 345 0
346 347 348 349 350 0
351 352 353 354 355 0
356 357 358 359 360 0
361 362 363 364 365 0
366 367 368 369 370 0
371 372 373 374 375 0
376 377 378 379 380 0
381 382 383 384 385 0
386 387 388 389 390 0
391 392 393 394 395 0
396 397 398 399 400 0
401 402 403 404 405 0
406 407 408 409 410 0
411 412 413 414 415 0
416 417 418 419 420 0
421 422 423 424 425 0
426 427 428 429 430 0
431 432 433 434 435 0
436 437 438 439 440 0
441 442 443 444 445 0
446 447 448 449 450 0
451 452 453 454 455 0
456 457 458 459 460 0
461 462 463 464 465 0
466 467 468 469 470 0
471 472 473 474 475 0
476 477 478 479 480 0
481 482 483 484 485 0
486 487 488 489 490 0
491 492 493 494 495 0
496 497 498 499 500 0
501 502 503 504 505 0
506 507 508 509 510 0
511 512 513 514 515 0
516 517 518 519 520 0
521 522 523 524 525 0
526 527 528 529 530 0
531 532 533 534 535 0
536 537 538 539 540 0
541 542 543 544 545 0
546 547 548 549 550 0
551 552 553 554 555 0
556 557 558 559 560 0
561 562 563 564 565 0
566 567 568 569 570 0
571 572 573 574 575 0
576 577 578 579 580 0
581 582 583 584 585 0
586 587 588 589 590 0
591 592 593 594 595 0
596 597 598 599 600 0
601 602 603 604 605 0
606 607 608 609 610 0
611 612 613 614 615 0
616 617 618 619 620 0
621 622 623 624 625 0
626 627 628 629 630 0
631 632 633 634 635 0
636 637 638 639 640 0
641 642 643 644 645 0
646 647 648 649 650 0
651 652 653 654 655 0
656 657 658 659 660 0
661 662 663 664 665 0
666 667 668 669 670 0
671 672 673 674 675 0
676 677 678 679 680 0
681 682 683 684 685 0
686 687 688 689 690 0
691 692 693 694 695 0
696 697 698 699 700 0
701 702 703 704 705 0
706 707 708 709 710 0
711 712 713 714 715 0
716 717 718 719 720 0
721 722 723 724 725 0
726 727 728 729 730 0
731 732 733 734 735 0
736 737 738 739 740 0
741 742 743 744 745 0
746 747 748 749 750 0
751 752 753 754 755 0
756 757 758 759 760 0
761 762 763 764 765 0
766 767 768 769 770 0
771 772 773 774 775 0
776 777 778 779 780 0
781 782 783 784 785 0
786 787 788 789 790 0
791 792 793 794 795 0
796 797 798 799 800 0
801 802 803 804 805 0
806 807 808 809 810 0
811 812 813 814 815 0
816 817 818 819 820 0
821 822 823 824 825 0
826 827 828 829 830 0
831 832 833 834 835 0
836 837 838 839 840 0
841 842 843 844 845 0
846 847 848 849 850 0
851 852 853 854 855 0
856 857 858 859 860 0
861 862 863 864 865 0
866 867 868 869 870 0
871 872 873 874 875 0
876 877 878 879 880 0
881 882 883 884 885 0
886 887 888 889 890 0
891 892 893 894 895 0
896 897 898 899 900 0
901 902 903 904 905 0
906 907 908 909 910 0
911 912 913 914 915 0
916 917 918 919 920 0
921 922 923 924 925 0
926 927 928 929 930 0
931 932 933 934 935 0
936 937 938 939 940 0
941 942 943 944 945 0
946 947 948 949 950 0
951 952 953 954 955 0
956 957 958 959 960 0
961 962 963 964 965 0
966 967 968 969 970 0
971 972 973 974 975 0
976 977 978 979 980 0
981 982 983 984 985 0
986 987 988 989 990 0
991 992 993 994 995 0
996 997 998 999 1000 0
1001 1002 1003 1004 1005 0
1006 1007 1008 1009 1010 0
1011 1012 1013 1014 1015 0
1016 1017 1018 1019 1020 0
1021 1022 1023 1024 1025 0
1026 1027 1028 1029 1030 0
1031 1032 1033 1034 1035 0
1036 1037 1038 1039 1040 0
1041 1042 1043 1044 1045 0
1046 1047 1048 1049 1050 0
1051 1052 1053 1054 1055 0
1056 1057 1058 1059 1060 0
1061 1062 1063 1064 1065 0
1066 1067 1068 1069 1070 0
1071 1072 1073 1074 1075 0
1076 1077 1078 1079 1080 0
1081 1082 1083 1084 1085 0
1086 1087 1088 1089 1090 0
1091 1092 1093 1094 1095 0
1096 1097 1098 1099 1100 0
1101 1102 1103 1104 1105 0
1106 1107 1108 1109 1110 0
1111 1112 1113 1114 1115 0
1116 1117 1118 1119 1120 0
1121 1122 1123 1124 1125 0
1126 1127 1128 1129 1130 0
1131 1132 1133 1134 1135 0
1136 1137 1138 1139 1140 0
1141 1142 1143 1144 1145 0
1146 1147 1148 1149 1150 0
1151 1152 1153 1154 1155 0
1156 1157 1158 1159 1160 0
1161 1162 1163 1164 1165 0
1166 1167 1168 1169 1170 0
1171 1172 1173 1174 1175 0
1176 1177 1178 1179 1180 0
1181 1182 1183 1184 1185 0
1186 1187 1188 1189 1190 0
1191 1192 1193 1194 1195 0
1196 1197 1198 1199 1200 0
1201 1202 1203 1204 1205 0
1206 1207 1208 1209 1210 0
1211 1212 1213 1214 1215 0
1216 1217 1218 1219 1220 0
1221 1222 1223 1224 1225 0
1226 1227 1228 1229 1230 0
1231 1232 1233 1234 1235 0
1236 1237 1238 1239 1240 0
1241 1242 1243 1244 1245 0
1246 1247 1248 1249 1250 0
1251 1252 1253 1254 1255 0
1256 1257 1258 1259 1260 0
1261 1262 1263 1264 1265 0
1266 1267 1268 1269 1270 0
1271 1272 1273 1274 1275 0
1276 1277 1278 1279 1280 0
1281 1282 1283 1284 1285 0
1286 1287 1288 1289 1290 0
1291 1292 1293 1294 1295 0
1296 1297 1298 1299 1300 0
1301 1302 1303 1304 1305 0
1306 1307 1308 1309 1310 0
1311 1312 1313 1314 1315 0
1316 1317 1318 1319 1320 0
1321 1322 1323 1324 1325 0
1326 1327 1328 1329 1330 0
1331 1332 1333 1334 1335 0
1336 1337 1338 1339 1340 0
1341 1342 1343 1344 1345 0
1346 1347 1348 1349 1350 0
1351 1352 1353 1354 1355 0
1356 1357 1358 1359 1360 0
1361 1362 1363 1364 1365 0
1366 1367 1368 1369 1370 0
1371 1372 1373 1374 1375 0
1376 1377 1378 1379 1380 0
1381 1382 1383 1384 1385 0
1386 1387 1388 1389 1390 0
1391 1392 1393 1394 1395 0
1396 1397 1398 1399 1400 0
1401 1402 1403 1404 1405 0
1406 1407 1408 1409 1410 0
1411 1412 1413 1414 1415 0
1416 1417 1418 1419 1420 0
1421 1422 1423 1424 1425 0
1426 1427 1428 1429 1430 0
1431 1432 1433 1434 1435 0
1436 1437 1438 1439 1440 0
1441 1442 1443 1444 1445 0
1446 1447 1448 1449 1450 0
1451 1452 1453 1454 1455 0
1456 1457 1458 1459 1460 0
1461 1462 1463 1464 1465 0
1466 1467 1468 1469 1470 0
1471 1472 1473 1474 1475 0
1476 1477 1478 1479 1480 0
1481 1482 1483 1484 1485 0
1486 1487 1488 1489 1490 0
1491 1492 1493 1494 1495 0
1496 1497 1498 1499 1500 0
1501 1502 1503 1504 1505 0
1506 1507 1508 1509 1510 0
1511 1512 1513 1514 1515 0
1516 1517 1518 1519 1520 0
1521 1522 1523 1524 1525 0
1526 1527 1528 1529 1530 0
1531 1532 1533 1534 1535 0
1536 1537 1538 1539 1540 0
1541 1542 1543 1544 1545 0
1546 1547 1548 1549 1550 0
1551 1552 1553 1554 1555 0
1556 1557 1558 1559 1560 0
1561 1562 1563 1564 1565 0
1566 1567 1568 1569 1570 0
1571 1572 1573 1574 1575 0
1576 1577 1578 1579 1580 0
1581 1582 1583 1584 1585 0
1586 1587 1588 1589 1590 0
1591 1592 1593 1594 1595 0
1596 1597 1598 1599 1600 0
1601 1602 1603 1604 1605 0
1606 1607 1608 1609 1610 0
1611 1612 1613 1614 1615 0
1616 1617 1618 1619 1620 0
1621 1622 1623 1624 1625 0
1626 1627 1628 1629 1630 0
1631 1632 1633 1634 1635 0
1636 1637 1638 1639 1640 0
1641 1642 1643 1644 1645 0
1646 1647 1648 1649 1650 0
1651 1652 1653 1654 1655 0
1656 1657 1658 1659 1660 0
1661 1662 1663 1664 1665 0
1666 1667 1668 1669 1670 0
1671 1672 1673 1674 1675 0
1676 1677 1678 1679 1680 0
1681 1682 1683 1684 1685 0
1686 1687 1688 1689 1690 0
1691 1692 1693 1694 1695 0
1696 1697 1698 1699 1700 0
1701 1702 1703 1704 1705 0
1706 1707 1708 1709 1710 0
1711 1712 1713 1714 1715 0
1716 1717 1718 1719 1720 0
1721 1722 1723 1724 1725 0
1726 1727 1728 1729 1730 0
1731 1732 1733 1734 1735 0
1736 1737 1738 1739 1740 0
1741 1742 1743 1744 1745 0
1746 1747 1748 1749 1750 0
1751 1752 1753 1754 1755 0
1756 1757 1758 1759 1760 0
1761 1762 1763 1764 1765 0
1766 1767 1768 1769 1770 0
1771 1772 1773 1774 1775 0
1776 1777 1778 1779 1780 0
1781 1782 1783 1784 1785 0
1786 1787 1788 1789 1790 0
1791 1792 1793 1794 1795 0
1796 1797 1798 1799 1800 0
1801 1802 1803 1804 1805 0
1806 1807 1808 1809 1810 0
1811 1812 1813 1814 1815 0
1816 1817 1818 1819 1820 0
1821 1822 1823 1824 1825 0
1826 1827 1828 1829 1830 0
1831 1832 1833 1834 1835 0
1836 1837 1838 1839 1840 0
1841 1842 1843 1844 1845 0
1846 1847 1848 1849 1850 0
1851 1852 1853 1854 1855 0
1856 1857 1858 1859 1860 0
1861 1862 1863 1864 1865 0
1866 1867 1868 1869 1870 0
1871 1872 1873 1874 1875 0
1876 1877 1878 1879 1880 0
1881 1882 1883 1884 1885 0
1886 1887 1888 1889 1890 0
1891 1892 1893 1894 1895 0
1896 1897 1898 1899 1900 0
1901 1902 1903 1904 1905 0
1906 1907 1908 1909 1910 0
1911 1912 1913 1914 1915 0
1916 1917 1918 1919 1920 0
1921 1922 1923 1924 1925 0
1926 1927 1928 1929 1930 0
1931 1932 1933 1934 1935 0
1936 1937 1938 1939 1940 0
1941 1942 1943 1944 1945 0
1946 1947 1948 1949 1950 0
1951 1952 1953 1954 1955 0
1956 1957 1958 1959 1960 0
1961 1962 1963 1964 1965 0
1966 1967 1968 1969 1970 0
1971 1972 1973 1974 1975 0
1976 1977 1978 1979 1980 0
1981 1982 1983 1984 1985 0
1986 1987 1988 1989 1990 0
1991 1992 1993 1994 1995 0
1996 1997 1998 1999 2000 0
2001 2002 2003 2004 2005 0
2006 2007 2008 2009 2010 0
2011 2012 2013 2014 2015 0
2016 2017 2018 2019 2020 0
2021 2022 2023 2024 2025 0
2026 2027 2028 2029 2030 0
2031 2032 2033 2034 2035 0
2036 2037 2038 2039 2040 0
2041 2042 2043 2044 2045 0
2046 2047 2048 2049 2050 0
2051 2052 2053 2054 2055 0
2056 2057 2058 2059 2060 0
2061 2062 2063 2064 2065 0
2066 2067 2068 2069 2070 0
2071 2072 2073 2074 2075 0
2076 2077 2078 2079 2080 0
2081 2082 2083 2084 2085 0
2086 2087 2088 2089 2090 0
2091 2092 2093 2094 2095 0
2096 2097 2098 2099 2100 0
2101 2102 2103 2104 2105 0
2106 2107 2108 2109 2110 0
2111 2112 2113 2114 2115 0
2116 2117 2118 2119 2120 0
2121 2122 2123 2124 2125 0
2126 2127 2128 2129 2130 0
2131 2132 2133 2134 2135 0
2136 2137 2138 2139 2140 0
2141 2142 2143 2144 2145 0
2146 2147 2148 2149 2150 0
2151 2152 2153 2154 2155 0
2156 2157 2158 2159 2160 0
2161 2162 2163 2164 2165 0
2166 2167 2168 2169 2170 0
2171 2172 2173 2174 2175 0
2176 2177 2178 2179 2180 0
2181 2182 2183 2184 2185 0
2186 2187 2188 2189 2190 0
2191 2192 2193 2194 2195 0
2196 2197 2198 2199 2200 0
2201 2202 2203 2204 2205 0
2206 2207 2208 2209 2210 0
2211 2212 2213 2214 2215 0
2216 2217 2218 2219 2220 0
2221 2222 2223 2224 2225 0
2226 2227 2228 2229 2230 0
2231 2232 2233 2234 2235 0
2236 2237 2238 2239 2240 0
2241 2242 2243 2244 2245 0
2246 2247 2248 2249 2250 0
2251 2252 2253 2254 2255 0
2256 2257 2258 2259 2260 0
2261 2262 2263 2264 2265 0
2266 2267 2268 2269 2270 0
2271 2272 2273 2274 2275 0
2276 2277 2278 2279 2280 0
2281 2282 2283 2284 2285 0
2286 2287 2288 2289 2290 0
2291 2292 2293 2294 2295 0
2296 2297 2298 2299 2300 0
2301 2302 2303 2304 2305 0
2306 2307 2308 2309 2310 0
2311 2312 2313 2314 2315 0
2316 2317 2318 2319 2320 0
2321 2322 2323 2324 2325 0
2326 2327 2328 2329 2330 0
2331 2332 2333 2334 2335 0
2336 2337 2338 2339 2340 0
2341 2342 2343 2344 2345 0
2346 2347 2348 2349 2350 0
2351 2352 2353 2354 2355 0
2356 2357 2358 2359 2360 0
2361 2362 2363 2364 2365 0
2366 2367 2368 2369 2370 0
2371 2372 2373 2374 2375 0
2376 2377 2378 2379 2380 0
2381 2382 2383 2384 2385 0
2386 2387 2388 2389 2390 0
2391 2392 2393 2394 2395 0
2396 2397 2398 2399 2400 0
2401 2402 2403 2404 2405 0
2406 2407 2408 2409 2410 0
2411 2412 2413 2414 2415 0
2416 2417 2418 2419 2420 0
2421 2422 2423 2424 2425 0
2426 2427 2428 2429 2430 0
2431 2432 2433 2434 2435 0
2436 2437 2438 2439 2440 0
2441 2442 2443 2444 2445 0
2446 2447 2448 2449 2450 0
2451 2452 2453 2454 2455 0
2456 2457 2458 2459 2460 0
2461 2462 2463 2464 2465 0
2466 2467 2468 2469 2470 0
2471 2472 2473 2474 2475 0
2476 2477 2478 2479 2480 0
2481 2482 2483 2484 2485 0
2486 2487 2488 2489 2490 0
2491 2492 2493 2494 2495 0
2496 2497 2498 2499 2500 0
2501 2502 2503 2504 2505 0
2506 2507 2508 2509 2510 0
2511 2512 2513 2514 2515 0
2516 2517 2518 2519 2520 0
2521 2522 2523 2524 2525 0
2526 2527 2528 2529 2530 0
2531 2532 2533 2534 2535 0
2536 2537 2538 2539 2540 0
2541 2542 2543 2544 2545 0
2546 2547 2548 2549 2550 0
2551 2552 2553 2554 2555 0
2556 2557 2558 2559 2560 0
2561 2562 2563 2564 2565 0
2566 2567 2568 2569 2570 0
2571 2572 2573 2574 2575 0
2576 2577 2578 2579 2580 0
2581 2582 2583 2584 2585 0
2586 2587 2588 2589 2590 0
2591 2592 2593 2594 2595 0
2596 2597 2598 2599 2600 0
2601 2602 2603 2604 2605 0
2606 2607 2608 2609 2610 0
2611 2612 2613 2614 2615 0
2616 2617 2618 2619 2620 0
2621 2622 2623 2624 2625 0
2626 2627 2628 2629 2630 0
2631 2632 2633 2634 2635 0
2636 2637 2638 2639 2640 0
2641 2642 2643 2644 2645 0
2646 2647 2648 2649 2650 0
2651 2652 2653 2654 2655 0
2656 2657 2658 2659 2660 0
2661 2662 2663 2664 2665 0
2666 2667 2668 2669 2670 0
2671 2672 2673 2674 2675 0
2676 2677 2678 2679 2680 0
2681 2682 2683 2684 2685 0
2686 2687 2688 2689 2690 0
2691 2692 2693 2694 2695 0
2696 2697 2698 2699 2700 0
2701 2702 2703 2704 2705 0
2706 2707 2708 2709 2710 0
2711 2712 2713 2714 2715 0
2716 2717 2718 2719 2720 0
2721 2722 2723 2724 2725 0
2726 2727 2728 2729 2730 0
2731 2732 2733 2734 2735 0
2736 2737 2738 2739 2740 0
2741 2742 2743 2744 2745 0
2746 2747 2748 2749 2750 0
2751 2752 2753 2754 2755 0
2756 2757 2758 2759 2760 0
2761 2762 2763 2764 2765 0
2766 2767 2768 2769 2770 0
2771 2772 2773 2774 2775 0
2776 2777 2778 2779 2780 0
2781 2782 2783 2784 2785 0
2786 2787 2788 2789 2790 0
2791 2792 2793 2794 2795 0
2796 2797 2798 2799 2800 0
2801 2802 2803 2804 2805 0
2806 2807 2808 2809 2810 0
2811 2812 2813 2814 2815 0
2816 2817 2818 2819 2820 0
2821 2822 2823 2824 2825 0
2826 2827 2828 2829 2830 0
2831 2832 2833 2834 2835 0
2836 2837 2838 2839 2840 0
2841 2842 2843 2844 2845 0
2846 2847 2848 2849 2850 0
2851 2852 2853 2854 2855 0
2856 2857 2858 2859 2860 0
2861 2862 2863 2864 2865 0
2866 2867 2868 2869 2870 0
2871 2872 2873 2874 2875 0
2876 2877 2878 2879 2880 0
2881 2882 2883 2884 2885 0
2886 2887 2888 2889 2890 0
2891 2892 2893 2894 2895 0
2896 2897 2898 2899 2900 0
2901 2902 2903 2904 2905 0
2906 2907 2908 2909 2910 0
2911 2912 2913 2914 2915 0
2916 2917 2918 2919 2920 0
2921 2922 2923 2924 2925 0
2926 2927 2928 2929 2930 0
2931 2932 2933 2934 2935 0
2936 2937 2938 2939 2940 0
2941 2942 2943 2944 2945 0
2946 2947 2948 2949 2950 0
2951 2952 2953 2954 2955 0
2956 2957 2958 2959 2960 0
2961 2962 2963 2964 2965 0
2966 2967 2968 2969 2970 0
2971 2972 2973 2974 2975 0
2976 2977 2978 2979 2980 0
2981 2982 2983 2984 2985 0
2986 2987 2988 2989 2990 0
2991 2992 2993 2994 2995 0
2996 2997 2998 2999 3000 0
3001 3002 3003 3004 3005 0
3006 3007 3008 3009 3010 0
3011 3012 3013 3014 3015 0
3016 3017 3018 3019 3020 0
3021 3022 3023 3024 3025 0
3026 3027 3028 3029 3030 0
3031 3032 3033 3034 3035 0
3036 3037 3038 3039 3040 0
3041 3042 3043 3044 3045 0
3046 3047 3048 3049 3050 0
3051 3052 3053 3054 3055 0
3056 3057 3058 3059 3060 0
3061 3062 3063 3064 3065 0
3066 3067 3068 3069 3070 0
3071 3072 3073 3074 3075 0
3076 3077 3078 3079 3080 0
3081 3082 3083 3084 3085 0
3086 3087 3088 3089 3090 0
3091 3092 3093 3094 3095 0
3096 3097 3098 3099 3100 0
3101 3102 3103 3104 3105 0
3106 3107 3108 3109 3110 0
3111 3112 3113 3114 3115 0
3116 3117 3118 3119 3120 0
3121 3122 3123 3124 3125 0
3126 3127 3128 3129 3130 0
3131 3132 3133 3134 3135 0
3136 3137 3138 3139 3140 0
3141 3142 3143 3144 3145 0
3146 3147 3148 3149 3150 0
3151 3152 3153 3154 3155 0
3156 3157 3158 3159 3160 0
3161 3162 3163 3164 3165 0
3166 3167 3168 3169 3170 0
3171 3172 3173 3174 3175 0
3176 3177 3178 3179 3180 0
3181 3182 3183 3184 3185 0
3186 3187 3188 3189 3190 0
3191 3192 3193 3194 3195 0
3196 3197 3198 3199 3200 0
3201 3202 3203 3204 3205 0
3206 3207 3208 3209 3210 0
3211 3212 3213 3214 3215 0
3216 3217 3218 3219 3220 0
3221 3222 3223 3224 3225 0
3226 3227 3228 3229 3230 0
3231 3232 3233 3234 3235 0
3236 3237 3238 3239 3240 0
3241 3242 3243 3244 3245 0
3246 3247 3248 3249 3250 0
3251 3252 3253 3254 3255 0
3256 3257 3258 3259 3260 0
3261 3262 3263 3264 3265 0
3266 3267 3268 3269 3270 0
3271 3272 3273 3274 3275 0
3276 3277 3278 3279 3280 0
3281 3282 3283 3284 3285 0
3286 3287 3288 3289 3290 0
3291 3292 3293 3294 3295 0
3296 3297 3298 3299 3300 0
3301 3302 3303 3304 3305 0
3306 3307 3308 3309 3310 0
3311 3312 3313 3314 3315 0
3316 3317 3318 3319 3320 0
3321 3322 3323 3324 3325 0
3326 3327 3328 3329 3330 0
3331 3332 3333 3334 3335 0
3336 3337 3338 3339 3340 0
3341 3342 3343 3344 3345 0
3346 3347 3348 3349 3350 0
3351 3352 3353 3354 3355 0
3356 3357 3358 3359 3360 0
3361 3362 3363 3364 3365 0
3366 3367 3368 3369 3370 0
3371 3372 3373 3374 3375 0
3376 3377 3378 3379 3380 0
3381 3382 3383 3384 3385 0
3386 3387 3388 3389 3390 0
3391 3392 3393 3394 3395 0
3396 3397 3398 3399 3400 0
3401 3402 3403 3404 3405 0
3406 3407 3408 3409 3410 0
3411 3412 3413 3414 3415 0
3416 3417 3418 3419 3420 0
3421 3422 3423 3424 3425 0
3426 3427 3428 3429 3430 0
3431 3432 3433 3434 3435 0
3436 3437 3438 3439 3440 0
3441 3442 3443 3444 3445 0
3446 3447 3448 3449 3450 0
3451 3452 3453 3454 3455 0
3456 3457 3458 3459 3460 0
3461 3462 3463 3464 3465 0
3466 3467 3468 3469 3470 0
3471 3472 3473 3474 3475 0
3476 3477 3478 3479 3480 0
3481 3482 3483 3484 3485 0
3486 3487 3488 3489 3490 0
3491 3492 3493 3494 3495 0
3496 3497 3498 3499 3500 0
3501 3502 3503 3504 3505 0
3506 3507 3508 3509 3510 0
3511 3512 3513 3514 3515 0
3516 3517 3518 3519 3520 0
3521 3522 3523 3524 3525 0
3526 3527 3528 3529 3530 0
3531 3532 3533 3534 3535 0
3536 3537 3538 3539 3540 0
3541 3542 3543 3544 3545 0
3546 3547 3548 3549 3550 0
3551 3552 3553 3554 3555 0
3556 3557 3558 3559 3560 0
3561 3562 3563 3564 3565 0
3566 3567 3568 3569 3570 0
3571 3572 3573 3574 3575 0
3576 3577 3578 3579 3580 0
3581 3582 3583 3584 3585 0
3586 3587 3588 3589 3590 0
3591 3592 3593 3594 3595 0
3596 3597 3598 3599 3600 0
3601 3602 3603 3604 3605 0
3606 3607 3608 3609 3610 0
3611 3612 3613 3614 3615 0
3616 3617 3618 3619 3620 0
3621 3622 3623 3624 3625 0
3626 3627 3628 3629 3630 0
3631 3632 3633 3634 3635 0
3636 3637 3638 3639 3640 0
3641 3642 3643 3644 3645 0
3646 3647 3648 3649 3650 0
3651 3652 3653 3654 3655 0
3656 3657 3658 3659 3660 0
3661 3662 3663 3664 3665 0
3666 3667 3668 3669 3670 0
3671 3672 3673 3674 3675 0
3676 3677 3678 3679 3680 0
3681 3682 3683 3684 3685 0
3686 3687 3688 3689 3690 0
3691 3692 3693 3694 3695 0
3696 3697 3698 3699 3700 0
3701 3702 3703 3704 3705 0
3706 3707 3708 3709 3710 0
3711 3712 3713 3714 3715 0
3716 3717 3718 3719 3720 0
3721 3722 3723 3724 3725 0
3726 3727 3728 3729 3730 0
3731 3732 3733 3734 3735 0
3736 3737 3738 3739 3740 0
3741 3742 3743 3744 3745 0
3746 3747 3748 3749 3750 0
3751 3752 3753 3754 3755 0
3756 3757 3758 3759 3760 0
3761 3762 3763 3764 3765 0
3766 3767 3768 3769 3770 0
3771 3772 3773 3774 3775 0
3776 3777 3778 3779 3780 0
3781 3782 3783 3784 3785 0
3786 3787 3788 3789 3790 0
3791 3792 3793 3794 3795 0
3796 3797 3798 3799 3800 0
3801 3802 3803 3804 3805 0
3806 3807 3808 3809 3810 0
3811 3812 3813 3814 3815 0
3816 3817 3818 3819 3820 0
3821 3822 3823 3824 3825 0
3826 3827 3828 3829 3830 0
3831 3832 3833 3834 3835 0
3836 3837 3838 3839 3840 0
3841 3842 3843 3844 3845 0
3846 3847 3848 3849 3850 0
3851 3852 3853 3854 3855 0
3856 3857 3858 3859 3860 0
3861 3862 3863 3864 3865 0
3866 3867 3868 3869 3870 0
3871 3872 3873 3874 3875 0
3876 3877 3878 3879 3880 0
3881 3882 3883 3884 3885 0
3886 3887 3888 3889 3890 0
3891 3892 3893 3894 3895 0
3896 3897 3898 3899 3900 0
3901 3902 3903 3904 3905 0
3906 3907 3908 3909 3910 0
3911 3912 3913 3914 3915 0
3916 3917 3918 3919 3920 0
3921 3922 3923 3924 3925 0
3926 3927 3928 3929 3930 0
3931 3932 3933 3934 3935 0
3936 3937 3938 3939 3940 0
3941 3942 3943 3944 3945 0
3946 3947 3948 3949 3950 0
3951 3952 3953 3954 3955 0
3956 3957 3958 3959 3960 0
3961 3962 3963 3964 3965 0
3966 3967 3968 3969 3970 0
3971 3972 3973 3974 3975 0
3976 3977 3978 3979 3980 0
3981 3982 3983 3984 3985 0
3986 3987 3988 3989 3990 0
3991 3992 3993 3994 3995 0
3996 3997 3998 3999 4000 0
4001 4002 4003 4004 4005 0
4006 4007 4008 4009 4010 0
4011 4012 4013 4014 4015 0
4016 4017 4018 4019 4020 0
4021 4022 4023 4024 4025 0
4026 4027 4028 4029 4030 0
4031 4032 4033 4034 4035 0
4036 4037 4038 4039 4040 0
4041 4042 4043 4044 4045 0
4046 4047 4048 4049 4050 0
4051 4052 4053 4054 4055 0
4056 4057 4058 4059 4060 0
4061 4062 4063 4064 4065 0
4066 4067 4068 4069 4070 0
4071 4072 4073 4074 4075 0
4076 4077 4078 4079 4080 0
4081 4082 4083 4084 4085 0
4086 4087 4088 4089 4090 0
4091 4092 4093 4094 4095 0
4096 4097 4098 4099 4100 0
4101 4102 4103 4104 4105 0
4106 4107 4108 4109 4110 0
4111 4112 4113 4114 4115 0
4116 4117 4118 4119 4120 0
4121 4122 4123 4124 4125 0
4126 4127 4128 4129 4130 0
4131 4132 4133 4134 4135 0
4136 4137 4138 4139 4140 0
4141 4142 4143 4144 4145 0
4146 4147 4148 4149 4150 0
4151 4152 4153 4154 4155 0
4156 4157 4158 4159 4160 0
4161 4162 4163 4164 4165 0
4166 4167 4168 4169 4170 0
4171 4172 4173 4174 4175 0
4176 4177 4178 4179 4180 0
4181 4182 4183 4184 4185 0
4186 4187 4188 4189 4190 0
4191 4192 4193 4194 4195 0
4196 4197 4198 4199 4200 0
4201 4202 4203 4204 4205 0
4206 4207 4208 4209 4210 0
4211 4212 4213 4214 4215 0
4216 4217 4218 4219 4220 0
4221 4222 4223 4224 4225 0
4226 4227 4228 4229 4230 0
4231 4232 4233 4234 4235 0
4236 4237 4238 4239 4240 0
4241 4242 4243 4244 4245 0
4246 4247 4248 4249 4250 0
4251 4252 4253 4254 4255 0
4256 4257 4258 4259 4260 0
4261 4262 4263 4264 4265 0
4266 4267 4268 4269 4270 0
4271 4272 4273 4274 4275 0
4276 4277 4278 4279 4280 0
4281 4282 4283 4284 4285 0
4286 4287 4288 4289 4290 0
4291 4292 4293 4294 4295 0
4296 4297 4298 4299 4300 0
4301 4302 4303 4304 4305 0
4306 4307 4308 4309 4310 0
4311 4312 4313 4314 4315 0
4316 4317 4318 4319 4320 0
4321 4322 4323 4324 4325 0
4326 4327 4328 4329 4330 0
4331 4332 4333 4334 4335 0
4336 4337 4338 4339 4340 0
4341 4342 4343 4344 4345 0
4346 4347 4348 4349 4350 0
4351 4352 4353 4354 4355 0
4356 4357 4358 4359 4360 0
4361 4362 4363 4364 4365 0
4366 4367 4368 4369 4370 0
4371 4372 4373 4374 4375 0
4376 4377 4378 4379 4380 0
4381 4382 4383 4384 4385 0
4386 4387 4388 4389 4390 0
4391 4392 4393 4394 4395 0
4396 4397 4398 4399 4400 0
4401 4402 4403 4404 4405 0
4406 4407 4408 4409 4410 0
4411 4412 4413 4414 4415 0
4416 4417 4418 4419 4420 0
4421 4422 4423 4424 4425 0
4426 4427 4428 4429 4430 0
4431 4432 4433 4434 4435 0
4436 4437 4438 4439 4440 0
4441 4442 4443 4444 4445 0
4446 4447 4448 4449 4450 0
4451 4452 4453 4454 4455 0
4456 4457 4458 4459 4460 0
4461 4462 4463 4464 4465 0
4466 4467 4468 4469 4470 0
4471 4472 4473 4474 4475 0
4476 4477 4478 4479 4480 0
4481 4482 4483 4484 4485 0
4486 4487 4488 4489 4490 0
4491 4492 4493 4494 4495 0
4496 4497 4498 4499 4500 0
4501 4502 4503 4504 4505 0
4506 4507 4508 4509 4510 0
4511 4512 4513 4514 4515 0
4516 4517 4518 4519 4520 0
4521 4522 4523 4524 4525 0
4526 4527 4528 4529 4530 0
4531 4532 4533 4534 4535 0
4536 4537 4538 4539 4540 0
4541 4542 4543 4544 4545 0
4546 4547 4548 4549 4550 0
4551 4552 4553 4554 4555 0
4556 4557 4558 4559 4560 0
4561 4562 4563 4564 4565 0
4566 4567 4568 4569 4570 0
4571 4572 4573 4574 4575 0
4576 4577 4578 4579 4580 0
4581 4582 4583 4584 4585 0
4586 4587 4588 4589 4590 0
4591 4592 4593 4594 4595 0
4596 4597 4598 4599 4600 0
4601 4602 4603 4604 4605 0
4606 4607 4608 4609 4610 0
4611 4612 4613 4614 4615 0
4616 4617 4618 4619 4620 0
4621 4622 4623 4624 4625 0
4626 4627 4628 4629 4630 0
4631 4632 4633 4634 4635 0
4636 4637 4638 4639 4640 0
4641 4642 4643 4644 4645 0
4646 4647 4648 4649 4650 0
4651 4652 4653 4654 4655 0
4656 4657 4658 4659 4660 0
4661 4662 4663 4664 4665 0
4666 4667 4668 4669 4670 0
4671 4672 4673 4674 4675 0
4676 4677 4678 4679 4680 0
4681 4682 4683 4684 4685 0
4686 4687 4688 4689 4690 0
4691 4692 4693 4694 4695 0
4696 4697 4698 4699 4700 0
4701 4702 4703 4704 4705 0
4706 4707 4708 4709 4710 0
4711 4712 4713 4714 4715 0
4716 4717 4718 4719 4720 0
4721 4722 4723 4724 4725 0
4726 4727 4728 4729 4730 0
4731 4732 4733 4734 4735 0
4736 4737 4738 4739 4740 0
4741 4742 4743 4744 4745 0
4746 4747 4748 4749 4750 0
4751 4752 4753 4754 4755 0
4756 4757 4758 4759 4760 0
4761 4762 4763 4764 4765 0
4766 4767 4768 4769 4770 0
4771 4772 4773 4774 4775 0
4776 4777 4778 4779 4780 0
4781 4782 4783 4784 4785 0
4786 4787 4788 4789 4790 0
4791 4792 4793 4794 4795 0
4796 4797 4798 4799 4800 0
4801 4802 4803 4804 4805 0
4806 4807 4808 4809 4810 0
4811 4812 4813 4814 4815 0
4816 4817 4818 4819 4820 0
4821 4822 4823 4824 4825 0
4826 4827 4828 4829 4830 0
4831 4832 4833 4834 4835 0
4836 4837 4838 4839 4840 0
4841 4842 4843 4844 4845 0
4846 4847 4848 4849 4850 0
4851 4852 4853 4854 4855 0
4856 4857 4858 4859 4860 0
4861 4862 4863 4864 4865 0
4866 4867 4868 4869 4870 0
4871 4872 4873 4874 4875 0
4876 4877 4878 4879 4880 0
4881 4882 4883 4884 4885 0
4886 4887 4888 4889 4890 0
4891 4892 4893 4894 4895 0
4896 4897 4898 4899 4900 0
4901 4902 4903 4904 4905 0
4906 4907 4908 4909 4910 0
4911 4912 4913 4914 4915 0
4916 4917 4918 4919 4920 0
4921 4922 4923 4924 4925 0
4926 4927 4928 4929 4930 0
4931 4932 4933 4934 4935 0
4936 4937 4938 4939 4940 0
4941 4942 4943 4944 4945 0
4946 4947 4948 4949 4950 0
4951 4952 4953 4954 4955 0
4956 4957 4958 4959 4960 0
4961 4962 4963 4964 4965 0
4966 4967 4968 4969 4970 0
4971 4972 4973 4974 4975 0
4976 4977 4978 4979 4980 0
4981 4982 4983 4984 4985 0
4986 4987 4988 4989 4990 0
4991 4992 4993 4994 4995 0
4996 4997 4998 4999 5000 0
5001 5002 5003 5004 5005 0
5006 5007 5008 5009 5010 0
5011 5012 5013 5014 5015 0
5016 5017 5018 5019 5020 0
5021 5022 5023 5024 5025 0
5026 5027 5028 5029 5030 0
5031 5032 5033 5034 5035 0
5036 5037 5038 5039 5040 0
5041 5042 5043 5044 5045 0
5046 5047 5048 5049 5050 0
5051 5052 5053 5054 5055 0
5056 5057 5058 5059 5060 0
5061 5062 5063 5064 5065 0
5066 5067 5068 5069 5070 0
5071 5072 5073 5074 5075 0
5076 5077 5078 5079 5080 0
5081 5082 5083 5084 5085 0
5086 5087 5088 5089 5090 0
5091 5092 5093 5094 5095 0
5096 5097 5098 5099 5100 0
5101 5102 5103 5104 5105 0
5106 5107 5108 5109 5110 0
5111 5112 5113 5114 5115 0
5116 5117 5118 5119 5120 0
5121 5122 5123 5124 5125 0
5126 5127 5128 5129 5130 0
5131 5132 5133 5134 5135 0
5136 5137 5138 5139 5140 0
5141 5142 5143 5144 5145 0
5146 5147 5148 5149 5150 0
5151 5152 5153 5154 5155 0
5156 5157 5158 5159 5160 0
5161 5162 5163 5164 5165 0
5166 5167 5168 5169 5170 0
5171 5172 5173 5174 5175 0
5176 5177 5178 5179 5180 0
5181 5182 5183 5184 5185 0
5186 5187 5188 5189 5190 0
5191 5192 5193 5194 5195 0
5196 5197 5198 5199 5200 0
5201 5202 5203 5204 5205 0
5206 5207 5208 5209 5210 0
5211 5212 5213 5214 5215 0
5216 5217 5218 5219 5220 0
5221 5222 5223 5224 5225 0
5226 5227 5228 5229 5230 0
5231 5232 5233 5234 5235 0
5236 5237 5238 5239 5240 0
5241 5242 5243 5244 5245 0
5246 5247 5248 5249 5250 0
5251 5252 5253 5254 5255 0
5256 5257 5258 5259 5260 0
5261 5262 5263 5264 5265 0
5266 5267 5268 5269 5270 0
5271 5272 5273 5274 5275 0
5276 5277 5278 5279 5280 0
5281 5282 5283 5284 5285 0
5286 5287 5288 5289 5290 0
5291 5292 5293 5294 5295 0
5296 5297 5298 5299 5300 0
5301 5302 5303 5304 5305 0
5306 5307 5308 5309 5310 0
5311 5312 5313 5314 5315 0
5316 5317 5318 5319 5320 0
5321 5322 5323 5324 5325 0
5326 5327 5328 5329 5330 0
5331 5332 5333 5334 5335 0
5336 5337 5338 5339 5340 0
5341 5342 5343 5344 5345 0
5346 5347 5348 5349 5350 0
5351 5352 5353 5354 5355 0
5356 5357 5358 5359 5360 0
5361 5362 5363 5364 5365 0
5366 5367 5368 5369 5370 0
5371 5372 5373 5374 5375 0
5376 5377 5378 5379 5380 0
5381 5382 5383 5384 5385 0
5386 5387 5388 5389 5390 0
5391 5392 5393 5394 5395 0
5396 5397 5398 5399 5400 0
5401 5402 5403 5404 5405 0
5406 5407 5408 5409 5410 0
5411 5412 5413 5414 5415 0
5416 5417 5418 5419 5420 0
5421 5422 5423 5424 5425 0
5426 5427 5428 5429 5430 0
5431 5432 5433 5434 5435 0
5436 5437 5438 5439 5440 0
5441 5442 5443 5444 5445 0
5446 5447 5448 5449 5450 0
5451 5452 5453 5454 5455 0
5456 5457 5458 5459 5460 0
5461 5462 5463 5464 5465 0
5466 5467 5468 5469 5470 0
5471 5472 5473 5474 5475 0
5476 5477 5478 5479 5480 0
5481 5482 5483 5484 5485 0
5486 5487 5488 5489 5490 0
5491 5492 5493 5494 5495 0
5496 5497 5498 5499 5500 0
5501 5502 5503 5504 5505 0
5506 5507 5508 5509 5510 0
5511 5512 5513 5514 5515 0
5516 5517 5518 5519 5520 0
5521 5522 5523 5524 5525 0
5526 5527 5528 5529 5530 0
5531 5532 5533 5534 5535 0
5536 5537 5538 5539 5540 0
5541 5542 5543 5544 5545 0
5546 5547 5548 5549 5550 0
5551 5552 5553 5554 5555 0
5556 5557 5558 5559 5560 0
5561 5562 5563 5564 5565 0
5566 5567 5568 5569 5570 0
5571 5572 5573 5574 5575 0
5576 5577 5578 5579 5580 0
5581 5582 5583 5584 5585 0
5586 5587 5588 5589 5590 0
5591 5592 5593 5594 5595 0
5596 5597 5598 5599 5600 0
5601 5602 5603 5604 5605 0
5606 5607 5608 5609 5610 0
5611 5612 5613 5614 5615 0
5616 5617 5618 5619 5620 0
5621 5622 5623 5624 5625 0
5626 5627 5628 5629 5630 0
5631 5632 5633 5634 5635 0
5636 5637 5638 5639 5640 0
5641 5642 5643 5644 5645 0
5646 5647 5648 5649 5650 0
5651 5652 5653 5654 5655 0
5656 5657 5658 5659 5660 0
5661 5662 5663 5664 5665 0
5666 5667 5668 5669 5670 0
5671 5672 5673 5674 5675 0
5676 5677 5678 5679 5680 0
5681 5682 5683 5684 5685 0
5686 5687 5688 5689 5690 0
5691 5692 5693 5694 5695 0
5696 5697 5698 5699 5700 0
5701 5702 5703 5704 5705 0
5706 5707 5708 5709 5710 0
5711 5712 5713 5714 5715 0
5716 5717 5718 5719 5720 0
5721 5722 5723 5724 5725 0
5726 5727 5728 5729 5730 0
5731 5732 5733 5734 5735 0
5736 5737 5738 5739 5740 0
5741 5742 5743 5744 5745 0
5746 5747 5748 5749 5750 0
5751 5752 5753 5754 5755 0
5756 5757 5758 5759 5760 0
5761 5762 5763 5764 5765 0
5766 5767 5768 5769 5770 0
5771 5772 5773 5774 5775 0
5776 5777 5778 5779 5780 0
5781 5782 5783 5784 5785 0
5786 5787 5788 5789 5790 0
5791 5792 5793 5794 5795 0
5796 5797 5798 5799 5800 0
5801 5802 5803 5804 5805 0
5806 5807 5808 5809 5810 0
5811 5812 5813 5814 5815 0
5816 5817 5818 5819 5820 0
5821 5822 5823 5824 5825 0
5826 5827 5828 5829 5830 0
5831 5832 5833 5834 5835 0
5836 5837 5838 5839 5840 0
5841 5842 5843 5844 5845 0
5846 5847 5848 5849 5850 0
5851 5852 5853 5854 5855 0
5856 5857 5858 5859 5860 0
5861 5862 5863 5864 5865 0
5866 5867 5868 5869 5870 0
5871 5872 5873 5874 5875 0
5876 5877 5878 5879 5880 0
5881 5882 5883 5884 5885 0
5886 5887 5888 5889 5890 0
5891 5892 5893 5894 5895 0
5896 5897 5898 5899 5900 0
5901 5902 5903 5904 5905 0
5906 5907 5908 5909 5910 0
5911 5912 5913 5914 5915 0
5916 5917 5918 5919 5920 0
5921 5922 5923 5924 5925 0
5926 5927 5928 5929 5930 0
5931 5932 5933 5934 5935 0
5936 5937 5938 5939 5940 0
5941 5942 5943 5944 5945 0
5946 5947 5948 5949 5950 0
5951 5952 5953 5954 5955 0
5956 5957 5958 5959 5960 0
5961 5962 5963 5964 5965 0
5966 5967 5968 5969 5970 0
5971 5972 5973 5974 5975 0
5976 5977 5978 5979 5980 0
5981 5982 5983 5984 5985 0
5986 5987 5988 5989 5990 0
5991 5992 5993 5994 5995 0
5996 5997 5998 5999 6000 0
6001 6002 6003 6004 6005 0
6006 6007 6008 6009 6010 0
6011 6012 6013 6014 6015 0
6016 6017 6018 6019 6020 0
6021 6022 6023 6024 6025 0
6026 6027 6028 6029 6030 0
6031 6032 6033 6034 6035 0
6036 6037 6038 6039 6040 0
6041 6042 6043 6044 6045 0
6046 6047 6048 6049 6050 0
6051 6052 6053 6054 6055 0
6056 6057 6058 6059 6060 0
6061 6062 6063 6064 6065 0
6066 6067 6068 6069 6070 0
6071 6072 6073 6074 6075 0
6076 6077 6078 6079 6080 0
6081 6082 6083 6084 6085 0
6086 6087 6088 6089 6090 0
6091 6092 6093 6094 6095 0
6096 6097 6098 6099 6100 0
6101 6102 6103 6104 6105 0
6106 6107 6108 6109 6110 0
6111 6112 6113 6114 6115 0
6116 6117 6118 6119 6120 0
6121 6122 6123 6124 6125 0
6126 6127 6128 6129 6130 0
6131 6132 6133 6134 6135 0
6136 6137 6138 6139 6140 0
6141 6142 6143 6144 6145 0
6146 6147 6148 6149 6150 0
6151 6152 6153 6154 6155 0
6156 6157 6158 6159 6160 0
6161 6162 6163 6164 6165 0
6166 6167 6168 6169 6170 0
6171 6172 6173 6174 6175 0
6176 6177 6178 6179 6180 0
6181 6182 6183 6184 6185 0
6186 6187 6188 6189 6190 0
6191 6192 6193 6194 6195 0
6196 6197 6198 6199 6200 0
6201 6202 6203 6204 6205 0
6206 6207 6208 6209 6210 0
6211 6212 6213 6214 6215 0
6216 6217 6218 6219 6220 0
6221 6222 6223 6224 6225 0
6226 6227 6228 6229 6230 0
6231 6232 6233 6234 6235 0
6236 6237 6238 6239 6240 0
6241 6242 6243 6244 6245 0
6246 6247 6248 6249 6250 0
6251 6252 6253 6254 6255 0
6256 6257 6258 6259 6260 0
6261 6262 6263 6264 6265 0
6266 6267 6268 6269 6270 0
6271 6272 6273 6274 6275 0
6276 6277 6278 6279 6280 0
6281 6282 6283 6284 6285 0
6286 6287 6288 6289 6290 0
6291 6292 6293 6294 6295 0
6296 6297 6298 6299 6300 0
6301 6302 6303 6304 6305 0
6306 6307 6308 6309 6310 0
6311 6312 6313 6314 6315 0
6316 6317 6318 6319 6320 0
6321 6322 6323 6324 6325 0
6326 6327 6328 6329 6330 0
6331 6332 6333 6334 6335 0
6336 6337 6338 6339 6340 0
6341 6342 6343 6344 6345 0
6346 6347 6348 6349 6350 0
6351 6352 6353 6354 6355 0
6356 6357 6358 6359 6360 0
6361 6362 6363 6364 6365 0
6366 6367 6368 6369 6370 0
6371 6372 6373 6374 6375 0
6376 6377 6378 6379 6380 0
6381 6382 6383 6384 6385 0
6386 6387 6388 6389 6390 0
6391 6392 6393 6394 6395 0
6396 6397 6398 6399 6400 0
6401 6402 6403 6404 6405 0
6406 6407 6408 6409 6410 0
6411 6412 6413 6414 6415 0
6416 6417 6418 6419 6420 0
6421 6422 6423 6424 6425 0
6426 6427 6428 6429 6430 0
6431 6432 6433 6434 6435 0
6436 6437 6438 6439 6440 0
6441 6442 6443 6444 6445 0
6446 6447 6448 6449 6450 0
6451 6452 6453 6454 6455 0
6456 6457 6458 6459 6460 0
6461 6462 6463 6464 6465 0
6466 6467 6468 6469 6470 0
6471 6472 6473 6474 6475 0
6476 6477 6478 6479 6480 0
6481 6482 6483 6484 6485 0
6486 6487 6488 6489 6490 0
6491 6492 6493 6494 6495 0
6496 6497 6498 6499 6500 0
6501 6502 6503 6504 6505 0
6506 6507 6508 6509 6510 0
6511 6512 6513 6514 6515 0
6516 6517 6518 6519 6520 0
6521 6522 6523 6524 6525 0
6526 6527 6528 6529 6530 0
6531 6532 6533 6534 6535 0
6536 6537 6538 6539 6540 0
6541 6542 6543 6544 6545 0
6546 6547 6548 6549 6550 0
6551 6552 6553 6554 6555 0
6556 6557 6558 6559 6560 0
6561 6562 6563 6564 6565 0
6566 6567 6568 6569 6570 0
6571 6572 6573 6574 6575 0
6576 6577 6578 6579 6580 0
6581 6582 6583 6584 6585 0
6586 6587 6588 6589 6590 0
6591 6592 6593 6594 6595 0
6596 6597 6598 6599 6600 0
6601 6602 6603 6604 6605 0
6606 6607 6608 6609 6610 0
6611 6612 6613 6614 6615 0
6616 6617 6618 6619 6620 0
6621 6622 6623 6624 6625 0
6626 6627 6628 6629 6630 0
6631 6632 6633 6634 6635 0
6636 6637 6638 6639 6640 0
6641 6642 6643 6644 6645 0
6646 6647 6648 6649 6650 0
6651 6652 6653 6654 6655 0
6656 6657 6658 6659 6660 0
6661 6662 6663 6664 6665 0
6666 6667 6668 6669 6670 0
6671 6672 6673 6674 6675 0
6676 6677 6678 6679 6680 0
6681 6682 6683 6684 6685 0
6686 6687 6688 6689 6690 0
6691 6692 6693 6694 6695 0
6696 6697 6698 6699 6700 0
6701 6702 6703 6704 6705 0
6706 6707 6708 6709 6710 0
6711 6712 6713 6714 6715 0
6716 6717 6718 6719 6720 0
6721 6722 6723 6724 6725 0
6726 6727 6728 6729 6730 0
6731 6732 6733 6734 6735 0
6736 6737 6738 6739 6740 0
6741 6742 6743 6744 6745 0
6746 6747 6748 6749 6750 0
6751 6752 6753 6754 6755 0
6756 6757 6758 6759 6760 0
6761 6762 6763 6764 6765 0
6766 6767 6768 6769 6770 0
6771 6772 6773 6774 6775 0
6776 6777 6778 6779 6780 0
6781 6782 6783 6784 6785 0
6786 6787 6788 6789 6790 0
6791 6792 6793 6794 6795 0
6796 6797 6798 6799 6800 0
6801 6802 6803 6804 6805 0
6806 6807 6808 6809 6810 0
6811 6812 6813 6814 6815 0
6816 6817 6818 6819 6820 0
6821 6822 6823 6824 6825 0
6826 6827 6828 6829 6830 0
6831 6832 6833 6834 6835 0
6836 6837 6838 6839 6840 0
6841 6842 6843 6844 6845 0
6846 6847 6848 6849 6850 0
6851 6852 6853 6854 6855 0
6856 6857 6858 6859 6860 0
6861 6862 6863 6864 6865 0
6866 6867 6868 6869 6870 0
6871 6872 6873 6874 6875 0
6876 6877 6878 6879 6880 0
6881 6882 6883 6884 6885 0
6886 6887 6888 6889 6890 0
6891 6892 6893 6894 6895 0
6896 6897 6898 6899 6900 0
6901 6902 6903 6904 6905 0
6906 6907 6908 6909 6910 0
6911 6912 6913 6914 6915 0
6916 6917 6918 6919 6920 0
6921 6922 6923 6924 6925 0
6926 6927 6928 6929 6930 0
6931 6932 6933 6934 6935 0
6936 6937 6938 6939 6940 0
6941 6942 6943 6944 6945 0
6946 6947 6948 6949 6950 0
6951 6952 6953 6954 6955 0
6956 6957 6958 6959 6960 0
6961 6962 6963 6964 6965 0
6966 6967 6968 6969 6970 0
6971 6972 6973 6974 6975 0
6976 6977 6978 6979 6980 0
6981 6982 6983 6984 6985 0
6986 6987 6988 6989 6990 0
6991 6992 6993 6994 6995 0
6996 6997 6998 6999 7000 0
7001 7002 7003 7004 7005 0
7006 7007 7008 7009 7010 0
7011 7012 7013 7014 7015 0
7016 7017 7018 7019 7020 0
7021 7022 7023 7024 7025 0
7026 7027 7028 7029 7030 0
7031 7032 7033 7034 7035 0
7036 7037 7038 7039 7040 0
7041 7042 7043 7044 7045 0
7046 7047 7048 7049 7050 0
7051 7052 7053 7054 7055 0
7056 7057 7058 7059 7060 0
7061 7062 7063 7064 7065 0
7066 7067 7068 7069 7070 0
7071 7072 7073 7074 7075 0
7076 7077 7078 7079 7080 0
7081 7082 7083 7084 7085 0
7086 7087 7088 7089 7090 0
7091 7092 7093 7094 7095 0
7096 7097 7098 7099 7100 0
7101 7102 7103 7104 7105 0
7106 7107 7108 7109 7110 0
7111 7112 7113 7114 7115 0
7116 7117 7118 7119 7120 0
7121 7122 7123 7124 7125 0
7126 7127 7128 7129 7130 0
7131 7132 7133 7134 7135 0
7136 7137 7138 7139 7140 0
7141 7142 7143 7144 7145 0
7146 7147 7148 7149 7150 0
7151 7152 7153 7154 7155 0
7156 7157 7158 7159 7160 0
7161 7162 7163 7164 7165 0
7166 7167 7168 7169 7170 0
7171 7172 7173 7174 7175 0
7176 7177 7178 7179 7180 0
7181 7182 7183 7184 7185 0
7186 7187 7188 7189 7190 0
7191 7192 7193 7194 7195 0
7196 7197 7198 7199 7200 0
7201 7202 7203 7204 7205 0
7206 7207 7208 7209 7210 0
7211 7212 7213 7214 7215 0
7216 7217 7218 7219 7220 0
7221 7222 7223 7224 7225 0
7226 7227 7228 7229 7230 0
7231 7232 7233 7234 7235 0
7236 7237 7238 7239 7240 0
7241 7242 7243 7244 7245 0
7246 7247 7248 7249 7250 0
7251 7252 7253 7254 7255 0
7256 7257 7258 7259 7260 0
7261 7262 7263 7264 7265 0
7266 7267 7268 7269 7270 0
7271 7272 7273 7274 7275 0
7276 7277 7278 7279 7280 0
7281 7282 7283 7284 7285 0
7286 7287 7288 7289 7290 0
7291 7292 7293 7294 7295 0
7296 7297 7298 7299 7300 0
7301 7302 7303 7304 7305 0
7306 7307 7308 7309 7310 0
7311 7312 7313 7314 7315 0
7316 7317 7318 7319 7320 0
7321 7322 7323 7324 7325 0
7326 7327 7328 7329 7330 0
7331 7332 7333 7334 7335 0
7336 7337 7338 7339 7340 0
7341 7342 7343 7344 7345 0
7346 7347 7348 7349 7350 0
7351 7352 7353 7354 7355 0
7356 7357 7358 7359 7360 0
7361 7362 7363 7364 7365 0
7366 7367 7368 7369 7370 0
7371 7372 7373 7374 7375 0
7376 7377 7378 7379 7380 0
7381 7382 7383 7384 7385 0
7386 7387 7388 7389 7390 0
7391 7392 7393 7394 7395 0
7396 7397 7398 7399 7400 0
7401 7402 7403 7404 7405 0
7406 7407 7408 7409 7410 0
7411 7412 7413 7414 7415 0
7416 7417 7418 7419 7420 0
7421 7422 7423 7424 7425 0
7426 7427 7428 7429 7430 0
7431 7432 7433 7434 7435 0
7436 7437 7438 7439 7440 0
7441 7442 7443 7444 7445 0
7446 7447 7448 7449 7450 0
7451 7452 7453 7454 7455 0
7456 7457 7458 7459 7460 0
7461 7462 7463 7464 7465 0
7466 7467 7468 7469 7470 0
7471 7472 7473 7474 7475 0
7476 7477 7478 7479 7480 0
7481 7482 7483 7484 7485 0
7486 7487 7488 7489 7490 0
7491 7492 7493 7494 7495 0
7496 7497 7498 7499 7500 0
7501 7502 7503 7504 7505 0
-1 -6 0
-2 -7 0
-3 -8 0
-4 -9 0
-5 -10 0
-1 -151 0
-2 -152 0
-3 -153 0
-4 -154 0
-5 -155 0
-1 -216 0
-2 -217 0
-3 -218 0
-4 -219 0
-5 -220 0
-1 -461 0
-2 -462 0
-3 -463 0
-4 -464 0
-5 -465 0
-1 -541 0
-2 -542 0
-3 -543 0
-4 -544 0
-5 -545 0
-1 -731 0
-2 -732 0
-3 -733 0
-4 -734 0
-5 -735 0
-6 -11 0
-7 -12 0
-8 -13 0
-9 -14 0
-10 -15 0
-6 -31 0
-7 -32 0
-8 -33 0
-9 -34 0
-10 -35 0
-6 -321 0
-7 -322 0
-8 -323 0
-9 -324 0
-10 -325 0
-6 -461 0
-7 -462 0
-8 -463 0
-9 -464 0
-10 -465 0
-6 -466 0
-7 -467 0
-8 -468 0
-9 -469 0
-10 -470 0
-6 -521 0
-7 -522 0
-8 -523 0
-9 -524 0
-10 -525 0
-6 -576 0
-7 -577 0
-8 -578 0
-9 -579 0
-10 -580 0
-6 -741 0
-7 -742 0
-8 -743 0
-9 -744 0
-10 -745 0
-11 -121 0
-12 -122 0
-13 -123 0
-14 -124 0
-15 -125 0
-11 -146 0
-12 -147 0
-13 -148 0
-14 -149 0
-15 -150 0
-11 -221 0
-12 -222 0
-13 -223 0
-14 -224 0
-15 -225 0
-11 -471 0
-12 -472 0
-13 -473 0
-14 -474 0
-15 -475 0
-11 -476 0
-12 -477 0
-13 -478 0
-14 -479 0
-15 -480 0
-11 -576 0
-12 -577 0
-13 -578 0
-14 -579 0
-15 -580 0
-11 -611 0
-12 -612 0
-13 -613 0
-14 -614 0
-15 -615 0
-11 -746 0
-12 -747 0
-13 -748 0
-14 -749 0
-15 -750 0
-16 -21 0
-17 -22 0
-18 -23 0
-19 -24 0
-20 -25 0
-16 -56 0
-17 -57 0
-18 -58 0
-19 -59 0
-20 -60 0
-16 -246 0
-17 -247 0
-18 -248 0
-19 -249 0
-20 -250 0
-16 -421 0
-17 -422 0
-18 -423 0
-19 -424 0
-20 -425 0
-16 -526 0
-17 -527 0
-18 -528 0
-19 -529 0
-20 -530 0
-16 -541 0
-17 -542 0
-18 -543 0
-19 -544 0
-20 -545 0
-16 -666 0
-17 -667 0
-18 -668 0
-19 -669 0
-20 -670 0
-16 -871 0
-17 -872 0
-18 -873 0
-19 -874 0
-20 -875 0
-21 -26 0
-22 -27 0
-23 -28 0
-24 -29 0
-25 -30 0
-21 -206 0
-22 -207 0
-23 -208 0
-24 -209 0
-25 -210 0
-21 -426 0
-22 -427 0
-23 -428 0
-24 -429 0
-25 -430 0
-21 -531 0
-22 -532 0
-23 -533 0
-24 -534 0
-25 -535 0
-21 -576 0
-22 -577 0
-23 -578 0
-24 -579 0
-25 -580 0
-21 -666 0
-22 -667 0
-23 -668 0
-24 -669 0
-25 -670 0
-21 -671 0
-22 -672 0
-23 -673 0
-24 -674 0
-25 -675 0
-21 -886 0
-22 -887 0
-23 -888 0
-24 -889 0
-25 -890 0
-26 -51 0
-27 -52 0
-28 -53 0
-29 -54 0
-30 -55 0
-26 -201 0
-27 -202 0
-28 -203 0
-29 -204 0
-30 -205 0
-26 -436 0
-27 -437 0
-28 -438 0
-29 -439 0
-30 -440 0
-26 -576 0
-27 -577 0
-28 -578 0
-29 -579 0
-30 -580 0
-26 -606 0
-27 -607 0
-28 -608 0
-29 -609 0
-30 -610 0
-26 -676 0
-27 -677 0
-28 -678 0
-29 -679 0
-30 -680 0
-26 -681 0
-27 -682 0
-28 -683 0
-29 -684 0
-30 -685 0
-31 -36 0
-32 -37 0
-33 -38 0
-34 -39 0
-35 -40 0
-31 -41 0
-32 -42 0
-33 -43 0
-34 -44 0
-35 -45 0
-31 -526 0
-32 -527 0
-33 -528 0
-34 -529 0
-35 -530 0
-31 -761 0
-32 -762 0
-33 -763 0
-34 -764 0
-35 -765 0
-31 -831 0
-32 -832 0
-33 -833 0
-34 -834 0
-35 -835 0
-31 -841 0
-32 -842 0
-33 -843 0
-34 -844 0
-35 -845 0
-31 -981 0
-32 -982 0
-33 -983 0
-34 -984 0
-35 -985 0
-36 -111 0
-37 -112 0
-38 -113 0
-39 -114 0
-40 -115 0
-36 -541 0
-37 -542 0
-38 -543 0
-39 -544 0
-40 -545 0
-36 -766 0
-37 -767 0
-38 -768 0
-39 -769 0
-40 -770 0
-36 -771 0
-37 -772 0
-38 -773 0
-39 -774 0
-40 -775 0
-36 -851 0
-37 -852 0
-38 -853 0
-39 -854 0
-40 -855 0
-41 -86 0
-42 -87 0
-43 -88 0
-44 -89 0
-45 -90 0
-41 -276 0
-42 -277 0
-43 -278 0
-44 -279 0
-45 -280 0
-41 -361 0
-42 -362 0
-43 -363 0
-44 -364 0
-45 -365 0
-41 -816 0
-42 -817 0
-43 -818 0
-44 -819 0
-45 -820 0
-41 -866 0
-42 -867 0
-43 -868 0
-44 -869 0
-45 -870 0
-41 -891 0
-42 -892 0
-43 -893 0
-44 -894 0
-45 -895 0
-41 -1061 0
-42 -1062 0
-43 -1063 0
-44 -1064 0
-45 -1065 0
-46 -51 0
-47 -52 0
-48 -53 0
-49 -54 0
-50 -55 0
-46 -61 0
-47 -62 0
-48 -63 0
-49 -64 0
-50 -65 0
-46 -66 0
-47 -67 0
-48 -68 0
-49 -69 0
-50 -70 0
-46 -386 0
-47 -387 0
-48 -388 0
-49 -389 0
-50 -390 0
-46 -456 0
-47 -457 0
-48 -458 0
-49 -459 0
-50 -460 0
-46 -756 0
-47 -757 0
-48 -758 0
-49 -759 0
-50 -760 0
-46 -896 0
-47 -897 0
-48 -898 0
-49 -899 0
-50 -900 0
-46 -931 0
-47 -932 0
-48 -933 0
-49 -934 0
-50 -935 0
-46 -936 0
-47 -937 0
-48 -938 0
-49 -939 0
-50 -940 0
-46 -1186 0
-47 -1187 0
-48 -1188 0
-49 -1189 0
-50 -1190 0
-51 -166 0
-52 -167 0
-53 -168 0
-54 -169 0
-55 -170 0
-51 -226 0
-52 -227 0
-53 -228 0
-54 -229 0
-55 -230 0
-51 -331 0
-52 -332 0
-53 -333 0
-54 -334 0
-55 -335 0
-51 -771 0
-52 -772 0
-53 -773 0
-54 -774 0
-55 -775 0
-51 -776 0
-52 -777 0
-53 -778 0
-54 -779 0
-55 -780 0
-51 -901 0
-52 -902 0
-53 -903 0
-54 -904 0
-55 -905 0
-51 -941 0
-52 -942 0
-53 -943 0
-54 -944 0
-55 -945 0
-56 -61 0
-57 -62 0
-58 -63 0
-59 -64 0
-60 -65 0
-56 -236 0
-57 -237 0
-58 -238 0
-59 -239 0
-60 -240 0
-56 -496 0
-57 -497 0
-58 -498 0
-59 -499 0
-60 -500 0
-56 -836 0
-57 -837 0
-58 -838 0
-59 -839 0
-60 -840 0
-56 -946 0
-57 -947 0
-58 -948 0
-59 -949 0
-60 -950 0
-56 -991 0
-57 -992 0
-58 -993 0
-59 -994 0
-60 -995 0
-56 -996 0
-57 -997 0
-58 -998 0
-59 -999 0
-60 -1000 0
-61 -66 0
-62 -67 0
-63 -68 0
-64 -69 0
-65 -70 0
-61 -71 0
-62 -72 0
-63 -73 0
-64 -74 0
-65 -75 0
-61 -151 0
-62 -152 0
-63 -153 0
-64 -154 0
-65 -155 0
-61 -576 0
-62 -577 0
-63 -578 0
-64 -579 0
-65 -580 0
-61 -856 0
-62 -857 0
-63 -858 0
-64 -859 0
-65 -860 0
-61 -951 0
-62 -952 0
-63 -953 0
-64 -954 0
-65 -955 0
-61 -971 0
-62 -972 0
-63 -973 0
-64 -974 0
-65 -975 0
-61 -1076 0
-62 -1077 0
-63 -1078 0
-64 -1079 0
-65 -1080 0
-61 -1091 0
-62 -1092 0
-63 -1093 0
-64 -1094 0
-65 -1095 0
-61 -1326 0
-62 -1327 0
-63 -1328 0
-64 -1329 0
-65 -1330 0
-66 -156 0
-67 -157 0
-68 -158 0
-69 -159 0
-70 -160 0
-66 -261 0
-67 -262 0
-68 -263 0
-69 -264 0
-70 -265 0
-66 -431 0
-67 -432 0
-68 -433 0
-69 -434 0
-70 -435 0
-66 -596 0
-67 -597 0
-68 -598 0
-69 -599 0
-70 -600 0
-66 -961 0
-67 -962 0
-68 -963 0
-69 -964 0
-70 -965 0
-66 -976 0
-67 -977 0
-68 -978 0
-69 -979 0
-70 -980 0
-66 -1081 0
-67 -1082 0
-68 -1083 0
-69 -1084 0
-70 -1085 0
-66 -1096 0
-67 -1097 0
-68 -1098 0
-69 -1099 0
-70 -1100 0
-71 -106 0
-72 -107 0
-73 -108 0
-74 -109 0
-75 -110 0
-71 -276 0
-72 -277 0
-73 -278 0
-74 -279 0
-75 -280 0
-71 -611 0
-72 -612 0
-73 -613 0
-74 -614 0
-75 -615 0
-71 -1101 0
-72 -1102 0
-73 -1103 0
-74 -1104 0
-75 -1105 0
-71 -1106 0
-72 -1107 0
-73 -1108 0
-74 -1109 0
-75 -1110 0
-76 -81 0
-77 -82 0
-78 -83 0
-79 -84 0
-80 -85 0
-76 -91 0
-77 -92 0
-78 -93 0
-79 -94 0
-80 -95 0
-76 -541 0
-77 -542 0
-78 -543 0
-79 -544 0
-80 -545 0
-76 -961 0
-77 -962 0
-78 -963 0
-79 -964 0
-80 -965 0
-76 -1156 0
-77 -1157 0
-78 -1158 0
-79 -1159 0
-80 -1160 0
-76 -1171 0
-77 -1172 0
-78 -1173 0
-79 -1174 0
-80 -1175 0
-81 -96 0
-82 -97 0
-83 -98 0
-84 -99 0
-85 -100 0
-81 -101 0
-82 -102 0
-83 -103 0
-84 -104 0
-85 -105 0
-81 -106 0
-82 -107 0
-83 -108 0
-84 -109 0
-85 -110 0
-81 -321 0
-82 -322 0
-83 -323 0
-84 -324 0
-85 -325 0
-81 -511 0
-82 -512 0
-83 -513 0
-84 -514 0
-85 -515 0
-81 -551 0
-82 -552 0
-83 -553 0
-84 -554 0
-85 -555 0
-81 -1176 0
-82 -1177 0
-83 -1178 0
-84 -1179 0
-85 -1180 0
-86 -101 0
-87 -102 0
-88 -103 0
-89 -104 0
-90 -105 0
-86 -556 0
-87 -557 0
-88 -558 0
-89 -559 0
-90 -560 0
-86 -1196 0
-87 -1197 0
-88 -1198 0
-89 -1199 0
-90 -1200 0
-86 -1216 0
-87 -1217 0
-88 -1218 0
-89 -1219 0
-90 -1220 0
-86 -1456 0
-87 -1457 0
-88 -1458 0
-89 -1459 0
-90 -1460 0
-91 -101 0
-92 -102 0
-93 -103 0
-94 -104 0
-95 -105 0
-91 -146 0
-92 -147 0
-93 -148 0
-94 -149 0
-95 -150 0
-91 -246 0
-92 -247 0
-93 -248 0
-94 -249 0
-95 -250 0
-91 -561 0
-92 -562 0
-93 -563 0
-94 -564 0
-95 -565 0
-91 -621 0
-92 -622 0
-93 -623 0
-94 -624 0
-95 -625 0
-91 -1201 0
-92 -1202 0
-93 -1203 0
-94 -1204 0
-95 -1205 0
-91 -1226 0
-92 -1227 0
-93 -1228 0
-94 -1229 0
-95 -1230 0
-96 -101 0
-97 -102 0
-98 -103 0
-99 -104 0
-100 -105 0
-96 -111 0
-97 -112 0
-98 -113 0
-99 -114 0
-100 -115 0
-96 -121 0
-97 -122 0
-98 -123 0
-99 -124 0
-100 -125 0
-96 -256 0
-97 -257 0
-98 -258 0
-99 -259 0
-100 -260 0
-96 -356 0
-97 -357 0
-98 -358 0
-99 -359 0
-100 -360 0
-96 -571 0
-97 -572 0
-98 -573 0
-99 -574 0
-100 -575 0
-96 -701 0
-97 -702 0
-98 -703 0
-99 -704 0
-100 -705 0
-96 -1231 0
-97 -1232 0
-98 -1233 0
-99 -1234 0
-100 -1235 0
-101 -116 0
-102 -117 0
-103 -118 0
-104 -119 0
-105 -120 0
-101 -126 0
-102 -127 0
-103 -128 0
-104 -129 0
-105 -130 0
-101 -216 0
-102 -217 0
-103 -218 0
-104 -219 0
-105 -220 0
-101 -411 0
-102 -412 0
-103 -413 0
-104 -414 0
-105 -415 0
-101 -576 0
-102 -577 0
-103 -578 0
-104 -579 0
-105 -580 0
-101 -706 0
-102 -707 0
-103 -708 0
-104 -709 0
-105 -710 0
-101 -1206 0
-102 -1207 0
-103 -1208 0
-104 -1209 0
-105 -1210 0
-101 -1236 0
-102 -1237 0
-103 -1238 0
-104 -1239 0
-105 -1240 0
-106 -111 0
-107 -112 0
-108 -113 0
-109 -114 0
-110 -115 0
-106 -116 0
-107 -117 0
-108 -118 0
-109 -119 0
-110 -120 0
-106 -361 0
-107 -362 0
-108 -363 0
-109 -364 0
-110 -365 0
-106 -726 0
-107 -727 0
-108 -728 0
-109 -729 0
-110 -730 0
-106 -1261 0
-107 -1262 0
-108 -1263 0
-109 -1264 0
-110 -1265 0
-106 -1501 0
-107 -1502 0
-108 -1503 0
-109 -1504 0
-110 -1505 0
-111 -116 0
-112 -117 0
-113 -118 0
-114 -119 0
-115 -120 0
-111 -121 0
-112 -122 0
-113 -123 0
-114 -124 0
-115 -125 0
-111 -131 0
-112 -132 0
-113 -133 0
-114 -134 0
-115 -135 0
-111 -136 0
-112 -137 0
-113 -138 0
-114 -139 0
-115 -140 0
-111 -206 0
-112 -207 0
-113 -208 0
-114 -209 0
-115 -210 0
-111 -231 0
-112 -232 0
-113 -233 0
-114 -234 0
-115 -235 0
-111 -396 0
-112 -397 0
-113 -398 0
-114 -399 0
-115 -400 0
-111 -541 0
-112 -542 0
-113 -543 0
-114 -544 0
-115 -545 0
-111 -1006 0
-112 -1007 0
-113 -1008 0
-114 -1009 0
-115 -1010 0
-111 -1141 0
-112 -1142 0
-113 -1143 0
-114 -1144 0
-115 -1145 0
-111 -1151 0
-112 -1152 0
-113 -1153 0
-114 -1154 0
-115 -1155 0
-111 -1271 0
-112 -1272 0
-113 -1273 0
-114 -1274 0
-115 -1275 0
-111 -1321 0
-112 -1322 0
-113 -1323 0
-114 -1324 0
-115 -1325 0
-111 -1551 0
-112 -1552 0
-113 -1553 0
-114 -1554 0
-115 -1555 0
-116 -126 0
-117 -127 0
-118 -128 0
-119 -129 0
-120 -130 0
-116 -431 0
-117 -432 0
-118 -433 0
-119 -434 0
-120 -435 0
-116 -641 0
-117 -642 0
-118 -643 0
-119 -644 0
-120 -645 0
-116 -1011 0
-117 -1012 0
-118 -1013 0
-119 -1014 0
-120 -1015 0
-116 -1266 0
-117 -1267 0
-118 -1268 0
-119 -1269 0
-120 -1270 0
-116 -1276 0
-117 -1277 0
-118 -1278 0
-119 -1279 0
-120 -1280 0
-116 -1556 0
-117 -1557 0
-118 -1558 0
-119 -1559 0
-120 -1560 0
-121 -126 0
-122 -127 0
-123 -128 0
-124 -129 0
-125 -130 0
-121 -161 0
-122 -162 0
-123 -163 0
-124 -164 0
-125 -165 0
-121 -211 0
-122 -212 0
-123 -213 0
-124 -214 0
-125 -215 0
-121 -406 0
-122 -407 0
-123 -408 0
-124 -409 0
-125 -410 0
-121 -546 0
-122 -547 0
-123 -548 0
-124 -549 0
-125 -550 0
-121 -746 0
-122 -747 0
-123 -748 0
-124 -749 0
-125 -750 0
-121 -751 0
-122 -752 0
-123 -753 0
-124 -754 0
-125 -755 0
-121 -1016 0
-122 -1017 0
-123 -1018 0
-124 -1019 0
-125 -1020 0
-121 -1281 0
-122 -1282 0
-123 -1283 0
-124 -1284 0
-125 -1285 0
-121 -1326 0
-122 -1327 0
-123 -1328 0
-124 -1329 0
-125 -1330 0
-126 -286 0
-127 -287 0
-128 -288 0
-129 -289 0
-130 -290 0
-126 -646 0
-127 -647 0
-128 -648 0
-129 -649 0
-130 -650 0
-126 -756 0
-127 -757 0
-128 -758 0
-129 -759 0
-130 -760 0
-126 -1021 0
-127 -1022 0
-128 -1023 0
-129 -1024 0
-130 -1025 0
-126 -1286 0
-127 -1287 0
-128 -1288 0
-129 -1289 0
-130 -1290 0
-126 -1331 0
-127 -1332 0
-128 -1333 0
-129 -1334 0
-130 -1335 0
-131 -401 0
-132 -402 0
-133 -403 0
-134 -404 0
-135 -405 0
-131 -576 0
-132 -577 0
-133 -578 0
-134 -579 0
-135 -580 0
-131 -1031 0
-132 -1032 0
-133 -1033 0
-134 -1034 0
-135 -1035 0
-131 -1146 0
-132 -1147 0
-133 -1148 0
-134 -1149 0
-135 -1150 0
-131 -1271 0
-132 -1272 0
-133 -1273 0
-134 -1274 0
-135 -1275 0
-131 -1336 0
-132 -1337 0
-133 -1338 0
-134 -1339 0
-135 -1340 0
-136 -181 0
-137 -182 0
-138 -183 0
-139 -184 0
-140 -185 0
-136 -251 0
-137 -252 0
-138 -253 0
-139 -254 0
-140 -255 0
-136 -281 0
-137 -282 0
-138 -283 0
-139 -284 0
-140 -285 0
-136 -651 0
-137 -652 0
-138 -653 0
-139 -654 0
-140 -655 0
-136 -1116 0
-137 -1117 0
-138 -1118 0
-139 -1119 0
-140 -1120 0
-136 -1246 0
-137 -1247 0
-138 -1248 0
-139 -1249 0
-140 -1250 0
-136 -1306 0
-137 -1307 0
-138 -1308 0
-139 -1309 0
-140 -1310 0
-141 -146 0
-142 -147 0
-143 -148 0
-144 -149 0
-145 -150 0
-141 -541 0
-142 -542 0
-143 -543 0
-144 -544 0
-145 -545 0
-141 -1356 0
-142 -1357 0
-143 -1358 0
-144 -1359 0
-145 -1360 0
-141 -1371 0
-142 -1372 0
-143 -1373 0
-144 -1374 0
-145 -1375 0
-141 -1436 0
-142 -1437 0
-143 -1438 0
-144 -1439 0
-145 -1440 0
-141 -1641 0
-142 -1642 0
-143 -1643 0
-144 -1644 0
-145 -1645 0
-146 -546 0
-147 -547 0
-148 -548 0
-149 -549 0
-150 -550 0
-146 -896 0
-147 -897 0
-148 -898 0
-149 -899 0
-150 -900 0
-146 -1361 0
-147 -1362 0
-148 -1363 0
-149 -1364 0
-150 -1365 0
-146 -1376 0
-147 -1377 0
-148 -1378 0
-149 -1379 0
-150 -1380 0
-146 -1446 0
-147 -1447 0
-148 -1448 0
-149 -1449 0
-150 -1450 0
-151 -156 0
-152 -157 0
-153 -158 0
-154 -159 0
-155 -160 0
-151 -901 0
-152 -902 0
-153 -903 0
-154 -904 0
-155 -905 0
-151 -1386 0
-152 -1387 0
-153 -1388 0
-154 -1389 0
-155 -1390 0
-151 -1481 0
-152 -1482 0
-153 -1483 0
-154 -1484 0
-155 -1485 0
-151 -1691 0
-152 -1692 0
-153 -1693 0
-154 -1694 0
-155 -1695 0
-156 -161 0
-157 -162 0
-158 -163 0
-159 -164 0
-160 -165 0
-156 -166 0
-157 -167 0
-158 -168 0
-159 -169 0
-160 -170 0
-156 -186 0
-157 -187 0
-158 -188 0
-159 -189 0
-160 -190 0
-156 -261 0
-157 -262 0
-158 -263 0
-159 -264 0
-160 -265 0
-156 -306 0
-157 -307 0
-158 -308 0
-159 -309 0
-160 -310 0
-156 -766 0
-157 -767 0
-158 -768 0
-159 -769 0
-160 -770 0
-156 -1156 0
-157 -1157 0
-158 -1158 0
-159 -1159 0
-160 -1160 0
-156 -1396 0
-157 -1397 0
-158 -1398 0
-159 -1399 0
-160 -1400 0
-156 -1496 0
-157 -1497 0
-158 -1498 0
-159 -1499 0
-160 -1500 0
-161 -171 0
-162 -172 0
-163 -173 0
-164 -174 0
-165 -175 0
-161 -186 0
-162 -187 0
-163 -188 0
-164 -189 0
-165 -190 0
-161 -266 0
-162 -267 0
-163 -268 0
-164 -269 0
-165 -270 0
-161 -461 0
-162 -462 0
-163 -463 0
-164 -464 0
-165 -465 0
-161 -481 0
-162 -482 0
-163 -483 0
-164 -484 0
-165 -485 0
-161 -751 0
-162 -752 0
-163 -753 0
-164 -754 0
-165 -755 0
-161 -1401 0
-162 -1402 0
-163 -1403 0
-164 -1404 0
-165 -1405 0
-161 -1461 0
-162 -1462 0
-163 -1463 0
-164 -1464 0
-165 -1465 0
-161 -1501 0
-162 -1502 0
-163 -1503 0
-164 -1504 0
-165 -1505 0
-166 -171 0
-167 -172 0
-168 -173 0
-169 -174 0
-170 -175 0
-166 -196 0
-167 -197 0
-168 -198 0
-169 -199 0
-170 -200 0
-166 -271 0
-167 -272 0
-168 -273 0
-169 -274 0
-170 -275 0
-166 -376 0
-167 -377 0
-168 -378 0
-169 -379 0
-170 -380 0
-166 -486 0
-167 -487 0
-168 -488 0
-169 -489 0
-170 -490 0
-166 -771 0
-167 -772 0
-168 -773 0
-169 -774 0
-170 -775 0
-166 -1171 0
-167 -1172 0
-168 -1173 0
-169 -1174 0
-170 -1175 0
-166 -1396 0
-167 -1397 0
-168 -1398 0
-169 -1399 0
-170 -1400 0
-166 -1516 0
-167 -1517 0
-168 -1518 0
-169 -1519 0
-170 -1520 0
-171 -196 0
-172 -197 0
-173 -198 0
-174 -199 0
-175 -200 0
-171 -231 0
-172 -232 0
-173 -233 0
-174 -234 0
-175 -235 0
-171 -466 0
-172 -467 0
-173 -468 0
-174 -469 0
-175 -470 0
-171 -491 0
-172 -492 0
-173 -493 0
-174 -494 0
-175 -495 0
-171 -711 0
-172 -712 0
-173 -713 0
-174 -714 0
-175 -715 0
-171 -1176 0
-172 -1177 0
-173 -1178 0
-174 -1179 0
-175 -1180 0
-171 -1401 0
-172 -1402 0
-173 -1403 0
-174 -1404 0
-175 -1405 0
-171 -1466 0
-172 -1467 0
-173 -1468 0
-174 -1469 0
-175 -1470 0
-171 -1521 0
-172 -1522 0
-173 -1523 0
-174 -1524 0
-175 -1525 0
-176 -191 0
-177 -192 0
-178 -193 0
-179 -194 0
-180 -195 0
-176 -196 0
-177 -197 0
-178 -198 0
-179 -199 0
-180 -200 0
-176 -246 0
-177 -247 0
-178 -248 0
-179 -249 0
-180 -250 0
-176 -496 0
-177 -497 0
-178 -498 0
-179 -499 0
-180 -500 0
-176 -791 0
-177 -792 0
-178 -793 0
-179 -794 0
-180 -795 0
-176 -1236 0
-177 -1237 0
-178 -1238 0
-179 -1239 0
-180 -1240 0
-181 -186 0
-182 -187 0
-183 -188 0
-184 -189 0
-185 -190 0
-181 -191 0
-182 -192 0
-183 -193 0
-184 -194 0
-185 -195 0
-181 -336 0
-182 -337 0
-183 -338 0
-184 -339 0
-185 -340 0
-181 -366 0
-182 -367 0
-183 -368 0
-184 -369 0
-185 -370 0
-181 -536 0
-182 -537 0
-183 -538 0
-184 -539 0
-185 -540 0
-181 -1266 0
-182 -1267 0
-183 -1268 0
-184 -1269 0
-185 -1270 0
-181 -1356 0
-182 -1357 0
-183 -1358 0
-184 -1359 0
-185 -1360 0
-181 -1411 0
-182 -1412 0
-183 -1413 0
-184 -1414 0
-185 -1415 0
-186 -196 0
-187 -197 0
-188 -198 0
-189 -199 0
-190 -200 0
-186 -341 0
-187 -342 0
-188 -343 0
-189 -344 0
-190 -345 0
-186 -541 0
-187 -542 0
-188 -543 0
-189 -544 0
-190 -545 0
-186 -801 0
-187 -802 0
-188 -803 0
-189 -804 0
-190 -805 0
-186 -921 0
-187 -922 0
-188 -923 0
-189 -924 0
-190 -925 0
-186 -931 0
-187 -932 0
-188 -933 0
-189 -934 0
-190 -935 0
-186 -1361 0
-187 -1362 0
-188 -1363 0
-189 -1364 0
-190 -1365 0
-186 -1416 0
-187 -1417 0
-188 -1418 0
-189 -1419 0
-190 -1420 0
-186 -1576 0
-187 -1577 0
-188 -1578 0
-189 -1579 0
-190 -1580 0
-186 -1586 0
-187 -1587 0
-188 -1588 0
-189 -1589 0
-190 -1590 0
-191 -196 0
-192 -197 0
-193 -198 0
-194 -199 0
-195 -200 0
-191 -206 0
-192 -207 0
-193 -208 0
-194 -209 0
-195 -210 0
-191 -381 0
-192 -382 0
-193 -383 0
-194 -384 0
-195 -385 0
-191 -566 0
-192 -567 0
-193 -568 0
-194 -569 0
-195 -570 0
-191 -676 0
-192 -677 0
-193 -678 0
-194 -679 0
-195 -680 0
-191 -781 0
-192 -782 0
-193 -783 0
-194 -784 0
-195 -785 0
-191 -1276 0
-192 -1277 0
-193 -1278 0
-194 -1279 0
-195 -1280 0
-191 -1371 0
-192 -1372 0
-193 -1373 0
-194 -1374 0
-195 -1375 0
-191 -1381 0
-192 -1382 0
-193 -1383 0
-194 -1384 0
-195 -1385 0
-191 -1411 0
-192 -1412 0
-193 -1413 0
-194 -1414 0
-195 -1415 0
-191 -1421 0
-192 -1422 0
-193 -1423 0
-194 -1424 0
-195 -1425 0
-191 -1801 0
-192 -1802 0
-193 -1803 0
-194 -1804 0
-195 -1805 0
-196 -211 0
-197 -212 0
-198 -213 0
-199 -214 0
-200 -215 0
-196 -281 0
-197 -282 0
-198 -283 0
-199 -284 0
-200 -285 0
-196 -346 0
-197 -347 0
-198 -348 0
-199 -349 0
-200 -350 0
-196 -576 0
-197 -577 0
-198 -578 0
-199 -579 0
-200 -580 0
-196 -811 0
-197 -812 0
-198 -813 0
-199 -814 0
-200 -815 0
-196 -821 0
-197 -822 0
-198 -823 0
-199 -824 0
-200 -825 0
-196 -936 0
-197 -937 0
-198 -938 0
-199 -939 0
-200 -940 0
-196 -1286 0
-197 -1287 0
-198 -1288 0
-199 -1289 0
-200 -1290 0
-196 -1291 0
-197 -1292 0
-198 -1293 0
-199 -1294 0
-200 -1295 0
-196 -1376 0
-197 -1377 0
-198 -1378 0
-199 -1379 0
-200 -1380 0
-196 -1416 0
-197 -1417 0
-198 -1418 0
-199 -1419 0
-200 -1420 0
-196 -1426 0
-197 -1427 0
-198 -1428 0
-199 -1429 0
-200 -1430 0
-196 -1581 0
-197 -1582 0
-198 -1583 0
-199 -1584 0
-200 -1585 0
-196 -1591 0
-197 -1592 0
-198 -1593 0
-199 -1594 0
-200 -1595 0
-201 -331 0
-202 -332 0
-203 -333 0
-204 -334 0
-205 -335 0
-201 -1331 0
-202 -1332 0
-203 -1333 0
-204 -1334 0
-205 -1335 0
-201 -1446 0
-202 -1447 0
-203 -1448 0
-204 -1449 0
-205 -1450 0
-201 -1576 0
-202 -1577 0
-203 -1578 0
-204 -1579 0
-205 -1580 0
-201 -1581 0
-202 -1582 0
-203 -1583 0
-204 -1584 0
-205 -1585 0
-206 -211 0
-207 -212 0
-208 -213 0
-209 -214 0
-210 -215 0
-206 -396 0
-207 -397 0
-208 -398 0
-209 -399 0
-210 -400 0
-206 -426 0
-207 -427 0
-208 -428 0
-209 -429 0
-210 -430 0
-206 -866 0
-207 -867 0
-208 -868 0
-209 -869 0
-210 -870 0
-206 -1066 0
-207 -1067 0
-208 -1068 0
-209 -1069 0
-210 -1070 0
-206 -1086 0
-207 -1087 0
-208 -1088 0
-209 -1089 0
-210 -1090 0
-206 -1526 0
-207 -1527 0
-208 -1528 0
-209 -1529 0
-210 -1530 0
-206 -1546 0
-207 -1547 0
-208 -1548 0
-209 -1549 0
-210 -1550 0
-206 -1596 0
-207 -1597 0
-208 -1598 0
-209 -1599 0
-210 -1600 0
-206 -1876 0
-207 -1877 0
-208 -1878 0
-209 -1879 0
-210 -1880 0
-211 -266 0
-212 -267 0
-213 -268 0
-214 -269 0
-215 -270 0
-211 -691 0
-212 -692 0
-213 -693 0
-214 -694 0
-215 -695 0
-211 -1071 0
-212 -1072 0
-213 -1073 0
-214 -1074 0
-215 -1075 0
-211 -1091 0
-212 -1092 0
-213 -1093 0
-214 -1094 0
-215 -1095 0
-216 -731 0
-217 -732 0
-218 -733 0
-219 -734 0
-220 -735 0
-216 -901 0
-217 -902 0
-218 -903 0
-219 -904 0
-220 -905 0
-216 -1606 0
-217 -1607 0
-218 -1608 0
-219 -1609 0
-220 -1610 0
-216 -1626 0
-217 -1627 0
-218 -1628 0
-219 -1629 0
-220 -1630 0
-216 -1641 0
-217 -1642 0
-218 -1643 0
-219 -1644 0
-220 -1645 0
-221 -231 0
-222 -232 0
-223 -233 0
-224 -234 0
-225 -235 0
-221 -371 0
-222 -372 0
-223 -373 0
-224 -374 0
-225 -375 0
-221 -751 0
-222 -752 0
-223 -753 0
-224 -754 0
-225 -755 0
-221 -896 0
-222 -897 0
-223 -898 0
-224 -899 0
-225 -900 0
-221 -1661 0
-222 -1662 0
-223 -1663 0
-224 -1664 0
-225 -1665 0
-221 -1911 0
-222 -1912 0
-223 -1913 0
-224 -1914 0
-225 -1915 0
-226 -251 0
-227 -252 0
-228 -253 0
-229 -254 0
-230 -255 0
-226 -486 0
-227 -487 0
-228 -488 0
-229 -489 0
-230 -490 0
-226 -1431 0
-227 -1432 0
-228 -1433 0
-229 -1434 0
-230 -1435 0
-226 -1681 0
-227 -1682 0
-228 -1683 0
-229 -1684 0
-230 -1685 0
-226 -1706 0
-227 -1707 0
-228 -1708 0
-229 -1709 0
-230 -1710 0
-231 -281 0
-232 -282 0
-233 -283 0
-234 -284 0
-235 -285 0
-231 -286 0
-232 -287 0
-233 -288 0
-234 -289 0
-235 -290 0
-231 -426 0
-232 -427 0
-233 -428 0
-234 -429 0
-235 -430 0
-231 -491 0
-232 -492 0
-233 -493 0
-234 -494 0
-235 -495 0
-231 -761 0
-232 -762 0
-233 -763 0
-234 -764 0
-235 -765 0
-231 -961 0
-232 -962 0
-233 -963 0
-234 -964 0
-235 -965 0
-231 -1471 0
-232 -1472 0
-233 -1473 0
-234 -1474 0
-235 -1475 0
-231 -1741 0
-232 -1742 0
-233 -1743 0
-234 -1744 0
-235 -1745 0
-231 -1846 0
-232 -1847 0
-233 -1848 0
-234 -1849 0
-235 -1850 0
-236 -251 0
-237 -252 0
-238 -253 0
-239 -254 0
-240 -255 0
-236 -296 0
-237 -297 0
-238 -298 0
-239 -299 0
-240 -300 0
-236 -441 0
-237 -442 0
-238 -443 0
-239 -444 0
-240 -445 0
-236 -516 0
-237 -517 0
-238 -518 0
-239 -519 0
-240 -520 0
-236 -1746 0
-237 -1747 0
-238 -1748 0
-239 -1749 0
-240 -1750 0
-236 -1756 0
-237 -1757 0
-238 -1758 0
-239 -1759 0
-240 -1760 0
-236 -2026 0
-237 -2027 0
-238 -2028 0
-239 -2029 0
-240 -2030 0
-241 -246 0
-242 -247 0
-243 -248 0
-244 -249 0
-245 -250 0
-241 -251 0
-242 -252 0
-243 -253 0
-244 -254 0
-245 -255 0
-241 -276 0
-242 -277 0
-243 -278 0
-244 -279 0
-245 -280 0
-241 -531 0
-242 -532 0
-243 -533 0
-244 -534 0
-245 -535 0
-241 -861 0
-242 -862 0
-243 -863 0
-244 -864 0
-245 -865 0
-241 -1526 0
-242 -1527 0
-243 -1528 0
-244 -1529 0
-245 -1530 0
-241 -1636 0
-242 -1637 0
-243 -1638 0
-244 -1639 0
-245 -1640 0
-241 -1771 0
-242 -1772 0
-243 -1773 0
-244 -1774 0
-245 -1775 0
-241 -2031 0
-242 -2032 0
-243 -2033 0
-244 -2034 0
-245 -2035 0
-246 -256 0
-247 -257 0
-248 -258 0
-249 -259 0
-250 -260 0
-246 -281 0
-247 -282 0
-248 -283 0
-249 -284 0
-250 -285 0
-246 -496 0
-247 -497 0
-248 -498 0
-249 -499 0
-250 -500 0
-246 -871 0
-247 -872 0
-248 -873 0
-249 -874 0
-250 -875 0
-246 -1026 0
-247 -1027 0
-248 -1028 0
-249 -1029 0
-250 -1030 0
-246 -1056 0
-247 -1057 0
-248 -1058 0
-249 -1059 0
-250 -1060 0
-246 -1536 0
-247 -1537 0
-248 -1538 0
-249 -1539 0
-250 -1540 0
-246 -1641 0
-247 -1642 0
-248 -1643 0
-249 -1644 0
-250 -1645 0
-246 -1776 0
-247 -1777 0
-248 -1778 0
-249 -1779 0
-250 -1780 0
-251 -256 0
-252 -257 0
-253 -258 0
-254 -259 0
-255 -260 0
-251 -301 0
-252 -302 0
-253 -303 0
-254 -304 0
-255 -305 0
-251 -336 0
-252 -337 0
-253 -338 0
-254 -339 0
-255 -340 0
-251 -576 0
-252 -577 0
-253 -578 0
-254 -579 0
-255 -580 0
-251 -1546 0
-252 -1547 0
-253 -1548 0
-254 -1549 0
-255 -1550 0
-251 -1636 0
-252 -1637 0
-253 -1638 0
-254 -1639 0
-255 -1640 0
-251 -1786 0
-252 -1787 0
-253 -1788 0
-254 -1789 0
-255 -1790 0
-251 -1791 0
-252 -1792 0
-253 -1793 0
-254 -1794 0
-255 -1795 0
-256 -301 0
-257 -302 0
-258 -303 0
-259 -304 0
-260 -305 0
-256 -356 0
-257 -357 0
-258 -358 0
-259 -359 0
-260 -360 0
-256 -596 0
-257 -597 0
-258 -598 0
-259 -599 0
-260 -600 0
-256 -1556 0
-257 -1557 0
-258 -1558 0
-259 -1559 0
-260 -1560 0
-256 -1641 0
-257 -1642 0
-258 -1643 0
-259 -1644 0
-260 -1645 0
-256 -1801 0
-257 -1802 0
-258 -1803 0
-259 -1804 0
-260 -1805 0
-261 -266 0
-262 -267 0
-263 -268 0
-264 -269 0
-265 -270 0
-261 -271 0
-262 -272 0
-263 -273 0
-264 -274 0
-265 -275 0
-261 -281 0
-262 -282 0
-263 -283 0
-264 -284 0
-265 -285 0
-261 -521 0
-262 -522 0
-263 -523 0
-264 -524 0
-265 -525 0
-261 -666 0
-262 -667 0
-263 -668 0
-264 -669 0
-265 -670 0
-261 -831 0
-262 -832 0
-263 -833 0
-264 -834 0
-265 -835 0
-261 -1226 0
-262 -1227 0
-263 -1228 0
-264 -1229 0
-265 -1230 0
-261 -1671 0
-262 -1672 0
-263 -1673 0
-264 -1674 0
-265 -1675 0
-261 -1696 0
-262 -1697 0
-263 -1698 0
-264 -1699 0
-265 -1700 0
-261 -1806 0
-262 -1807 0
-263 -1808 0
-264 -1809 0
-265 -1810 0
-261 -1856 0
-262 -1857 0
-263 -1858 0
-264 -1859 0
-265 -1860 0
-266 -286 0
-267 -287 0
-268 -288 0
-269 -289 0
-270 -290 0
-266 -421 0
-267 -422 0
-268 -423 0
-269 -424 0
-270 -425 0
-266 -461 0
-267 -462 0
-268 -463 0
-269 -464 0
-270 -465 0
-266 -836 0
-267 -837 0
-268 -838 0
-269 -839 0
-270 -840 0
-266 -1091 0
-267 -1092 0
-268 -1093 0
-269 -1094 0
-270 -1095 0
-266 -1236 0
-267 -1237 0
-268 -1238 0
-269 -1239 0
-270 -1240 0
-266 -1676 0
-267 -1677 0
-268 -1678 0
-269 -1679 0
-270 -1680 0
-266 -1701 0
-267 -1702 0
-268 -1703 0
-269 -1704 0
-270 -1705 0
-266 -1811 0
-267 -1812 0
-268 -1813 0
-269 -1814 0
-270 -1815 0
-266 -1866 0
-267 -1867 0
-268 -1868 0
-269 -1869 0
-270 -1870 0
-266 -2071 0
-267 -2072 0
-268 -2073 0
-269 -2074 0
-270 -2075 0
-271 -291 0
-272 -292 0
-273 -293 0
-274 -294 0
-275 -295 0
-271 -671 0
-272 -672 0
-273 -673 0
-274 -674 0
-275 -675 0
-271 -1111 0
-272 -1112 0
-273 -1113 0
-274 -1114 0
-275 -1115 0
-271 -1571 0
-272 -1572 0
-273 -1573 0
-274 -1574 0
-275 -1575 0
-271 -1721 0
-272 -1722 0
-273 -1723 0
-274 -1724 0
-275 -1725 0
-271 -1806 0
-272 -1807 0
-273 -1808 0
-274 -1809 0
-275 -1810 0
-271 -1871 0
-272 -1872 0
-273 -1873 0
-274 -1874 0
-275 -1875 0
-276 -281 0
-277 -282 0
-278 -283 0
-279 -284 0
-280 -285 0
-276 -361 0
-277 -362 0
-278 -363 0
-279 -364 0
-280 -365 0
-276 -556 0
-277 -557 0
-278 -558 0
-279 -559 0
-280 -560 0
-276 -1251 0
-277 -1252 0
-278 -1253 0
-279 -1254 0
-280 -1255 0
-276 -1816 0
-277 -1817 0
-278 -1818 0
-279 -1819 0
-280 -1820 0
-276 -2091 0
-277 -2092 0
-278 -2093 0
-279 -2094 0
-280 -2095 0
-281 -286 0
-282 -287 0
-283 -288 0
-284 -289 0
-285 -290 0
-281 -291 0
-282 -292 0
-283 -293 0
-284 -294 0
-285 -295 0
-281 -366 0
-282 -367 0
-283 -368 0
-284 -369 0
-285 -370 0
-281 -576 0
-282 -577 0
-283 -578 0
-284 -579 0
-285 -580 0
-281 -841 0
-282 -842 0
-283 -843 0
-284 -844 0
-285 -845 0
-281 -1001 0
-282 -1002 0
-283 -1003 0
-284 -1004 0
-285 -1005 0
-281 -1116 0
-282 -1117 0
-283 -1118 0
-284 -1119 0
-285 -1120 0
-281 -1256 0
-282 -1257 0
-283 -1258 0
-284 -1259 0
-285 -1260 0
-281 -1731 0
-282 -1732 0
-283 -1733 0
-284 -1734 0
-285 -1735 0
-281 -1821 0
-282 -1822 0
-283 -1823 0
-284 -1824 0
-285 -1825 0
-281 -1856 0
-282 -1857 0
-283 -1858 0
-284 -1859 0
-285 -1860 0
-281 -2106 0
-282 -2107 0
-283 -2108 0
-284 -2109 0
-285 -2110 0
-286 -471 0
-287 -472 0
-288 -473 0
-289 -474 0
-290 -475 0
-286 -591 0
-287 -592 0
-288 -593 0
-289 -594 0
-290 -595 0
-286 -816 0
-287 -817 0
-288 -818 0
-289 -819 0
-290 -820 0
-286 -846 0
-287 -847 0
-288 -848 0
-289 -849 0
-290 -850 0
-286 -1021 0
-287 -1022 0
-288 -1023 0
-289 -1024 0
-290 -1025 0
-286 -1106 0
-287 -1107 0
-288 -1108 0
-289 -1109 0
-290 -1110 0
-286 -1261 0
-287 -1262 0
-288 -1263 0
-289 -1264 0
-290 -1265 0
-286 -1826 0
-287 -1827 0
-288 -1828 0
-289 -1829 0
-290 -1830 0
-286 -1866 0
-287 -1867 0
-288 -1868 0
-289 -1869 0
-290 -1870 0
-286 -2111 0
-287 -2112 0
-288 -2113 0
-289 -2114 0
-290 -2115 0
-291 -381 0
-292 -382 0
-293 -383 0
-294 -384 0
-295 -385 0
-291 -601 0
-292 -602 0
-293 -603 0
-294 -604 0
-295 -605 0
-291 -1121 0
-292 -1122 0
-293 -1123 0
-294 -1124 0
-295 -1125 0
-291 -1736 0
-292 -1737 0
-293 -1738 0
-294 -1739 0
-295 -1740 0
-291 -1821 0
-292 -1822 0
-293 -1823 0
-294 -1824 0
-295 -1825 0
-291 -1871 0
-292 -1872 0
-293 -1873 0
-294 -1874 0
-295 -1875 0
-296 -301 0
-297 -302 0
-298 -303 0
-299 -304 0
-300 -305 0
-296 -541 0
-297 -542 0
-298 -543 0
-299 -544 0
-300 -545 0
-296 -866 0
-297 -867 0
-298 -868 0
-299 -869 0
-300 -870 0
-296 -1851 0
-297 -1852 0
-298 -1853 0
-299 -1854 0
-300 -1855 0
-296 -1866 0
-297 -1867 0
-298 -1868 0
-299 -1869 0
-300 -1870 0
-301 -616 0
-302 -617 0
-303 -618 0
-304 -619 0
-305 -620 0
-301 -696 0
-302 -697 0
-303 -698 0
-304 -699 0
-305 -700 0
-301 -1321 0
-302 -1322 0
-303 -1323 0
-304 -1324 0
-305 -1325 0
-301 -1831 0
-302 -1832 0
-303 -1833 0
-304 -1834 0
-305 -1835 0
-301 -1876 0
-302 -1877 0
-303 -1878 0
-304 -1879 0
-305 -1880 0
-306 -311 0
-307 -312 0
-308 -313 0
-309 -314 0
-310 -315 0
-306 -331 0
-307 -332 0
-308 -333 0
-309 -334 0
-310 -335 0
-306 -341 0
-307 -342 0
-308 -343 0
-309 -344 0
-310 -345 0
-306 -521 0
-307 -522 0
-308 -523 0
-309 -524 0
-310 -525 0
-306 -701 0
-307 -702 0
-308 -703 0
-309 -704 0
-310 -705 0
-306 -1611 0
-307 -1612 0
-308 -1613 0
-309 -1614 0
-310 -1615 0
-306 -1881 0
-307 -1882 0
-308 -1883 0
-309 -1884 0
-310 -1885 0
-306 -1886 0
-307 -1887 0
-308 -1888 0
-309 -1889 0
-310 -1890 0
-306 -1981 0
-307 -1982 0
-308 -1983 0
-309 -1984 0
-310 -1985 0
-311 -316 0
-312 -317 0
-313 -318 0
-314 -319 0
-315 -320 0
-311 -351 0
-312 -352 0
-313 -353 0
-314 -354 0
-315 -355 0
-311 -356 0
-312 -357 0
-313 -358 0
-314 -359 0
-315 -360 0
-311 -406 0
-312 -407 0
-313 -408 0
-314 -409 0
-315 -410 0
-311 -576 0
-312 -577 0
-313 -578 0
-314 -579 0
-315 -580 0
-311 -901 0
-312 -902 0
-313 -903 0
-314 -904 0
-315 -905 0
-311 -1151 0
-312 -1152 0
-313 -1153 0
-314 -1154 0
-315 -1155 0
-311 -1621 0
-312 -1622 0
-313 -1623 0
-314 -1624 0
-315 -1625 0
-311 -1896 0
-312 -1897 0
-313 -1898 0
-314 -1899 0
-315 -1900 0
-311 -1911 0
-312 -1912 0
-313 -1913 0
-314 -1914 0
-315 -1915 0
-311 -1981 0
-312 -1982 0
-313 -1983 0
-314 -1984 0
-315 -1985 0
-316 -581 0
-317 -582 0
-318 -583 0
-319 -584 0
-320 -585 0
-316 -726 0
-317 -727 0
-318 -728 0
-319 -729 0
-320 -730 0
-316 -976 0
-317 -977 0
-318 -978 0
-319 -979 0
-320 -980 0
-316 -1901 0
-317 -1902 0
-318 -1903 0
-319 -1904 0
-320 -1905 0
-316 -1916 0
-317 -1917 0
-318 -1918 0
-319 -1919 0
-320 -1920 0
-321 -326 0
-322 -327 0
-323 -328 0
-324 -329 0
-325 -330 0
-321 -341 0
-322 -342 0
-323 -343 0
-324 -344 0
-325 -345 0
-321 -361 0
-322 -362 0
-323 -363 0
-324 -364 0
-325 -365 0
-321 -526 0
-322 -527 0
-323 -528 0
-324 -529 0
-325 -530 0
-321 -781 0
-322 -782 0
-323 -783 0
-324 -784 0
-325 -785 0
-321 -1161 0
-322 -1162 0
-323 -1163 0
-324 -1164 0
-325 -1165 0
-321 -1196 0
-322 -1197 0
-323 -1198 0
-324 -1199 0
-325 -1200 0
-321 -1676 0
-322 -1677 0
-323 -1678 0
-324 -1679 0
-325 -1680 0
-321 -1926 0
-322 -1927 0
-323 -1928 0
-324 -1929 0
-325 -1930 0
-321 -2016 0
-322 -2017 0
-323 -2018 0
-324 -2019 0
-325 -2020 0
-321 -2196 0
-322 -2197 0
-323 -2198 0
-324 -2199 0
-325 -2200 0
-326 -346 0
-327 -347 0
-328 -348 0
-329 -349 0
-330 -350 0
-326 -371 0
-327 -372 0
-328 -373 0
-329 -374 0
-330 -375 0
-326 -531 0
-327 -532 0
-328 -533 0
-329 -534 0
-330 -535 0
-326 -796 0
-327 -797 0
-328 -798 0
-329 -799 0
-330 -800 0
-326 -1216 0
-327 -1217 0
-328 -1218 0
-329 -1219 0
-330 -1220 0
-326 -1926 0
-327 -1927 0
-328 -1928 0
-329 -1929 0
-330 -1930 0
-326 -2021 0
-327 -2022 0
-328 -2023 0
-329 -2024 0
-330 -2025 0
-326 -2206 0
-327 -2207 0
-328 -2208 0
-329 -2209 0
-330 -2210 0
-331 -341 0
-332 -342 0
-333 -343 0
-334 -344 0
-335 -345 0
-331 -351 0
-332 -352 0
-333 -353 0
-334 -354 0
-335 -355 0
-331 -776 0
-332 -777 0
-333 -778 0
-334 -779 0
-335 -780 0
-331 -1696 0
-332 -1697 0
-333 -1698 0
-334 -1699 0
-335 -1700 0
-331 -1931 0
-332 -1932 0
-333 -1933 0
-334 -1934 0
-335 -1935 0
-336 -341 0
-337 -342 0
-338 -343 0
-339 -344 0
-340 -345 0
-336 -386 0
-337 -387 0
-338 -388 0
-339 -389 0
-340 -390 0
-336 -536 0
-337 -537 0
-338 -538 0
-339 -539 0
-340 -540 0
-336 -706 0
-337 -707 0
-338 -708 0
-339 -709 0
-340 -710 0
-336 -1936 0
-337 -1937 0
-338 -1938 0
-339 -1939 0
-340 -1940 0
-341 -346 0
-342 -347 0
-343 -348 0
-344 -349 0
-345 -350 0
-341 -356 0
-342 -357 0
-343 -358 0
-344 -359 0
-345 -360 0
-341 -386 0
-342 -387 0
-343 -388 0
-344 -389 0
-345 -390 0
-341 -411 0
-342 -412 0
-343 -413 0
-344 -414 0
-345 -415 0
-341 -541 0
-342 -542 0
-343 -543 0
-344 -544 0
-345 -545 0
-341 -711 0
-342 -712 0
-343 -713 0
-344 -714 0
-345 -715 0
-341 -786 0
-342 -787 0
-343 -788 0
-344 -789 0
-345 -790 0
-341 -946 0
-342 -947 0
-343 -948 0
-344 -949 0
-345 -950 0
-341 -1181 0
-342 -1182 0
-343 -1183 0
-344 -1184 0
-345 -1185 0
-341 -1701 0
-342 -1702 0
-343 -1703 0
-344 -1704 0
-345 -1705 0
-341 -1941 0
-342 -1942 0
-343 -1943 0
-344 -1944 0
-345 -1945 0
-341 -2026 0
-342 -2027 0
-343 -2028 0
-344 -2029 0
-345 -2030 0
-346 -391 0
-347 -392 0
-348 -393 0
-349 -394 0
-350 -395 0
-346 -576 0
-347 -577 0
-348 -578 0
-349 -579 0
-350 -580 0
-346 -1941 0
-347 -1942 0
-348 -1943 0
-349 -1944 0
-350 -1945 0
-351 -356 0
-352 -357 0
-353 -358 0
-354 -359 0
-355 -360 0
-351 -416 0
-352 -417 0
-353 -418 0
-354 -419 0
-355 -420 0
-351 -446 0
-352 -447 0
-353 -448 0
-354 -449 0
-355 -450 0
-351 -656 0
-352 -657 0
-353 -658 0
-354 -659 0
-355 -660 0
-351 -1731 0
-352 -1732 0
-353 -1733 0
-354 -1734 0
-355 -1735 0
-351 -1946 0
-352 -1947 0
-353 -1948 0
-354 -1949 0
-355 -1950 0
-356 -661 0
-357 -662 0
-358 -663 0
-359 -664 0
-360 -665 0
-356 -916 0
-357 -917 0
-358 -918 0
-359 -919 0
-360 -920 0
-356 -1951 0
-357 -1952 0
-358 -1953 0
-359 -1954 0
-360 -1955 0
-356 -2026 0
-357 -2027 0
-358 -2028 0
-359 -2029 0
-360 -2030 0
-361 -366 0
-362 -367 0
-363 -368 0
-364 -369 0
-365 -370 0
-361 -371 0
-362 -372 0
-363 -373 0
-364 -374 0
-365 -375 0
-361 -386 0
-362 -387 0
-363 -388 0
-364 -389 0
-365 -390 0
-361 -396 0
-362 -397 0
-363 -398 0
-364 -399 0
-365 -400 0
-361 -421 0
-362 -422 0
-363 -423 0
-364 -424 0
-365 -425 0
-361 -1076 0
-362 -1077 0
-363 -1078 0
-364 -1079 0
-365 -1080 0
-361 -1371 0
-362 -1372 0
-363 -1373 0
-364 -1374 0
-365 -1375 0
-361 -1891 0
-362 -1892 0
-363 -1893 0
-364 -1894 0
-365 -1895 0
-361 -1956 0
-362 -1957 0
-363 -1958 0
-364 -1959 0
-365 -1960 0
-361 -2041 0
-362 -2042 0
-363 -2043 0
-364 -2044 0
-365 -2045 0
-361 -2046 0
-362 -2047 0
-363 -2048 0
-364 -2049 0
-365 -2050 0
-361 -2276 0
-362 -2277 0
-363 -2278 0
-364 -2279 0
-365 -2280 0
-366 -381 0
-367 -382 0
-368 -383 0
-369 -384 0
-370 -385 0
-366 -421 0
-367 -422 0
-368 -423 0
-369 -424 0
-370 -425 0
-366 -706 0
-367 -707 0
-368 -708 0
-369 -709 0
-370 -710 0
-366 -956 0
-367 -957 0
-368 -958 0
-369 -959 0
-370 -960 0
-366 -1081 0
-367 -1082 0
-368 -1083 0
-369 -1084 0
-370 -1085 0
-366 -1256 0
-367 -1257 0
-368 -1258 0
-369 -1259 0
-370 -1260 0
-366 -1266 0
-367 -1267 0
-368 -1268 0
-369 -1269 0
-370 -1270 0
-366 -1901 0
-367 -1902 0
-368 -1903 0
-369 -1904 0
-370 -1905 0
-366 -1961 0
-367 -1962 0
-368 -1963 0
-369 -1964 0
-370 -1965 0
-366 -2296 0
-367 -2297 0
-368 -2298 0
-369 -2299 0
-370 -2300 0
-371 -381 0
-372 -382 0
-373 -383 0
-374 -384 0
-375 -385 0
-371 -391 0
-372 -392 0
-373 -393 0
-374 -394 0
-375 -395 0
-371 -401 0
-372 -402 0
-373 -403 0
-374 -404 0
-375 -405 0
-371 -426 0
-372 -427 0
-373 -428 0
-374 -429 0
-375 -430 0
-371 -1091 0
-372 -1092 0
-373 -1093 0
-374 -1094 0
-375 -1095 0
-371 -1166 0
-372 -1167 0
-373 -1168 0
-374 -1169 0
-375 -1170 0
-371 -1906 0
-372 -1907 0
-373 -1908 0
-374 -1909 0
-375 -1910 0
-371 -1956 0
-372 -1957 0
-373 -1958 0
-374 -1959 0
-375 -1960 0
-371 -2056 0
-372 -2057 0
-373 -2058 0
-374 -2059 0
-375 -2060 0
-371 -2321 0
-372 -2322 0
-373 -2323 0
-374 -2324 0
-375 -2325 0
-376 -381 0
-377 -382 0
-378 -383 0
-379 -384 0
-380 -385 0
-376 -671 0
-377 -672 0
-378 -673 0
-379 -674 0
-380 -675 0
-376 -716 0
-377 -717 0
-378 -718 0
-379 -719 0
-380 -720 0
-376 -1171 0
-377 -1172 0
-378 -1173 0
-379 -1174 0
-380 -1175 0
-376 -1271 0
-377 -1272 0
-378 -1273 0
-379 -1274 0
-380 -1275 0
-376 -1741 0
-377 -1742 0
-378 -1743 0
-379 -1744 0
-380 -1745 0
-376 -1911 0
-377 -1912 0
-378 -1913 0
-379 -1914 0
-380 -1915 0
-381 -426 0
-382 -427 0
-383 -428 0
-384 -429 0
-385 -430 0
-381 -721 0
-382 -722 0
-383 -723 0
-384 -724 0
-385 -725 0
-381 -1096 0
-382 -1097 0
-383 -1098 0
-384 -1099 0
-385 -1100 0
-381 -1276 0
-382 -1277 0
-383 -1278 0
-384 -1279 0
-385 -1280 0
-381 -1916 0
-382 -1917 0
-383 -1918 0
-384 -1919 0
-385 -1920 0
-381 -1961 0
-382 -1962 0
-383 -1963 0
-384 -1964 0
-385 -1965 0
-381 -2341 0
-382 -2342 0
-383 -2343 0
-384 -2344 0
-385 -2345 0
-386 -391 0
-387 -392 0
-388 -393 0
-389 -394 0
-390 -395 0
-386 -431 0
-387 -432 0
-388 -433 0
-389 -434 0
-390 -435 0
-386 -756 0
-387 -757 0
-388 -758 0
-389 -759 0
-390 -760 0
-386 -1381 0
-387 -1382 0
-388 -1383 0
-389 -1384 0
-390 -1385 0
-386 -1746 0
-387 -1747 0
-388 -1748 0
-389 -1749 0
-390 -1750 0
-386 -1891 0
-387 -1892 0
-388 -1893 0
-389 -1894 0
-390 -1895 0
-386 -1966 0
-387 -1967 0
-388 -1968 0
-389 -1969 0
-390 -1970 0
-386 -2346 0
-387 -2347 0
-388 -2348 0
-389 -2349 0
-390 -2350 0
-391 -436 0
-392 -437 0
-393 -438 0
-394 -439 0
-395 -440 0
-391 -641 0
-392 -642 0
-393 -643 0
-394 -644 0
-395 -645 0
-391 -1756 0
-392 -1757 0
-393 -1758 0
-394 -1759 0
-395 -1760 0
-391 -1906 0
-392 -1907 0
-393 -1908 0
-394 -1909 0
-395 -1910 0
-391 -1966 0
-392 -1967 0
-393 -1968 0
-394 -1969 0
-395 -1970 0
-391 -2351 0
-392 -2352 0
-393 -2353 0
-394 -2354 0
-395 -2355 0
-396 -401 0
-397 -402 0
-398 -403 0
-399 -404 0
-400 -405 0
-396 -761 0
-397 -762 0
-398 -763 0
-399 -764 0
-400 -765 0
-396 -1191 0
-397 -1192 0
-398 -1193 0
-399 -1194 0
-400 -1195 0
-396 -1971 0
-397 -1972 0
-398 -1973 0
-399 -1974 0
-400 -1975 0
-396 -2086 0
-397 -2087 0
-398 -2088 0
-399 -2089 0
-400 -2090 0
-396 -2366 0
-397 -2367 0
-398 -2368 0
-399 -2369 0
-400 -2370 0
-401 -1211 0
-402 -1212 0
-403 -1213 0
-404 -1214 0
-405 -1215 0
-401 -1771 0
-402 -1772 0
-403 -1773 0
-404 -1774 0
-405 -1775 0
-401 -1971 0
-402 -1972 0
-403 -1973 0
-404 -1974 0
-405 -1975 0
-401 -2376 0
-402 -2377 0
-403 -2378 0
-404 -2379 0
-405 -2380 0
-406 -416 0
-407 -417 0
-408 -418 0
-409 -419 0
-410 -420 0
-406 -481 0
-407 -482 0
-408 -483 0
-409 -484 0
-410 -485 0
-406 -691 0
-407 -692 0
-408 -693 0
-409 -694 0
-410 -695 0
-406 -851 0
-407 -852 0
-408 -853 0
-409 -854 0
-410 -855 0
-406 -1991 0
-407 -1992 0
-408 -1993 0
-409 -1994 0
-410 -1995 0
-406 -2006 0
-407 -2007 0
-408 -2008 0
-409 -2009 0
-410 -2010 0
-411 -431 0
-412 -432 0
-413 -433 0
-414 -434 0
-415 -435 0
-411 -686 0
-412 -687 0
-413 -688 0
-414 -689 0
-415 -690 0
-411 -731 0
-412 -732 0
-413 -733 0
-414 -734 0
-415 -735 0
-411 -1326 0
-412 -1327 0
-413 -1328 0
-414 -1329 0
-415 -1330 0
-411 -1461 0
-412 -1462 0
-413 -1463 0
-414 -1464 0
-415 -1465 0
-411 -2071 0
-412 -2072 0
-413 -2073 0
-414 -2074 0
-415 -2075 0
-416 -541 0
-417 -542 0
-418 -543 0
-419 -544 0
-420 -545 0
-416 -1481 0
-417 -1482 0
-418 -1483 0
-419 -1484 0
-420 -1485 0
-416 -2076 0
-417 -2077 0
-418 -2078 0
-419 -2079 0
-420 -2080 0
-416 -2091 0
-417 -2092 0
-418 -2093 0
-419 -2094 0
-420 -2095 0
-421 -426 0
-422 -427 0
-423 -428 0
-424 -429 0
-425 -430 0
-421 -431 0
-422 -432 0
-423 -433 0
-424 -434 0
-425 -435 0
-421 -836 0
-422 -837 0
-423 -838 0
-424 -839 0
-425 -840 0
-421 -1536 0
-422 -1537 0
-423 -1538 0
-424 -1539 0
-425 -1540 0
-421 -1996 0
-422 -1997 0
-423 -1998 0
-424 -1999 0
-425 -2000 0
-421 -2116 0
-422 -2117 0
-423 -2118 0
-424 -2119 0
-425 -2120 0
-421 -2456 0
-422 -2457 0
-423 -2458 0
-424 -2459 0
-425 -2460 0
-426 -436 0
-427 -437 0
-428 -438 0
-429 -439 0
-430 -440 0
-426 -761 0
-427 -762 0
-428 -763 0
-429 -764 0
-430 -765 0
-426 -2011 0
-427 -2012 0
-428 -2013 0
-429 -2014 0
-430 -2015 0
-426 -2116 0
-427 -2117 0
-428 -2118 0
-429 -2119 0
-430 -2120 0
-426 -2466 0
-427 -2467 0
-428 -2468 0
-429 -2469 0
-430 -2470 0
-431 -436 0
-432 -437 0
-433 -438 0
-434 -439 0
-435 -440 0
-431 -766 0
-432 -767 0
-433 -768 0
-434 -769 0
-435 -770 0
-431 -1556 0
-432 -1557 0
-433 -1558 0
-434 -1559 0
-435 -1560 0
-431 -1851 0
-432 -1852 0
-433 -1853 0
-434 -1854 0
-435 -1855 0
-431 -1996 0
-432 -1997 0
-433 -1998 0
-434 -1999 0
-435 -2000 0
-431 -2121 0
-432 -2122 0
-433 -2123 0
-434 -2124 0
-435 -2125 0
-436 -771 0
-437 -772 0
-438 -773 0
-439 -774 0
-440 -775 0
-436 -1111 0
-437 -1112 0
-438 -1113 0
-439 -1114 0
-440 -1115 0
-436 -1331 0
-437 -1332 0
-438 -1333 0
-439 -1334 0
-440 -1335 0
-436 -1566 0
-437 -1567 0
-438 -1568 0
-439 -1569 0
-440 -1570 0
-436 -1866 0
-437 -1867 0
-438 -1868 0
-439 -1869 0
-440 -1870 0
-436 -2011 0
-437 -2012 0
-438 -2013 0
-439 -2014 0
-440 -2015 0
-436 -2121 0
-437 -2122 0
-438 -2123 0
-439 -2124 0
-440 -2125 0
-441 -446 0
-442 -447 0
-443 -448 0
-444 -449 0
-445 -450 0
-441 -451 0
-442 -452 0
-443 -453 0
-444 -454 0
-445 -455 0
-441 -541 0
-442 -542 0
-443 -543 0
-444 -544 0
-445 -545 0
-441 -896 0
-442 -897 0
-443 -898 0
-444 -899 0
-445 -900 0
-441 -1891 0
-442 -1892 0
-443 -1893 0
-444 -1894 0
-445 -1895 0
-441 -2131 0
-442 -2132 0
-443 -2133 0
-444 -2134 0
-445 -2135 0
-441 -2486 0
-442 -2487 0
-443 -2488 0
-444 -2489 0
-445 -2490 0
-446 -456 0
-447 -457 0
-448 -458 0
-449 -459 0
-450 -460 0
-446 -541 0
-447 -542 0
-448 -543 0
-449 -544 0
-450 -545 0
-446 -781 0
-447 -782 0
-448 -783 0
-449 -784 0
-450 -785 0
-446 -1901 0
-447 -1902 0
-448 -1903 0
-449 -1904 0
-450 -1905 0
-446 -2136 0
-447 -2137 0
-448 -2138 0
-449 -2139 0
-450 -2140 0
-451 -456 0
-452 -457 0
-453 -458 0
-454 -459 0
-455 -460 0
-451 -556 0
-452 -557 0
-453 -558 0
-454 -559 0
-455 -560 0
-451 -576 0
-452 -577 0
-453 -578 0
-454 -579 0
-455 -580 0
-451 -1181 0
-452 -1182 0
-453 -1183 0
-454 -1184 0
-455 -1185 0
-451 -1906 0
-452 -1907 0
-453 -1908 0
-454 -1909 0
-455 -1910 0
-451 -2131 0
-452 -2132 0
-453 -2133 0
-454 -2134 0
-455 -2135 0
-451 -2141 0
-452 -2142 0
-453 -2143 0
-454 -2144 0
-455 -2145 0
-451 -2491 0
-452 -2492 0
-453 -2493 0
-454 -2494 0
-455 -2495 0
-456 -576 0
-457 -577 0
-458 -578 0
-459 -579 0
-460 -580 0
-456 -596 0
-457 -597 0
-458 -598 0
-459 -599 0
-460 -600 0
-456 -796 0
-457 -797 0
-458 -798 0
-459 -799 0
-460 -800 0
-456 -1186 0
-457 -1187 0
-458 -1188 0
-459 -1189 0
-460 -1190 0
-456 -1381 0
-457 -1382 0
-458 -1383 0
-459 -1384 0
-460 -1385 0
-456 -1916 0
-457 -1917 0
-458 -1918 0
-459 -1919 0
-460 -1920 0
-456 -2136 0
-457 -2137 0
-458 -2138 0
-459 -2139 0
-460 -2140 0
-456 -2146 0
-457 -2147 0
-458 -2148 0
-459 -2149 0
-460 -2150 0
-461 -466 0
-462 -467 0
-463 -468 0
-464 -469 0
-465 -470 0
-461 -471 0
-462 -472 0
-463 -473 0
-464 -474 0
-465 -475 0
-461 -1131 0
-462 -1132 0
-463 -1133 0
-464 -1134 0
-465 -1135 0
-461 -1386 0
-462 -1387 0
-463 -1388 0
-464 -1389 0
-465 -1390 0
-461 -1606 0
-462 -1607 0
-463 -1608 0
-464 -1609 0
-465 -1610 0
-461 -2231 0
-462 -2232 0
-463 -2233 0
-464 -2234 0
-465 -2235 0
-461 -2276 0
-462 -2277 0
-463 -2278 0
-464 -2279 0
-465 -2280 0
-461 -2526 0
-462 -2527 0
-463 -2528 0
-464 -2529 0
-465 -2530 0
-466 -476 0
-467 -477 0
-468 -478 0
-469 -479 0
-470 -480 0
-466 -761 0
-467 -762 0
-468 -763 0
-469 -764 0
-470 -765 0
-466 -1136 0
-467 -1137 0
-468 -1138 0
-469 -1139 0
-470 -1140 0
-466 -1351 0
-467 -1352 0
-468 -1353 0
-469 -1354 0
-470 -1355 0
-466 -1926 0
-467 -1927 0
-468 -1928 0
-469 -1929 0
-470 -1930 0
-466 -2236 0
-467 -2237 0
-468 -2238 0
-469 -2239 0
-470 -2240 0
-466 -2321 0
-467 -2322 0
-468 -2323 0
-469 -2324 0
-470 -2325 0
-466 -2536 0
-467 -2537 0
-468 -2538 0
-469 -2539 0
-470 -2540 0
-471 -476 0
-472 -477 0
-473 -478 0
-474 -479 0
-475 -480 0
-471 -816 0
-472 -817 0
-473 -818 0
-474 -819 0
-475 -820 0
-471 -906 0
-472 -907 0
-473 -908 0
-474 -909 0
-475 -910 0
-471 -1141 0
-472 -1142 0
-473 -1143 0
-474 -1144 0
-475 -1145 0
-471 -1361 0
-472 -1362 0
-473 -1363 0
-474 -1364 0
-475 -1365 0
-471 -2151 0
-472 -2152 0
-473 -2153 0
-474 -2154 0
-475 -2155 0
-471 -2276 0
-472 -2277 0
-473 -2278 0
-474 -2279 0
-475 -2280 0
-471 -2356 0
-472 -2357 0
-473 -2358 0
-474 -2359 0
-475 -2360 0
-476 -1146 0
-477 -1147 0
-478 -1148 0
-479 -1149 0
-480 -1150 0
-476 -1281 0
-477 -1282 0
-478 -1283 0
-479 -1284 0
-480 -1285 0
-476 -1376 0
-477 -1377 0
-478 -1378 0
-479 -1379 0
-480 -1380 0
-476 -2151 0
-477 -2152 0
-478 -2153 0
-479 -2154 0
-480 -2155 0
-476 -2321 0
-477 -2322 0
-478 -2323 0
-479 -2324 0
-480 -2325 0
-476 -2361 0
-477 -2362 0
-478 -2363 0
-479 -2364 0
-480 -2365 0
-481 -491 0
-482 -492 0
-483 -493 0
-484 -494 0
-485 -495 0
-481 -541 0
-482 -542 0
-483 -543 0
-484 -544 0
-485 -545 0
-481 -551 0
-482 -552 0
-483 -553 0
-484 -554 0
-485 -555 0
-481 -836 0
-482 -837 0
-483 -838 0
-484 -839 0
-485 -840 0
-481 -1131 0
-482 -1132 0
-483 -1133 0
-484 -1134 0
-485 -1135 0
-481 -2176 0
-482 -2177 0
-483 -2178 0
-484 -2179 0
-485 -2180 0
-486 -491 0
-487 -492 0
-488 -493 0
-489 -494 0
-490 -495 0
-486 -561 0
-487 -562 0
-488 -563 0
-489 -564 0
-490 -565 0
-486 -576 0
-487 -577 0
-488 -578 0
-489 -579 0
-490 -580 0
-486 -1976 0
-487 -1977 0
-488 -1978 0
-489 -1979 0
-490 -1980 0
-486 -2171 0
-487 -2172 0
-488 -2173 0
-489 -2174 0
-490 -2175 0
-486 -2181 0
-487 -2182 0
-488 -2183 0
-489 -2184 0
-490 -2185 0
-491 -576 0
-492 -577 0
-493 -578 0
-494 -579 0
-495 -580 0
-491 -591 0
-492 -592 0
-493 -593 0
-494 -594 0
-495 -595 0
-491 -1136 0
-492 -1137 0
-493 -1138 0
-494 -1139 0
-495 -1140 0
-491 -2176 0
-492 -2177 0
-493 -2178 0
-494 -2179 0
-495 -2180 0
-491 -2186 0
-492 -2187 0
-493 -2188 0
-494 -2189 0
-495 -2190 0
-496 -501 0
-497 -502 0
-498 -503 0
-499 -504 0
-500 -505 0
-496 -566 0
-497 -567 0
-498 -568 0
-499 -569 0
-500 -570 0
-496 -576 0
-497 -577 0
-498 -578 0
-499 -579 0
-500 -580 0
-496 -1986 0
-497 -1987 0
-498 -1988 0
-499 -1989 0
-500 -1990 0
-496 -2191 0
-497 -2192 0
-498 -2193 0
-499 -2194 0
-500 -2195 0
-496 -2201 0
-497 -2202 0
-498 -2203 0
-499 -2204 0
-500 -2205 0
-501 -576 0
-502 -577 0
-503 -578 0
-504 -579 0
-505 -580 0
-501 -586 0
-502 -587 0
-503 -588 0
-504 -589 0
-505 -590 0
-501 -826 0
-502 -827 0
-503 -828 0
-504 -829 0
-505 -830 0
-501 -1456 0
-502 -1457 0
-503 -1458 0
-504 -1459 0
-505 -1460 0
-501 -1616 0
-502 -1617 0
-503 -1618 0
-504 -1619 0
-505 -1620 0
-501 -2196 0
-502 -2197 0
-503 -2198 0
-504 -2199 0
-505 -2200 0
-501 -2206 0
-502 -2207 0
-503 -2208 0
-504 -2209 0
-505 -2210 0
-506 -511 0
-507 -512 0
-508 -513 0
-509 -514 0
-510 -515 0
-506 -541 0
-507 -542 0
-508 -543 0
-509 -544 0
-510 -545 0
-506 -856 0
-507 -857 0
-508 -858 0
-509 -859 0
-510 -860 0
-506 -1621 0
-507 -1622 0
-508 -1623 0
-509 -1624 0
-510 -1625 0
-506 -2211 0
-507 -2212 0
-508 -2213 0
-509 -2214 0
-510 -2215 0
-511 -516 0
-512 -517 0
-513 -518 0
-514 -519 0
-515 -520 0
-511 -571 0
-512 -572 0
-513 -573 0
-514 -574 0
-515 -575 0
-511 -576 0
-512 -577 0
-513 -578 0
-514 -579 0
-515 -580 0
-511 -1161 0
-512 -1162 0
-513 -1163 0
-514 -1164 0
-515 -1165 0
-511 -1491 0
-512 -1492 0
-513 -1493 0
-514 -1494 0
-515 -1495 0
-511 -2211 0
-512 -2212 0
-513 -2213 0
-514 -2214 0
-515 -2215 0
-511 -2221 0
-512 -2222 0
-513 -2223 0
-514 -2224 0
-515 -2225 0
-516 -576 0
-517 -577 0
-518 -578 0
-519 -579 0
-520 -580 0
-516 -581 0
-517 -582 0
-518 -583 0
-519 -584 0
-520 -585 0
-516 -896 0
-517 -897 0
-518 -898 0
-519 -899 0
-520 -900 0
-516 -1166 0
-517 -1167 0
-518 -1168 0
-519 -1169 0
-520 -1170 0
-516 -2216 0
-517 -2217 0
-518 -2218 0
-519 -2219 0
-520 -2220 0
-516 -2226 0
-517 -2227 0
-518 -2228 0
-519 -2229 0
-520 -2230 0
-516 -2581 0
-517 -2582 0
-518 -2583 0
-519 -2584 0
-520 -2585 0
-521 -576 0
-522 -577 0
-523 -578 0
-524 -579 0
-525 -580 0
-521 -831 0
-522 -832 0
-523 -833 0
-524 -834 0
-525 -835 0
-521 -996 0
-522 -997 0
-523 -998 0
-524 -999 0
-525 -1000 0
-521 -1631 0
-522 -1632 0
-523 -1633 0
-524 -1634 0
-525 -1635 0
-521 -2231 0
-522 -2232 0
-523 -2233 0
-524 -2234 0
-525 -2235 0
-521 -2236 0
-522 -2237 0
-523 -2238 0
-524 -2239 0
-525 -2240 0
-521 -2436 0
-522 -2437 0
-523 -2438 0
-524 -2439 0
-525 -2440 0
-526 -531 0
-527 -532 0
-528 -533 0
-529 -534 0
-530 -535 0
-526 -541 0
-527 -542 0
-528 -543 0
-529 -544 0
-530 -545 0
-526 -2241 0
-527 -2242 0
-528 -2243 0
-529 -2244 0
-530 -2245 0
-526 -2586 0
-527 -2587 0
-528 -2588 0
-529 -2589 0
-530 -2590 0
-531 -576 0
-532 -577 0
-533 -578 0
-534 -579 0
-535 -580 0
-531 -1311 0
-532 -1312 0
-533 -1313 0
-534 -1314 0
-535 -1315 0
-531 -1526 0
-532 -1527 0
-533 -1528 0
-534 -1529 0
-535 -1530 0
-531 -2156 0
-532 -2157 0
-533 -2158 0
-534 -2159 0
-535 -2160 0
-531 -2241 0
-532 -2242 0
-533 -2243 0
-534 -2244 0
-535 -2245 0
-531 -2246 0
-532 -2247 0
-533 -2248 0
-534 -2249 0
-535 -2250 0
-531 -2591 0
-532 -2592 0
-533 -2593 0
-534 -2594 0
-535 -2595 0
-536 -541 0
-537 -542 0
-538 -543 0
-539 -544 0
-540 -545 0
-536 -566 0
-537 -567 0
-538 -568 0
-539 -569 0
-540 -570 0
-536 -956 0
-537 -957 0
-538 -958 0
-539 -959 0
-540 -960 0
-536 -2266 0
-537 -2267 0
-538 -2268 0
-539 -2269 0
-540 -2270 0
-541 -546 0
-542 -547 0
-543 -548 0
-544 -549 0
-545 -550 0
-541 -551 0
-542 -552 0
-543 -553 0
-544 -554 0
-545 -555 0
-541 -576 0
-542 -577 0
-543 -578 0
-544 -579 0
-545 -580 0
-541 -616 0
-542 -617 0
-543 -618 0
-544 -619 0
-545 -620 0
-541 -621 0
-542 -622 0
-543 -623 0
-544 -624 0
-545 -625 0
-541 -636 0
-542 -637 0
-543 -638 0
-544 -639 0
-545 -640 0
-541 -651 0
-542 -652 0
-543 -653 0
-544 -654 0
-545 -655 0
-541 -686 0
-542 -687 0
-543 -688 0
-544 -689 0
-545 -690 0
-541 -866 0
-542 -867 0
-543 -868 0
-544 -869 0
-545 -870 0
-541 -946 0
-542 -947 0
-543 -948 0
-544 -949 0
-545 -950 0
-541 -961 0
-542 -962 0
-543 -963 0
-544 -964 0
-545 -965 0
-541 -1006 0
-542 -1007 0
-543 -1008 0
-544 -1009 0
-545 -1010 0
-541 -1191 0
-542 -1192 0
-543 -1193 0
-544 -1194 0
-545 -1195 0
-541 -1481 0
-542 -1482 0
-543 -1483 0
-544 -1484 0
-545 -1485 0
-541 -1641 0
-542 -1642 0
-543 -1643 0
-544 -1644 0
-545 -1645 0
-541 -1651 0
-542 -1652 0
-543 -1653 0
-544 -1654 0
-545 -1655 0
-541 -1996 0
-542 -1997 0
-543 -1998 0
-544 -1999 0
-545 -2000 0
-541 -2161 0
-542 -2162 0
-543 -2163 0
-544 -2164 0
-545 -2165 0
-541 -2251 0
-542 -2252 0
-543 -2253 0
-544 -2254 0
-545 -2255 0
-541 -2276 0
-542 -2277 0
-543 -2278 0
-544 -2279 0
-545 -2280 0
-541 -2431 0
-542 -2432 0
-543 -2433 0
-544 -2434 0
-545 -2435 0
-541 -2441 0
-542 -2442 0
-543 -2443 0
-544 -2444 0
-545 -2445 0
-541 -2606 0
-542 -2607 0
-543 -2608 0
-544 -2609 0
-545 -2610 0
-541 -3756 0
-542 -3757 0
-543 -3758 0
-544 -3759 0
-545 -3760 0
-541 -3771 0
-542 -3772 0
-543 -3773 0
-544 -3774 0
-545 -3775 0
-541 -3791 0
-542 -3792 0
-543 -3793 0
-544 -3794 0
-545 -3795 0
-541 -3831 0
-542 -3832 0
-543 -3833 0
-544 -3834 0
-545 -3835 0
-541 -3866 0
-542 -3867 0
-543 -3868 0
-544 -3869 0
-545 -3870 0
-541 -3896 0
-542 -3897 0
-543 -3898 0
-544 -3899 0
-545 -3900 0
-541 -3941 0
-542 -3942 0
-543 -3943 0
-544 -3944 0
-545 -3945 0
-541 -4051 0
-542 -4052 0
-543 -4053 0
-544 -4054 0
-545 -4055 0
-541 -4096 0
-542 -4097 0
-543 -4098 0
-544 -4099 0
-545 -4100 0
-541 -4171 0
-542 -4172 0
-543 -4173 0
-544 -4174 0
-545 -4175 0
-541 -4196 0
-542 -4197 0
-543 -4198 0
-544 -4199 0
-545 -4200 0
-541 -4201 0
-542 -4202 0
-543 -4203 0
-544 -4204 0
-545 -4205 0
-541 -4236 0
-542 -4237 0
-543 -4238 0
-544 -4239 0
-545 -4240 0
-541 -4261 0
-542 -4262 0
-543 -4263 0
-544 -4264 0
-545 -4265 0
-541 -4281 0
-542 -4282 0
-543 -4283 0
-544 -4284 0
-545 -4285 0
-541 -4291 0
-542 -4292 0
-543 -4293 0
-544 -4294 0
-545 -4295 0
-541 -4296 0
-542 -4297 0
-543 -4298 0
-544 -4299 0
-545 -4300 0
-541 -4301 0
-542 -4302 0
-543 -4303 0
-544 -4304 0
-545 -4305 0
-541 -4326 0
-542 -4327 0
-543 -4328 0
-544 -4329 0
-545 -4330 0
-541 -4366 0
-542 -4367 0
-543 -4368 0
-544 -4369 0
-545 -4370 0
-541 -4371 0
-542 -4372 0
-543 -4373 0
-544 -4374 0
-545 -4375 0
-541 -4386 0
-542 -4387 0
-543 -4388 0
-544 -4389 0
-545 -4390 0
-541 -4401 0
-542 -4402 0
-543 -4403 0
-544 -4404 0
-545 -4405 0
-541 -4436 0
-542 -4437 0
-543 -4438 0
-544 -4439 0
-545 -4440 0
-541 -4616 0
-542 -4617 0
-543 -4618 0
-544 -4619 0
-545 -4620 0
-541 -4696 0
-542 -4697 0
-543 -4698 0
-544 -4699 0
-545 -4700 0
-541 -4711 0
-542 -4712 0
-543 -4713 0
-544 -4714 0
-545 -4715 0
-541 -4756 0
-542 -4757 0
-543 -4758 0
-544 -4759 0
-545 -4760 0
-541 -4941 0
-542 -4942 0
-543 -4943 0
-544 -4944 0
-545 -4945 0
-541 -5231 0
-542 -5232 0
-543 -5233 0
-544 -5234 0
-545 -5235 0
-541 -5391 0
-542 -5392 0
-543 -5393 0
-544 -5394 0
-545 -5395 0
-541 -5401 0
-542 -5402 0
-543 -5403 0
-544 -5404 0
-545 -5405 0
-541 -5746 0
-542 -5747 0
-543 -5748 0
-544 -5749 0
-545 -5750 0
-541 -5911 0
-542 -5912 0
-543 -5913 0
-544 -5914 0
-545 -5915 0
-541 -6001 0
-542 -6002 0
-543 -6003 0
-544 -6004 0
-545 -6005 0
-541 -6026 0
-542 -6027 0
-543 -6028 0
-544 -6029 0
-545 -6030 0
-541 -6181 0
-542 -6182 0
-543 -6183 0
-544 -6184 0
-545 -6185 0
-541 -6191 0
-542 -6192 0
-543 -6193 0
-544 -6194 0
-545 -6195 0
-541 -6356 0
-542 -6357 0
-543 -6358 0
-544 -6359 0
-545 -6360 0
-546 -586 0
-547 -587 0
-548 -588 0
-549 -589 0
-550 -590 0
-546 -636 0
-547 -637 0
-548 -638 0
-549 -639 0
-550 -640 0
-546 -1016 0
-547 -1017 0
-548 -1018 0
-549 -1019 0
-550 -1020 0
-546 -1656 0
-547 -1657 0
-548 -1658 0
-549 -1659 0
-550 -1660 0
-546 -2286 0
-547 -2287 0
-548 -2288 0
-549 -2289 0
-550 -2290 0
-551 -591 0
-552 -592 0
-553 -593 0
-554 -594 0
-555 -595 0
-551 -1196 0
-552 -1197 0
-553 -1198 0
-554 -1199 0
-555 -1200 0
-551 -1491 0
-552 -1492 0
-553 -1493 0
-554 -1494 0
-555 -1495 0
-551 -2291 0
-552 -2292 0
-553 -2293 0
-554 -2294 0
-555 -2295 0
-556 -576 0
-557 -577 0
-558 -578 0
-559 -579 0
-560 -580 0
-556 -691 0
-557 -692 0
-558 -693 0
-559 -694 0
-560 -695 0
-556 -2256 0
-557 -2257 0
-558 -2258 0
-559 -2259 0
-560 -2260 0
-556 -2301 0
-557 -2302 0
-558 -2303 0
-559 -2304 0
-560 -2305 0
-556 -2611 0
-557 -2612 0
-558 -2613 0
-559 -2614 0
-560 -2615 0
-561 -576 0
-562 -577 0
-563 -578 0
-564 -579 0
-565 -580 0
-561 -656 0
-562 -657 0
-563 -658 0
-564 -659 0
-565 -660 0
-561 -1026 0
-562 -1027 0
-563 -1028 0
-564 -1029 0
-565 -1030 0
-561 -1541 0
-562 -1542 0
-563 -1543 0
-564 -1544 0
-565 -1545 0
-561 -2001 0
-562 -2002 0
-563 -2003 0
-564 -2004 0
-565 -2005 0
-561 -2261 0
-562 -2262 0
-563 -2263 0
-564 -2264 0
-565 -2265 0
-561 -2306 0
-562 -2307 0
-563 -2308 0
-564 -2309 0
-565 -2310 0
-566 -576 0
-567 -577 0
-568 -578 0
-569 -579 0
-570 -580 0
-566 -641 0
-567 -642 0
-568 -643 0
-569 -644 0
-570 -645 0
-566 -1321 0
-567 -1322 0
-568 -1323 0
-569 -1324 0
-570 -1325 0
-566 -1436 0
-567 -1437 0
-568 -1438 0
-569 -1439 0
-570 -1440 0
-566 -2266 0
-567 -2267 0
-568 -2268 0
-569 -2269 0
-570 -2270 0
-566 -2311 0
-567 -2312 0
-568 -2313 0
-569 -2314 0
-570 -2315 0
-571 -576 0
-572 -577 0
-573 -578 0
-574 -579 0
-575 -580 0
-571 -626 0
-572 -627 0
-573 -628 0
-574 -629 0
-575 -630 0
-571 -701 0
-572 -702 0
-573 -703 0
-574 -704 0
-575 -705 0
-571 -876 0
-572 -877 0
-573 -878 0
-574 -879 0
-575 -880 0
-571 -1441 0
-572 -1442 0
-573 -1443 0
-574 -1444 0
-575 -1445 0
-571 -2006 0
-572 -2007 0
-573 -2008 0
-574 -2009 0
-575 -2010 0
-571 -2271 0
-572 -2272 0
-573 -2273 0
-574 -2274 0
-575 -2275 0
-571 -2316 0
-572 -2317 0
-573 -2318 0
-574 -2319 0
-575 -2320 0
-576 -581 0
-577 -582 0
-578 -583 0
-579 -584 0
-580 -585 0
-576 -586 0
-577 -587 0
-578 -588 0
-579 -589 0
-580 -590 0
-576 -591 0
-577 -592 0
-578 -593 0
-579 -594 0
-580 -595 0
-576 -596 0
-577 -597 0
-578 -598 0
-579 -599 0
-580 -600 0
-576 -601 0
-577 -602 0
-578 -603 0
-579 -604 0
-580 -605 0
-576 -606 0
-577 -607 0
-578 -608 0
-579 -609 0
-580 -610 0
-576 -611 0
-577 -612 0
-578 -613 0
-579 -614 0
-580 -615 0
-576 -626 0
-577 -627 0
-578 -628 0
-579 -629 0
-580 -630 0
-576 -631 0
-577 -632 0
-578 -633 0
-579 -634 0
-580 -635 0
-576 -641 0
-577 -642 0
-578 -643 0
-579 -644 0
-580 -645 0
-576 -646 0
-577 -647 0
-578 -648 0
-579 -649 0
-580 -650 0
-576 -656 0
-577 -657 0
-578 -658 0
-579 -659 0
-580 -660 0
-576 -661 0
-577 -662 0
-578 -663 0
-579 -664 0
-580 -665 0
-576 -691 0
-577 -692 0
-578 -693 0
-579 -694 0
-580 -695 0
-576 -696 0
-577 -697 0
-578 -698 0
-579 -699 0
-580 -700 0
-576 -706 0
-577 -707 0
-578 -708 0
-579 -709 0
-580 -710 0
-576 -841 0
-577 -842 0
-578 -843 0
-579 -844 0
-580 -845 0
-576 -881 0
-577 -882 0
-578 -883 0
-579 -884 0
-580 -885 0
-576 -901 0
-577 -902 0
-578 -903 0
-579 -904 0
-580 -905 0
-576 -966 0
-577 -967 0
-578 -968 0
-579 -969 0
-580 -970 0
-576 -1031 0
-577 -1032 0
-578 -1033 0
-579 -1034 0
-580 -1035 0
-576 -1211 0
-577 -1212 0
-578 -1213 0
-579 -1214 0
-580 -1215 0
-576 -1326 0
-577 -1327 0
-578 -1328 0
-579 -1329 0
-580 -1330 0
-576 -1446 0
-577 -1447 0
-578 -1448 0
-579 -1449 0
-580 -1450 0
-576 -1506 0
-577 -1507 0
-578 -1508 0
-579 -1509 0
-580 -1510 0
-576 -1546 0
-577 -1547 0
-578 -1548 0
-579 -1549 0
-580 -1550 0
-576 -1646 0
-577 -1647 0
-578 -1648 0
-579 -1649 0
-580 -1650 0
-576 -1661 0
-577 -1662 0
-578 -1663 0
-579 -1664 0
-580 -1665 0
-576 -2011 0
-577 -2012 0
-578 -2013 0
-579 -2014 0
-580 -2015 0
-576 -2016 0
-577 -2017 0
-578 -2018 0
-579 -2019 0
-580 -2020 0
-576 -2156 0
-577 -2157 0
-578 -2158 0
-579 -2159 0
-580 -2160 0
-576 -2166 0
-577 -2167 0
-578 -2168 0
-579 -2169 0
-580 -2170 0
-576 -2276 0
-577 -2277 0
-578 -2278 0
-579 -2279 0
-580 -2280 0
-576 -2321 0
-577 -2322 0
-578 -2323 0
-579 -2324 0
-580 -2325 0
-576 -2436 0
-577 -2437 0
-578 -2438 0
-579 -2439 0
-580 -2440 0
-576 -2446 0
-577 -2447 0
-578 -2448 0
-579 -2449 0
-580 -2450 0
-576 -2616 0
-577 -2617 0
-578 -2618 0
-579 -2619 0
-580 -2620 0
-581 -631 0
-582 -632 0
-583 -633 0
-584 -634 0
-585 -635 0
-581 -1036 0
-582 -1037 0
-583 -1038 0
-584 -1039 0
-585 -1040 0
-581 -1331 0
-582 -1332 0
-583 -1333 0
-584 -1334 0
-585 -1335 0
-581 -2281 0
-582 -2282 0
-583 -2283 0
-584 -2284 0
-585 -2285 0
-581 -2326 0
-582 -2327 0
-583 -2328 0
-584 -2329 0
-585 -2330 0
-586 -646 0
-587 -647 0
-588 -648 0
-589 -649 0
-590 -650 0
-586 -711 0
-587 -712 0
-588 -713 0
-589 -714 0
-590 -715 0
-586 -1041 0
-587 -1042 0
-588 -1043 0
-589 -1044 0
-590 -1045 0
-586 -1666 0
-587 -1667 0
-588 -1668 0
-589 -1669 0
-590 -1670 0
-586 -2286 0
-587 -2287 0
-588 -2288 0
-589 -2289 0
-590 -2290 0
-586 -2331 0
-587 -2332 0
-588 -2333 0
-589 -2334 0
-590 -2335 0
-591 -661 0
-592 -662 0
-593 -663 0
-594 -664 0
-595 -665 0
-591 -846 0
-592 -847 0
-593 -848 0
-594 -849 0
-595 -850 0
-591 -906 0
-592 -907 0
-593 -908 0
-594 -909 0
-595 -910 0
-591 -1216 0
-592 -1217 0
-593 -1218 0
-594 -1219 0
-595 -1220 0
-591 -1511 0
-592 -1512 0
-593 -1513 0
-594 -1514 0
-595 -1515 0
-591 -2291 0
-592 -2292 0
-593 -2293 0
-594 -2294 0
-595 -2295 0
-591 -2336 0
-592 -2337 0
-593 -2338 0
-594 -2339 0
-595 -2340 0
-596 -696 0
-597 -697 0
-598 -698 0
-599 -699 0
-600 -700 0
-596 -1226 0
-597 -1227 0
-598 -1228 0
-599 -1229 0
-600 -1230 0
-596 -1516 0
-597 -1517 0
-598 -1518 0
-599 -1519 0
-600 -1520 0
-596 -1556 0
-597 -1557 0
-598 -1558 0
-599 -1559 0
-600 -1560 0
-596 -2296 0
-597 -2297 0
-598 -2298 0
-599 -2299 0
-600 -2300 0
-596 -2341 0
-597 -2342 0
-598 -2343 0
-599 -2344 0
-600 -2345 0
-601 -721 0
-602 -722 0
-603 -723 0
-604 -724 0
-605 -725 0
-601 -911 0
-602 -912 0
-603 -913 0
-604 -914 0
-605 -915 0
-601 -1341 0
-602 -1342 0
-603 -1343 0
-604 -1344 0
-605 -1345 0
-601 -1561 0
-602 -1562 0
-603 -1563 0
-604 -1564 0
-605 -1565 0
-601 -2021 0
-602 -2022 0
-603 -2023 0
-604 -2024 0
-605 -2025 0
-601 -2321 0
-602 -2322 0
-603 -2323 0
-604 -2324 0
-605 -2325 0
-601 -4351 0
-602 -4352 0
-603 -4353 0
-604 -4354 0
-605 -4355 0
-606 -851 0
-607 -852 0
-608 -853 0
-609 -854 0
-610 -855 0
-606 -1051 0
-607 -1052 0
-608 -1053 0
-609 -1054 0
-610 -1055 0
-606 -1241 0
-607 -1242 0
-608 -1243 0
-609 -1244 0
-610 -1245 0
-606 -2026 0
-607 -2027 0
-608 -2028 0
-609 -2029 0
-610 -2030 0
-606 -2166 0
-607 -2167 0
-608 -2168 0
-609 -2169 0
-610 -2170 0
-606 -2346 0
-607 -2347 0
-608 -2348 0
-609 -2349 0
-610 -2350 0
-606 -2351 0
-607 -2352 0
-608 -2353 0
-609 -2354 0
-610 -2355 0
-611 -726 0
-612 -727 0
-613 -728 0
-614 -729 0
-615 -730 0
-611 -1251 0
-612 -1252 0
-613 -1253 0
-614 -1254 0
-615 -1255 0
-611 -2356 0
-612 -2357 0
-613 -2358 0
-614 -2359 0
-615 -2360 0
-611 -2361 0
-612 -2362 0
-613 -2363 0
-614 -2364 0
-615 -2365 0
-611 -2446 0
-612 -2447 0
-613 -2448 0
-614 -2449 0
-615 -2450 0
-616 -621 0
-617 -622 0
-618 -623 0
-619 -624 0
-620 -625 0
-616 -626 0
-617 -627 0
-618 -628 0
-619 -629 0
-620 -630 0
-616 -981 0
-617 -982 0
-618 -983 0
-619 -984 0
-620 -985 0
-616 -1681 0
-617 -1682 0
-618 -1683 0
-619 -1684 0
-620 -1685 0
-616 -2366 0
-617 -2367 0
-618 -2368 0
-619 -2369 0
-620 -2370 0
-621 -631 0
-622 -632 0
-623 -633 0
-624 -634 0
-625 -635 0
-621 -1056 0
-622 -1057 0
-623 -1058 0
-624 -1059 0
-625 -1060 0
-621 -1541 0
-622 -1542 0
-623 -1543 0
-624 -1544 0
-625 -1545 0
-621 -1686 0
-622 -1687 0
-623 -1688 0
-624 -1689 0
-625 -1690 0
-621 -2371 0
-622 -2372 0
-623 -2373 0
-624 -2374 0
-625 -2375 0
-626 -631 0
-627 -632 0
-628 -633 0
-629 -634 0
-630 -635 0
-626 -736 0
-627 -737 0
-628 -738 0
-629 -739 0
-630 -740 0
-626 -986 0
-627 -987 0
-628 -988 0
-629 -989 0
-630 -990 0
-626 -1451 0
-627 -1452 0
-628 -1453 0
-629 -1454 0
-630 -1455 0
-626 -1706 0
-627 -1707 0
-628 -1708 0
-629 -1709 0
-630 -1710 0
-626 -2031 0
-627 -2032 0
-628 -2033 0
-629 -2034 0
-630 -2035 0
-626 -2366 0
-627 -2367 0
-628 -2368 0
-629 -2369 0
-630 -2370 0
-626 -2376 0
-627 -2377 0
-628 -2378 0
-629 -2379 0
-630 -2380 0
-631 -1066 0
-632 -1067 0
-633 -1068 0
-634 -1069 0
-635 -1070 0
-631 -1711 0
-632 -1712 0
-633 -1713 0
-634 -1714 0
-635 -1715 0
-631 -2036 0
-632 -2037 0
-633 -2038 0
-634 -2039 0
-635 -2040 0
-631 -2371 0
-632 -2372 0
-633 -2373 0
-634 -2374 0
-635 -2375 0
-631 -2381 0
-632 -2382 0
-633 -2383 0
-634 -2384 0
-635 -2385 0
-636 -646 0
-637 -647 0
-638 -648 0
-639 -649 0
-640 -650 0
-636 -971 0
-637 -972 0
-638 -973 0
-639 -974 0
-640 -975 0
-636 -1101 0
-637 -1102 0
-638 -1103 0
-639 -1104 0
-640 -1105 0
-636 -1731 0
-637 -1732 0
-638 -1733 0
-639 -1734 0
-640 -1735 0
-636 -2391 0
-637 -2392 0
-638 -2393 0
-639 -2394 0
-640 -2395 0
-641 -646 0
-642 -647 0
-643 -648 0
-644 -649 0
-645 -650 0
-641 -1486 0
-642 -1487 0
-643 -1488 0
-644 -1489 0
-645 -1490 0
-641 -2046 0
-642 -2047 0
-643 -2048 0
-644 -2049 0
-645 -2050 0
-641 -2386 0
-642 -2387 0
-643 -2388 0
-644 -2389 0
-645 -2390 0
-641 -2396 0
-642 -2397 0
-643 -2398 0
-644 -2399 0
-645 -2400 0
-641 -2666 0
-642 -2667 0
-643 -2668 0
-644 -2669 0
-645 -2670 0
-646 -756 0
-647 -757 0
-648 -758 0
-649 -759 0
-650 -760 0
-646 -1106 0
-647 -1107 0
-648 -1108 0
-649 -1109 0
-650 -1110 0
-646 -1736 0
-647 -1737 0
-648 -1738 0
-649 -1739 0
-650 -1740 0
-646 -2051 0
-647 -2052 0
-648 -2053 0
-649 -2054 0
-650 -2055 0
-646 -2391 0
-647 -2392 0
-648 -2393 0
-649 -2394 0
-650 -2395 0
-646 -2401 0
-647 -2402 0
-648 -2403 0
-649 -2404 0
-650 -2405 0
-651 -656 0
-652 -657 0
-653 -658 0
-654 -659 0
-655 -660 0
-651 -1001 0
-652 -1002 0
-653 -1003 0
-654 -1004 0
-655 -1005 0
-651 -2081 0
-652 -2082 0
-653 -2083 0
-654 -2084 0
-655 -2085 0
-651 -2406 0
-652 -2407 0
-653 -2408 0
-654 -2409 0
-655 -2410 0
-656 -661 0
-657 -662 0
-658 -663 0
-659 -664 0
-660 -665 0
-656 -781 0
-657 -782 0
-658 -783 0
-659 -784 0
-660 -785 0
-656 -2096 0
-657 -2097 0
-658 -2098 0
-659 -2099 0
-660 -2100 0
-656 -2406 0
-657 -2407 0
-658 -2408 0
-659 -2409 0
-660 -2410 0
-656 -2416 0
-657 -2417 0
-658 -2418 0
-659 -2419 0
-660 -2420 0
-661 -891 0
-662 -892 0
-663 -893 0
-664 -894 0
-665 -895 0
-661 -916 0
-662 -917 0
-663 -918 0
-664 -919 0
-665 -920 0
-661 -1046 0
-662 -1047 0
-663 -1048 0
-664 -1049 0
-665 -1050 0
-661 -1756 0
-662 -1757 0
-663 -1758 0
-664 -1759 0
-665 -1760 0
-661 -2411 0
-662 -2412 0
-663 -2413 0
-664 -2414 0
-665 -2415 0
-661 -2421 0
-662 -2422 0
-663 -2423 0
-664 -2424 0
-665 -2425 0
-666 -671 0
-667 -672 0
-668 -673 0
-669 -674 0
-670 -675 0
-666 -676 0
-667 -677 0
-668 -678 0
-669 -679 0
-670 -680 0
-666 -996 0
-667 -997 0
-668 -998 0
-669 -999 0
-670 -1000 0
-666 -1776 0
-667 -1777 0
-668 -1778 0
-669 -1779 0
-670 -1780 0
-666 -2116 0
-667 -2117 0
-668 -2118 0
-669 -2119 0
-670 -2120 0
-666 -2241 0
-667 -2242 0
-668 -2243 0
-669 -2244 0
-670 -2245 0
-666 -2276 0
-667 -2277 0
-668 -2278 0
-669 -2279 0
-670 -2280 0
-666 -2686 0
-667 -2687 0
-668 -2688 0
-669 -2689 0
-670 -2690 0
-671 -681 0
-672 -682 0
-673 -683 0
-674 -684 0
-675 -685 0
-671 -1571 0
-672 -1572 0
-673 -1573 0
-674 -1574 0
-675 -1575 0
-671 -1596 0
-672 -1597 0
-673 -1598 0
-674 -1599 0
-675 -1600 0
-671 -2246 0
-672 -2247 0
-673 -2248 0
-674 -2249 0
-675 -2250 0
-671 -2321 0
-672 -2322 0
-673 -2323 0
-674 -2324 0
-675 -2325 0
-676 -681 0
-677 -682 0
-678 -683 0
-679 -684 0
-680 -685 0
-676 -806 0
-677 -807 0
-678 -808 0
-679 -809 0
-680 -810 0
-676 -1096 0
-677 -1097 0
-678 -1098 0
-679 -1099 0
-680 -1100 0
-676 -1321 0
-677 -1322 0
-678 -1323 0
-679 -1324 0
-680 -1325 0
-676 -1576 0
-677 -1577 0
-678 -1578 0
-679 -1579 0
-680 -1580 0
-676 -1801 0
-677 -1802 0
-678 -1803 0
-679 -1804 0
-680 -1805 0
-676 -2121 0
-677 -2122 0
-678 -2123 0
-679 -2124 0
-680 -2125 0
-676 -2276 0
-677 -2277 0
-678 -2278 0
-679 -2279 0
-680 -2280 0
-676 -2346 0
-677 -2347 0
-678 -2348 0
-679 -2349 0
-680 -2350 0
-676 -2426 0
-677 -2427 0
-678 -2428 0
-679 -2429 0
-680 -2430 0
-681 -941 0
-682 -942 0
-683 -943 0
-684 -944 0
-685 -945 0
-681 -1336 0
-682 -1337 0
-683 -1338 0
-684 -1339 0
-685 -1340 0
-681 -1581 0
-682 -1582 0
-683 -1583 0
-684 -1584 0
-685 -1585 0
-681 -2126 0
-682 -2127 0
-683 -2128 0
-684 -2129 0
-685 -2130 0
-681 -2321 0
-682 -2322 0
-683 -2323 0
-684 -2324 0
-685 -2325 0
-681 -2351 0
-682 -2352 0
-683 -2353 0
-684 -2354 0
-685 -2355 0
-681 -2426 0
-682 -2427 0
-683 -2428 0
-684 -2429 0
-685 -2430 0
-686 -696 0
-687 -697 0
-688 -698 0
-689 -699 0
-690 -700 0
-686 -1601 0
-687 -1602 0
-688 -1603 0
-689 -1604 0
-690 -1605 0
-686 -1836 0
-687 -1837 0
-688 -1838 0
-689 -1839 0
-690 -1840 0
-686 -2456 0
-687 -2457 0
-688 -2458 0
-689 -2459 0
-690 -2460 0
-691 -696 0
-692 -697 0
-693 -698 0
-694 -699 0
-695 -700 0
-691 -836 0
-692 -837 0
-693 -838 0
-694 -839 0
-695 -840 0
-691 -1841 0
-692 -1842 0
-693 -1843 0
-694 -1844 0
-695 -1845 0
-691 -2451 0
-692 -2452 0
-693 -2453 0
-694 -2454 0
-695 -2455 0
-691 -2461 0
-692 -2462 0
-693 -2463 0
-694 -2464 0
-695 -2465 0
-696 -981 0
-697 -982 0
-698 -983 0
-699 -984 0
-700 -985 0
-696 -1846 0
-697 -1847 0
-698 -1848 0
-699 -1849 0
-700 -1850 0
-696 -2456 0
-697 -2457 0
-698 -2458 0
-699 -2459 0
-700 -2460 0
-696 -2466 0
-697 -2467 0
-698 -2468 0
-699 -2469 0
-700 -2470 0
-701 -706 0
-702 -707 0
-703 -708 0
-704 -709 0
-705 -710 0
-701 -716 0
-702 -717 0
-703 -718 0
-704 -719 0
-705 -720 0
-701 -736 0
-702 -737 0
-703 -738 0
-704 -739 0
-705 -740 0
-701 -751 0
-702 -752 0
-703 -753 0
-704 -754 0
-705 -755 0
-701 -776 0
-702 -777 0
-703 -778 0
-704 -779 0
-705 -780 0
-701 -786 0
-702 -787 0
-703 -788 0
-704 -789 0
-705 -790 0
-701 -996 0
-702 -997 0
-703 -998 0
-704 -999 0
-705 -1000 0
-701 -1611 0
-702 -1612 0
-703 -1613 0
-704 -1614 0
-705 -1615 0
-701 -2176 0
-702 -2177 0
-703 -2178 0
-704 -2179 0
-705 -2180 0
-701 -2501 0
-702 -2502 0
-703 -2503 0
-704 -2504 0
-705 -2505 0
-706 -711 0
-707 -712 0
-708 -713 0
-709 -714 0
-710 -715 0
-706 -721 0
-707 -722 0
-708 -723 0
-709 -724 0
-710 -725 0
-706 -726 0
-707 -727 0
-708 -728 0
-709 -729 0
-710 -730 0
-706 -736 0
-707 -737 0
-708 -738 0
-709 -739 0
-710 -740 0
-706 -756 0
-707 -757 0
-708 -758 0
-709 -759 0
-710 -760 0
-706 -781 0
-707 -782 0
-708 -783 0
-709 -784 0
-710 -785 0
-706 -836 0
-707 -837 0
-708 -838 0
-709 -839 0
-710 -840 0
-706 -956 0
-707 -957 0
-708 -958 0
-709 -959 0
-710 -960 0
-706 -1346 0
-707 -1347 0
-708 -1348 0
-709 -1349 0
-710 -1350 0
-706 -1461 0
-707 -1462 0
-708 -1463 0
-709 -1464 0
-710 -1465 0
-706 -1661 0
-707 -1662 0
-708 -1663 0
-709 -1664 0
-710 -1665 0
-706 -2506 0
-707 -2507 0
-708 -2508 0
-709 -2509 0
-710 -2510 0
-706 -2746 0
-707 -2747 0
-708 -2748 0
-709 -2749 0
-710 -2750 0
-711 -741 0
-712 -742 0
-713 -743 0
-714 -744 0
-715 -745 0
-711 -756 0
-712 -757 0
-713 -758 0
-714 -759 0
-715 -760 0
-711 -961 0
-712 -962 0
-713 -963 0
-714 -964 0
-715 -965 0
-711 -1176 0
-712 -1177 0
-713 -1178 0
-714 -1179 0
-715 -1180 0
-711 -1351 0
-712 -1352 0
-713 -1353 0
-714 -1354 0
-715 -1355 0
-711 -1666 0
-712 -1667 0
-713 -1668 0
-714 -1669 0
-715 -1670 0
-711 -1701 0
-712 -1702 0
-713 -1703 0
-714 -1704 0
-715 -1705 0
-711 -2511 0
-712 -2512 0
-713 -2513 0
-714 -2514 0
-715 -2515 0
-711 -2581 0
-712 -2582 0
-713 -2583 0
-714 -2584 0
-715 -2585 0
-716 -721 0
-717 -722 0
-718 -723 0
-719 -724 0
-720 -725 0
-716 -791 0
-717 -792 0
-718 -793 0
-719 -794 0
-720 -795 0
-716 -1616 0
-717 -1617 0
-718 -1618 0
-719 -1619 0
-720 -1620 0
-716 -1726 0
-717 -1727 0
-718 -1728 0
-719 -1729 0
-720 -1730 0
-716 -2186 0
-717 -2187 0
-718 -2188 0
-719 -2189 0
-720 -2190 0
-716 -2501 0
-717 -2502 0
-718 -2503 0
-719 -2504 0
-720 -2505 0
-721 -796 0
-722 -797 0
-723 -798 0
-724 -799 0
-725 -800 0
-721 -1466 0
-722 -1467 0
-723 -1468 0
-724 -1469 0
-725 -1470 0
-721 -2506 0
-722 -2507 0
-723 -2508 0
-724 -2509 0
-725 -2510 0
-726 -846 0
-727 -847 0
-728 -848 0
-729 -849 0
-730 -850 0
-726 -1036 0
-727 -1037 0
-728 -1038 0
-729 -1039 0
-730 -1040 0
-726 -1371 0
-727 -1372 0
-728 -1373 0
-729 -1374 0
-730 -1375 0
-726 -1501 0
-727 -1502 0
-728 -1503 0
-729 -1504 0
-730 -1505 0
-726 -2521 0
-727 -2522 0
-728 -2523 0
-729 -2524 0
-730 -2525 0
-731 -741 0
-732 -742 0
-733 -743 0
-734 -744 0
-735 -745 0
-731 -766 0
-732 -767 0
-733 -768 0
-734 -769 0
-735 -770 0
-731 -1691 0
-732 -1692 0
-733 -1693 0
-734 -1694 0
-735 -1695 0
-731 -1881 0
-732 -1882 0
-733 -1883 0
-734 -1884 0
-735 -1885 0
-731 -2526 0
-732 -2527 0
-733 -2528 0
-734 -2529 0
-735 -2530 0
-731 -2606 0
-732 -2607 0
-733 -2608 0
-734 -2609 0
-735 -2610 0
-736 -741 0
-737 -742 0
-738 -743 0
-739 -744 0
-740 -745 0
-736 -771 0
-737 -772 0
-738 -773 0
-739 -774 0
-740 -775 0
-736 -906 0
-737 -907 0
-738 -908 0
-739 -909 0
-740 -910 0
-736 -1381 0
-737 -1382 0
-738 -1383 0
-739 -1384 0
-740 -1385 0
-736 -1626 0
-737 -1627 0
-738 -1628 0
-739 -1629 0
-740 -1630 0
-736 -1706 0
-737 -1707 0
-738 -1708 0
-739 -1709 0
-740 -1710 0
-736 -2191 0
-737 -2192 0
-738 -2193 0
-739 -2194 0
-740 -2195 0
-736 -2531 0
-737 -2532 0
-738 -2533 0
-739 -2534 0
-740 -2535 0
-741 -746 0
-742 -747 0
-743 -748 0
-744 -749 0
-745 -750 0
-741 -771 0
-742 -772 0
-743 -773 0
-744 -774 0
-745 -775 0
-741 -981 0
-742 -982 0
-743 -983 0
-744 -984 0
-745 -985 0
-741 -1231 0
-742 -1232 0
-743 -1233 0
-744 -1234 0
-745 -1235 0
-741 -1716 0
-742 -1717 0
-743 -1718 0
-744 -1719 0
-745 -1720 0
-741 -1886 0
-742 -1887 0
-743 -1888 0
-744 -1889 0
-745 -1890 0
-741 -2196 0
-742 -2197 0
-743 -2198 0
-744 -2199 0
-745 -2200 0
-741 -2526 0
-742 -2527 0
-743 -2528 0
-744 -2529 0
-745 -2530 0
-741 -2536 0
-742 -2537 0
-743 -2538 0
-744 -2539 0
-745 -2540 0
-741 -2616 0
-742 -2617 0
-743 -2618 0
-744 -2619 0
-745 -2620 0
-746 -1071 0
-747 -1072 0
-748 -1073 0
-749 -1074 0
-750 -1075 0
-746 -1911 0
-747 -1912 0
-748 -1913 0
-749 -1914 0
-750 -1915 0
-746 -2616 0
-747 -2617 0
-748 -2618 0
-749 -2619 0
-750 -2620 0
-751 -756 0
-752 -757 0
-753 -758 0
-754 -759 0
-755 -760 0
-751 -771 0
-752 -772 0
-753 -773 0
-754 -774 0
-755 -775 0
-751 -801 0
-752 -802 0
-753 -803 0
-754 -804 0
-755 -805 0
-751 -806 0
-752 -807 0
-753 -808 0
-754 -809 0
-755 -810 0
-751 -1091 0
-752 -1092 0
-753 -1093 0
-754 -1094 0
-755 -1095 0
-751 -1386 0
-752 -1387 0
-753 -1388 0
-754 -1389 0
-755 -1390 0
-751 -1656 0
-752 -1657 0
-753 -1658 0
-754 -1659 0
-755 -1660 0
-751 -1911 0
-752 -1912 0
-753 -1913 0
-754 -1914 0
-755 -1915 0
-751 -2211 0
-752 -2212 0
-753 -2213 0
-754 -2214 0
-755 -2215 0
-751 -2541 0
-752 -2542 0
-753 -2543 0
-754 -2544 0
-755 -2545 0
-756 -771 0
-757 -772 0
-758 -773 0
-759 -774 0
-760 -775 0
-756 -1261 0
-757 -1262 0
-758 -1263 0
-759 -1264 0
-760 -1265 0
-756 -1391 0
-757 -1392 0
-758 -1393 0
-759 -1394 0
-760 -1395 0
-756 -1916 0
-757 -1917 0
-758 -1918 0
-759 -1919 0
-760 -1920 0
-756 -2216 0
-757 -2217 0
-758 -2218 0
-759 -2219 0
-760 -2220 0
-756 -2546 0
-757 -2547 0
-758 -2548 0
-759 -2549 0
-760 -2550 0
-756 -2796 0
-757 -2797 0
-758 -2798 0
-759 -2799 0
-760 -2800 0
-761 -771 0
-762 -772 0
-763 -773 0
-764 -774 0
-765 -775 0
-761 -816 0
-762 -817 0
-763 -818 0
-764 -819 0
-765 -820 0
-761 -1136 0
-762 -1137 0
-763 -1138 0
-764 -1139 0
-765 -1140 0
-761 -1406 0
-762 -1407 0
-763 -1408 0
-764 -1409 0
-765 -1410 0
-761 -1671 0
-762 -1672 0
-763 -1673 0
-764 -1674 0
-765 -1675 0
-761 -2241 0
-762 -2242 0
-763 -2243 0
-764 -2244 0
-765 -2245 0
-761 -2471 0
-762 -2472 0
-763 -2473 0
-764 -2474 0
-765 -2475 0
-761 -2621 0
-762 -2622 0
-763 -2623 0
-764 -2624 0
-765 -2625 0
-761 -2646 0
-762 -2647 0
-763 -2648 0
-764 -2649 0
-765 -2650 0
-761 -2801 0
-762 -2802 0
-763 -2803 0
-764 -2804 0
-765 -2805 0
-766 -771 0
-767 -772 0
-768 -773 0
-769 -774 0
-770 -775 0
-766 -2251 0
-767 -2252 0
-768 -2253 0
-769 -2254 0
-770 -2255 0
-766 -2551 0
-767 -2552 0
-768 -2553 0
-769 -2554 0
-770 -2555 0
-766 -2661 0
-767 -2662 0
-768 -2663 0
-769 -2664 0
-770 -2665 0
-771 -821 0
-772 -822 0
-773 -823 0
-774 -824 0
-775 -825 0
-771 -1111 0
-772 -1112 0
-773 -1113 0
-774 -1114 0
-775 -1115 0
-771 -1271 0
-772 -1272 0
-773 -1273 0
-774 -1274 0
-775 -1275 0
-771 -1696 0
-772 -1697 0
-773 -1698 0
-774 -1699 0
-775 -1700 0
-771 -1921 0
-772 -1922 0
-773 -1923 0
-774 -1924 0
-775 -1925 0
-771 -2276 0
-772 -2277 0
-773 -2278 0
-774 -2279 0
-775 -2280 0
-771 -2471 0
-772 -2472 0
-773 -2473 0
-774 -2474 0
-775 -2475 0
-771 -2551 0
-772 -2552 0
-773 -2553 0
-774 -2554 0
-775 -2555 0
-771 -2556 0
-772 -2557 0
-773 -2558 0
-774 -2559 0
-775 -2560 0
-771 -2631 0
-772 -2632 0
-773 -2633 0
-774 -2634 0
-775 -2635 0
-771 -2666 0
-772 -2667 0
-773 -2668 0
-774 -2669 0
-775 -2670 0
-776 -781 0
-777 -782 0
-778 -783 0
-779 -784 0
-780 -785 0
-776 -786 0
-777 -787 0
-778 -788 0
-779 -789 0
-780 -790 0
-776 -791 0
-777 -792 0
-778 -793 0
-779 -794 0
-780 -795 0
-776 -801 0
-777 -802 0
-778 -803 0
-779 -804 0
-780 -805 0
-776 -861 0
-777 -862 0
-778 -863 0
-779 -864 0
-780 -865 0
-776 -871 0
-777 -872 0
-778 -873 0
-779 -874 0
-780 -875 0
-776 -1171 0
-777 -1172 0
-778 -1173 0
-779 -1174 0
-780 -1175 0
-776 -1431 0
-777 -1432 0
-778 -1433 0
-779 -1434 0
-780 -1435 0
-776 -1786 0
-777 -1787 0
-778 -1788 0
-779 -1789 0
-780 -1790 0
-776 -2276 0
-777 -2277 0
-778 -2278 0
-779 -2279 0
-780 -2280 0
-776 -2476 0
-777 -2477 0
-778 -2478 0
-779 -2479 0
-780 -2480 0
-776 -2486 0
-777 -2487 0
-778 -2488 0
-779 -2489 0
-780 -2490 0
-776 -2561 0
-777 -2562 0
-778 -2563 0
-779 -2564 0
-780 -2565 0
-781 -796 0
-782 -797 0
-783 -798 0
-784 -799 0
-785 -800 0
-781 -866 0
-782 -867 0
-783 -868 0
-784 -869 0
-785 -870 0
-781 -1436 0
-782 -1437 0
-783 -1438 0
-784 -1439 0
-785 -1440 0
-781 -1576 0
-782 -1577 0
-783 -1578 0
-784 -1579 0
-785 -1580 0
-781 -2281 0
-782 -2282 0
-783 -2283 0
-784 -2284 0
-785 -2285 0
-781 -2566 0
-782 -2567 0
-783 -2568 0
-784 -2569 0
-785 -2570 0
-781 -2811 0
-782 -2812 0
-783 -2813 0
-784 -2814 0
-785 -2815 0
-786 -806 0
-787 -807 0
-788 -808 0
-789 -809 0
-790 -810 0
-786 -1006 0
-787 -1007 0
-788 -1008 0
-789 -1009 0
-790 -1010 0
-786 -1176 0
-787 -1177 0
-788 -1178 0
-789 -1179 0
-790 -1180 0
-786 -1751 0
-787 -1752 0
-788 -1753 0
-789 -1754 0
-790 -1755 0
-786 -2291 0
-787 -2292 0
-788 -2293 0
-789 -2294 0
-790 -2295 0
-786 -2571 0
-787 -2572 0
-788 -2573 0
-789 -2574 0
-790 -2575 0
-791 -796 0
-792 -797 0
-793 -798 0
-794 -799 0
-795 -800 0
-791 -811 0
-792 -812 0
-793 -813 0
-794 -814 0
-795 -815 0
-791 -876 0
-792 -877 0
-793 -878 0
-794 -879 0
-795 -880 0
-791 -886 0
-792 -887 0
-793 -888 0
-794 -889 0
-795 -890 0
-791 -1026 0
-792 -1027 0
-793 -1028 0
-794 -1029 0
-795 -1030 0
-791 -1791 0
-792 -1792 0
-793 -1793 0
-794 -1794 0
-795 -1795 0
-791 -2321 0
-792 -2322 0
-793 -2323 0
-794 -2324 0
-795 -2325 0
-791 -2481 0
-792 -2482 0
-793 -2483 0
-794 -2484 0
-795 -2485 0
-791 -2491 0
-792 -2492 0
-793 -2493 0
-794 -2494 0
-795 -2495 0
-791 -2561 0
-792 -2562 0
-793 -2563 0
-794 -2564 0
-795 -2565 0
-796 -881 0
-797 -882 0
-798 -883 0
-799 -884 0
-800 -885 0
-796 -1581 0
-797 -1582 0
-798 -1583 0
-799 -1584 0
-800 -1585 0
-796 -2326 0
-797 -2327 0
-798 -2328 0
-799 -2329 0
-800 -2330 0
-796 -2566 0
-797 -2567 0
-798 -2568 0
-799 -2569 0
-800 -2570 0
-801 -806 0
-802 -807 0
-803 -808 0
-804 -809 0
-805 -810 0
-801 -811 0
-802 -812 0
-803 -813 0
-804 -814 0
-805 -815 0
-801 -931 0
-802 -932 0
-803 -933 0
-804 -934 0
-805 -935 0
-801 -1181 0
-802 -1182 0
-803 -1183 0
-804 -1184 0
-805 -1185 0
-801 -1481 0
-802 -1482 0
-803 -1483 0
-804 -1484 0
-805 -1485 0
-801 -1946 0
-802 -1947 0
-803 -1948 0
-804 -1949 0
-805 -1950 0
-801 -2391 0
-802 -2392 0
-803 -2393 0
-804 -2394 0
-805 -2395 0
-801 -2576 0
-802 -2577 0
-803 -2578 0
-804 -2579 0
-805 -2580 0
-806 -821 0
-807 -822 0
-808 -823 0
-809 -824 0
-810 -825 0
-806 -1101 0
-807 -1102 0
-808 -1103 0
-809 -1104 0
-810 -1105 0
-806 -1491 0
-807 -1492 0
-808 -1493 0
-809 -1494 0
-810 -1495 0
-806 -1951 0
-807 -1952 0
-808 -1953 0
-809 -1954 0
-810 -1955 0
-811 -936 0
-812 -937 0
-813 -938 0
-814 -939 0
-815 -940 0
-811 -1506 0
-812 -1507 0
-813 -1508 0
-814 -1509 0
-815 -1510 0
-811 -2401 0
-812 -2402 0
-813 -2403 0
-814 -2404 0
-815 -2405 0
-811 -2576 0
-812 -2577 0
-813 -2578 0
-814 -2579 0
-815 -2580 0
-816 -821 0
-817 -822 0
-818 -823 0
-819 -824 0
-820 -825 0
-816 -1216 0
-817 -1217 0
-818 -1218 0
-819 -1219 0
-820 -1220 0
-816 -1526 0
-817 -1527 0
-818 -1528 0
-819 -1529 0
-820 -1530 0
-816 -1816 0
-817 -1817 0
-818 -1818 0
-819 -1819 0
-820 -1820 0
-816 -1956 0
-817 -1957 0
-818 -1958 0
-819 -1959 0
-820 -1960 0
-816 -2681 0
-817 -2682 0
-818 -2683 0
-819 -2684 0
-820 -2685 0
-816 -2696 0
-817 -2697 0
-818 -2698 0
-819 -2699 0
-820 -2700 0
-816 -2861 0
-817 -2862 0
-818 -2863 0
-819 -2864 0
-820 -2865 0
-821 -1116 0
-822 -1117 0
-823 -1118 0
-824 -1119 0
-825 -1120 0
-821 -1286 0
-822 -1287 0
-823 -1288 0
-824 -1289 0
-825 -1290 0
-821 -1546 0
-822 -1547 0
-823 -1548 0
-824 -1549 0
-825 -1550 0
-821 -1966 0
-822 -1967 0
-823 -1968 0
-824 -1969 0
-825 -1970 0
-821 -2411 0
-822 -2412 0
-823 -2413 0
-824 -2414 0
-825 -2415 0
-826 -841 0
-827 -842 0
-828 -843 0
-829 -844 0
-830 -845 0
-826 -1831 0
-827 -1832 0
-828 -1833 0
-829 -1834 0
-830 -1835 0
-826 -1976 0
-827 -1977 0
-828 -1978 0
-829 -1979 0
-830 -1980 0
-826 -2586 0
-827 -2587 0
-828 -2588 0
-829 -2589 0
-830 -2590 0
-826 -2591 0
-827 -2592 0
-828 -2593 0
-829 -2594 0
-830 -2595 0
-831 -836 0
-832 -837 0
-833 -838 0
-834 -839 0
-835 -840 0
-831 -841 0
-832 -842 0
-833 -843 0
-834 -844 0
-835 -845 0
-831 -866 0
-832 -867 0
-833 -868 0
-834 -869 0
-835 -870 0
-831 -951 0
-832 -952 0
-833 -953 0
-834 -954 0
-835 -955 0
-831 -1486 0
-832 -1487 0
-833 -1488 0
-834 -1489 0
-835 -1490 0
-831 -2621 0
-832 -2622 0
-833 -2623 0
-834 -2624 0
-835 -2625 0
-836 -846 0
-837 -847 0
-838 -848 0
-839 -849 0
-840 -850 0
-836 -866 0
-837 -867 0
-838 -868 0
-839 -869 0
-840 -870 0
-836 -1131 0
-837 -1132 0
-838 -1133 0
-839 -1134 0
-840 -1135 0
-836 -1841 0
-837 -1842 0
-838 -1843 0
-839 -1844 0
-840 -1845 0
-836 -1986 0
-837 -1987 0
-838 -1988 0
-839 -1989 0
-840 -1990 0
-836 -2626 0
-837 -2627 0
-838 -2628 0
-839 -2629 0
-840 -2630 0
-841 -846 0
-842 -847 0
-843 -848 0
-844 -849 0
-845 -850 0
-841 -851 0
-842 -852 0
-843 -853 0
-844 -854 0
-845 -855 0
-841 -891 0
-842 -892 0
-843 -893 0
-844 -894 0
-845 -895 0
-841 -956 0
-842 -957 0
-843 -958 0
-844 -959 0
-845 -960 0
-841 -1601 0
-842 -1602 0
-843 -1603 0
-844 -1604 0
-845 -1605 0
-841 -2636 0
-842 -2637 0
-843 -2638 0
-844 -2639 0
-845 -2640 0
-841 -2646 0
-842 -2647 0
-843 -2648 0
-844 -2649 0
-845 -2650 0
-846 -891 0
-847 -892 0
-848 -893 0
-849 -894 0
-850 -895 0
-846 -1141 0
-847 -1142 0
-848 -1143 0
-849 -1144 0
-850 -1145 0
-846 -1526 0
-847 -1527 0
-848 -1528 0
-849 -1529 0
-850 -1530 0
-846 -2641 0
-847 -2642 0
-848 -2643 0
-849 -2644 0
-850 -2645 0
-846 -2656 0
-847 -2657 0
-848 -2658 0
-849 -2659 0
-850 -2660 0
-851 -1541 0
-852 -1542 0
-853 -1543 0
-854 -1544 0
-855 -1545 0
-851 -2441 0
-852 -2442 0
-853 -2443 0
-854 -2444 0
-855 -2445 0
-851 -2661 0
-852 -2662 0
-853 -2663 0
-854 -2664 0
-855 -2665 0
-851 -2666 0
-852 -2667 0
-853 -2668 0
-854 -2669 0
-855 -2670 0
-856 -861 0
-857 -862 0
-858 -863 0
-859 -864 0
-860 -865 0
-856 -866 0
-857 -867 0
-858 -868 0
-859 -869 0
-860 -870 0
-856 -2016 0
-857 -2017 0
-858 -2018 0
-859 -2019 0
-860 -2020 0
-856 -2671 0
-857 -2672 0
-858 -2673 0
-859 -2674 0
-860 -2675 0
-861 -866 0
-862 -867 0
-863 -868 0
-864 -869 0
-865 -870 0
-861 -871 0
-862 -872 0
-863 -873 0
-864 -874 0
-865 -875 0
-861 -876 0
-862 -877 0
-863 -878 0
-864 -879 0
-865 -880 0
-861 -991 0
-862 -992 0
-863 -993 0
-864 -994 0
-865 -995 0
-861 -1311 0
-862 -1312 0
-863 -1313 0
-864 -1314 0
-865 -1315 0
-861 -2031 0
-862 -2032 0
-863 -2033 0
-864 -2034 0
-865 -2035 0
-861 -2451 0
-862 -2452 0
-863 -2453 0
-864 -2454 0
-865 -2455 0
-861 -2596 0
-862 -2597 0
-863 -2598 0
-864 -2599 0
-865 -2600 0
-861 -2676 0
-862 -2677 0
-863 -2678 0
-864 -2679 0
-865 -2680 0
-866 -881 0
-867 -882 0
-868 -883 0
-869 -884 0
-870 -885 0
-866 -891 0
-867 -892 0
-868 -893 0
-869 -894 0
-870 -895 0
-866 -1191 0
-867 -1192 0
-868 -1193 0
-869 -1194 0
-870 -1195 0
-866 -2036 0
-867 -2037 0
-868 -2038 0
-869 -2039 0
-870 -2040 0
-866 -2041 0
-867 -2042 0
-868 -2043 0
-869 -2044 0
-870 -2045 0
-866 -2601 0
-867 -2602 0
-868 -2603 0
-869 -2604 0
-870 -2605 0
-866 -2681 0
-867 -2682 0
-868 -2683 0
-869 -2684 0
-870 -2685 0
-866 -2886 0
-867 -2887 0
-868 -2888 0
-869 -2889 0
-870 -2890 0
-871 -886 0
-872 -887 0
-873 -888 0
-874 -889 0
-875 -890 0
-871 -1016 0
-872 -1017 0
-873 -1018 0
-874 -1019 0
-875 -1020 0
-871 -1586 0
-872 -1587 0
-873 -1588 0
-874 -1589 0
-875 -1590 0
-871 -2456 0
-872 -2457 0
-873 -2458 0
-874 -2459 0
-875 -2460 0
-871 -2586 0
-872 -2587 0
-873 -2588 0
-874 -2589 0
-875 -2590 0
-871 -2606 0
-872 -2607 0
-873 -2608 0
-874 -2609 0
-875 -2610 0
-871 -2686 0
-872 -2687 0
-873 -2688 0
-874 -2689 0
-875 -2690 0
-876 -881 0
-877 -882 0
-878 -883 0
-879 -884 0
-880 -885 0
-876 -886 0
-877 -887 0
-878 -888 0
-879 -889 0
-880 -890 0
-876 -996 0
-877 -997 0
-878 -998 0
-879 -999 0
-880 -1000 0
-876 -1316 0
-877 -1317 0
-878 -1318 0
-879 -1319 0
-880 -1320 0
-876 -2461 0
-877 -2462 0
-878 -2463 0
-879 -2464 0
-880 -2465 0
-876 -2611 0
-877 -2612 0
-878 -2613 0
-879 -2614 0
-880 -2615 0
-876 -2676 0
-877 -2677 0
-878 -2678 0
-879 -2679 0
-880 -2680 0
-881 -1211 0
-882 -1212 0
-883 -1213 0
-884 -1214 0
-885 -1215 0
-881 -2681 0
-882 -2682 0
-883 -2683 0
-884 -2684 0
-885 -2685 0
-881 -2891 0
-882 -2892 0
-883 -2893 0
-884 -2894 0
-885 -2895 0
-886 -1041 0
-887 -1042 0
-888 -1043 0
-889 -1044 0
-890 -1045 0
-886 -1221 0
-887 -1222 0
-888 -1223 0
-889 -1224 0
-890 -1225 0
-886 -1591 0
-887 -1592 0
-888 -1593 0
-889 -1594 0
-890 -1595 0
-886 -1876 0
-887 -1877 0
-888 -1878 0
-889 -1879 0
-890 -1880 0
-886 -2466 0
-887 -2467 0
-888 -2468 0
-889 -2469 0
-890 -2470 0
-886 -2591 0
-887 -2592 0
-888 -2593 0
-889 -2594 0
-890 -2595 0
-886 -2616 0
-887 -2617 0
-888 -2618 0
-889 -2619 0
-890 -2620 0
-886 -2686 0
-887 -2687 0
-888 -2688 0
-889 -2689 0
-890 -2690 0
-891 -1011 0
-892 -1012 0
-893 -1013 0
-894 -1014 0
-895 -1015 0
-891 -1246 0
-892 -1247 0
-893 -1248 0
-894 -1249 0
-895 -1250 0
-891 -2046 0
-892 -2047 0
-893 -2048 0
-894 -2049 0
-895 -2050 0
-891 -2691 0
-892 -2692 0
-893 -2693 0
-894 -2694 0
-895 -2695 0
-891 -2696 0
-892 -2697 0
-893 -2698 0
-894 -2699 0
-895 -2700 0
-896 -901 0
-897 -902 0
-898 -903 0
-899 -904 0
-900 -905 0
-896 -951 0
-897 -952 0
-898 -953 0
-899 -954 0
-900 -955 0
-896 -961 0
-897 -962 0
-898 -963 0
-899 -964 0
-900 -965 0
-896 -1166 0
-897 -1167 0
-898 -1168 0
-899 -1169 0
-900 -1170 0
-896 -1656 0
-897 -1657 0
-898 -1658 0
-899 -1659 0
-900 -1660 0
-896 -1891 0
-897 -1892 0
-898 -1893 0
-899 -1894 0
-900 -1895 0
-896 -2701 0
-897 -2702 0
-898 -2703 0
-899 -2704 0
-900 -2705 0
-896 -2906 0
-897 -2907 0
-898 -2908 0
-899 -2909 0
-900 -2910 0
-901 -906 0
-902 -907 0
-903 -908 0
-904 -909 0
-905 -910 0
-901 -911 0
-902 -912 0
-903 -913 0
-904 -914 0
-905 -915 0
-901 -916 0
-902 -917 0
-903 -918 0
-904 -919 0
-905 -920 0
-901 -981 0
-902 -982 0
-903 -983 0
-904 -984 0
-905 -985 0
-901 -1211 0
-902 -1212 0
-903 -1213 0
-904 -1214 0
-905 -1215 0
-901 -1366 0
-902 -1367 0
-903 -1368 0
-904 -1369 0
-905 -1370 0
-901 -1691 0
-902 -1692 0
-903 -1693 0
-904 -1694 0
-905 -1695 0
-901 -2471 0
-902 -2472 0
-903 -2473 0
-904 -2474 0
-905 -2475 0
-901 -2476 0
-902 -2477 0
-903 -2478 0
-904 -2479 0
-905 -2480 0
-901 -2706 0
-902 -2707 0
-903 -2708 0
-904 -2709 0
-905 -2710 0
-901 -2736 0
-902 -2737 0
-903 -2738 0
-904 -2739 0
-905 -2740 0
-901 -2756 0
-902 -2757 0
-903 -2758 0
-904 -2759 0
-905 -2760 0
-906 -916 0
-907 -917 0
-908 -918 0
-909 -919 0
-910 -920 0
-906 -1141 0
-907 -1142 0
-908 -1143 0
-909 -1144 0
-910 -1145 0
-906 -1216 0
-907 -1217 0
-908 -1218 0
-909 -1219 0
-910 -1220 0
-906 -1381 0
-907 -1382 0
-908 -1383 0
-909 -1384 0
-910 -1385 0
-906 -2716 0
-907 -2717 0
-908 -2718 0
-909 -2719 0
-910 -2720 0
-906 -2741 0
-907 -2742 0
-908 -2743 0
-909 -2744 0
-910 -2745 0
-906 -2761 0
-907 -2762 0
-908 -2763 0
-909 -2764 0
-910 -2765 0
-911 -926 0
-912 -927 0
-913 -928 0
-914 -929 0
-915 -930 0
-911 -986 0
-912 -987 0
-913 -988 0
-914 -989 0
-915 -990 0
-911 -1716 0
-912 -1717 0
-913 -1718 0
-914 -1719 0
-915 -1720 0
-911 -2481 0
-912 -2482 0
-913 -2483 0
-914 -2484 0
-915 -2485 0
-911 -2706 0
-912 -2707 0
-913 -2708 0
-914 -2709 0
-915 -2710 0
-916 -921 0
-917 -922 0
-918 -923 0
-919 -924 0
-920 -925 0
-916 -926 0
-917 -927 0
-918 -928 0
-919 -929 0
-920 -930 0
-916 -1061 0
-917 -1062 0
-918 -1063 0
-919 -1064 0
-920 -1065 0
-916 -1246 0
-917 -1247 0
-918 -1248 0
-919 -1249 0
-920 -1250 0
-916 -1376 0
-917 -1377 0
-918 -1378 0
-919 -1379 0
-920 -1380 0
-916 -1636 0
-917 -1637 0
-918 -1638 0
-919 -1639 0
-920 -1640 0
-916 -2131 0
-917 -2132 0
-918 -2133 0
-919 -2134 0
-920 -2135 0
-916 -2721 0
-917 -2722 0
-918 -2723 0
-919 -2724 0
-920 -2725 0
-916 -2806 0
-917 -2807 0
-918 -2808 0
-919 -2809 0
-920 -2810 0
-921 -1061 0
-922 -1062 0
-923 -1063 0
-924 -1064 0
-925 -1065 0
-921 -1301 0
-922 -1302 0
-923 -1303 0
-924 -1304 0
-925 -1305 0
-921 -1641 0
-922 -1642 0
-923 -1643 0
-924 -1644 0
-925 -1645 0
-921 -1946 0
-922 -1947 0
-923 -1948 0
-924 -1949 0
-925 -1950 0
-921 -2136 0
-922 -2137 0
-923 -2138 0
-924 -2139 0
-925 -2140 0
-921 -2811 0
-922 -2812 0
-923 -2813 0
-924 -2814 0
-925 -2815 0
-926 -1071 0
-927 -1072 0
-928 -1073 0
-929 -1074 0
-930 -1075 0
-926 -1126 0
-927 -1127 0
-928 -1128 0
-929 -1129 0
-930 -1130 0
-926 -1251 0
-927 -1252 0
-928 -1253 0
-929 -1254 0
-930 -1255 0
-926 -1796 0
-927 -1797 0
-928 -1798 0
-929 -1799 0
-930 -1800 0
-926 -2141 0
-927 -2142 0
-928 -2143 0
-929 -2144 0
-930 -2145 0
-926 -2721 0
-927 -2722 0
-928 -2723 0
-929 -2724 0
-930 -2725 0
-931 -936 0
-932 -937 0
-933 -938 0
-934 -939 0
-935 -940 0
-931 -1076 0
-932 -1077 0
-933 -1078 0
-934 -1079 0
-935 -1080 0
-931 -1081 0
-932 -1082 0
-933 -1083 0
-934 -1084 0
-935 -1085 0
-931 -1651 0
-932 -1652 0
-933 -1653 0
-934 -1654 0
-935 -1655 0
-931 -2136 0
-932 -2137 0
-933 -2138 0
-934 -2139 0
-935 -2140 0
-936 -941 0
-937 -942 0
-938 -943 0
-939 -944 0
-940 -945 0
-936 -1091 0
-937 -1092 0
-938 -1093 0
-939 -1094 0
-940 -1095 0
-936 -1096 0
-937 -1097 0
-938 -1098 0
-939 -1099 0
-940 -1100 0
-936 -1256 0
-937 -1257 0
-938 -1258 0
-939 -1259 0
-940 -1260 0
-936 -1661 0
-937 -1662 0
-938 -1663 0
-939 -1664 0
-940 -1665 0
-936 -1966 0
-937 -1967 0
-938 -1968 0
-939 -1969 0
-940 -1970 0
-936 -2146 0
-937 -2147 0
-938 -2148 0
-939 -2149 0
-940 -2150 0
-936 -2546 0
-937 -2547 0
-938 -2548 0
-939 -2549 0
-940 -2550 0
-936 -2701 0
-937 -2702 0
-938 -2703 0
-939 -2704 0
-940 -2705 0
-936 -2961 0
-937 -2962 0
-938 -2963 0
-939 -2964 0
-940 -2965 0
-941 -1706 0
-942 -1707 0
-943 -1708 0
-944 -1709 0
-945 -1710 0
-941 -1931 0
-942 -1932 0
-943 -1933 0
-944 -1934 0
-945 -1935 0
-941 -2556 0
-942 -2557 0
-943 -2558 0
-944 -2559 0
-945 -2560 0
-941 -2561 0
-942 -2562 0
-943 -2563 0
-944 -2564 0
-945 -2565 0
-941 -2706 0
-942 -2707 0
-943 -2708 0
-944 -2709 0
-945 -2710 0
-946 -971 0
-947 -972 0
-948 -973 0
-949 -974 0
-950 -975 0
-946 -2731 0
-947 -2732 0
-948 -2733 0
-949 -2734 0
-950 -2735 0
-946 -2741 0
-947 -2742 0
-948 -2743 0
-949 -2744 0
-950 -2745 0
-951 -961 0
-952 -962 0
-953 -963 0
-954 -964 0
-955 -965 0
-951 -971 0
-952 -972 0
-953 -973 0
-954 -974 0
-955 -975 0
-951 -1486 0
-952 -1487 0
-953 -1488 0
-954 -1489 0
-955 -1490 0
-951 -2156 0
-952 -2157 0
-953 -2158 0
-954 -2159 0
-955 -2160 0
-951 -2771 0
-952 -2772 0
-953 -2773 0
-954 -2774 0
-955 -2775 0
-951 -3006 0
-952 -3007 0
-953 -3008 0
-954 -3009 0
-955 -3010 0
-956 -961 0
-957 -962 0
-958 -963 0
-959 -964 0
-960 -965 0
-956 -1011 0
-957 -1012 0
-958 -1013 0
-959 -1014 0
-960 -1015 0
-956 -1836 0
-957 -1837 0
-958 -1838 0
-959 -1839 0
-960 -1840 0
-956 -2776 0
-957 -2777 0
-958 -2778 0
-959 -2779 0
-960 -2780 0
-961 -966 0
-962 -967 0
-963 -968 0
-964 -969 0
-965 -970 0
-961 -976 0
-962 -977 0
-963 -978 0
-964 -979 0
-965 -980 0
-961 -981 0
-962 -982 0
-963 -983 0
-964 -984 0
-965 -985 0
-961 -1001 0
-962 -1002 0
-963 -1003 0
-964 -1004 0
-965 -1005 0
-961 -1021 0
-962 -1022 0
-963 -1023 0
-964 -1024 0
-965 -1025 0
-961 -1471 0
-962 -1472 0
-963 -1473 0
-964 -1474 0
-965 -1475 0
-961 -1671 0
-962 -1672 0
-963 -1673 0
-964 -1674 0
-965 -1675 0
-961 -1996 0
-962 -1997 0
-963 -1998 0
-964 -1999 0
-965 -2000 0
-961 -2781 0
-962 -2782 0
-963 -2783 0
-964 -2784 0
-965 -2785 0
-966 -986 0
-967 -987 0
-968 -988 0
-969 -989 0
-970 -990 0
-966 -1046 0
-967 -1047 0
-968 -1048 0
-969 -1049 0
-970 -1050 0
-966 -1476 0
-967 -1477 0
-968 -1478 0
-969 -1479 0
-970 -1480 0
-966 -2011 0
-967 -2012 0
-968 -2013 0
-969 -2014 0
-970 -2015 0
-966 -2781 0
-967 -2782 0
-968 -2783 0
-969 -2784 0
-970 -2785 0
-971 -976 0
-972 -977 0
-973 -978 0
-974 -979 0
-975 -980 0
-971 -1491 0
-972 -1492 0
-973 -1493 0
-974 -1494 0
-975 -1495 0
-971 -2166 0
-972 -2167 0
-973 -2168 0
-974 -2169 0
-975 -2170 0
-971 -2791 0
-972 -2792 0
-973 -2793 0
-974 -2794 0
-975 -2795 0
-976 -1331 0
-977 -1332 0
-978 -1333 0
-979 -1334 0
-980 -1335 0
-976 -1501 0
-977 -1502 0
-978 -1503 0
-979 -1504 0
-980 -1505 0
-976 -1696 0
-977 -1697 0
-978 -1698 0
-979 -1699 0
-980 -1700 0
-976 -2796 0
-977 -2797 0
-978 -2798 0
-979 -2799 0
-980 -2800 0
-981 -986 0
-982 -987 0
-983 -988 0
-984 -989 0
-985 -990 0
-981 -1061 0
-982 -1062 0
-983 -1063 0
-984 -1064 0
-985 -1065 0
-981 -1531 0
-982 -1532 0
-983 -1533 0
-984 -1534 0
-985 -1535 0
-981 -1731 0
-982 -1732 0
-983 -1733 0
-984 -1734 0
-985 -1735 0
-981 -2171 0
-982 -2172 0
-983 -2173 0
-984 -2174 0
-985 -2175 0
-981 -2586 0
-982 -2587 0
-983 -2588 0
-984 -2589 0
-985 -2590 0
-981 -2801 0
-982 -2802 0
-983 -2803 0
-984 -2804 0
-985 -2805 0
-986 -1071 0
-987 -1072 0
-988 -1073 0
-989 -1074 0
-990 -1075 0
-986 -1736 0
-987 -1737 0
-988 -1738 0
-989 -1739 0
-990 -1740 0
-986 -2181 0
-987 -2182 0
-988 -2183 0
-989 -2184 0
-990 -2185 0
-986 -2591 0
-987 -2592 0
-988 -2593 0
-989 -2594 0
-990 -2595 0
-986 -2801 0
-987 -2802 0
-988 -2803 0
-989 -2804 0
-990 -2805 0
-991 -996 0
-992 -997 0
-993 -998 0
-994 -999 0
-995 -1000 0
-991 -1006 0
-992 -1007 0
-993 -1008 0
-994 -1009 0
-995 -1010 0
-991 -1076 0
-992 -1077 0
-993 -1078 0
-994 -1079 0
-995 -1080 0
-991 -1746 0
-992 -1747 0
-993 -1748 0
-994 -1749 0
-995 -1750 0
-991 -2191 0
-992 -2192 0
-993 -2193 0
-994 -2194 0
-995 -2195 0
-991 -2731 0
-992 -2732 0
-993 -2733 0
-994 -2734 0
-995 -2735 0
-991 -2816 0
-992 -2817 0
-993 -2818 0
-994 -2819 0
-995 -2820 0
-996 -1031 0
-997 -1032 0
-998 -1033 0
-999 -1034 0
-1000 -1035 0
-996 -1086 0
-997 -1087 0
-998 -1088 0
-999 -1089 0
-1000 -1090 0
-996 -1091 0
-997 -1092 0
-998 -1093 0
-999 -1094 0
-1000 -1095 0
-996 -1756 0
-997 -1757 0
-998 -1758 0
-999 -1759 0
-1000 -1760 0
-996 -2201 0
-997 -2202 0
-998 -2203 0
-999 -2204 0
-1000 -2205 0
-996 -2626 0
-997 -2627 0
-998 -2628 0
-999 -2629 0
-1000 -2630 0
-996 -2726 0
-997 -2727 0
-998 -2728 0
-999 -2729 0
-1000 -2730 0
-996 -2741 0
-997 -2742 0
-998 -2743 0
-999 -2744 0
-1000 -2745 0
-996 -2816 0
-997 -2817 0
-998 -2818 0
-999 -2819 0
-1000 -2820 0
-996 -2821 0
-997 -2822 0
-998 -2823 0
-999 -2824 0
-1000 -2825 0
-1001 -1021 0
-1002 -1022 0
-1003 -1023 0
-1004 -1024 0
-1005 -1025 0
-1001 -1446 0
-1002 -1447 0
-1003 -1448 0
-1004 -1449 0
-1005 -1450 0
-1001 -2081 0
-1002 -2082 0
-1003 -2083 0
-1004 -2084 0
-1005 -2085 0
-1001 -2826 0
-1002 -2827 0
-1003 -2828 0
-1004 -2829 0
-1005 -2830 0
-1006 -1011 0
-1007 -1012 0
-1008 -1013 0
-1009 -1014 0
-1010 -1015 0
-1006 -1016 0
-1007 -1017 0
-1008 -1018 0
-1009 -1019 0
-1010 -1020 0
-1006 -1031 0
-1007 -1032 0
-1008 -1033 0
-1009 -1034 0
-1010 -1035 0
-1006 -1056 0
-1007 -1057 0
-1008 -1058 0
-1009 -1059 0
-1010 -1060 0
-1006 -1101 0
-1007 -1102 0
-1008 -1103 0
-1009 -1104 0
-1010 -1105 0
-1006 -1471 0
-1007 -1472 0
-1008 -1473 0
-1009 -1474 0
-1010 -1475 0
-1006 -2641 0
-1007 -2642 0
-1008 -2643 0
-1009 -2644 0
-1010 -2645 0
-1006 -2751 0
-1007 -2752 0
-1008 -2753 0
-1009 -2754 0
-1010 -2755 0
-1006 -2831 0
-1007 -2832 0
-1008 -2833 0
-1009 -2834 0
-1010 -2835 0
-1011 -1021 0
-1012 -1022 0
-1013 -1023 0
-1014 -1024 0
-1015 -1025 0
-1011 -1036 0
-1012 -1037 0
-1013 -1038 0
-1014 -1039 0
-1015 -1040 0
-1011 -1056 0
-1012 -1057 0
-1013 -1058 0
-1014 -1059 0
-1015 -1060 0
-1011 -1356 0
-1012 -1357 0
-1013 -1358 0
-1014 -1359 0
-1015 -1360 0
-1011 -1851 0
-1012 -1852 0
-1013 -1853 0
-1014 -1854 0
-1015 -1855 0
-1011 -2046 0
-1012 -2047 0
-1013 -2048 0
-1014 -2049 0
-1015 -2050 0
-1011 -2836 0
-1012 -2837 0
-1013 -2838 0
-1014 -2839 0
-1015 -2840 0
-1016 -1021 0
-1017 -1022 0
-1018 -1023 0
-1019 -1024 0
-1020 -1025 0
-1016 -1041 0
-1017 -1042 0
-1018 -1043 0
-1019 -1044 0
-1020 -1045 0
-1016 -1061 0
-1017 -1062 0
-1018 -1063 0
-1019 -1064 0
-1020 -1065 0
-1016 -1101 0
-1017 -1102 0
-1018 -1103 0
-1019 -1104 0
-1020 -1105 0
-1016 -1586 0
-1017 -1587 0
-1018 -1588 0
-1019 -1589 0
-1020 -1590 0
-1016 -2211 0
-1017 -2212 0
-1018 -2213 0
-1019 -2214 0
-1020 -2215 0
-1016 -2841 0
-1017 -2842 0
-1018 -2843 0
-1019 -2844 0
-1020 -2845 0
-1021 -1046 0
-1022 -1047 0
-1023 -1048 0
-1024 -1049 0
-1025 -1050 0
-1021 -1061 0
-1022 -1062 0
-1023 -1063 0
-1024 -1064 0
-1025 -1065 0
-1021 -1361 0
-1022 -1362 0
-1023 -1363 0
-1024 -1364 0
-1025 -1365 0
-1021 -2051 0
-1022 -2052 0
-1023 -2053 0
-1024 -2054 0
-1025 -2055 0
-1021 -2216 0
-1022 -2217 0
-1023 -2218 0
-1024 -2219 0
-1025 -2220 0
-1021 -2846 0
-1022 -2847 0
-1023 -2848 0
-1024 -2849 0
-1025 -2850 0
-1026 -1031 0
-1027 -1032 0
-1028 -1033 0
-1029 -1034 0
-1030 -1035 0
-1026 -2086 0
-1027 -2087 0
-1028 -2088 0
-1029 -2089 0
-1030 -2090 0
-1026 -2646 0
-1027 -2647 0
-1028 -2648 0
-1029 -2649 0
-1030 -2650 0
-1026 -2756 0
-1027 -2757 0
-1028 -2758 0
-1029 -2759 0
-1030 -2760 0
-1031 -1036 0
-1032 -1037 0
-1033 -1038 0
-1034 -1039 0
-1035 -1040 0
-1031 -1041 0
-1032 -1042 0
-1033 -1043 0
-1034 -1044 0
-1035 -1045 0
-1031 -1051 0
-1032 -1052 0
-1033 -1053 0
-1034 -1054 0
-1035 -1055 0
-1031 -1066 0
-1032 -1067 0
-1033 -1068 0
-1034 -1069 0
-1035 -1070 0
-1031 -1106 0
-1032 -1107 0
-1033 -1108 0
-1034 -1109 0
-1035 -1110 0
-1031 -1366 0
-1032 -1367 0
-1033 -1368 0
-1034 -1369 0
-1035 -1370 0
-1031 -1476 0
-1032 -1477 0
-1033 -1478 0
-1034 -1479 0
-1035 -1480 0
-1031 -1771 0
-1032 -1772 0
-1033 -1773 0
-1034 -1774 0
-1035 -1775 0
-1031 -1861 0
-1032 -1862 0
-1033 -1863 0
-1034 -1864 0
-1035 -1865 0
-1031 -2016 0
-1032 -2017 0
-1033 -2018 0
-1034 -2019 0
-1035 -2020 0
-1031 -2656 0
-1032 -2657 0
-1033 -2658 0
-1034 -2659 0
-1035 -2660 0
-1031 -2761 0
-1032 -2762 0
-1033 -2763 0
-1034 -2764 0
-1035 -2765 0
-1031 -2831 0
-1032 -2832 0
-1033 -2833 0
-1034 -2834 0
-1035 -2835 0
-1031 -2851 0
-1032 -2852 0
-1033 -2853 0
-1034 -2854 0
-1035 -2855 0
-1036 -1046 0
-1037 -1047 0
-1038 -1048 0
-1039 -1049 0
-1040 -1050 0
-1036 -1066 0
-1037 -1067 0
-1038 -1068 0
-1039 -1069 0
-1040 -1070 0
-1036 -1371 0
-1037 -1372 0
-1038 -1373 0
-1039 -1374 0
-1040 -1375 0
-1036 -1866 0
-1037 -1867 0
-1038 -1868 0
-1039 -1869 0
-1040 -1870 0
-1036 -2056 0
-1037 -2057 0
-1038 -2058 0
-1039 -2059 0
-1040 -2060 0
-1036 -2836 0
-1037 -2837 0
-1038 -2838 0
-1039 -2839 0
-1040 -2840 0
-1036 -3046 0
-1037 -3047 0
-1038 -3048 0
-1039 -3049 0
-1040 -3050 0
-1041 -1046 0
-1042 -1047 0
-1043 -1048 0
-1044 -1049 0
-1045 -1050 0
-1041 -1071 0
-1042 -1072 0
-1043 -1073 0
-1044 -1074 0
-1045 -1075 0
-1041 -1106 0
-1042 -1107 0
-1043 -1108 0
-1044 -1109 0
-1045 -1110 0
-1041 -1176 0
-1042 -1177 0
-1043 -1178 0
-1044 -1179 0
-1045 -1180 0
-1041 -1591 0
-1042 -1592 0
-1043 -1593 0
-1044 -1594 0
-1045 -1595 0
-1041 -2101 0
-1042 -2102 0
-1043 -2103 0
-1044 -2104 0
-1045 -2105 0
-1041 -2221 0
-1042 -2222 0
-1043 -2223 0
-1044 -2224 0
-1045 -2225 0
-1041 -2841 0
-1042 -2842 0
-1043 -2843 0
-1044 -2844 0
-1045 -2845 0
-1046 -1071 0
-1047 -1072 0
-1048 -1073 0
-1049 -1074 0
-1050 -1075 0
-1046 -1376 0
-1047 -1377 0
-1048 -1378 0
-1049 -1379 0
-1050 -1380 0
-1046 -2061 0
-1047 -2062 0
-1048 -2063 0
-1049 -2064 0
-1050 -2065 0
-1046 -2226 0
-1047 -2227 0
-1048 -2228 0
-1049 -2229 0
-1050 -2230 0
-1046 -2846 0
-1047 -2847 0
-1048 -2848 0
-1049 -2849 0
-1050 -2850 0
-1051 -1521 0
-1052 -1522 0
-1053 -1523 0
-1054 -1524 0
-1055 -1525 0
-1051 -1791 0
-1052 -1792 0
-1053 -1793 0
-1054 -1794 0
-1055 -1795 0
-1051 -2026 0
-1052 -2027 0
-1053 -2028 0
-1054 -2029 0
-1055 -2030 0
-1051 -2761 0
-1052 -2762 0
-1053 -2763 0
-1054 -2764 0
-1055 -2765 0
-1056 -1061 0
-1057 -1062 0
-1058 -1063 0
-1059 -1064 0
-1060 -1065 0
-1056 -1066 0
-1057 -1067 0
-1058 -1068 0
-1059 -1069 0
-1060 -1070 0
-1056 -1116 0
-1057 -1117 0
-1058 -1118 0
-1059 -1119 0
-1060 -1120 0
-1056 -1536 0
-1057 -1537 0
-1058 -1538 0
-1059 -1539 0
-1060 -1540 0
-1056 -2086 0
-1057 -2087 0
-1058 -2088 0
-1059 -2089 0
-1060 -2090 0
-1056 -2266 0
-1057 -2267 0
-1058 -2268 0
-1059 -2269 0
-1060 -2270 0
-1056 -2856 0
-1057 -2857 0
-1058 -2858 0
-1059 -2859 0
-1060 -2860 0
-1061 -1071 0
-1062 -1072 0
-1063 -1073 0
-1064 -1074 0
-1065 -1075 0
-1061 -1116 0
-1062 -1117 0
-1063 -1118 0
-1064 -1119 0
-1065 -1120 0
-1061 -1206 0
-1062 -1207 0
-1063 -1208 0
-1064 -1209 0
-1065 -1210 0
-1061 -1456 0
-1062 -1457 0
-1063 -1458 0
-1064 -1459 0
-1065 -1460 0
-1061 -1831 0
-1062 -1832 0
-1063 -1833 0
-1064 -1834 0
-1065 -1835 0
-1061 -2091 0
-1062 -2092 0
-1063 -2093 0
-1064 -2094 0
-1065 -2095 0
-1061 -2276 0
-1062 -2277 0
-1063 -2278 0
-1064 -2279 0
-1065 -2280 0
-1061 -2861 0
-1062 -2862 0
-1063 -2863 0
-1064 -2864 0
-1065 -2865 0
-1061 -2886 0
-1062 -2887 0
-1063 -2888 0
-1064 -2889 0
-1065 -2890 0
-1066 -1071 0
-1067 -1072 0
-1068 -1073 0
-1069 -1074 0
-1070 -1075 0
-1066 -1121 0
-1067 -1122 0
-1068 -1123 0
-1069 -1124 0
-1070 -1125 0
-1066 -1876 0
-1067 -1877 0
-1068 -1878 0
-1069 -1879 0
-1070 -1880 0
-1066 -2036 0
-1067 -2037 0
-1068 -2038 0
-1069 -2039 0
-1070 -2040 0
-1066 -2311 0
-1067 -2312 0
-1068 -2313 0
-1069 -2314 0
-1070 -2315 0
-1066 -2856 0
-1067 -2857 0
-1068 -2858 0
-1069 -2859 0
-1070 -2860 0
-1071 -1121 0
-1072 -1122 0
-1073 -1123 0
-1074 -1124 0
-1075 -1125 0
-1071 -1236 0
-1072 -1237 0
-1073 -1238 0
-1074 -1239 0
-1075 -1240 0
-1071 -2321 0
-1072 -2322 0
-1073 -2323 0
-1074 -2324 0
-1075 -2325 0
-1071 -2861 0
-1072 -2862 0
-1073 -2863 0
-1074 -2864 0
-1075 -2865 0
-1071 -2891 0
-1072 -2892 0
-1073 -2893 0
-1074 -2894 0
-1075 -2895 0
-1076 -1081 0
-1077 -1082 0
-1078 -1083 0
-1079 -1084 0
-1080 -1085 0
-1076 -1091 0
-1077 -1092 0
-1078 -1093 0
-1079 -1094 0
-1080 -1095 0
-1076 -1101 0
-1077 -1102 0
-1078 -1103 0
-1079 -1104 0
-1080 -1105 0
-1076 -2276 0
-1077 -2277 0
-1078 -2278 0
-1079 -2279 0
-1080 -2280 0
-1076 -2866 0
-1077 -2867 0
-1078 -2868 0
-1079 -2869 0
-1080 -2870 0
-1081 -1096 0
-1082 -1097 0
-1083 -1098 0
-1084 -1099 0
-1085 -1100 0
-1081 -1461 0
-1082 -1462 0
-1083 -1463 0
-1084 -1464 0
-1085 -1465 0
-1081 -1836 0
-1082 -1837 0
-1083 -1838 0
-1084 -1839 0
-1085 -1840 0
-1081 -2296 0
-1082 -2297 0
-1083 -2298 0
-1084 -2299 0
-1085 -2300 0
-1086 -1091 0
-1087 -1092 0
-1088 -1093 0
-1089 -1094 0
-1090 -1095 0
-1086 -2041 0
-1087 -2042 0
-1088 -2043 0
-1089 -2044 0
-1090 -2045 0
-1086 -2311 0
-1087 -2312 0
-1088 -2313 0
-1089 -2314 0
-1090 -2315 0
-1086 -2766 0
-1087 -2767 0
-1088 -2768 0
-1089 -2769 0
-1090 -2770 0
-1086 -2786 0
-1087 -2787 0
-1088 -2788 0
-1089 -2789 0
-1090 -2790 0
-1086 -3056 0
-1087 -3057 0
-1088 -3058 0
-1089 -3059 0
-1090 -3060 0
-1091 -1096 0
-1092 -1097 0
-1093 -1098 0
-1094 -1099 0
-1095 -1100 0
-1091 -1106 0
-1092 -1107 0
-1093 -1108 0
-1094 -1109 0
-1095 -1110 0
-1091 -1111 0
-1092 -1112 0
-1093 -1113 0
-1094 -1114 0
-1095 -1115 0
-1091 -1386 0
-1092 -1387 0
-1093 -1388 0
-1094 -1389 0
-1095 -1390 0
-1091 -1841 0
-1092 -1842 0
-1093 -1843 0
-1094 -1844 0
-1095 -1845 0
-1091 -2321 0
-1092 -2322 0
-1093 -2323 0
-1094 -2324 0
-1095 -2325 0
-1091 -2671 0
-1092 -2672 0
-1093 -2673 0
-1094 -2674 0
-1095 -2675 0
-1091 -2771 0
-1092 -2772 0
-1093 -2773 0
-1094 -2774 0
-1095 -2775 0
-1091 -2791 0
-1092 -2792 0
-1093 -2793 0
-1094 -2794 0
-1095 -2795 0
-1091 -2866 0
-1092 -2867 0
-1093 -2868 0
-1094 -2869 0
-1095 -2870 0
-1091 -2871 0
-1092 -2872 0
-1093 -2873 0
-1094 -2874 0
-1095 -2875 0
-1091 -2896 0
-1092 -2897 0
-1093 -2898 0
-1094 -2899 0
-1095 -2900 0
-1091 -3061 0
-1092 -3062 0
-1093 -3063 0
-1094 -3064 0
-1095 -3065 0
-1096 -1396 0
-1097 -1397 0
-1098 -1398 0
-1099 -1399 0
-1100 -1400 0
-1096 -1466 0
-1097 -1467 0
-1098 -1468 0
-1099 -1469 0
-1100 -1470 0
-1096 -1806 0
-1097 -1807 0
-1098 -1808 0
-1099 -1809 0
-1100 -1810 0
-1096 -1846 0
-1097 -1847 0
-1098 -1848 0
-1099 -1849 0
-1100 -1850 0
-1096 -2121 0
-1097 -2122 0
-1098 -2123 0
-1099 -2124 0
-1100 -2125 0
-1096 -2341 0
-1097 -2342 0
-1098 -2343 0
-1099 -2344 0
-1100 -2345 0
-1096 -2781 0
-1097 -2782 0
-1098 -2783 0
-1099 -2784 0
-1100 -2785 0
-1096 -2796 0
-1097 -2797 0
-1098 -2798 0
-1099 -2799 0
-1100 -2800 0
-1101 -1106 0
-1102 -1107 0
-1103 -1108 0
-1104 -1109 0
-1105 -1110 0
-1101 -1116 0
-1102 -1117 0
-1103 -1118 0
-1104 -1119 0
-1105 -1120 0
-1101 -1491 0
-1102 -1492 0
-1103 -1493 0
-1104 -1494 0
-1105 -1495 0
-1101 -2356 0
-1102 -2357 0
-1103 -2358 0
-1104 -2359 0
-1105 -2360 0
-1101 -2876 0
-1102 -2877 0
-1103 -2878 0
-1104 -2879 0
-1105 -2880 0
-1106 -1121 0
-1107 -1122 0
-1108 -1123 0
-1109 -1124 0
-1110 -1125 0
-1106 -1261 0
-1107 -1262 0
-1108 -1263 0
-1109 -1264 0
-1110 -1265 0
-1106 -1511 0
-1107 -1512 0
-1108 -1513 0
-1109 -1514 0
-1110 -1515 0
-1106 -1816 0
-1107 -1817 0
-1108 -1818 0
-1109 -1819 0
-1110 -1820 0
-1106 -2051 0
-1107 -2052 0
-1108 -2053 0
-1109 -2054 0
-1110 -2055 0
-1106 -2361 0
-1107 -2362 0
-1108 -2363 0
-1109 -2364 0
-1110 -2365 0
-1106 -2876 0
-1107 -2877 0
-1108 -2878 0
-1109 -2879 0
-1110 -2880 0
-1106 -2896 0
-1107 -2897 0
-1108 -2898 0
-1109 -2899 0
-1110 -2900 0
-1106 -3071 0
-1107 -3072 0
-1108 -3073 0
-1109 -3074 0
-1110 -3075 0
-1111 -1121 0
-1112 -1122 0
-1113 -1123 0
-1114 -1124 0
-1115 -1125 0
-1111 -1596 0
-1112 -1597 0
-1113 -1598 0
-1114 -1599 0
-1115 -1600 0
-1111 -2381 0
-1112 -2382 0
-1113 -2383 0
-1114 -2384 0
-1115 -2385 0
-1111 -2681 0
-1112 -2682 0
-1113 -2683 0
-1114 -2684 0
-1115 -2685 0
-1116 -1121 0
-1117 -1122 0
-1118 -1123 0
-1119 -1124 0
-1120 -1125 0
-1116 -1266 0
-1117 -1267 0
-1118 -1268 0
-1119 -1269 0
-1120 -1270 0
-1116 -1546 0
-1117 -1547 0
-1118 -1548 0
-1119 -1549 0
-1120 -1550 0
-1116 -2081 0
-1117 -2082 0
-1118 -2083 0
-1119 -2084 0
-1120 -2085 0
-1116 -2386 0
-1117 -2387 0
-1118 -2388 0
-1119 -2389 0
-1120 -2390 0
-1116 -2691 0
-1117 -2692 0
-1118 -2693 0
-1119 -2694 0
-1120 -2695 0
-1116 -2881 0
-1117 -2882 0
-1118 -2883 0
-1119 -2884 0
-1120 -2885 0
-1121 -1276 0
-1122 -1277 0
-1123 -1278 0
-1124 -1279 0
-1125 -1280 0
-1121 -1561 0
-1122 -1562 0
-1123 -1563 0
-1124 -1564 0
-1125 -1565 0
-1121 -2096 0
-1122 -2097 0
-1123 -2098 0
-1124 -2099 0
-1125 -2100 0
-1121 -2396 0
-1122 -2397 0
-1123 -2398 0
-1124 -2399 0
-1125 -2400 0
-1121 -2696 0
-1122 -2697 0
-1123 -2698 0
-1124 -2699 0
-1125 -2700 0
-1121 -2881 0
-1122 -2882 0
-1123 -2883 0
-1124 -2884 0
-1125 -2885 0
-1126 -1216 0
-1127 -1217 0
-1128 -1218 0
-1129 -1219 0
-1130 -1220 0
-1126 -1236 0
-1127 -1237 0
-1128 -1238 0
-1129 -1239 0
-1130 -1240 0
-1126 -1371 0
-1127 -1372 0
-1128 -1373 0
-1129 -1374 0
-1130 -1375 0
-1126 -1941 0
-1127 -1942 0
-1128 -1943 0
-1129 -1944 0
-1130 -1945 0
-1126 -2141 0
-1127 -2142 0
-1128 -2143 0
-1129 -2144 0
-1130 -2145 0
-1131 -1136 0
-1132 -1137 0
-1133 -1138 0
-1134 -1139 0
-1135 -1140 0
-1131 -1141 0
-1132 -1142 0
-1133 -1143 0
-1134 -1144 0
-1135 -1145 0
-1131 -1191 0
-1132 -1192 0
-1133 -1193 0
-1134 -1194 0
-1135 -1195 0
-1131 -1196 0
-1132 -1197 0
-1133 -1198 0
-1134 -1199 0
-1135 -1200 0
-1131 -1686 0
-1132 -1687 0
-1133 -1688 0
-1134 -1689 0
-1135 -1690 0
-1131 -1891 0
-1132 -1892 0
-1133 -1893 0
-1134 -1894 0
-1135 -1895 0
-1131 -2921 0
-1132 -2922 0
-1133 -2923 0
-1134 -2924 0
-1135 -2925 0
-1131 -3001 0
-1132 -3002 0
-1133 -3003 0
-1134 -3004 0
-1135 -3005 0
-1136 -1146 0
-1137 -1147 0
-1138 -1148 0
-1139 -1149 0
-1140 -1150 0
-1136 -1211 0
-1137 -1212 0
-1138 -1213 0
-1139 -1214 0
-1140 -1215 0
-1136 -1216 0
-1137 -1217 0
-1138 -1218 0
-1139 -1219 0
-1140 -1220 0
-1136 -1711 0
-1137 -1712 0
-1138 -1713 0
-1139 -1714 0
-1140 -1715 0
-1136 -1906 0
-1137 -1907 0
-1138 -1908 0
-1139 -1909 0
-1140 -1910 0
-1136 -2726 0
-1137 -2727 0
-1138 -2728 0
-1139 -2729 0
-1140 -2730 0
-1136 -2921 0
-1137 -2922 0
-1138 -2923 0
-1139 -2924 0
-1140 -2925 0
-1136 -3011 0
-1137 -3012 0
-1138 -3013 0
-1139 -3014 0
-1140 -3015 0
-1141 -1146 0
-1142 -1147 0
-1143 -1148 0
-1144 -1149 0
-1145 -1150 0
-1141 -1151 0
-1142 -1152 0
-1143 -1153 0
-1144 -1154 0
-1145 -1155 0
-1141 -1246 0
-1142 -1247 0
-1143 -1248 0
-1144 -1249 0
-1145 -1250 0
-1141 -1526 0
-1142 -1527 0
-1143 -1528 0
-1144 -1529 0
-1145 -1530 0
-1141 -1991 0
-1142 -1992 0
-1143 -1993 0
-1144 -1994 0
-1145 -1995 0
-1141 -2926 0
-1142 -2927 0
-1143 -2928 0
-1144 -2929 0
-1145 -2930 0
-1141 -3001 0
-1142 -3002 0
-1143 -3003 0
-1144 -3004 0
-1145 -3005 0
-1146 -1251 0
-1147 -1252 0
-1148 -1253 0
-1149 -1254 0
-1150 -1255 0
-1146 -2006 0
-1147 -2007 0
-1148 -2008 0
-1149 -2009 0
-1150 -2010 0
-1146 -2156 0
-1147 -2157 0
-1148 -2158 0
-1149 -2159 0
-1150 -2160 0
-1146 -2926 0
-1147 -2927 0
-1148 -2928 0
-1149 -2929 0
-1150 -2930 0
-1146 -3011 0
-1147 -3012 0
-1148 -3013 0
-1149 -3014 0
-1150 -3015 0
-1151 -1546 0
-1152 -1547 0
-1153 -1548 0
-1154 -1549 0
-1155 -1550 0
-1151 -2161 0
-1152 -2162 0
-1153 -2163 0
-1154 -2164 0
-1155 -2165 0
-1151 -2751 0
-1152 -2752 0
-1153 -2753 0
-1154 -2754 0
-1155 -2755 0
-1151 -2931 0
-1152 -2932 0
-1153 -2933 0
-1154 -2934 0
-1155 -2935 0
-1156 -1171 0
-1157 -1172 0
-1158 -1173 0
-1159 -1174 0
-1160 -1175 0
-1156 -1201 0
-1157 -1202 0
-1158 -1203 0
-1159 -1204 0
-1160 -1205 0
-1156 -1611 0
-1157 -1612 0
-1158 -1613 0
-1159 -1614 0
-1160 -1615 0
-1156 -2251 0
-1157 -2252 0
-1158 -2253 0
-1159 -2254 0
-1160 -2255 0
-1156 -2941 0
-1157 -2942 0
-1158 -2943 0
-1159 -2944 0
-1160 -2945 0
-1161 -1166 0
-1162 -1167 0
-1163 -1168 0
-1164 -1169 0
-1165 -1170 0
-1161 -1171 0
-1162 -1172 0
-1163 -1173 0
-1164 -1174 0
-1165 -1175 0
-1161 -1181 0
-1162 -1182 0
-1163 -1183 0
-1164 -1184 0
-1165 -1185 0
-1161 -1211 0
-1162 -1212 0
-1163 -1213 0
-1164 -1214 0
-1165 -1215 0
-1161 -1311 0
-1162 -1312 0
-1163 -1313 0
-1164 -1314 0
-1165 -1315 0
-1161 -2256 0
-1162 -2257 0
-1163 -2258 0
-1164 -2259 0
-1165 -2260 0
-1161 -2481 0
-1162 -2482 0
-1163 -2483 0
-1164 -2484 0
-1165 -2485 0
-1161 -2771 0
-1162 -2772 0
-1163 -2773 0
-1164 -2774 0
-1165 -2775 0
-1161 -2936 0
-1162 -2937 0
-1163 -2938 0
-1164 -2939 0
-1165 -2940 0
-1161 -2946 0
-1162 -2947 0
-1163 -2948 0
-1164 -2949 0
-1165 -2950 0
-1161 -3126 0
-1162 -3127 0
-1163 -3128 0
-1164 -3129 0
-1165 -3130 0
-1166 -1211 0
-1167 -1212 0
-1168 -1213 0
-1169 -1214 0
-1170 -1215 0
-1166 -3131 0
-1167 -3132 0
-1168 -3133 0
-1169 -3134 0
-1170 -3135 0
-1171 -1176 0
-1172 -1177 0
-1173 -1178 0
-1174 -1179 0
-1175 -1180 0
-1171 -1186 0
-1172 -1187 0
-1173 -1188 0
-1174 -1189 0
-1175 -1190 0
-1171 -1221 0
-1172 -1222 0
-1173 -1223 0
-1174 -1224 0
-1175 -1225 0
-1171 -1226 0
-1172 -1227 0
-1173 -1228 0
-1174 -1229 0
-1175 -1230 0
-1171 -1256 0
-1172 -1257 0
-1173 -1258 0
-1174 -1259 0
-1175 -1260 0
-1171 -1291 0
-1172 -1292 0
-1173 -1293 0
-1174 -1294 0
-1175 -1295 0
-1171 -1311 0
-1172 -1312 0
-1173 -1313 0
-1174 -1314 0
-1175 -1315 0
-1171 -1571 0
-1172 -1572 0
-1173 -1573 0
-1174 -1574 0
-1175 -1575 0
-1171 -1616 0
-1172 -1617 0
-1173 -1618 0
-1174 -1619 0
-1175 -1620 0
-1171 -1976 0
-1172 -1977 0
-1173 -1978 0
-1174 -1979 0
-1175 -1980 0
-1171 -2276 0
-1172 -2277 0
-1173 -2278 0
-1174 -2279 0
-1175 -2280 0
-1171 -2781 0
-1172 -2782 0
-1173 -2783 0
-1174 -2784 0
-1175 -2785 0
-1171 -2906 0
-1172 -2907 0
-1173 -2908 0
-1174 -2909 0
-1175 -2910 0
-1171 -2941 0
-1172 -2942 0
-1173 -2943 0
-1174 -2944 0
-1175 -2945 0
-1171 -2951 0
-1172 -2952 0
-1173 -2953 0
-1174 -2954 0
-1175 -2955 0
-1176 -1231 0
-1177 -1232 0
-1178 -1233 0
-1179 -1234 0
-1180 -1235 0
-1176 -1236 0
-1177 -1237 0
-1178 -1238 0
-1179 -1239 0
-1180 -1240 0
-1176 -1261 0
-1177 -1262 0
-1178 -1263 0
-1179 -1264 0
-1180 -1265 0
-1176 -1291 0
-1177 -1292 0
-1178 -1293 0
-1179 -1294 0
-1180 -1295 0
-1176 -1471 0
-1177 -1472 0
-1178 -1473 0
-1179 -1474 0
-1180 -1475 0
-1176 -1766 0
-1177 -1767 0
-1178 -1768 0
-1179 -1769 0
-1180 -1770 0
-1176 -1926 0
-1177 -1927 0
-1178 -1928 0
-1179 -1929 0
-1180 -1930 0
-1176 -2221 0
-1177 -2222 0
-1178 -2223 0
-1179 -2224 0
-1180 -2225 0
-1176 -2291 0
-1177 -2292 0
-1178 -2293 0
-1179 -2294 0
-1180 -2295 0
-1181 -1186 0
-1182 -1187 0
-1183 -1188 0
-1184 -1189 0
-1185 -1190 0
-1181 -1241 0
-1182 -1242 0
-1183 -1243 0
-1184 -1244 0
-1185 -1245 0
-1181 -1326 0
-1182 -1327 0
-1183 -1328 0
-1184 -1329 0
-1185 -1330 0
-1181 -1481 0
-1182 -1482 0
-1183 -1483 0
-1184 -1484 0
-1185 -1485 0
-1181 -1666 0
-1182 -1667 0
-1183 -1668 0
-1184 -1669 0
-1185 -1670 0
-1181 -1751 0
-1182 -1752 0
-1183 -1753 0
-1184 -1754 0
-1185 -1755 0
-1181 -2491 0
-1182 -2492 0
-1183 -2493 0
-1184 -2494 0
-1185 -2495 0
-1181 -2791 0
-1182 -2792 0
-1183 -2793 0
-1184 -2794 0
-1185 -2795 0
-1181 -2956 0
-1182 -2957 0
-1183 -2958 0
-1184 -2959 0
-1185 -2960 0
-1186 -1326 0
-1187 -1327 0
-1188 -1328 0
-1189 -1329 0
-1190 -1330 0
-1186 -1496 0
-1187 -1497 0
-1188 -1498 0
-1189 -1499 0
-1190 -1500 0
-1186 -1581 0
-1187 -1582 0
-1188 -1583 0
-1189 -1584 0
-1190 -1585 0
-1186 -1761 0
-1187 -1762 0
-1188 -1763 0
-1189 -1764 0
-1190 -1765 0
-1186 -1931 0
-1187 -1932 0
-1188 -1933 0
-1189 -1934 0
-1190 -1935 0
-1186 -1981 0
-1187 -1982 0
-1188 -1983 0
-1189 -1984 0
-1190 -1985 0
-1186 -2346 0
-1187 -2347 0
-1188 -2348 0
-1189 -2349 0
-1190 -2350 0
-1186 -2796 0
-1187 -2797 0
-1188 -2798 0
-1189 -2799 0
-1190 -2800 0
-1186 -2906 0
-1187 -2907 0
-1188 -2908 0
-1189 -2909 0
-1190 -2910 0
-1186 -2961 0
-1187 -2962 0
-1188 -2963 0
-1189 -2964 0
-1190 -2965 0
-1191 -1196 0
-1192 -1197 0
-1193 -1198 0
-1194 -1199 0
-1195 -1200 0
-1191 -1201 0
-1192 -1202 0
-1193 -1203 0
-1194 -1204 0
-1195 -1205 0
-1191 -1211 0
-1192 -1212 0
-1193 -1213 0
-1194 -1214 0
-1195 -1215 0
-1191 -1246 0
-1192 -1247 0
-1193 -1248 0
-1194 -1249 0
-1195 -1250 0
-1191 -1671 0
-1192 -1672 0
-1193 -1673 0
-1194 -1674 0
-1195 -1675 0
-1191 -2966 0
-1192 -2967 0
-1193 -2968 0
-1194 -2969 0
-1195 -2970 0
-1191 -3026 0
-1192 -3027 0
-1193 -3028 0
-1194 -3029 0
-1195 -3030 0
-1191 -3136 0
-1192 -3137 0
-1193 -3138 0
-1194 -3139 0
-1195 -3140 0
-1196 -1206 0
-1197 -1207 0
-1198 -1208 0
-1199 -1209 0
-1200 -1210 0
-1196 -1216 0
-1197 -1217 0
-1198 -1218 0
-1199 -1219 0
-1200 -1220 0
-1196 -1676 0
-1197 -1677 0
-1198 -1678 0
-1199 -1679 0
-1200 -1680 0
-1196 -2256 0
-1197 -2257 0
-1198 -2258 0
-1199 -2259 0
-1200 -2260 0
-1196 -2971 0
-1197 -2972 0
-1198 -2973 0
-1199 -2974 0
-1200 -2975 0
-1196 -3031 0
-1197 -3032 0
-1198 -3033 0
-1199 -3034 0
-1200 -3035 0
-1201 -1206 0
-1202 -1207 0
-1203 -1208 0
-1204 -1209 0
-1205 -1210 0
-1201 -1226 0
-1202 -1227 0
-1203 -1228 0
-1204 -1229 0
-1205 -1230 0
-1201 -1361 0
-1202 -1362 0
-1203 -1363 0
-1204 -1364 0
-1205 -1365 0
-1201 -1626 0
-1202 -1627 0
-1203 -1628 0
-1204 -1629 0
-1205 -1630 0
-1201 -2261 0
-1202 -2262 0
-1203 -2263 0
-1204 -2264 0
-1205 -2265 0
-1201 -2976 0
-1202 -2977 0
-1203 -2978 0
-1204 -2979 0
-1205 -2980 0
-1206 -1236 0
-1207 -1237 0
-1208 -1238 0
-1209 -1239 0
-1210 -1240 0
-1206 -1266 0
-1207 -1267 0
-1208 -1268 0
-1209 -1269 0
-1210 -1270 0
-1206 -2276 0
-1207 -2277 0
-1208 -2278 0
-1209 -2279 0
-1210 -2280 0
-1206 -2981 0
-1207 -2982 0
-1208 -2983 0
-1209 -2984 0
-1210 -2985 0
-1211 -1216 0
-1212 -1217 0
-1213 -1218 0
-1214 -1219 0
-1215 -1220 0
-1211 -1226 0
-1212 -1227 0
-1213 -1228 0
-1214 -1229 0
-1215 -1230 0
-1211 -1241 0
-1212 -1242 0
-1213 -1243 0
-1214 -1244 0
-1215 -1245 0
-1211 -1251 0
-1212 -1252 0
-1213 -1253 0
-1214 -1254 0
-1215 -1255 0
-1211 -1346 0
-1212 -1347 0
-1213 -1348 0
-1214 -1349 0
-1215 -1350 0
-1211 -1771 0
-1212 -1772 0
-1213 -1773 0
-1214 -1774 0
-1215 -1775 0
-1211 -2066 0
-1212 -2067 0
-1213 -2068 0
-1214 -2069 0
-1215 -2070 0
-1211 -2966 0
-1212 -2967 0
-1213 -2968 0
-1214 -2969 0
-1215 -2970 0
-1211 -2986 0
-1212 -2987 0
-1213 -2988 0
-1214 -2989 0
-1215 -2990 0
-1211 -3036 0
-1212 -3037 0
-1213 -3038 0
-1214 -3039 0
-1215 -3040 0
-1211 -3141 0
-1212 -3142 0
-1213 -3143 0
-1214 -3144 0
-1215 -3145 0
-1216 -1236 0
-1217 -1237 0
-1218 -1238 0
-1219 -1239 0
-1220 -1240 0
-1216 -1526 0
-1217 -1527 0
-1218 -1528 0
-1219 -1529 0
-1220 -1530 0
-1216 -2301 0
-1217 -2302 0
-1218 -2303 0
-1219 -2304 0
-1220 -2305 0
-1216 -2496 0
-1217 -2497 0
-1218 -2498 0
-1219 -2499 0
-1220 -2500 0
-1216 -2971 0
-1217 -2972 0
-1218 -2973 0
-1219 -2974 0
-1220 -2975 0
-1216 -3041 0
-1217 -3042 0
-1218 -3043 0
-1219 -3044 0
-1220 -3045 0
-1216 -3146 0
-1217 -3147 0
-1218 -3148 0
-1219 -3149 0
-1220 -3150 0
-1221 -1226 0
-1222 -1227 0
-1223 -1228 0
-1224 -1229 0
-1225 -1230 0
-1221 -1231 0
-1222 -1232 0
-1223 -1233 0
-1224 -1234 0
-1225 -1235 0
-1221 -1296 0
-1222 -1297 0
-1223 -1298 0
-1224 -1299 0
-1225 -1300 0
-1221 -1946 0
-1222 -1947 0
-1223 -1948 0
-1224 -1949 0
-1225 -1950 0
-1221 -2366 0
-1222 -2367 0
-1223 -2368 0
-1224 -2369 0
-1225 -2370 0
-1221 -2801 0
-1222 -2802 0
-1223 -2803 0
-1224 -2804 0
-1225 -2805 0
-1226 -1236 0
-1227 -1237 0
-1228 -1238 0
-1229 -1239 0
-1230 -1240 0
-1226 -1301 0
-1227 -1302 0
-1228 -1303 0
-1229 -1304 0
-1230 -1305 0
-1226 -1376 0
-1227 -1377 0
-1228 -1378 0
-1229 -1379 0
-1230 -1380 0
-1226 -1631 0
-1227 -1632 0
-1228 -1633 0
-1229 -1634 0
-1230 -1635 0
-1226 -1776 0
-1227 -1777 0
-1228 -1778 0
-1229 -1779 0
-1230 -1780 0
-1226 -2306 0
-1227 -2307 0
-1228 -2308 0
-1229 -2309 0
-1230 -2310 0
-1226 -2371 0
-1227 -2372 0
-1228 -2373 0
-1229 -2374 0
-1230 -2375 0
-1226 -2976 0
-1227 -2977 0
-1228 -2978 0
-1229 -2979 0
-1230 -2980 0
-1226 -2991 0
-1227 -2992 0
-1228 -2993 0
-1229 -2994 0
-1230 -2995 0
-1231 -1236 0
-1232 -1237 0
-1233 -1238 0
-1234 -1239 0
-1235 -1240 0
-1231 -1271 0
-1232 -1272 0
-1233 -1273 0
-1234 -1274 0
-1235 -1275 0
-1231 -1281 0
-1232 -1282 0
-1233 -1283 0
-1234 -1284 0
-1235 -1285 0
-1231 -1296 0
-1232 -1297 0
-1233 -1298 0
-1234 -1299 0
-1235 -1300 0
-1231 -1531 0
-1232 -1532 0
-1233 -1533 0
-1234 -1534 0
-1235 -1535 0
-1231 -1801 0
-1232 -1802 0
-1233 -1803 0
-1234 -1804 0
-1235 -1805 0
-1231 -1951 0
-1232 -1952 0
-1233 -1953 0
-1234 -1954 0
-1235 -1955 0
-1231 -2196 0
-1232 -2197 0
-1233 -2198 0
-1234 -2199 0
-1235 -2200 0
-1231 -2316 0
-1232 -2317 0
-1233 -2318 0
-1234 -2319 0
-1235 -2320 0
-1231 -2501 0
-1232 -2502 0
-1233 -2503 0
-1234 -2504 0
-1235 -2505 0
-1236 -1276 0
-1237 -1277 0
-1238 -1278 0
-1239 -1279 0
-1240 -1280 0
-1236 -1286 0
-1237 -1287 0
-1238 -1288 0
-1239 -1289 0
-1240 -1290 0
-1236 -1301 0
-1237 -1302 0
-1238 -1303 0
-1239 -1304 0
-1240 -1305 0
-1236 -1536 0
-1237 -1537 0
-1238 -1538 0
-1239 -1539 0
-1240 -1540 0
-1236 -1606 0
-1237 -1607 0
-1238 -1608 0
-1239 -1609 0
-1240 -1610 0
-1236 -1986 0
-1237 -1987 0
-1238 -1988 0
-1239 -1989 0
-1240 -1990 0
-1236 -2071 0
-1237 -2072 0
-1238 -2073 0
-1239 -2074 0
-1240 -2075 0
-1236 -2321 0
-1237 -2322 0
-1238 -2323 0
-1239 -2324 0
-1240 -2325 0
-1236 -2506 0
-1237 -2507 0
-1238 -2508 0
-1239 -2509 0
-1240 -2510 0
-1236 -2981 0
-1237 -2982 0
-1238 -2983 0
-1239 -2984 0
-1240 -2985 0
-1236 -3046 0
-1237 -3047 0
-1238 -3048 0
-1239 -3049 0
-1240 -3050 0
-1241 -1541 0
-1242 -1542 0
-1243 -1543 0
-1244 -1544 0
-1245 -1545 0
-1241 -1721 0
-1242 -1722 0
-1243 -1723 0
-1244 -1724 0
-1245 -1725 0
-1241 -1791 0
-1242 -1792 0
-1243 -1793 0
-1244 -1794 0
-1245 -1795 0
-1241 -2806 0
-1242 -2807 0
-1243 -2808 0
-1244 -2809 0
-1245 -2810 0
-1246 -1251 0
-1247 -1252 0
-1248 -1253 0
-1249 -1254 0
-1250 -1255 0
-1246 -1356 0
-1247 -1357 0
-1248 -1358 0
-1249 -1359 0
-1250 -1360 0
-1246 -1636 0
-1247 -1637 0
-1248 -1638 0
-1249 -1639 0
-1250 -1640 0
-1246 -2076 0
-1247 -2077 0
-1248 -2078 0
-1249 -2079 0
-1250 -2080 0
-1246 -2996 0
-1247 -2997 0
-1248 -2998 0
-1249 -2999 0
-1250 -3000 0
-1246 -3026 0
-1247 -3027 0
-1248 -3028 0
-1249 -3029 0
-1250 -3030 0
-1251 -1371 0
-1252 -1372 0
-1253 -1373 0
-1254 -1374 0
-1255 -1375 0
-1251 -2091 0
-1252 -2092 0
-1253 -2093 0
-1254 -2094 0
-1255 -2095 0
-1251 -2516 0
-1252 -2517 0
-1253 -2518 0
-1254 -2519 0
-1255 -2520 0
-1251 -2996 0
-1252 -2997 0
-1253 -2998 0
-1254 -2999 0
-1255 -3000 0
-1251 -3036 0
-1252 -3037 0
-1253 -3038 0
-1254 -3039 0
-1255 -3040 0
-1256 -1261 0
-1257 -1262 0
-1258 -1263 0
-1259 -1264 0
-1260 -1265 0
-1256 -1661 0
-1257 -1662 0
-1258 -1663 0
-1259 -1664 0
-1260 -1665 0
-1256 -2386 0
-1257 -2387 0
-1258 -2388 0
-1259 -2389 0
-1260 -2390 0
-1256 -2916 0
-1257 -2917 0
-1258 -2918 0
-1259 -2919 0
-1260 -2920 0
-1256 -3176 0
-1257 -3177 0
-1258 -3178 0
-1259 -3179 0
-1260 -3180 0
-1261 -1271 0
-1262 -1272 0
-1263 -1273 0
-1264 -1274 0
-1265 -1275 0
-1261 -1276 0
-1262 -1277 0
-1263 -1278 0
-1264 -1279 0
-1265 -1280 0
-1261 -1956 0
-1262 -1957 0
-1263 -1958 0
-1264 -1959 0
-1265 -1960 0
-1261 -2216 0
-1262 -2217 0
-1263 -2218 0
-1264 -2219 0
-1265 -2220 0
-1261 -2521 0
-1262 -2522 0
-1263 -2523 0
-1264 -2524 0
-1265 -2525 0
-1261 -3181 0
-1262 -3182 0
-1263 -3183 0
-1264 -3184 0
-1265 -3185 0
-1266 -1276 0
-1267 -1277 0
-1268 -1278 0
-1269 -1279 0
-1270 -1280 0
-1266 -2386 0
-1267 -2387 0
-1268 -2388 0
-1269 -2389 0
-1270 -2390 0
-1271 -1276 0
-1272 -1277 0
-1273 -1278 0
-1274 -1279 0
-1275 -1280 0
-1271 -1281 0
-1272 -1282 0
-1273 -1283 0
-1274 -1284 0
-1275 -1285 0
-1271 -1306 0
-1272 -1307 0
-1273 -1308 0
-1274 -1309 0
-1275 -1310 0
-1271 -1596 0
-1272 -1597 0
-1273 -1598 0
-1274 -1599 0
-1275 -1600 0
-1271 -1726 0
-1272 -1727 0
-1273 -1728 0
-1274 -1729 0
-1275 -1730 0
-1271 -1741 0
-1272 -1742 0
-1273 -1743 0
-1274 -1744 0
-1275 -1745 0
-1271 -1971 0
-1272 -1972 0
-1273 -1973 0
-1274 -1974 0
-1275 -1975 0
-1271 -2276 0
-1272 -2277 0
-1273 -2278 0
-1274 -2279 0
-1275 -2280 0
-1271 -2831 0
-1272 -2832 0
-1273 -2833 0
-1274 -2834 0
-1275 -2835 0
-1271 -2926 0
-1272 -2927 0
-1273 -2928 0
-1274 -2929 0
-1275 -2930 0
-1271 -2931 0
-1272 -2932 0
-1273 -2933 0
-1274 -2934 0
-1275 -2935 0
-1271 -3056 0
-1272 -3057 0
-1273 -3058 0
-1274 -3059 0
-1275 -3060 0
-1271 -3206 0
-1272 -3207 0
-1273 -3208 0
-1274 -3209 0
-1275 -3210 0
-1276 -1286 0
-1277 -1287 0
-1278 -1288 0
-1279 -1289 0
-1280 -1290 0
-1276 -2121 0
-1277 -2122 0
-1278 -2123 0
-1279 -2124 0
-1280 -2125 0
-1276 -2281 0
-1277 -2282 0
-1278 -2283 0
-1279 -2284 0
-1280 -2285 0
-1276 -2396 0
-1277 -2397 0
-1278 -2398 0
-1279 -2399 0
-1280 -2400 0
-1276 -2836 0
-1277 -2837 0
-1278 -2838 0
-1279 -2839 0
-1280 -2840 0
-1276 -3211 0
-1277 -3212 0
-1278 -3213 0
-1279 -3214 0
-1280 -3215 0
-1281 -1286 0
-1282 -1287 0
-1283 -1288 0
-1284 -1289 0
-1285 -1290 0
-1281 -1401 0
-1282 -1402 0
-1283 -1403 0
-1284 -1404 0
-1285 -1405 0
-1281 -2006 0
-1282 -2007 0
-1283 -2008 0
-1284 -2009 0
-1285 -2010 0
-1281 -2286 0
-1282 -2287 0
-1283 -2288 0
-1284 -2289 0
-1285 -2290 0
-1281 -2541 0
-1282 -2542 0
-1283 -2543 0
-1284 -2544 0
-1285 -2545 0
-1281 -2841 0
-1282 -2842 0
-1283 -2843 0
-1284 -2844 0
-1285 -2845 0
-1281 -3061 0
-1282 -3062 0
-1283 -3063 0
-1284 -3064 0
-1285 -3065 0
-1281 -3071 0
-1282 -3072 0
-1283 -3073 0
-1284 -3074 0
-1285 -3075 0
-1286 -1826 0
-1287 -1827 0
-1288 -1828 0
-1289 -1829 0
-1290 -1830 0
-1286 -2011 0
-1287 -2012 0
-1288 -2013 0
-1289 -2014 0
-1290 -2015 0
-1286 -2401 0
-1287 -2402 0
-1288 -2403 0
-1289 -2404 0
-1290 -2405 0
-1286 -2546 0
-1287 -2547 0
-1288 -2548 0
-1289 -2549 0
-1290 -2550 0
-1286 -2846 0
-1287 -2847 0
-1288 -2848 0
-1289 -2849 0
-1290 -2850 0
-1286 -3066 0
-1287 -3067 0
-1288 -3068 0
-1289 -3069 0
-1290 -3070 0
-1291 -1296 0
-1292 -1297 0
-1293 -1298 0
-1294 -1299 0
-1295 -1300 0
-1291 -1301 0
-1292 -1302 0
-1293 -1303 0
-1294 -1304 0
-1295 -1305 0
-1291 -2016 0
-1292 -2017 0
-1293 -2018 0
-1294 -2019 0
-1295 -2020 0
-1291 -2411 0
-1292 -2412 0
-1293 -2413 0
-1294 -2414 0
-1295 -2415 0
-1291 -2846 0
-1292 -2847 0
-1293 -2848 0
-1294 -2849 0
-1295 -2850 0
-1296 -1301 0
-1297 -1302 0
-1298 -1303 0
-1299 -1304 0
-1300 -1305 0
-1296 -1306 0
-1297 -1307 0
-1298 -1308 0
-1299 -1309 0
-1300 -1310 0
-1296 -1781 0
-1297 -1782 0
-1298 -1783 0
-1299 -1784 0
-1300 -1785 0
-1296 -2031 0
-1297 -2032 0
-1298 -2033 0
-1299 -2034 0
-1300 -2035 0
-1296 -2561 0
-1297 -2562 0
-1298 -2563 0
-1299 -2564 0
-1300 -2565 0
-1296 -2861 0
-1297 -2862 0
-1298 -2863 0
-1299 -2864 0
-1300 -2865 0
-1301 -2036 0
-1302 -2037 0
-1303 -2038 0
-1304 -2039 0
-1305 -2040 0
-1301 -2416 0
-1302 -2417 0
-1303 -2418 0
-1304 -2419 0
-1305 -2420 0
-1301 -2566 0
-1302 -2567 0
-1303 -2568 0
-1304 -2569 0
-1305 -2570 0
-1306 -1411 0
-1307 -1412 0
-1308 -1413 0
-1309 -1414 0
-1310 -1415 0
-1306 -1791 0
-1307 -1792 0
-1308 -1793 0
-1309 -1794 0
-1310 -1795 0
-1306 -1821 0
-1307 -1822 0
-1308 -1823 0
-1309 -1824 0
-1310 -1825 0
-1306 -2086 0
-1307 -2087 0
-1308 -2088 0
-1309 -2089 0
-1310 -2090 0
-1306 -2406 0
-1307 -2407 0
-1308 -2408 0
-1309 -2409 0
-1310 -2410 0
-1306 -2881 0
-1307 -2882 0
-1308 -2883 0
-1309 -2884 0
-1310 -2885 0
-1306 -2996 0
-1307 -2997 0
-1308 -2998 0
-1309 -2999 0
-1310 -3000 0
-1311 -1316 0
-1312 -1317 0
-1313 -1318 0
-1314 -1319 0
-1315 -1320 0
-1311 -1326 0
-1312 -1327 0
-1313 -1328 0
-1314 -1329 0
-1315 -1330 0
-1311 -1856 0
-1312 -1857 0
-1313 -1858 0
-1314 -1859 0
-1315 -1860 0
-1311 -2051 0
-1312 -2052 0
-1313 -2053 0
-1314 -2054 0
-1315 -2055 0
-1311 -2451 0
-1312 -2452 0
-1313 -2453 0
-1314 -2454 0
-1315 -2455 0
-1311 -2591 0
-1312 -2592 0
-1313 -2593 0
-1314 -2594 0
-1315 -2595 0
-1311 -3006 0
-1312 -3007 0
-1313 -3008 0
-1314 -3009 0
-1315 -3010 0
-1311 -3051 0
-1312 -3052 0
-1313 -3053 0
-1314 -3054 0
-1315 -3055 0
-1316 -1341 0
-1317 -1342 0
-1318 -1343 0
-1319 -1344 0
-1320 -1345 0
-1316 -1871 0
-1317 -1872 0
-1318 -1873 0
-1319 -1874 0
-1320 -1875 0
-1316 -2061 0
-1317 -2062 0
-1318 -2063 0
-1319 -2064 0
-1320 -2065 0
-1316 -2461 0
-1317 -2462 0
-1318 -2463 0
-1319 -2464 0
-1320 -2465 0
-1316 -3016 0
-1317 -3017 0
-1318 -3018 0
-1319 -3019 0
-1320 -3020 0
-1316 -3051 0
-1317 -3052 0
-1318 -3053 0
-1319 -3054 0
-1320 -3055 0
-1321 -1326 0
-1322 -1327 0
-1323 -1328 0
-1324 -1329 0
-1325 -1330 0
-1321 -1336 0
-1322 -1337 0
-1323 -1338 0
-1324 -1339 0
-1325 -1340 0
-1321 -1491 0
-1322 -1492 0
-1323 -1493 0
-1324 -1494 0
-1325 -1495 0
-1321 -1681 0
-1322 -1682 0
-1323 -1683 0
-1324 -1684 0
-1325 -1685 0
-1321 -1846 0
-1322 -1847 0
-1323 -1848 0
-1324 -1849 0
-1325 -1850 0
-1321 -2431 0
-1322 -2432 0
-1323 -2433 0
-1324 -2434 0
-1325 -2435 0
-1321 -3001 0
-1322 -3002 0
-1323 -3003 0
-1324 -3004 0
-1325 -3005 0
-1321 -3056 0
-1322 -3057 0
-1323 -3058 0
-1324 -3059 0
-1325 -3060 0
-1326 -1331 0
-1327 -1332 0
-1328 -1333 0
-1329 -1334 0
-1330 -1335 0
-1326 -1341 0
-1327 -1342 0
-1328 -1343 0
-1329 -1344 0
-1330 -1345 0
-1326 -1461 0
-1327 -1462 0
-1328 -1463 0
-1329 -1464 0
-1330 -1465 0
-1326 -1601 0
-1327 -1602 0
-1328 -1603 0
-1329 -1604 0
-1330 -1605 0
-1326 -1691 0
-1327 -1692 0
-1328 -1693 0
-1329 -1694 0
-1330 -1695 0
-1326 -1861 0
-1327 -1862 0
-1328 -1863 0
-1329 -1864 0
-1330 -1865 0
-1326 -2066 0
-1327 -2067 0
-1328 -2068 0
-1329 -2069 0
-1330 -2070 0
-1326 -2616 0
-1327 -2617 0
-1328 -2618 0
-1329 -2619 0
-1330 -2620 0
-1326 -3006 0
-1327 -3007 0
-1328 -3008 0
-1329 -3009 0
-1330 -3010 0
-1326 -3061 0
-1327 -3062 0
-1328 -3063 0
-1329 -3064 0
-1330 -3065 0
-1331 -1696 0
-1332 -1697 0
-1333 -1698 0
-1334 -1699 0
-1335 -1700 0
-1331 -1866 0
-1332 -1867 0
-1333 -1868 0
-1334 -1869 0
-1335 -1870 0
-1331 -3066 0
-1332 -3067 0
-1333 -3068 0
-1334 -3069 0
-1335 -3070 0
-1336 -1341 0
-1337 -1342 0
-1338 -1343 0
-1339 -1344 0
-1340 -1345 0
-1336 -1511 0
-1337 -1512 0
-1338 -1513 0
-1339 -1514 0
-1340 -1515 0
-1336 -1706 0
-1337 -1707 0
-1338 -1708 0
-1339 -1709 0
-1340 -1710 0
-1336 -2436 0
-1337 -2437 0
-1338 -2438 0
-1339 -2439 0
-1340 -2440 0
-1336 -3011 0
-1337 -3012 0
-1338 -3013 0
-1339 -3014 0
-1340 -3015 0
-1336 -3056 0
-1337 -3057 0
-1338 -3058 0
-1339 -3059 0
-1340 -3060 0
-1341 -1466 0
-1342 -1467 0
-1343 -1468 0
-1344 -1469 0
-1345 -1470 0
-1341 -1716 0
-1342 -1717 0
-1343 -1718 0
-1344 -1719 0
-1345 -1720 0
-1341 -3016 0
-1342 -3017 0
-1343 -3018 0
-1344 -3019 0
-1345 -3020 0
-1341 -3061 0
-1342 -3062 0
-1343 -3063 0
-1344 -3064 0
-1345 -3065 0
-1346 -1351 0
-1347 -1352 0
-1348 -1353 0
-1349 -1354 0
-1350 -1355 0
-1346 -1371 0
-1347 -1372 0
-1348 -1373 0
-1349 -1374 0
-1350 -1375 0
-1346 -1391 0
-1347 -1392 0
-1348 -1393 0
-1349 -1394 0
-1350 -1395 0
-1346 -2231 0
-1347 -2232 0
-1348 -2233 0
-1349 -2234 0
-1350 -2235 0
-1346 -3121 0
-1347 -3122 0
-1348 -3123 0
-1349 -3124 0
-1350 -3125 0
-1346 -3241 0
-1347 -3242 0
-1348 -3243 0
-1349 -3244 0
-1350 -3245 0
-1351 -1376 0
-1352 -1377 0
-1353 -1378 0
-1354 -1379 0
-1355 -1380 0
-1351 -1391 0
-1352 -1392 0
-1353 -1393 0
-1354 -1394 0
-1355 -1395 0
-1351 -1671 0
-1352 -1672 0
-1353 -1673 0
-1354 -1674 0
-1355 -1675 0
-1351 -1926 0
-1352 -1927 0
-1353 -1928 0
-1354 -1929 0
-1355 -1930 0
-1351 -3131 0
-1352 -3132 0
-1353 -3133 0
-1354 -3134 0
-1355 -3135 0
-1356 -1361 0
-1357 -1362 0
-1358 -1363 0
-1359 -1364 0
-1360 -1365 0
-1356 -1371 0
-1357 -1372 0
-1358 -1373 0
-1359 -1374 0
-1360 -1375 0
-1356 -2251 0
-1357 -2252 0
-1358 -2253 0
-1359 -2254 0
-1360 -2255 0
-1356 -3076 0
-1357 -3077 0
-1358 -3078 0
-1359 -3079 0
-1360 -3080 0
-1361 -1376 0
-1362 -1377 0
-1363 -1378 0
-1364 -1379 0
-1365 -1380 0
-1361 -3081 0
-1362 -3082 0
-1363 -3083 0
-1364 -3084 0
-1365 -3085 0
-1361 -3111 0
-1362 -3112 0
-1363 -3113 0
-1364 -3114 0
-1365 -3115 0
-1366 -1371 0
-1367 -1372 0
-1368 -1373 0
-1369 -1374 0
-1370 -1375 0
-1366 -1531 0
-1367 -1532 0
-1368 -1533 0
-1369 -1534 0
-1370 -1535 0
-1366 -1771 0
-1367 -1772 0
-1368 -1773 0
-1369 -1774 0
-1370 -1775 0
-1366 -2271 0
-1367 -2272 0
-1368 -2273 0
-1369 -2274 0
-1370 -2275 0
-1366 -2476 0
-1367 -2477 0
-1368 -2478 0
-1369 -2479 0
-1370 -2480 0
-1366 -2926 0
-1367 -2927 0
-1368 -2928 0
-1369 -2929 0
-1370 -2930 0
-1366 -3116 0
-1367 -3117 0
-1368 -3118 0
-1369 -3119 0
-1370 -3120 0
-1371 -1376 0
-1372 -1377 0
-1373 -1378 0
-1374 -1379 0
-1375 -1380 0
-1371 -1381 0
-1372 -1382 0
-1373 -1383 0
-1374 -1384 0
-1375 -1385 0
-1371 -1406 0
-1372 -1407 0
-1373 -1408 0
-1374 -1409 0
-1375 -1410 0
-1371 -1526 0
-1372 -1527 0
-1373 -1528 0
-1374 -1529 0
-1375 -1530 0
-1371 -1536 0
-1372 -1537 0
-1373 -1538 0
-1374 -1539 0
-1375 -1540 0
-1371 -2276 0
-1372 -2277 0
-1373 -2278 0
-1374 -2279 0
-1375 -2280 0
-1371 -2516 0
-1372 -2517 0
-1373 -2518 0
-1374 -2519 0
-1375 -2520 0
-1371 -3076 0
-1372 -3077 0
-1373 -3078 0
-1374 -3079 0
-1375 -3080 0
-1371 -3086 0
-1372 -3087 0
-1373 -3088 0
-1374 -3089 0
-1375 -3090 0
-1371 -3121 0
-1372 -3122 0
-1373 -3123 0
-1374 -3124 0
-1375 -3125 0
-1371 -3256 0
-1372 -3257 0
-1373 -3258 0
-1374 -3259 0
-1375 -3260 0
-1376 -1406 0
-1377 -1407 0
-1378 -1408 0
-1379 -1409 0
-1380 -1410 0
-1376 -2156 0
-1377 -2157 0
-1378 -2158 0
-1379 -2159 0
-1380 -2160 0
-1376 -2286 0
-1377 -2287 0
-1378 -2288 0
-1379 -2289 0
-1380 -2290 0
-1376 -2701 0
-1377 -2702 0
-1378 -2703 0
-1379 -2704 0
-1380 -2705 0
-1376 -3081 0
-1377 -3082 0
-1378 -3083 0
-1379 -3084 0
-1380 -3085 0
-1376 -3131 0
-1377 -3132 0
-1378 -3133 0
-1379 -3134 0
-1380 -3135 0
-1381 -1546 0
-1382 -1547 0
-1383 -1548 0
-1384 -1549 0
-1385 -1550 0
-1381 -1556 0
-1382 -1557 0
-1383 -1558 0
-1384 -1559 0
-1385 -1560 0
-1381 -1916 0
-1382 -1917 0
-1383 -1918 0
-1384 -1919 0
-1385 -1920 0
-1381 -2346 0
-1382 -2347 0
-1383 -2348 0
-1384 -2349 0
-1385 -2350 0
-1381 -3091 0
-1382 -3092 0
-1383 -3093 0
-1384 -3094 0
-1385 -3095 0
-1386 -1391 0
-1387 -1392 0
-1388 -1393 0
-1389 -1394 0
-1390 -1395 0
-1386 -1396 0
-1387 -1397 0
-1388 -1398 0
-1389 -1399 0
-1390 -1400 0
-1386 -2706 0
-1387 -2707 0
-1388 -2708 0
-1389 -2709 0
-1390 -2710 0
-1386 -2936 0
-1387 -2937 0
-1388 -2938 0
-1389 -2939 0
-1390 -2940 0
-1386 -3161 0
-1387 -3162 0
-1388 -3163 0
-1389 -3164 0
-1390 -3165 0
-1386 -3291 0
-1387 -3292 0
-1388 -3293 0
-1389 -3294 0
-1390 -3295 0
-1391 -1406 0
-1392 -1407 0
-1393 -1408 0
-1394 -1409 0
-1395 -1410 0
-1391 -1956 0
-1392 -1957 0
-1393 -1958 0
-1394 -1959 0
-1395 -1960 0
-1391 -2711 0
-1392 -2712 0
-1393 -2713 0
-1394 -2714 0
-1395 -2715 0
-1391 -3166 0
-1392 -3167 0
-1393 -3168 0
-1394 -3169 0
-1395 -3170 0
-1391 -3296 0
-1392 -3297 0
-1393 -3298 0
-1394 -3299 0
-1395 -3300 0
-1396 -1401 0
-1397 -1402 0
-1398 -1403 0
-1399 -1404 0
-1400 -1405 0
-1396 -1416 0
-1397 -1417 0
-1398 -1418 0
-1399 -1419 0
-1400 -1420 0
-1396 -1806 0
-1397 -1807 0
-1398 -1808 0
-1399 -1809 0
-1400 -1810 0
-1396 -1886 0
-1397 -1887 0
-1398 -1888 0
-1399 -1889 0
-1400 -1890 0
-1396 -2171 0
-1397 -2172 0
-1398 -2173 0
-1399 -2174 0
-1400 -2175 0
-1396 -2551 0
-1397 -2552 0
-1398 -2553 0
-1399 -2554 0
-1400 -2555 0
-1396 -2941 0
-1397 -2942 0
-1398 -2943 0
-1399 -2944 0
-1400 -2945 0
-1396 -3176 0
-1397 -3177 0
-1398 -3178 0
-1399 -3179 0
-1400 -3180 0
-1401 -1416 0
-1402 -1417 0
-1403 -1418 0
-1404 -1419 0
-1405 -1420 0
-1401 -1811 0
-1402 -1812 0
-1403 -1813 0
-1404 -1814 0
-1405 -1815 0
-1401 -2176 0
-1402 -2177 0
-1403 -2178 0
-1404 -2179 0
-1405 -2180 0
-1401 -2541 0
-1402 -2542 0
-1403 -2543 0
-1404 -2544 0
-1405 -2545 0
-1401 -3151 0
-1402 -3152 0
-1403 -3153 0
-1404 -3154 0
-1405 -3155 0
-1401 -3181 0
-1402 -3182 0
-1403 -3183 0
-1404 -3184 0
-1405 -3185 0
-1406 -1906 0
-1407 -1907 0
-1408 -1908 0
-1409 -1909 0
-1410 -1910 0
-1406 -2391 0
-1407 -2392 0
-1408 -2393 0
-1409 -2394 0
-1410 -2395 0
-1406 -3166 0
-1407 -3167 0
-1408 -3168 0
-1409 -3169 0
-1410 -3170 0
-1406 -3306 0
-1407 -3307 0
-1408 -3308 0
-1409 -3309 0
-1410 -3310 0
-1411 -1416 0
-1412 -1417 0
-1413 -1418 0
-1414 -1419 0
-1415 -1420 0
-1411 -1421 0
-1412 -1422 0
-1413 -1423 0
-1414 -1424 0
-1415 -1425 0
-1411 -1936 0
-1412 -1937 0
-1413 -1938 0
-1414 -1939 0
-1415 -1940 0
-1411 -1961 0
-1412 -1962 0
-1413 -1963 0
-1414 -1964 0
-1415 -1965 0
-1411 -2266 0
-1412 -2267 0
-1413 -2268 0
-1414 -2269 0
-1415 -2270 0
-1411 -3076 0
-1412 -3077 0
-1413 -3078 0
-1414 -3079 0
-1415 -3080 0
-1416 -1426 0
-1417 -1427 0
-1418 -1428 0
-1419 -1429 0
-1420 -1430 0
-1416 -1941 0
-1417 -1942 0
-1418 -1943 0
-1419 -1944 0
-1420 -1945 0
-1416 -2276 0
-1417 -2277 0
-1418 -2278 0
-1419 -2279 0
-1420 -2280 0
-1416 -2576 0
-1417 -2577 0
-1418 -2578 0
-1419 -2579 0
-1420 -2580 0
-1416 -3081 0
-1417 -3082 0
-1418 -3083 0
-1419 -3084 0
-1420 -3085 0
-1416 -3216 0
-1417 -3217 0
-1418 -3218 0
-1419 -3219 0
-1420 -3220 0
-1416 -3221 0
-1417 -3222 0
-1418 -3223 0
-1419 -3224 0
-1420 -3225 0
-1421 -1426 0
-1422 -1427 0
-1423 -1428 0
-1424 -1429 0
-1425 -1430 0
-1421 -1596 0
-1422 -1597 0
-1423 -1598 0
-1424 -1599 0
-1425 -1600 0
-1421 -2311 0
-1422 -2312 0
-1423 -2313 0
-1424 -2314 0
-1425 -2315 0
-1421 -2426 0
-1422 -2427 0
-1423 -2428 0
-1424 -2429 0
-1425 -2430 0
-1421 -2566 0
-1422 -2567 0
-1423 -2568 0
-1424 -2569 0
-1425 -2570 0
-1421 -3086 0
-1422 -3087 0
-1423 -3088 0
-1424 -3089 0
-1425 -3090 0
-1421 -3091 0
-1422 -3092 0
-1423 -3093 0
-1424 -3094 0
-1425 -3095 0
-1426 -1821 0
-1427 -1822 0
-1428 -1823 0
-1429 -1824 0
-1430 -1825 0
-1426 -2321 0
-1427 -2322 0
-1428 -2323 0
-1429 -2324 0
-1430 -2325 0
-1431 -1436 0
-1432 -1437 0
-1433 -1438 0
-1434 -1439 0
-1435 -1440 0
-1431 -1441 0
-1432 -1442 0
-1433 -1443 0
-1434 -1444 0
-1435 -1445 0
-1431 -1481 0
-1432 -1482 0
-1433 -1483 0
-1434 -1484 0
-1435 -1485 0
-1431 -1976 0
-1432 -1977 0
-1433 -1978 0
-1434 -1979 0
-1435 -1980 0
-1431 -3001 0
-1432 -3002 0
-1433 -3003 0
-1434 -3004 0
-1435 -3005 0
-1431 -3116 0
-1432 -3117 0
-1433 -3118 0
-1434 -3119 0
-1435 -3120 0
-1436 -1446 0
-1437 -1447 0
-1438 -1448 0
-1439 -1449 0
-1440 -1450 0
-1436 -1486 0
-1437 -1487 0
-1438 -1488 0
-1439 -1489 0
-1440 -1490 0
-1436 -2431 0
-1437 -2432 0
-1438 -2433 0
-1439 -2434 0
-1440 -2435 0
-1436 -3121 0
-1437 -3122 0
-1438 -3123 0
-1439 -3124 0
-1440 -3125 0
-1441 -1446 0
-1442 -1447 0
-1443 -1448 0
-1444 -1449 0
-1445 -1450 0
-1441 -1451 0
-1442 -1452 0
-1443 -1453 0
-1444 -1454 0
-1445 -1455 0
-1441 -1481 0
-1442 -1482 0
-1443 -1483 0
-1444 -1484 0
-1445 -1485 0
-1441 -1611 0
-1442 -1612 0
-1443 -1613 0
-1444 -1614 0
-1445 -1615 0
-1441 -2596 0
-1442 -2597 0
-1443 -2598 0
-1444 -2599 0
-1445 -2600 0
-1441 -3006 0
-1442 -3007 0
-1443 -3008 0
-1444 -3009 0
-1445 -3010 0
-1441 -3106 0
-1442 -3107 0
-1443 -3108 0
-1444 -3109 0
-1445 -3110 0
-1441 -3126 0
-1442 -3127 0
-1443 -3128 0
-1444 -3129 0
-1445 -3130 0
-1446 -1451 0
-1447 -1452 0
-1448 -1453 0
-1449 -1454 0
-1450 -1455 0
-1446 -1486 0
-1447 -1487 0
-1448 -1488 0
-1449 -1489 0
-1450 -1490 0
-1446 -2016 0
-1447 -2017 0
-1448 -2018 0
-1449 -2019 0
-1450 -2020 0
-1446 -2601 0
-1447 -2602 0
-1448 -2603 0
-1449 -2604 0
-1450 -2605 0
-1446 -3111 0
-1447 -3112 0
-1448 -3113 0
-1449 -3114 0
-1450 -3115 0
-1446 -3131 0
-1447 -3132 0
-1448 -3133 0
-1449 -3134 0
-1450 -3135 0
-1451 -1456 0
-1452 -1457 0
-1453 -1458 0
-1454 -1459 0
-1455 -1460 0
-1451 -1541 0
-1452 -1542 0
-1453 -1543 0
-1454 -1544 0
-1455 -1545 0
-1451 -1626 0
-1452 -1627 0
-1453 -1628 0
-1454 -1629 0
-1455 -1630 0
-1451 -2031 0
-1452 -2032 0
-1453 -2033 0
-1454 -2034 0
-1455 -2035 0
-1451 -2736 0
-1452 -2737 0
-1453 -2738 0
-1454 -2739 0
-1455 -2740 0
-1451 -3136 0
-1452 -3137 0
-1453 -3138 0
-1454 -3139 0
-1455 -3140 0
-1451 -3141 0
-1452 -3142 0
-1453 -3143 0
-1454 -3144 0
-1455 -3145 0
-1456 -1546 0
-1457 -1547 0
-1458 -1548 0
-1459 -1549 0
-1460 -1550 0
-1456 -1831 0
-1457 -1832 0
-1458 -1833 0
-1459 -1834 0
-1460 -1835 0
-1456 -2611 0
-1457 -2612 0
-1458 -2613 0
-1459 -2614 0
-1460 -2615 0
-1456 -2741 0
-1457 -2742 0
-1458 -2743 0
-1459 -2744 0
-1460 -2745 0
-1456 -3146 0
-1457 -3147 0
-1458 -3148 0
-1459 -3149 0
-1460 -3150 0
-1461 -1466 0
-1462 -1467 0
-1463 -1468 0
-1464 -1469 0
-1465 -1470 0
-1461 -1501 0
-1462 -1502 0
-1463 -1503 0
-1464 -1504 0
-1465 -1505 0
-1461 -1576 0
-1462 -1577 0
-1463 -1578 0
-1464 -1579 0
-1465 -1580 0
-1461 -1836 0
-1462 -1837 0
-1463 -1838 0
-1464 -1839 0
-1465 -1840 0
-1461 -1881 0
-1462 -1882 0
-1463 -1883 0
-1464 -1884 0
-1465 -1885 0
-1461 -2231 0
-1462 -2232 0
-1463 -2233 0
-1464 -2234 0
-1465 -2235 0
-1461 -2746 0
-1462 -2747 0
-1463 -2748 0
-1464 -2749 0
-1465 -2750 0
-1461 -3151 0
-1462 -3152 0
-1463 -3153 0
-1464 -3154 0
-1465 -3155 0
-1466 -1521 0
-1467 -1522 0
-1468 -1523 0
-1469 -1524 0
-1470 -1525 0
-1466 -1581 0
-1467 -1582 0
-1468 -1583 0
-1469 -1584 0
-1470 -1585 0
-1466 -1846 0
-1467 -1847 0
-1468 -1848 0
-1469 -1849 0
-1470 -1850 0
-1466 -1886 0
-1467 -1887 0
-1468 -1888 0
-1469 -1889 0
-1470 -1890 0
-1466 -2236 0
-1467 -2237 0
-1468 -2238 0
-1469 -2239 0
-1470 -2240 0
-1466 -3096 0
-1467 -3097 0
-1468 -3098 0
-1469 -3099 0
-1470 -3100 0
-1466 -3151 0
-1467 -3152 0
-1468 -3153 0
-1469 -3154 0
-1470 -3155 0
-1471 -1476 0
-1472 -1477 0
-1473 -1478 0
-1474 -1479 0
-1475 -1480 0
-1471 -1501 0
-1472 -1502 0
-1473 -1503 0
-1474 -1504 0
-1475 -1505 0
-1471 -1531 0
-1472 -1532 0
-1473 -1533 0
-1474 -1534 0
-1475 -1535 0
-1471 -1536 0
-1472 -1537 0
-1473 -1538 0
-1474 -1539 0
-1475 -1540 0
-1471 -2241 0
-1472 -2242 0
-1473 -2243 0
-1474 -2244 0
-1475 -2245 0
-1471 -2641 0
-1472 -2642 0
-1473 -2643 0
-1474 -2644 0
-1475 -2645 0
-1471 -3156 0
-1472 -3157 0
-1473 -3158 0
-1474 -3159 0
-1475 -3160 0
-1476 -1521 0
-1477 -1522 0
-1478 -1523 0
-1479 -1524 0
-1480 -1525 0
-1476 -2246 0
-1477 -2247 0
-1478 -2248 0
-1479 -2249 0
-1480 -2250 0
-1476 -2656 0
-1477 -2657 0
-1478 -2658 0
-1479 -2659 0
-1480 -2660 0
-1476 -3156 0
-1477 -3157 0
-1478 -3158 0
-1479 -3159 0
-1480 -3160 0
-1481 -1486 0
-1482 -1487 0
-1483 -1488 0
-1484 -1489 0
-1485 -1490 0
-1481 -1491 0
-1482 -1492 0
-1483 -1493 0
-1484 -1494 0
-1485 -1495 0
-1481 -1496 0
-1482 -1497 0
-1483 -1498 0
-1484 -1499 0
-1485 -1500 0
-1481 -1506 0
-1482 -1507 0
-1483 -1508 0
-1484 -1509 0
-1485 -1510 0
-1481 -1541 0
-1482 -1542 0
-1483 -1543 0
-1484 -1544 0
-1485 -1545 0
-1481 -1601 0
-1482 -1602 0
-1483 -1603 0
-1484 -1604 0
-1485 -1605 0
-1481 -1651 0
-1482 -1652 0
-1483 -1653 0
-1484 -1654 0
-1485 -1655 0
-1481 -2756 0
-1482 -2757 0
-1483 -2758 0
-1484 -2759 0
-1485 -2760 0
-1481 -3021 0
-1482 -3022 0
-1483 -3023 0
-1484 -3024 0
-1485 -3025 0
-1481 -3161 0
-1482 -3162 0
-1483 -3163 0
-1484 -3164 0
-1485 -3165 0
-1486 -1541 0
-1487 -1542 0
-1488 -1543 0
-1489 -1544 0
-1490 -1545 0
-1486 -2046 0
-1487 -2047 0
-1488 -2048 0
-1489 -2049 0
-1490 -2050 0
-1486 -3166 0
-1487 -3167 0
-1488 -3168 0
-1489 -3169 0
-1490 -3170 0
-1491 -1501 0
-1492 -1502 0
-1493 -1503 0
-1494 -1504 0
-1495 -1505 0
-1491 -1511 0
-1492 -1512 0
-1493 -1513 0
-1494 -1514 0
-1495 -1515 0
-1491 -1546 0
-1492 -1547 0
-1493 -1548 0
-1494 -1549 0
-1495 -1550 0
-1491 -2256 0
-1492 -2257 0
-1493 -2258 0
-1494 -2259 0
-1495 -2260 0
-1491 -2761 0
-1492 -2762 0
-1493 -2763 0
-1494 -2764 0
-1495 -2765 0
-1491 -3171 0
-1492 -3172 0
-1493 -3173 0
-1494 -3174 0
-1495 -3175 0
-1496 -1501 0
-1497 -1502 0
-1498 -1503 0
-1499 -1504 0
-1500 -1505 0
-1496 -1516 0
-1497 -1517 0
-1498 -1518 0
-1499 -1519 0
-1500 -1520 0
-1496 -1586 0
-1497 -1587 0
-1498 -1588 0
-1499 -1589 0
-1500 -1590 0
-1496 -1601 0
-1497 -1602 0
-1498 -1603 0
-1499 -1604 0
-1500 -1605 0
-1496 -1856 0
-1497 -1857 0
-1498 -1858 0
-1499 -1859 0
-1500 -1860 0
-1496 -1981 0
-1497 -1982 0
-1498 -1983 0
-1499 -1984 0
-1500 -1985 0
-1496 -2261 0
-1497 -2262 0
-1498 -2263 0
-1499 -2264 0
-1500 -2265 0
-1496 -2661 0
-1497 -2662 0
-1498 -2663 0
-1499 -2664 0
-1500 -2665 0
-1496 -3176 0
-1497 -3177 0
-1498 -3178 0
-1499 -3179 0
-1500 -3180 0
-1501 -1521 0
-1502 -1522 0
-1503 -1523 0
-1504 -1524 0
-1505 -1525 0
-1501 -1551 0
-1502 -1552 0
-1503 -1553 0
-1504 -1554 0
-1505 -1555 0
-1501 -1556 0
-1502 -1557 0
-1503 -1558 0
-1504 -1559 0
-1505 -1560 0
-1501 -1586 0
-1502 -1587 0
-1503 -1588 0
-1504 -1589 0
-1505 -1590 0
-1501 -1866 0
-1502 -1867 0
-1503 -1868 0
-1504 -1869 0
-1505 -1870 0
-1501 -1896 0
-1502 -1897 0
-1503 -1898 0
-1504 -1899 0
-1505 -1900 0
-1501 -2276 0
-1502 -2277 0
-1503 -2278 0
-1504 -2279 0
-1505 -2280 0
-1501 -3181 0
-1502 -3182 0
-1503 -3183 0
-1504 -3184 0
-1505 -3185 0
-1506 -1511 0
-1507 -1512 0
-1508 -1513 0
-1509 -1514 0
-1510 -1515 0
-1506 -1516 0
-1507 -1517 0
-1508 -1518 0
-1509 -1519 0
-1510 -1520 0
-1506 -1661 0
-1507 -1662 0
-1508 -1663 0
-1509 -1664 0
-1510 -1665 0
-1506 -3161 0
-1507 -3162 0
-1508 -3163 0
-1509 -3164 0
-1510 -3165 0
-1511 -1521 0
-1512 -1522 0
-1513 -1523 0
-1514 -1524 0
-1515 -1525 0
-1511 -1561 0
-1512 -1562 0
-1513 -1563 0
-1514 -1564 0
-1515 -1565 0
-1511 -2301 0
-1512 -2302 0
-1513 -2303 0
-1514 -2304 0
-1515 -2305 0
-1511 -3171 0
-1512 -3172 0
-1513 -3173 0
-1514 -3174 0
-1515 -3175 0
-1516 -1521 0
-1517 -1522 0
-1518 -1523 0
-1519 -1524 0
-1520 -1525 0
-1516 -1591 0
-1517 -1592 0
-1518 -1593 0
-1519 -1594 0
-1520 -1595 0
-1516 -1871 0
-1517 -1872 0
-1518 -1873 0
-1519 -1874 0
-1520 -1875 0
-1516 -2306 0
-1517 -2307 0
-1518 -2308 0
-1519 -2309 0
-1520 -2310 0
-1516 -2666 0
-1517 -2667 0
-1518 -2668 0
-1519 -2669 0
-1520 -2670 0
-1516 -3176 0
-1517 -3177 0
-1518 -3178 0
-1519 -3179 0
-1520 -3180 0
-1521 -1566 0
-1522 -1567 0
-1523 -1568 0
-1524 -1569 0
-1525 -1570 0
-1521 -1591 0
-1522 -1592 0
-1523 -1593 0
-1524 -1594 0
-1525 -1595 0
-1521 -1911 0
-1522 -1912 0
-1523 -1913 0
-1524 -1914 0
-1525 -1915 0
-1521 -2321 0
-1522 -2322 0
-1523 -2323 0
-1524 -2324 0
-1525 -2325 0
-1521 -2581 0
-1522 -2582 0
-1523 -2583 0
-1524 -2584 0
-1525 -2585 0
-1521 -3181 0
-1522 -3182 0
-1523 -3183 0
-1524 -3184 0
-1525 -3185 0
-1526 -1536 0
-1527 -1537 0
-1528 -1538 0
-1529 -1539 0
-1530 -1540 0
-1526 -1546 0
-1527 -1547 0
-1528 -1548 0
-1529 -1549 0
-1530 -1550 0
-1526 -2451 0
-1527 -2452 0
-1528 -2453 0
-1529 -2454 0
-1530 -2455 0
-1526 -2766 0
-1527 -2767 0
-1528 -2768 0
-1529 -2769 0
-1530 -2770 0
-1526 -3186 0
-1527 -3187 0
-1528 -3188 0
-1529 -3189 0
-1530 -3190 0
-1526 -3336 0
-1527 -3337 0
-1528 -3338 0
-1529 -3339 0
-1530 -3340 0
-1531 -1536 0
-1532 -1537 0
-1533 -1538 0
-1534 -1539 0
-1535 -1540 0
-1531 -1551 0
-1532 -1552 0
-1533 -1553 0
-1534 -1554 0
-1535 -1555 0
-1531 -2356 0
-1532 -2357 0
-1533 -2358 0
-1534 -2359 0
-1535 -2360 0
-1531 -2586 0
-1532 -2587 0
-1533 -2588 0
-1534 -2589 0
-1535 -2590 0
-1536 -1556 0
-1537 -1557 0
-1538 -1558 0
-1539 -1559 0
-1540 -1560 0
-1536 -1986 0
-1537 -1987 0
-1538 -1988 0
-1539 -1989 0
-1540 -1990 0
-1536 -2456 0
-1537 -2457 0
-1538 -2458 0
-1539 -2459 0
-1540 -2460 0
-1536 -2646 0
-1537 -2647 0
-1538 -2648 0
-1539 -2649 0
-1540 -2650 0
-1536 -2776 0
-1537 -2777 0
-1538 -2778 0
-1539 -2779 0
-1540 -2780 0
-1536 -3191 0
-1537 -3192 0
-1538 -3193 0
-1539 -3194 0
-1540 -3195 0
-1541 -1546 0
-1542 -1547 0
-1543 -1548 0
-1544 -1549 0
-1545 -1550 0
-1541 -1686 0
-1542 -1687 0
-1543 -1688 0
-1544 -1689 0
-1545 -1690 0
-1541 -2001 0
-1542 -2002 0
-1543 -2003 0
-1544 -2004 0
-1545 -2005 0
-1541 -2086 0
-1542 -2087 0
-1543 -2088 0
-1544 -2089 0
-1545 -2090 0
-1541 -3026 0
-1542 -3027 0
-1543 -3028 0
-1544 -3029 0
-1545 -3030 0
-1541 -3196 0
-1542 -3197 0
-1543 -3198 0
-1544 -3199 0
-1545 -3200 0
-1546 -1556 0
-1547 -1557 0
-1548 -1558 0
-1549 -1559 0
-1550 -1560 0
-1546 -1561 0
-1547 -1562 0
-1548 -1563 0
-1549 -1564 0
-1550 -1565 0
-1546 -2011 0
-1547 -2012 0
-1548 -2013 0
-1549 -2014 0
-1550 -2015 0
-1546 -2601 0
-1547 -2602 0
-1548 -2603 0
-1549 -2604 0
-1550 -2605 0
-1546 -2786 0
-1547 -2787 0
-1548 -2788 0
-1549 -2789 0
-1550 -2790 0
-1546 -3031 0
-1547 -3032 0
-1548 -3033 0
-1549 -3034 0
-1550 -3035 0
-1546 -3201 0
-1547 -3202 0
-1548 -3203 0
-1549 -3204 0
-1550 -3205 0
-1551 -1556 0
-1552 -1557 0
-1553 -1558 0
-1554 -1559 0
-1555 -1560 0
-1551 -1876 0
-1552 -1877 0
-1553 -1878 0
-1554 -1879 0
-1555 -1880 0
-1551 -2366 0
-1552 -2367 0
-1553 -2368 0
-1554 -2369 0
-1555 -2370 0
-1551 -2606 0
-1552 -2607 0
-1553 -2608 0
-1554 -2609 0
-1555 -2610 0
-1551 -3206 0
-1552 -3207 0
-1553 -3208 0
-1554 -3209 0
-1555 -3210 0
-1556 -1566 0
-1557 -1567 0
-1558 -1568 0
-1559 -1569 0
-1560 -1570 0
-1556 -2371 0
-1557 -2372 0
-1558 -2373 0
-1559 -2374 0
-1560 -2375 0
-1556 -2666 0
-1557 -2667 0
-1558 -2668 0
-1559 -2669 0
-1560 -2670 0
-1556 -3211 0
-1557 -3212 0
-1558 -3213 0
-1559 -3214 0
-1560 -3215 0
-1561 -1566 0
-1562 -1567 0
-1563 -1568 0
-1564 -1569 0
-1565 -1570 0
-1561 -3041 0
-1562 -3042 0
-1563 -3043 0
-1564 -3044 0
-1565 -3045 0
-1561 -3201 0
-1562 -3202 0
-1563 -3203 0
-1564 -3204 0
-1565 -3205 0
-1566 -1921 0
-1567 -1922 0
-1568 -1923 0
-1569 -1924 0
-1570 -1925 0
-1566 -2381 0
-1567 -2382 0
-1568 -2383 0
-1569 -2384 0
-1570 -2385 0
-1566 -3046 0
-1567 -3047 0
-1568 -3048 0
-1569 -3049 0
-1570 -3050 0
-1566 -3211 0
-1567 -3212 0
-1568 -3213 0
-1569 -3214 0
-1570 -3215 0
-1571 -1581 0
-1572 -1582 0
-1573 -1583 0
-1574 -1584 0
-1575 -1585 0
-1571 -2681 0
-1572 -2682 0
-1573 -2683 0
-1574 -2684 0
-1575 -2685 0
-1571 -3131 0
-1572 -3132 0
-1573 -3133 0
-1574 -3134 0
-1575 -3135 0
-1576 -1581 0
-1577 -1582 0
-1578 -1583 0
-1579 -1584 0
-1580 -1585 0
-1576 -1586 0
-1577 -1587 0
-1578 -1588 0
-1579 -1589 0
-1580 -1590 0
-1576 -2431 0
-1577 -2432 0
-1578 -2433 0
-1579 -2434 0
-1580 -2435 0
-1576 -2811 0
-1577 -2812 0
-1578 -2813 0
-1579 -2814 0
-1580 -2815 0
-1576 -3111 0
-1577 -3112 0
-1578 -3113 0
-1579 -3114 0
-1580 -3115 0
-1576 -3216 0
-1577 -3217 0
-1578 -3218 0
-1579 -3219 0
-1580 -3220 0
-1581 -1591 0
-1582 -1592 0
-1583 -1593 0
-1584 -1594 0
-1585 -1595 0
-1581 -1856 0
-1582 -1857 0
-1583 -1858 0
-1584 -1859 0
-1585 -1860 0
-1581 -1931 0
-1582 -1932 0
-1583 -1933 0
-1584 -1934 0
-1585 -1935 0
-1581 -2126 0
-1582 -2127 0
-1583 -2128 0
-1584 -2129 0
-1585 -2130 0
-1581 -2436 0
-1582 -2437 0
-1583 -2438 0
-1584 -2439 0
-1585 -2440 0
-1581 -3066 0
-1582 -3067 0
-1583 -3068 0
-1584 -3069 0
-1585 -3070 0
-1581 -3131 0
-1582 -3132 0
-1583 -3133 0
-1584 -3134 0
-1585 -3135 0
-1581 -3216 0
-1582 -3217 0
-1583 -3218 0
-1584 -3219 0
-1585 -3220 0
-1586 -1591 0
-1587 -1592 0
-1588 -1593 0
-1589 -1594 0
-1590 -1595 0
-1586 -2026 0
-1587 -2027 0
-1588 -2028 0
-1589 -2029 0
-1590 -2030 0
-1586 -2406 0
-1587 -2407 0
-1588 -2408 0
-1589 -2409 0
-1590 -2410 0
-1586 -2441 0
-1587 -2442 0
-1588 -2443 0
-1589 -2444 0
-1590 -2445 0
-1586 -3221 0
-1587 -3222 0
-1588 -3223 0
-1589 -3224 0
-1590 -3225 0
-1591 -1766 0
-1592 -1767 0
-1593 -1768 0
-1594 -1769 0
-1595 -1770 0
-1591 -1946 0
-1592 -1947 0
-1593 -1948 0
-1594 -1949 0
-1595 -1950 0
-1591 -2416 0
-1592 -2417 0
-1593 -2418 0
-1594 -2419 0
-1595 -2420 0
-1591 -2446 0
-1592 -2447 0
-1593 -2448 0
-1594 -2449 0
-1595 -2450 0
-1591 -3221 0
-1592 -3222 0
-1593 -3223 0
-1594 -3224 0
-1595 -3225 0
-1596 -1971 0
-1597 -1972 0
-1598 -1973 0
-1599 -1974 0
-1600 -1975 0
-1596 -2681 0
-1597 -2682 0
-1598 -2683 0
-1599 -2684 0
-1600 -2685 0
-1596 -3186 0
-1597 -3187 0
-1598 -3188 0
-1599 -3189 0
-1600 -3190 0
-1596 -3201 0
-1597 -3202 0
-1598 -3203 0
-1599 -3204 0
-1600 -3205 0
-1601 -1836 0
-1602 -1837 0
-1603 -1838 0
-1604 -1839 0
-1605 -1840 0
-1601 -3226 0
-1602 -3227 0
-1603 -3228 0
-1604 -3229 0
-1605 -3230 0
-1606 -2526 0
-1607 -2527 0
-1608 -2528 0
-1609 -2529 0
-1610 -2530 0
-1606 -2706 0
-1607 -2707 0
-1608 -2708 0
-1609 -2709 0
-1610 -2710 0
-1606 -3241 0
-1607 -3242 0
-1608 -3243 0
-1609 -3244 0
-1610 -3245 0
-1606 -3256 0
-1607 -3257 0
-1608 -3258 0
-1609 -3259 0
-1610 -3260 0
-1611 -1616 0
-1612 -1617 0
-1613 -1618 0
-1614 -1619 0
-1615 -1620 0
-1611 -1621 0
-1612 -1622 0
-1613 -1623 0
-1614 -1624 0
-1615 -1625 0
-1611 -1626 0
-1612 -1627 0
-1613 -1628 0
-1614 -1629 0
-1615 -1630 0
-1611 -1651 0
-1612 -1652 0
-1613 -1653 0
-1614 -1654 0
-1615 -1655 0
-1611 -1656 0
-1612 -1657 0
-1613 -1658 0
-1614 -1659 0
-1615 -1660 0
-1611 -2731 0
-1612 -2732 0
-1613 -2733 0
-1614 -2734 0
-1615 -2735 0
-1611 -3231 0
-1612 -3232 0
-1613 -3233 0
-1614 -3234 0
-1615 -3235 0
-1616 -1631 0
-1617 -1632 0
-1618 -1633 0
-1619 -1634 0
-1620 -1635 0
-1616 -1661 0
-1617 -1662 0
-1618 -1663 0
-1619 -1664 0
-1620 -1665 0
-1616 -1666 0
-1617 -1667 0
-1618 -1668 0
-1619 -1669 0
-1620 -1670 0
-1616 -1976 0
-1617 -1977 0
-1618 -1978 0
-1619 -1979 0
-1620 -1980 0
-1616 -2741 0
-1617 -2742 0
-1618 -2743 0
-1619 -2744 0
-1620 -2745 0
-1616 -3096 0
-1617 -3097 0
-1618 -3098 0
-1619 -3099 0
-1620 -3100 0
-1616 -3231 0
-1617 -3232 0
-1618 -3233 0
-1619 -3234 0
-1620 -3235 0
-1621 -1641 0
-1622 -1642 0
-1623 -1643 0
-1624 -1644 0
-1625 -1645 0
-1621 -2016 0
-1622 -2017 0
-1623 -2018 0
-1624 -2019 0
-1625 -2020 0
-1621 -2476 0
-1622 -2477 0
-1623 -2478 0
-1624 -2479 0
-1625 -2480 0
-1621 -2751 0
-1622 -2752 0
-1623 -2753 0
-1624 -2754 0
-1625 -2755 0
-1621 -3236 0
-1622 -3237 0
-1623 -3238 0
-1624 -3239 0
-1625 -3240 0
-1626 -1631 0
-1627 -1632 0
-1628 -1633 0
-1629 -1634 0
-1630 -1635 0
-1626 -1641 0
-1627 -1642 0
-1628 -1643 0
-1629 -1644 0
-1630 -1645 0
-1626 -1686 0
-1627 -1687 0
-1628 -1688 0
-1629 -1689 0
-1630 -1690 0
-1626 -1696 0
-1627 -1697 0
-1628 -1698 0
-1629 -1699 0
-1630 -1700 0
-1626 -2191 0
-1627 -2192 0
-1628 -2193 0
-1629 -2194 0
-1630 -2195 0
-1626 -2736 0
-1627 -2737 0
-1628 -2738 0
-1629 -2739 0
-1630 -2740 0
-1626 -3241 0
-1627 -3242 0
-1628 -3243 0
-1629 -3244 0
-1630 -3245 0
-1631 -1646 0
-1632 -1647 0
-1633 -1648 0
-1634 -1649 0
-1635 -1650 0
-1631 -1711 0
-1632 -1712 0
-1633 -1713 0
-1634 -1714 0
-1635 -1715 0
-1631 -1721 0
-1632 -1722 0
-1633 -1723 0
-1634 -1724 0
-1635 -1725 0
-1631 -2201 0
-1632 -2202 0
-1633 -2203 0
-1634 -2204 0
-1635 -2205 0
-1631 -3241 0
-1632 -3242 0
-1633 -3243 0
-1634 -3244 0
-1635 -3245 0
-1636 -1641 0
-1637 -1642 0
-1638 -1643 0
-1639 -1644 0
-1640 -1645 0
-1636 -1831 0
-1637 -1832 0
-1638 -1833 0
-1639 -1834 0
-1640 -1835 0
-1636 -2156 0
-1637 -2157 0
-1638 -2158 0
-1639 -2159 0
-1640 -2160 0
-1636 -2596 0
-1637 -2597 0
-1638 -2598 0
-1639 -2599 0
-1640 -2600 0
-1636 -3246 0
-1637 -3247 0
-1638 -3248 0
-1639 -3249 0
-1640 -3250 0
-1636 -3251 0
-1637 -3252 0
-1638 -3253 0
-1639 -3254 0
-1640 -3255 0
-1641 -1646 0
-1642 -1647 0
-1643 -1648 0
-1644 -1649 0
-1645 -1650 0
-1641 -1731 0
-1642 -1732 0
-1643 -1733 0
-1644 -1734 0
-1645 -1735 0
-1641 -1831 0
-1642 -1832 0
-1643 -1833 0
-1644 -1834 0
-1645 -1835 0
-1641 -2036 0
-1642 -2037 0
-1643 -2038 0
-1644 -2039 0
-1645 -2040 0
-1641 -2606 0
-1642 -2607 0
-1643 -2608 0
-1644 -2609 0
-1645 -2610 0
-1641 -2756 0
-1642 -2757 0
-1643 -2758 0
-1644 -2759 0
-1645 -2760 0
-1641 -2901 0
-1642 -2902 0
-1643 -2903 0
-1644 -2904 0
-1645 -2905 0
-1641 -3256 0
-1642 -3257 0
-1643 -3258 0
-1644 -3259 0
-1645 -3260 0
-1646 -1736 0
-1647 -1737 0
-1648 -1738 0
-1649 -1739 0
-1650 -1740 0
-1646 -2616 0
-1647 -2617 0
-1648 -2618 0
-1649 -2619 0
-1650 -2620 0
-1646 -2911 0
-1647 -2912 0
-1648 -2913 0
-1649 -2914 0
-1650 -2915 0
-1646 -3256 0
-1647 -3257 0
-1648 -3258 0
-1649 -3259 0
-1650 -3260 0
-1651 -1656 0
-1652 -1657 0
-1653 -1658 0
-1654 -1659 0
-1655 -1660 0
-1651 -1661 0
-1652 -1662 0
-1653 -1663 0
-1654 -1664 0
-1655 -1665 0
-1651 -1681 0
-1652 -1682 0
-1653 -1683 0
-1654 -1684 0
-1655 -1685 0
-1651 -1686 0
-1652 -1687 0
-1653 -1688 0
-1654 -1689 0
-1655 -1690 0
-1651 -1746 0
-1652 -1747 0
-1653 -1748 0
-1654 -1749 0
-1655 -1750 0
-1651 -1836 0
-1652 -1837 0
-1653 -1838 0
-1654 -1839 0
-1655 -1840 0
-1651 -2041 0
-1652 -2042 0
-1653 -2043 0
-1654 -2044 0
-1655 -2045 0
-1651 -2901 0
-1652 -2902 0
-1653 -2903 0
-1654 -2904 0
-1655 -2905 0
-1651 -3261 0
-1652 -3262 0
-1653 -3263 0
-1654 -3264 0
-1655 -3265 0
-1651 -3386 0
-1652 -3387 0
-1653 -3388 0
-1654 -3389 0
-1655 -3390 0
-1656 -1666 0
-1657 -1667 0
-1658 -1668 0
-1659 -1669 0
-1660 -1670 0
-1656 -1691 0
-1657 -1692 0
-1658 -1693 0
-1659 -1694 0
-1660 -1695 0
-1656 -1696 0
-1657 -1697 0
-1658 -1698 0
-1659 -1699 0
-1660 -1700 0
-1656 -2211 0
-1657 -2212 0
-1658 -2213 0
-1659 -2214 0
-1660 -2215 0
-1656 -2906 0
-1657 -2907 0
-1658 -2908 0
-1659 -2909 0
-1660 -2910 0
-1656 -3266 0
-1657 -3267 0
-1658 -3268 0
-1659 -3269 0
-1660 -3270 0
-1661 -1666 0
-1662 -1667 0
-1663 -1668 0
-1664 -1669 0
-1665 -1670 0
-1661 -1706 0
-1662 -1707 0
-1663 -1708 0
-1664 -1709 0
-1665 -1710 0
-1661 -1711 0
-1662 -1712 0
-1663 -1713 0
-1664 -1714 0
-1665 -1715 0
-1661 -1756 0
-1662 -1757 0
-1663 -1758 0
-1664 -1759 0
-1665 -1760 0
-1661 -1841 0
-1662 -1842 0
-1663 -1843 0
-1664 -1844 0
-1665 -1845 0
-1661 -1846 0
-1662 -1847 0
-1663 -1848 0
-1664 -1849 0
-1665 -1850 0
-1661 -2786 0
-1662 -2787 0
-1663 -2788 0
-1664 -2789 0
-1665 -2790 0
-1661 -2911 0
-1662 -2912 0
-1663 -2913 0
-1664 -2914 0
-1665 -2915 0
-1661 -3261 0
-1662 -3262 0
-1663 -3263 0
-1664 -3264 0
-1665 -3265 0
-1661 -3271 0
-1662 -3272 0
-1663 -3273 0
-1664 -3274 0
-1665 -3275 0
-1661 -3391 0
-1662 -3392 0
-1663 -3393 0
-1664 -3394 0
-1665 -3395 0
-1666 -1716 0
-1667 -1717 0
-1668 -1718 0
-1669 -1719 0
-1670 -1720 0
-1666 -1721 0
-1667 -1722 0
-1668 -1723 0
-1669 -1724 0
-1670 -1725 0
-1666 -2221 0
-1667 -2222 0
-1668 -2223 0
-1669 -2224 0
-1670 -2225 0
-1666 -2791 0
-1667 -2792 0
-1668 -2793 0
-1669 -2794 0
-1670 -2795 0
-1666 -3266 0
-1667 -3267 0
-1668 -3268 0
-1669 -3269 0
-1670 -3270 0
-1671 -1676 0
-1672 -1677 0
-1673 -1678 0
-1674 -1679 0
-1675 -1680 0
-1671 -1696 0
-1672 -1697 0
-1673 -1698 0
-1674 -1699 0
-1675 -1700 0
-1671 -2241 0
-1672 -2242 0
-1673 -2243 0
-1674 -2244 0
-1675 -2245 0
-1671 -3276 0
-1672 -3277 0
-1673 -3278 0
-1674 -3279 0
-1675 -3280 0
-1676 -1701 0
-1677 -1702 0
-1678 -1703 0
-1679 -1704 0
-1680 -1705 0
-1676 -2281 0
-1677 -2282 0
-1678 -2283 0
-1679 -2284 0
-1680 -2285 0
-1676 -2771 0
-1677 -2772 0
-1678 -2773 0
-1679 -2774 0
-1680 -2775 0
-1676 -3331 0
-1677 -3332 0
-1678 -3333 0
-1679 -3334 0
-1680 -3335 0
-1681 -1686 0
-1682 -1687 0
-1683 -1688 0
-1684 -1689 0
-1685 -1690 0
-1681 -1691 0
-1682 -1692 0
-1683 -1693 0
-1684 -1694 0
-1685 -1695 0
-1681 -1706 0
-1682 -1707 0
-1683 -1708 0
-1684 -1709 0
-1685 -1710 0
-1681 -1786 0
-1682 -1787 0
-1683 -1788 0
-1684 -1789 0
-1685 -1790 0
-1681 -2171 0
-1682 -2172 0
-1683 -2173 0
-1684 -2174 0
-1685 -2175 0
-1681 -3281 0
-1682 -3282 0
-1683 -3283 0
-1684 -3284 0
-1685 -3285 0
-1686 -1696 0
-1687 -1697 0
-1688 -1698 0
-1689 -1699 0
-1690 -1700 0
-1686 -1711 0
-1687 -1712 0
-1688 -1713 0
-1689 -1714 0
-1690 -1715 0
-1686 -1891 0
-1687 -1892 0
-1688 -1893 0
-1689 -1894 0
-1690 -1895 0
-1686 -2266 0
-1687 -2267 0
-1688 -2268 0
-1689 -2269 0
-1690 -2270 0
-1686 -3286 0
-1687 -3287 0
-1688 -3288 0
-1689 -3289 0
-1690 -3290 0
-1691 -1696 0
-1692 -1697 0
-1693 -1698 0
-1694 -1699 0
-1695 -1700 0
-1691 -1716 0
-1692 -1717 0
-1693 -1718 0
-1694 -1719 0
-1695 -1720 0
-1691 -1881 0
-1692 -1882 0
-1693 -1883 0
-1694 -1884 0
-1695 -1885 0
-1691 -2066 0
-1692 -2067 0
-1693 -2068 0
-1694 -2069 0
-1695 -2070 0
-1691 -2271 0
-1692 -2272 0
-1693 -2273 0
-1694 -2274 0
-1695 -2275 0
-1691 -3106 0
-1692 -3107 0
-1693 -3108 0
-1694 -3109 0
-1695 -3110 0
-1691 -3291 0
-1692 -3292 0
-1693 -3293 0
-1694 -3294 0
-1695 -3295 0
-1696 -1701 0
-1697 -1702 0
-1698 -1703 0
-1699 -1704 0
-1700 -1705 0
-1696 -1721 0
-1697 -1722 0
-1698 -1723 0
-1699 -1724 0
-1700 -1725 0
-1696 -1731 0
-1697 -1732 0
-1698 -1733 0
-1699 -1734 0
-1700 -1735 0
-1696 -2276 0
-1697 -2277 0
-1698 -2278 0
-1699 -2279 0
-1700 -2280 0
-1696 -3111 0
-1697 -3112 0
-1698 -3113 0
-1699 -3114 0
-1700 -3115 0
-1696 -3296 0
-1697 -3297 0
-1698 -3298 0
-1699 -3299 0
-1700 -3300 0
-1701 -1996 0
-1702 -1997 0
-1703 -1998 0
-1704 -1999 0
-1705 -2000 0
-1701 -2291 0
-1702 -2292 0
-1703 -2293 0
-1704 -2294 0
-1705 -2295 0
-1701 -2791 0
-1702 -2792 0
-1703 -2793 0
-1704 -2794 0
-1705 -2795 0
-1701 -3301 0
-1702 -3302 0
-1703 -3303 0
-1704 -3304 0
-1705 -3305 0
-1706 -1711 0
-1707 -1712 0
-1708 -1713 0
-1709 -1714 0
-1710 -1715 0
-1706 -1716 0
-1707 -1717 0
-1708 -1718 0
-1709 -1719 0
-1710 -1720 0
-1706 -1726 0
-1707 -1727 0
-1708 -1728 0
-1709 -1729 0
-1710 -1730 0
-1706 -1791 0
-1707 -1792 0
-1708 -1793 0
-1709 -1794 0
-1710 -1795 0
-1706 -2181 0
-1707 -2182 0
-1708 -2183 0
-1709 -2184 0
-1710 -2185 0
-1706 -2736 0
-1707 -2737 0
-1708 -2738 0
-1709 -2739 0
-1710 -2740 0
-1706 -3101 0
-1707 -3102 0
-1708 -3103 0
-1709 -3104 0
-1710 -3105 0
-1706 -3116 0
-1707 -3117 0
-1708 -3118 0
-1709 -3119 0
-1710 -3120 0
-1706 -3281 0
-1707 -3282 0
-1708 -3283 0
-1709 -3284 0
-1710 -3285 0
-1711 -1721 0
-1712 -1722 0
-1713 -1723 0
-1714 -1724 0
-1715 -1725 0
-1711 -1906 0
-1712 -1907 0
-1713 -1908 0
-1714 -1909 0
-1715 -1910 0
-1711 -2311 0
-1712 -2312 0
-1713 -2313 0
-1714 -2314 0
-1715 -2315 0
-1711 -2631 0
-1712 -2632 0
-1713 -2633 0
-1714 -2634 0
-1715 -2635 0
-1711 -3121 0
-1712 -3122 0
-1713 -3123 0
-1714 -3124 0
-1715 -3125 0
-1711 -3286 0
-1712 -3287 0
-1713 -3288 0
-1714 -3289 0
-1715 -3290 0
-1716 -1721 0
-1717 -1722 0
-1718 -1723 0
-1719 -1724 0
-1720 -1725 0
-1716 -1796 0
-1717 -1797 0
-1718 -1798 0
-1719 -1799 0
-1720 -1800 0
-1716 -1886 0
-1717 -1887 0
-1718 -1888 0
-1719 -1889 0
-1720 -1890 0
-1716 -2316 0
-1717 -2317 0
-1718 -2318 0
-1719 -2319 0
-1720 -2320 0
-1716 -3126 0
-1717 -3127 0
-1718 -3128 0
-1719 -3129 0
-1720 -3130 0
-1716 -3291 0
-1717 -3292 0
-1718 -3293 0
-1719 -3294 0
-1720 -3295 0
-1721 -1736 0
-1722 -1737 0
-1723 -1738 0
-1724 -1739 0
-1725 -1740 0
-1721 -2001 0
-1722 -2002 0
-1723 -2003 0
-1724 -2004 0
-1725 -2005 0
-1721 -2321 0
-1722 -2322 0
-1723 -2323 0
-1724 -2324 0
-1725 -2325 0
-1721 -3131 0
-1722 -3132 0
-1723 -3133 0
-1724 -3134 0
-1725 -3135 0
-1721 -3296 0
-1722 -3297 0
-1723 -3298 0
-1724 -3299 0
-1725 -3300 0
-1726 -1791 0
-1727 -1792 0
-1728 -1793 0
-1729 -1794 0
-1730 -1795 0
-1726 -2186 0
-1727 -2187 0
-1728 -2188 0
-1729 -2189 0
-1730 -2190 0
-1726 -2741 0
-1727 -2742 0
-1728 -2743 0
-1729 -2744 0
-1730 -2745 0
-1731 -1736 0
-1732 -1737 0
-1733 -1738 0
-1734 -1739 0
-1735 -1740 0
-1731 -1901 0
-1732 -1902 0
-1733 -1903 0
-1734 -1904 0
-1735 -1905 0
-1731 -2096 0
-1732 -2097 0
-1733 -2098 0
-1734 -2099 0
-1735 -2100 0
-1731 -2166 0
-1732 -2167 0
-1733 -2168 0
-1734 -2169 0
-1735 -2170 0
-1731 -2356 0
-1732 -2357 0
-1733 -2358 0
-1734 -2359 0
-1735 -2360 0
-1731 -2916 0
-1732 -2917 0
-1733 -2918 0
-1734 -2919 0
-1735 -2920 0
-1731 -3306 0
-1732 -3307 0
-1733 -3308 0
-1734 -3309 0
-1735 -3310 0
-1736 -1916 0
-1737 -1917 0
-1738 -1918 0
-1739 -1919 0
-1740 -1920 0
-1736 -2361 0
-1737 -2362 0
-1738 -2363 0
-1739 -2364 0
-1740 -2365 0
-1736 -3306 0
-1737 -3307 0
-1738 -3308 0
-1739 -3309 0
-1740 -3310 0
-1741 -1821 0
-1742 -1822 0
-1743 -1823 0
-1744 -1824 0
-1745 -1825 0
-1741 -1826 0
-1742 -1827 0
-1743 -1828 0
-1744 -1829 0
-1745 -1830 0
-1741 -2186 0
-1742 -2187 0
-1743 -2188 0
-1744 -2189 0
-1745 -2190 0
-1741 -2781 0
-1742 -2782 0
-1743 -2783 0
-1744 -2784 0
-1745 -2785 0
-1741 -3156 0
-1742 -3157 0
-1743 -3158 0
-1744 -3159 0
-1745 -3160 0
-1741 -3346 0
-1742 -3347 0
-1743 -3348 0
-1744 -3349 0
-1745 -3350 0
-1746 -1756 0
-1747 -1757 0
-1748 -1758 0
-1749 -1759 0
-1750 -1760 0
-1746 -1786 0
-1747 -1787 0
-1748 -1788 0
-1749 -1789 0
-1750 -1790 0
-1746 -1851 0
-1747 -1852 0
-1748 -1853 0
-1749 -1854 0
-1750 -1855 0
-1746 -2216 0
-1747 -2217 0
-1748 -2218 0
-1749 -2219 0
-1750 -2220 0
-1746 -3311 0
-1747 -3312 0
-1748 -3313 0
-1749 -3314 0
-1750 -3315 0
-1751 -1756 0
-1752 -1757 0
-1753 -1758 0
-1754 -1759 0
-1755 -1760 0
-1751 -1761 0
-1752 -1762 0
-1753 -1763 0
-1754 -1764 0
-1755 -1765 0
-1751 -1791 0
-1752 -1792 0
-1753 -1793 0
-1754 -1794 0
-1755 -1795 0
-1751 -1861 0
-1752 -1862 0
-1753 -1863 0
-1754 -1864 0
-1755 -1865 0
-1751 -2221 0
-1752 -2222 0
-1753 -2223 0
-1754 -2224 0
-1755 -2225 0
-1751 -3171 0
-1752 -3172 0
-1753 -3173 0
-1754 -3174 0
-1755 -3175 0
-1756 -1766 0
-1757 -1767 0
-1758 -1768 0
-1759 -1769 0
-1760 -1770 0
-1756 -1791 0
-1757 -1792 0
-1758 -1793 0
-1759 -1794 0
-1760 -1795 0
-1756 -1866 0
-1757 -1867 0
-1758 -1868 0
-1759 -1869 0
-1760 -1870 0
-1756 -2046 0
-1757 -2047 0
-1758 -2048 0
-1759 -2049 0
-1760 -2050 0
-1756 -2131 0
-1757 -2132 0
-1758 -2133 0
-1759 -2134 0
-1760 -2135 0
-1756 -2226 0
-1757 -2227 0
-1758 -2228 0
-1759 -2229 0
-1760 -2230 0
-1756 -3311 0
-1757 -3312 0
-1758 -3313 0
-1759 -3314 0
-1760 -3315 0
-1756 -3316 0
-1757 -3317 0
-1758 -3318 0
-1759 -3319 0
-1760 -3320 0
-1756 -3421 0
-1757 -3422 0
-1758 -3423 0
-1759 -3424 0
-1760 -3425 0
-1761 -1766 0
-1762 -1767 0
-1763 -1768 0
-1764 -1769 0
-1765 -1770 0
-1761 -1801 0
-1762 -1802 0
-1763 -1803 0
-1764 -1804 0
-1765 -1805 0
-1761 -1861 0
-1762 -1862 0
-1763 -1863 0
-1764 -1864 0
-1765 -1865 0
-1761 -2126 0
-1762 -2127 0
-1763 -2128 0
-1764 -2129 0
-1765 -2130 0
-1761 -2561 0
-1762 -2562 0
-1763 -2563 0
-1764 -2564 0
-1765 -2565 0
-1761 -3181 0
-1762 -3182 0
-1763 -3183 0
-1764 -3184 0
-1765 -3185 0
-1761 -3236 0
-1762 -3237 0
-1763 -3238 0
-1764 -3239 0
-1765 -3240 0
-1766 -1801 0
-1767 -1802 0
-1768 -1803 0
-1769 -1804 0
-1770 -1805 0
-1766 -1866 0
-1767 -1867 0
-1768 -1868 0
-1769 -1869 0
-1770 -1870 0
-1766 -2136 0
-1767 -2137 0
-1768 -2138 0
-1769 -2139 0
-1770 -2140 0
-1766 -2566 0
-1767 -2567 0
-1768 -2568 0
-1769 -2569 0
-1770 -2570 0
-1771 -1776 0
-1772 -1777 0
-1773 -1778 0
-1774 -1779 0
-1775 -1780 0
-1771 -1791 0
-1772 -1792 0
-1773 -1793 0
-1774 -1794 0
-1775 -1795 0
-1771 -1816 0
-1772 -1817 0
-1773 -1818 0
-1774 -1819 0
-1775 -1820 0
-1771 -2246 0
-1772 -2247 0
-1773 -2248 0
-1774 -2249 0
-1775 -2250 0
-1771 -2676 0
-1772 -2677 0
-1773 -2678 0
-1774 -2679 0
-1775 -2680 0
-1771 -3186 0
-1772 -3187 0
-1773 -3188 0
-1774 -3189 0
-1775 -3190 0
-1771 -3251 0
-1772 -3252 0
-1773 -3253 0
-1774 -3254 0
-1775 -3255 0
-1771 -3426 0
-1772 -3427 0
-1773 -3428 0
-1774 -3429 0
-1775 -3430 0
-1776 -1781 0
-1777 -1782 0
-1778 -1783 0
-1779 -1784 0
-1780 -1785 0
-1776 -1801 0
-1777 -1802 0
-1778 -1803 0
-1779 -1804 0
-1780 -1805 0
-1776 -1821 0
-1777 -1822 0
-1778 -1823 0
-1779 -1824 0
-1780 -1825 0
-1776 -2201 0
-1777 -2202 0
-1778 -2203 0
-1779 -2204 0
-1780 -2205 0
-1776 -2686 0
-1777 -2687 0
-1778 -2688 0
-1779 -2689 0
-1780 -2690 0
-1776 -2856 0
-1777 -2857 0
-1778 -2858 0
-1779 -2859 0
-1780 -2860 0
-1776 -3191 0
-1777 -3192 0
-1778 -3193 0
-1779 -3194 0
-1780 -3195 0
-1776 -3256 0
-1777 -3257 0
-1778 -3258 0
-1779 -3259 0
-1780 -3260 0
-1781 -1821 0
-1782 -1822 0
-1783 -1823 0
-1784 -1824 0
-1785 -1825 0
-1781 -2206 0
-1782 -2207 0
-1783 -2208 0
-1784 -2209 0
-1785 -2210 0
-1781 -2591 0
-1782 -2592 0
-1783 -2593 0
-1784 -2594 0
-1785 -2595 0
-1781 -2861 0
-1782 -2862 0
-1783 -2863 0
-1784 -2864 0
-1785 -2865 0
-1781 -2951 0
-1782 -2952 0
-1783 -2953 0
-1784 -2954 0
-1785 -2955 0
-1786 -1791 0
-1787 -1792 0
-1788 -1793 0
-1789 -1794 0
-1790 -1795 0
-1786 -2276 0
-1787 -2277 0
-1788 -2278 0
-1789 -2279 0
-1790 -2280 0
-1786 -3246 0
-1787 -3247 0
-1788 -3248 0
-1789 -3249 0
-1790 -3250 0
-1786 -3321 0
-1787 -3322 0
-1788 -3323 0
-1789 -3324 0
-1790 -3325 0
-1791 -1796 0
-1792 -1797 0
-1793 -1798 0
-1794 -1799 0
-1795 -1800 0
-1791 -1801 0
-1792 -1802 0
-1793 -1803 0
-1794 -1804 0
-1795 -1805 0
-1791 -1876 0
-1792 -1877 0
-1793 -1878 0
-1794 -1879 0
-1795 -1880 0
-1791 -1936 0
-1792 -1937 0
-1793 -1938 0
-1794 -1939 0
-1795 -1940 0
-1791 -2086 0
-1792 -2087 0
-1793 -2088 0
-1794 -2089 0
-1795 -2090 0
-1791 -2321 0
-1792 -2322 0
-1793 -2323 0
-1794 -2324 0
-1795 -2325 0
-1791 -2806 0
-1792 -2807 0
-1793 -2808 0
-1794 -2809 0
-1795 -2810 0
-1791 -3201 0
-1792 -3202 0
-1793 -3203 0
-1794 -3204 0
-1795 -3205 0
-1791 -3251 0
-1792 -3252 0
-1793 -3253 0
-1794 -3254 0
-1795 -3255 0
-1791 -3321 0
-1792 -3322 0
-1793 -3323 0
-1794 -3324 0
-1795 -3325 0
-1791 -3326 0
-1792 -3327 0
-1793 -3328 0
-1794 -3329 0
-1795 -3330 0
-1796 -1941 0
-1797 -1942 0
-1798 -1943 0
-1799 -1944 0
-1800 -1945 0
-1796 -2091 0
-1797 -2092 0
-1798 -2093 0
-1799 -2094 0
-1800 -2095 0
-1796 -2331 0
-1797 -2332 0
-1798 -2333 0
-1799 -2334 0
-1800 -2335 0
-1796 -2611 0
-1797 -2612 0
-1798 -2613 0
-1799 -2614 0
-1800 -2615 0
-1796 -2956 0
-1797 -2957 0
-1798 -2958 0
-1799 -2959 0
-1800 -2960 0
-1801 -1876 0
-1802 -1877 0
-1803 -1878 0
-1804 -1879 0
-1805 -1880 0
-1801 -1951 0
-1802 -1952 0
-1803 -1953 0
-1804 -1954 0
-1805 -1955 0
-1801 -2341 0
-1802 -2342 0
-1803 -2343 0
-1804 -2344 0
-1805 -2345 0
-1801 -2811 0
-1802 -2812 0
-1803 -2813 0
-1804 -2814 0
-1805 -2815 0
-1801 -3211 0
-1802 -3212 0
-1803 -3213 0
-1804 -3214 0
-1805 -3215 0
-1801 -3256 0
-1802 -3257 0
-1803 -3258 0
-1804 -3259 0
-1805 -3260 0
-1806 -1811 0
-1807 -1812 0
-1808 -1813 0
-1809 -1814 0
-1810 -1815 0
-1806 -1821 0
-1807 -1822 0
-1808 -1823 0
-1809 -1824 0
-1810 -1825 0
-1806 -2236 0
-1807 -2237 0
-1808 -2238 0
-1809 -2239 0
-1810 -2240 0
-1806 -2621 0
-1807 -2622 0
-1808 -2623 0
-1809 -2624 0
-1810 -2625 0
-1806 -2991 0
-1807 -2992 0
-1808 -2993 0
-1809 -2994 0
-1810 -2995 0
-1806 -3276 0
-1807 -3277 0
-1808 -3278 0
-1809 -3279 0
-1810 -3280 0
-1806 -3296 0
-1807 -3297 0
-1808 -3298 0
-1809 -3299 0
-1810 -3300 0
-1806 -3356 0
-1807 -3357 0
-1808 -3358 0
-1809 -3359 0
-1810 -3360 0
-1811 -1826 0
-1812 -1827 0
-1813 -1828 0
-1814 -1829 0
-1815 -1830 0
-1811 -2116 0
-1812 -2117 0
-1813 -2118 0
-1814 -2119 0
-1815 -2120 0
-1811 -2626 0
-1812 -2627 0
-1813 -2628 0
-1814 -2629 0
-1815 -2630 0
-1811 -2871 0
-1812 -2872 0
-1813 -2873 0
-1814 -2874 0
-1815 -2875 0
-1811 -3301 0
-1812 -3302 0
-1813 -3303 0
-1814 -3304 0
-1815 -3305 0
-1811 -3361 0
-1812 -3362 0
-1813 -3363 0
-1814 -3364 0
-1815 -3365 0
-1816 -1821 0
-1817 -1822 0
-1818 -1823 0
-1819 -1824 0
-1820 -1825 0
-1816 -1956 0
-1817 -1957 0
-1818 -1958 0
-1819 -1959 0
-1820 -1960 0
-1816 -2301 0
-1817 -2302 0
-1818 -2303 0
-1819 -2304 0
-1820 -2305 0
-1816 -3466 0
-1817 -3467 0
-1818 -3468 0
-1819 -3469 0
-1820 -3470 0
-1821 -1826 0
-1822 -1827 0
-1823 -1828 0
-1824 -1829 0
-1825 -1830 0
-1821 -1961 0
-1822 -1962 0
-1823 -1963 0
-1824 -1964 0
-1825 -1965 0
-1821 -2321 0
-1822 -2322 0
-1823 -2323 0
-1824 -2324 0
-1825 -2325 0
-1821 -2646 0
-1822 -2647 0
-1823 -2648 0
-1824 -2649 0
-1825 -2650 0
-1821 -2826 0
-1822 -2827 0
-1823 -2828 0
-1824 -2829 0
-1825 -2830 0
-1821 -2881 0
-1822 -2882 0
-1823 -2883 0
-1824 -2884 0
-1825 -2885 0
-1821 -3306 0
-1822 -3307 0
-1823 -3308 0
-1824 -3309 0
-1825 -3310 0
-1821 -3356 0
-1822 -3357 0
-1823 -3358 0
-1824 -3359 0
-1825 -3360 0
-1826 -2151 0
-1827 -2152 0
-1828 -2153 0
-1829 -2154 0
-1830 -2155 0
-1826 -2336 0
-1827 -2337 0
-1828 -2338 0
-1829 -2339 0
-1830 -2340 0
-1826 -2656 0
-1827 -2657 0
-1828 -2658 0
-1829 -2659 0
-1830 -2660 0
-1826 -2846 0
-1827 -2847 0
-1828 -2848 0
-1829 -2849 0
-1830 -2850 0
-1826 -3361 0
-1827 -3362 0
-1828 -3363 0
-1829 -3364 0
-1830 -3365 0
-1831 -3001 0
-1832 -3002 0
-1833 -3003 0
-1834 -3004 0
-1835 -3005 0
-1831 -3336 0
-1832 -3337 0
-1833 -3338 0
-1834 -3339 0
-1835 -3340 0
-1836 -1846 0
-1837 -1847 0
-1838 -1848 0
-1839 -1849 0
-1840 -1850 0
-1836 -1851 0
-1837 -1852 0
-1838 -1853 0
-1839 -1854 0
-1840 -1855 0
-1836 -3341 0
-1837 -3342 0
-1838 -3343 0
-1839 -3344 0
-1840 -3345 0
-1841 -1846 0
-1842 -1847 0
-1843 -1848 0
-1844 -1849 0
-1845 -1850 0
-1841 -3011 0
-1842 -3012 0
-1843 -3013 0
-1844 -3014 0
-1845 -3015 0
-1846 -1856 0
-1847 -1857 0
-1848 -1858 0
-1849 -1859 0
-1850 -1860 0
-1846 -1866 0
-1847 -1867 0
-1848 -1868 0
-1849 -1869 0
-1850 -1870 0
-1846 -2171 0
-1847 -2172 0
-1848 -2173 0
-1849 -2174 0
-1850 -2175 0
-1846 -2621 0
-1847 -2622 0
-1848 -2623 0
-1849 -2624 0
-1850 -2625 0
-1846 -3341 0
-1847 -3342 0
-1848 -3343 0
-1849 -3344 0
-1850 -3345 0
-1846 -3346 0
-1847 -3347 0
-1848 -3348 0
-1849 -3349 0
-1850 -3350 0
-1851 -1866 0
-1852 -1867 0
-1853 -1868 0
-1854 -1869 0
-1855 -1870 0
-1851 -2251 0
-1852 -2252 0
-1853 -2253 0
-1854 -2254 0
-1855 -2255 0
-1851 -3351 0
-1852 -3352 0
-1853 -3353 0
-1854 -3354 0
-1855 -3355 0
-1856 -1866 0
-1857 -1867 0
-1858 -1868 0
-1859 -1869 0
-1860 -1870 0
-1856 -1871 0
-1857 -1872 0
-1858 -1873 0
-1859 -1874 0
-1860 -1875 0
-1856 -2051 0
-1857 -2052 0
-1858 -2053 0
-1859 -2054 0
-1860 -2055 0
-1856 -2261 0
-1857 -2262 0
-1858 -2263 0
-1859 -2264 0
-1860 -2265 0
-1856 -2436 0
-1857 -2437 0
-1858 -2438 0
-1859 -2439 0
-1860 -2440 0
-1856 -3356 0
-1857 -3357 0
-1858 -3358 0
-1859 -3359 0
-1860 -3360 0
-1861 -1866 0
-1862 -1867 0
-1863 -1868 0
-1864 -1869 0
-1865 -1870 0
-1861 -1876 0
-1862 -1877 0
-1863 -1878 0
-1864 -1879 0
-1865 -1880 0
-1861 -2271 0
-1862 -2272 0
-1863 -2273 0
-1864 -2274 0
-1865 -2275 0
-1861 -2676 0
-1862 -2677 0
-1863 -2678 0
-1864 -2679 0
-1865 -2680 0
-1866 -1876 0
-1867 -1877 0
-1868 -1878 0
-1869 -1879 0
-1870 -1880 0
-1866 -2276 0
-1867 -2277 0
-1868 -2278 0
-1869 -2279 0
-1870 -2280 0
-1866 -2681 0
-1867 -2682 0
-1868 -2683 0
-1869 -2684 0
-1870 -2685 0
-1866 -2896 0
-1867 -2897 0
-1868 -2898 0
-1869 -2899 0
-1870 -2900 0
-1866 -3046 0
-1867 -3047 0
-1868 -3048 0
-1869 -3049 0
-1870 -3050 0
-1866 -3331 0
-1867 -3332 0
-1868 -3333 0
-1869 -3334 0
-1870 -3335 0
-1866 -3351 0
-1867 -3352 0
-1868 -3353 0
-1869 -3354 0
-1870 -3355 0
-1866 -3361 0
-1867 -3362 0
-1868 -3363 0
-1869 -3364 0
-1870 -3365 0
-1871 -2061 0
-1872 -2062 0
-1873 -2063 0
-1874 -2064 0
-1875 -2065 0
-1871 -2306 0
-1872 -2307 0
-1873 -2308 0
-1874 -2309 0
-1875 -2310 0
-1871 -3356 0
-1872 -3357 0
-1873 -3358 0
-1874 -3359 0
-1875 -3360 0
-1876 -2101 0
-1877 -2102 0
-1878 -2103 0
-1879 -2104 0
-1880 -2105 0
-1876 -2366 0
-1877 -2367 0
-1878 -2368 0
-1879 -2369 0
-1880 -2370 0
-1876 -2466 0
-1877 -2467 0
-1878 -2468 0
-1879 -2469 0
-1880 -2470 0
-1876 -2886 0
-1877 -2887 0
-1878 -2888 0
-1879 -2889 0
-1880 -2890 0
-1876 -3056 0
-1877 -3057 0
-1878 -3058 0
-1879 -3059 0
-1880 -3060 0
-1876 -3336 0
-1877 -3337 0
-1878 -3338 0
-1879 -3339 0
-1880 -3340 0
-1881 -1886 0
-1882 -1887 0
-1883 -1888 0
-1884 -1889 0
-1885 -1890 0
-1881 -1896 0
-1882 -1897 0
-1883 -1898 0
-1884 -1899 0
-1885 -1900 0
-1881 -2231 0
-1882 -2232 0
-1883 -2233 0
-1884 -2234 0
-1885 -2235 0
-1881 -3386 0
-1882 -3387 0
-1883 -3388 0
-1884 -3389 0
-1885 -3390 0
-1886 -1911 0
-1887 -1912 0
-1888 -1913 0
-1889 -1914 0
-1890 -1915 0
-1886 -1931 0
-1887 -1932 0
-1888 -1933 0
-1889 -1934 0
-1890 -1935 0
-1886 -1941 0
-1887 -1942 0
-1888 -1943 0
-1889 -1944 0
-1890 -1945 0
-1886 -2171 0
-1887 -2172 0
-1888 -2173 0
-1889 -2174 0
-1890 -2175 0
-1886 -2236 0
-1887 -2237 0
-1888 -2238 0
-1889 -2239 0
-1890 -2240 0
-1886 -2501 0
-1887 -2502 0
-1888 -2503 0
-1889 -2504 0
-1890 -2505 0
-1886 -3231 0
-1887 -3232 0
-1888 -3233 0
-1889 -3234 0
-1890 -3235 0
-1886 -3391 0
-1887 -3392 0
-1888 -3393 0
-1889 -3394 0
-1890 -3395 0
-1891 -1901 0
-1892 -1902 0
-1893 -1903 0
-1894 -1904 0
-1895 -1905 0
-1891 -1906 0
-1892 -1907 0
-1893 -1908 0
-1894 -1909 0
-1895 -1910 0
-1891 -1996 0
-1892 -1997 0
-1893 -1998 0
-1894 -1999 0
-1895 -2000 0
-1891 -3366 0
-1892 -3367 0
-1893 -3368 0
-1894 -3369 0
-1895 -3370 0
-1891 -3491 0
-1892 -3492 0
-1893 -3493 0
-1894 -3494 0
-1895 -3495 0
-1896 -1901 0
-1897 -1902 0
-1898 -1903 0
-1899 -1904 0
-1900 -1905 0
-1896 -1911 0
-1897 -1912 0
-1898 -1913 0
-1899 -1914 0
-1900 -1915 0
-1896 -1991 0
-1897 -1992 0
-1898 -1993 0
-1899 -1994 0
-1900 -1995 0
-1896 -2276 0
-1897 -2277 0
-1898 -2278 0
-1899 -2279 0
-1900 -2280 0
-1896 -3371 0
-1897 -3372 0
-1898 -3373 0
-1899 -3374 0
-1900 -3375 0
-1896 -3386 0
-1897 -3387 0
-1898 -3388 0
-1899 -3389 0
-1900 -3390 0
-1901 -1916 0
-1902 -1917 0
-1903 -1918 0
-1904 -1919 0
-1905 -1920 0
-1901 -1996 0
-1902 -1997 0
-1903 -1998 0
-1904 -1999 0
-1905 -2000 0
-1901 -2281 0
-1902 -2282 0
-1903 -2283 0
-1904 -2284 0
-1905 -2285 0
-1901 -2916 0
-1902 -2917 0
-1903 -2918 0
-1904 -2919 0
-1905 -2920 0
-1901 -3376 0
-1902 -3377 0
-1903 -3378 0
-1904 -3379 0
-1905 -3380 0
-1906 -1916 0
-1907 -1917 0
-1908 -1918 0
-1909 -1919 0
-1910 -1920 0
-1906 -2011 0
-1907 -2012 0
-1908 -2013 0
-1909 -2014 0
-1910 -2015 0
-1906 -2791 0
-1907 -2792 0
-1908 -2793 0
-1909 -2794 0
-1910 -2795 0
-1906 -3366 0
-1907 -3367 0
-1908 -3368 0
-1909 -3369 0
-1910 -3370 0
-1906 -3496 0
-1907 -3497 0
-1908 -3498 0
-1909 -3499 0
-1910 -3500 0
-1911 -1916 0
-1912 -1917 0
-1913 -1918 0
-1914 -1919 0
-1915 -1920 0
-1911 -1921 0
-1912 -1922 0
-1913 -1923 0
-1914 -1924 0
-1915 -1925 0
-1911 -1946 0
-1912 -1947 0
-1913 -1948 0
-1914 -1949 0
-1915 -1950 0
-1911 -1951 0
-1912 -1952 0
-1913 -1953 0
-1914 -1954 0
-1915 -1955 0
-1911 -2006 0
-1912 -2007 0
-1913 -2008 0
-1914 -2009 0
-1915 -2010 0
-1911 -2321 0
-1912 -2322 0
-1913 -2323 0
-1914 -2324 0
-1915 -2325 0
-1911 -2706 0
-1912 -2707 0
-1913 -2708 0
-1914 -2709 0
-1915 -2710 0
-1911 -2906 0
-1912 -2907 0
-1913 -2908 0
-1914 -2909 0
-1915 -2910 0
-1911 -2931 0
-1912 -2932 0
-1913 -2933 0
-1914 -2934 0
-1915 -2935 0
-1911 -3236 0
-1912 -3237 0
-1913 -3238 0
-1914 -3239 0
-1915 -3240 0
-1911 -3371 0
-1912 -3372 0
-1913 -3373 0
-1914 -3374 0
-1915 -3375 0
-1911 -3391 0
-1912 -3392 0
-1913 -3393 0
-1914 -3394 0
-1915 -3395 0
-1916 -1921 0
-1917 -1922 0
-1918 -1923 0
-1919 -1924 0
-1920 -1925 0
-1916 -2011 0
-1917 -2012 0
-1918 -2013 0
-1919 -2014 0
-1920 -2015 0
-1916 -2326 0
-1917 -2327 0
-1918 -2328 0
-1919 -2329 0
-1920 -2330 0
-1916 -2521 0
-1917 -2522 0
-1918 -2523 0
-1919 -2524 0
-1920 -2525 0
-1916 -2711 0
-1917 -2712 0
-1918 -2713 0
-1919 -2714 0
-1920 -2715 0
-1916 -2796 0
-1917 -2797 0
-1918 -2798 0
-1919 -2799 0
-1920 -2800 0
-1916 -3376 0
-1917 -3377 0
-1918 -3378 0
-1919 -3379 0
-1920 -3380 0
-1921 -2381 0
-1922 -2382 0
-1923 -2383 0
-1924 -2384 0
-1925 -2385 0
-1921 -3256 0
-1922 -3257 0
-1923 -3258 0
-1924 -3259 0
-1925 -3260 0
-1926 -1941 0
-1927 -1942 0
-1928 -1943 0
-1929 -1944 0
-1930 -1945 0
-1926 -1956 0
-1927 -1957 0
-1928 -1958 0
-1929 -1959 0
-1930 -1960 0
-1926 -2241 0
-1927 -2242 0
-1928 -2243 0
-1929 -2244 0
-1930 -2245 0
-1926 -2566 0
-1927 -2567 0
-1928 -2568 0
-1929 -2569 0
-1930 -2570 0
-1926 -2726 0
-1927 -2727 0
-1928 -2728 0
-1929 -2729 0
-1930 -2730 0
-1926 -2946 0
-1927 -2947 0
-1928 -2948 0
-1929 -2949 0
-1930 -2950 0
-1926 -2971 0
-1927 -2972 0
-1928 -2973 0
-1929 -2974 0
-1930 -2975 0
-1926 -3416 0
-1927 -3417 0
-1928 -3418 0
-1929 -3419 0
-1930 -3420 0
-1926 -3511 0
-1927 -3512 0
-1928 -3513 0
-1929 -3514 0
-1930 -3515 0
-1931 -1941 0
-1932 -1942 0
-1933 -1943 0
-1934 -1944 0
-1935 -1945 0
-1931 -1946 0
-1932 -1947 0
-1933 -1948 0
-1934 -1949 0
-1935 -1950 0
-1931 -2066 0
-1932 -2067 0
-1933 -2068 0
-1934 -2069 0
-1935 -2070 0
-1931 -2261 0
-1932 -2262 0
-1933 -2263 0
-1934 -2264 0
-1935 -2265 0
-1931 -2561 0
-1932 -2562 0
-1933 -2563 0
-1934 -2564 0
-1935 -2565 0
-1931 -2736 0
-1932 -2737 0
-1933 -2738 0
-1934 -2739 0
-1935 -2740 0
-1931 -3296 0
-1932 -3297 0
-1933 -3298 0
-1934 -3299 0
-1935 -3300 0
-1936 -1941 0
-1937 -1942 0
-1938 -1943 0
-1939 -1944 0
-1940 -1945 0
-1936 -1966 0
-1937 -1967 0
-1938 -1968 0
-1939 -1969 0
-1940 -1970 0
-1936 -2266 0
-1937 -2267 0
-1938 -2268 0
-1939 -2269 0
-1940 -2270 0
-1936 -2506 0
-1937 -2507 0
-1938 -2508 0
-1939 -2509 0
-1940 -2510 0
-1941 -1951 0
-1942 -1952 0
-1943 -1953 0
-1944 -1954 0
-1945 -1955 0
-1941 -1966 0
-1942 -1967 0
-1943 -1968 0
-1944 -1969 0
-1945 -1970 0
-1941 -2071 0
-1942 -2072 0
-1943 -2073 0
-1944 -2074 0
-1945 -2075 0
-1941 -2276 0
-1942 -2277 0
-1943 -2278 0
-1944 -2279 0
-1945 -2280 0
-1941 -2511 0
-1942 -2512 0
-1943 -2513 0
-1944 -2514 0
-1945 -2515 0
-1941 -2571 0
-1942 -2572 0
-1943 -2573 0
-1944 -2574 0
-1945 -2575 0
-1941 -2741 0
-1942 -2742 0
-1943 -2743 0
-1944 -2744 0
-1945 -2745 0
-1941 -2956 0
-1942 -2957 0
-1943 -2958 0
-1944 -2959 0
-1945 -2960 0
-1941 -3301 0
-1942 -3302 0
-1943 -3303 0
-1944 -3304 0
-1945 -3305 0
-1941 -3421 0
-1942 -3422 0
-1943 -3423 0
-1944 -3424 0
-1945 -3425 0
-1946 -1951 0
-1947 -1952 0
-1948 -1953 0
-1949 -1954 0
-1950 -1955 0
-1946 -2091 0
-1947 -2092 0
-1948 -2093 0
-1949 -2094 0
-1950 -2095 0
-1946 -2106 0
-1947 -2107 0
-1948 -2108 0
-1949 -2109 0
-1950 -2110 0
-1946 -2136 0
-1947 -2137 0
-1948 -2138 0
-1949 -2139 0
-1950 -2140 0
-1946 -2416 0
-1947 -2417 0
-1948 -2418 0
-1949 -2419 0
-1950 -2420 0
-1946 -2491 0
-1947 -2492 0
-1948 -2493 0
-1949 -2494 0
-1950 -2495 0
-1946 -2756 0
-1947 -2757 0
-1948 -2758 0
-1949 -2759 0
-1950 -2760 0
-1946 -3306 0
-1947 -3307 0
-1948 -3308 0
-1949 -3309 0
-1950 -3310 0
-1951 -2101 0
-1952 -2102 0
-1953 -2103 0
-1954 -2104 0
-1955 -2105 0
-1951 -2111 0
-1952 -2112 0
-1953 -2113 0
-1954 -2114 0
-1955 -2115 0
-1951 -2356 0
-1952 -2357 0
-1953 -2358 0
-1954 -2359 0
-1955 -2360 0
-1951 -2421 0
-1952 -2422 0
-1953 -2423 0
-1954 -2424 0
-1955 -2425 0
-1951 -2721 0
-1952 -2722 0
-1953 -2723 0
-1954 -2724 0
-1955 -2725 0
-1951 -2761 0
-1952 -2762 0
-1953 -2763 0
-1954 -2764 0
-1955 -2765 0
-1951 -3421 0
-1952 -3422 0
-1953 -3423 0
-1954 -3424 0
-1955 -3425 0
-1956 -1961 0
-1957 -1962 0
-1958 -1963 0
-1959 -1964 0
-1960 -1965 0
-1956 -1966 0
-1957 -1967 0
-1958 -1968 0
-1959 -1969 0
-1960 -1970 0
-1956 -1971 0
-1957 -1972 0
-1958 -1973 0
-1959 -1974 0
-1960 -1975 0
-1956 -2116 0
-1957 -2117 0
-1958 -2118 0
-1959 -2119 0
-1960 -2120 0
-1956 -2496 0
-1957 -2497 0
-1958 -2498 0
-1959 -2499 0
-1960 -2500 0
-1956 -2766 0
-1957 -2767 0
-1958 -2768 0
-1959 -2769 0
-1960 -2770 0
-1956 -2866 0
-1957 -2867 0
-1958 -2868 0
-1959 -2869 0
-1960 -2870 0
-1956 -3086 0
-1957 -3087 0
-1958 -3088 0
-1959 -3089 0
-1960 -3090 0
-1956 -3366 0
-1957 -3367 0
-1958 -3368 0
-1959 -3369 0
-1960 -3370 0
-1956 -3436 0
-1957 -3437 0
-1958 -3438 0
-1959 -3439 0
-1960 -3440 0
-1956 -3441 0
-1957 -3442 0
-1958 -3443 0
-1959 -3444 0
-1960 -3445 0
-1956 -3541 0
-1957 -3542 0
-1958 -3543 0
-1959 -3544 0
-1960 -3545 0
-1961 -2116 0
-1962 -2117 0
-1963 -2118 0
-1964 -2119 0
-1965 -2120 0
-1961 -2506 0
-1962 -2507 0
-1963 -2508 0
-1964 -2509 0
-1965 -2510 0
-1961 -2776 0
-1962 -2777 0
-1963 -2778 0
-1964 -2779 0
-1965 -2780 0
-1961 -3376 0
-1962 -3377 0
-1963 -3378 0
-1964 -3379 0
-1965 -3380 0
-1966 -2121 0
-1967 -2122 0
-1968 -2123 0
-1969 -2124 0
-1970 -2125 0
-1966 -2386 0
-1967 -2387 0
-1968 -2388 0
-1969 -2389 0
-1970 -2390 0
-1966 -2546 0
-1967 -2547 0
-1968 -2548 0
-1969 -2549 0
-1970 -2550 0
-1966 -2786 0
-1967 -2787 0
-1968 -2788 0
-1969 -2789 0
-1970 -2790 0
-1966 -3091 0
-1967 -3092 0
-1968 -3093 0
-1969 -3094 0
-1970 -3095 0
-1966 -3311 0
-1967 -3312 0
-1968 -3313 0
-1969 -3314 0
-1970 -3315 0
-1966 -3366 0
-1967 -3367 0
-1968 -3368 0
-1969 -3369 0
-1970 -3370 0
-1966 -3556 0
-1967 -3557 0
-1968 -3558 0
-1969 -3559 0
-1970 -3560 0
-1971 -2966 0
-1972 -2967 0
-1973 -2968 0
-1974 -2969 0
-1975 -2970 0
-1971 -3461 0
-1972 -3462 0
-1973 -3463 0
-1974 -3464 0
-1975 -3465 0
-1971 -3566 0
-1972 -3567 0
-1973 -3568 0
-1974 -3569 0
-1975 -3570 0
-1976 -1981 0
-1977 -1982 0
-1978 -1983 0
-1979 -1984 0
-1980 -1985 0
-1976 -2016 0
-1977 -2017 0
-1978 -2018 0
-1979 -2019 0
-1980 -2020 0
-1976 -3001 0
-1977 -3002 0
-1978 -3003 0
-1979 -3004 0
-1980 -3005 0
-1976 -3381 0
-1977 -3382 0
-1978 -3383 0
-1979 -3384 0
-1980 -3385 0
-1981 -2026 0
-1982 -2027 0
-1983 -2028 0
-1984 -2029 0
-1985 -2030 0
-1981 -2436 0
-1982 -2437 0
-1983 -2438 0
-1984 -2439 0
-1985 -2440 0
-1981 -2736 0
-1982 -2737 0
-1983 -2738 0
-1984 -2739 0
-1985 -2740 0
-1981 -3386 0
-1982 -3387 0
-1983 -3388 0
-1984 -3389 0
-1985 -3390 0
-1981 -3391 0
-1982 -3392 0
-1983 -3393 0
-1984 -3394 0
-1985 -3395 0
-1986 -2011 0
-1987 -2012 0
-1988 -2013 0
-1989 -2014 0
-1990 -2015 0
-1986 -2036 0
-1987 -2037 0
-1988 -2038 0
-1989 -2039 0
-1990 -2040 0
-1986 -3011 0
-1987 -3012 0
-1988 -3013 0
-1989 -3014 0
-1990 -3015 0
-1991 -1996 0
-1992 -1997 0
-1993 -1998 0
-1994 -1999 0
-1995 -2000 0
-1991 -2006 0
-1992 -2007 0
-1993 -2008 0
-1994 -2009 0
-1995 -2010 0
-1991 -2076 0
-1992 -2077 0
-1993 -2078 0
-1994 -2079 0
-1995 -2080 0
-1991 -2451 0
-1992 -2452 0
-1993 -2453 0
-1994 -2454 0
-1995 -2455 0
-1991 -2661 0
-1992 -2662 0
-1993 -2663 0
-1994 -2664 0
-1995 -2665 0
-1991 -3396 0
-1992 -3397 0
-1993 -3398 0
-1994 -3399 0
-1995 -3400 0
-1996 -2011 0
-1997 -2012 0
-1998 -2013 0
-1999 -2014 0
-2000 -2015 0
-1996 -2081 0
-1997 -2082 0
-1998 -2083 0
-1999 -2084 0
-2000 -2085 0
-1996 -2641 0
-1997 -2642 0
-1998 -2643 0
-1999 -2644 0
-2000 -2645 0
-1996 -3021 0
-1997 -3022 0
-1998 -3023 0
-1999 -3024 0
-2000 -3025 0
-1996 -3401 0
-1997 -3402 0
-1998 -3403 0
-1999 -3404 0
-2000 -3405 0
-2001 -2011 0
-2002 -2012 0
-2003 -2013 0
-2004 -2014 0
-2005 -2015 0
-2001 -2096 0
-2002 -2097 0
-2003 -2098 0
-2004 -2099 0
-2005 -2100 0
-2001 -2646 0
-2002 -2647 0
-2003 -2648 0
-2004 -2649 0
-2005 -2650 0
-2006 -2011 0
-2007 -2012 0
-2008 -2013 0
-2009 -2014 0
-2010 -2015 0
-2006 -2091 0
-2007 -2092 0
-2008 -2093 0
-2009 -2094 0
-2010 -2095 0
-2006 -2101 0
-2007 -2102 0
-2008 -2103 0
-2009 -2104 0
-2010 -2105 0
-2006 -2176 0
-2007 -2177 0
-2008 -2178 0
-2009 -2179 0
-2010 -2180 0
-2006 -2461 0
-2007 -2462 0
-2008 -2463 0
-2009 -2464 0
-2010 -2465 0
-2006 -2666 0
-2007 -2667 0
-2008 -2668 0
-2009 -2669 0
-2010 -2670 0
-2006 -3006 0
-2007 -3007 0
-2008 -3008 0
-2009 -3009 0
-2010 -3010 0
-2006 -3396 0
-2007 -3397 0
-2008 -3398 0
-2009 -3399 0
-2010 -3400 0
-2006 -3406 0
-2007 -3407 0
-2008 -3408 0
-2009 -3409 0
-2010 -3410 0
-2011 -2096 0
-2012 -2097 0
-2013 -2098 0
-2014 -2099 0
-2015 -2100 0
-2011 -2471 0
-2012 -2472 0
-2013 -2473 0
-2014 -2474 0
-2015 -2475 0
-2011 -2656 0
-2012 -2657 0
-2013 -2658 0
-2014 -2659 0
-2015 -2660 0
-2011 -3331 0
-2012 -3332 0
-2013 -3333 0
-2014 -3334 0
-2015 -3335 0
-2011 -3401 0
-2012 -3402 0
-2013 -3403 0
-2014 -3404 0
-2015 -3405 0
-2011 -3411 0
-2012 -3412 0
-2013 -3413 0
-2014 -3414 0
-2015 -3415 0
-2016 -2021 0
-2017 -2022 0
-2018 -2023 0
-2019 -2024 0
-2020 -2025 0
-2016 -2026 0
-2017 -2027 0
-2018 -2028 0
-2019 -2029 0
-2020 -2030 0
-2016 -2031 0
-2017 -2032 0
-2018 -2033 0
-2019 -2034 0
-2020 -2035 0
-2016 -2036 0
-2017 -2037 0
-2018 -2038 0
-2019 -2039 0
-2020 -2040 0
-2016 -2046 0
-2017 -2047 0
-2018 -2048 0
-2019 -2049 0
-2020 -2050 0
-2016 -2051 0
-2017 -2052 0
-2018 -2053 0
-2019 -2054 0
-2020 -2055 0
-2016 -2476 0
-2017 -2477 0
-2018 -2478 0
-2019 -2479 0
-2020 -2480 0
-2016 -3031 0
-2017 -3032 0
-2018 -3033 0
-2019 -3034 0
-2020 -3035 0
-2016 -3331 0
-2017 -3332 0
-2018 -3333 0
-2019 -3334 0
-2020 -3335 0
-2016 -3416 0
-2017 -3417 0
-2018 -3418 0
-2019 -3419 0
-2020 -3420 0
-2021 -2056 0
-2022 -2057 0
-2023 -2058 0
-2024 -2059 0
-2025 -2060 0
-2021 -2061 0
-2022 -2062 0
-2023 -2063 0
-2024 -2064 0
-2025 -2065 0
-2021 -2481 0
-2022 -2482 0
-2023 -2483 0
-2024 -2484 0
-2025 -2485 0
-2021 -3041 0
-2022 -3042 0
-2023 -3043 0
-2024 -3044 0
-2025 -3045 0
-2021 -3416 0
-2022 -3417 0
-2023 -3418 0
-2024 -3419 0
-2025 -3420 0
-2026 -2441 0
-2027 -2442 0
-2028 -2443 0
-2029 -2444 0
-2030 -2445 0
-2026 -2486 0
-2027 -2487 0
-2028 -2488 0
-2029 -2489 0
-2030 -2490 0
-2026 -2581 0
-2027 -2582 0
-2028 -2583 0
-2029 -2584 0
-2030 -2585 0
-2026 -2806 0
-2027 -2807 0
-2028 -2808 0
-2029 -2809 0
-2030 -2810 0
-2026 -3421 0
-2027 -3422 0
-2028 -3423 0
-2029 -3424 0
-2030 -3425 0
-2031 -2036 0
-2032 -2037 0
-2033 -2038 0
-2034 -2039 0
-2035 -2040 0
-2031 -2086 0
-2032 -2087 0
-2033 -2088 0
-2034 -2089 0
-2035 -2090 0
-2031 -2091 0
-2032 -2092 0
-2033 -2093 0
-2034 -2094 0
-2035 -2095 0
-2031 -2191 0
-2032 -2192 0
-2033 -2193 0
-2034 -2194 0
-2035 -2195 0
-2031 -2591 0
-2032 -2592 0
-2033 -2593 0
-2034 -2594 0
-2035 -2595 0
-2031 -3116 0
-2032 -3117 0
-2033 -3118 0
-2034 -3119 0
-2035 -3120 0
-2031 -3336 0
-2032 -3337 0
-2033 -3338 0
-2034 -3339 0
-2035 -3340 0
-2031 -3426 0
-2032 -3427 0
-2033 -3428 0
-2034 -3429 0
-2035 -3430 0
-2036 -2096 0
-2037 -2097 0
-2038 -2098 0
-2039 -2099 0
-2040 -2100 0
-2036 -2886 0
-2037 -2887 0
-2038 -2888 0
-2039 -2889 0
-2040 -2890 0
-2036 -3036 0
-2037 -3037 0
-2038 -3038 0
-2039 -3039 0
-2040 -3040 0
-2036 -3121 0
-2037 -3122 0
-2038 -3123 0
-2039 -3124 0
-2040 -3125 0
-2036 -3431 0
-2037 -3432 0
-2038 -3433 0
-2039 -3434 0
-2040 -3435 0
-2041 -2046 0
-2042 -2047 0
-2043 -2048 0
-2044 -2049 0
-2045 -2050 0
-2041 -3121 0
-2042 -3122 0
-2043 -3123 0
-2044 -3124 0
-2045 -3125 0
-2041 -3436 0
-2042 -3437 0
-2043 -3438 0
-2044 -3439 0
-2045 -3440 0
-2041 -3576 0
-2042 -3577 0
-2043 -3578 0
-2044 -3579 0
-2045 -3580 0
-2046 -2051 0
-2047 -2052 0
-2048 -2053 0
-2049 -2054 0
-2050 -2055 0
-2046 -2056 0
-2047 -2057 0
-2048 -2058 0
-2049 -2059 0
-2050 -2060 0
-2046 -2086 0
-2047 -2087 0
-2048 -2088 0
-2049 -2089 0
-2050 -2090 0
-2046 -3441 0
-2047 -3442 0
-2048 -3443 0
-2049 -3444 0
-2050 -3445 0
-2046 -3586 0
-2047 -3587 0
-2048 -3588 0
-2049 -3589 0
-2050 -3590 0
-2051 -2061 0
-2052 -2062 0
-2053 -2063 0
-2054 -2064 0
-2055 -2065 0
-2051 -2091 0
-2052 -2092 0
-2053 -2093 0
-2054 -2094 0
-2055 -2095 0
-2051 -2096 0
-2052 -2097 0
-2053 -2098 0
-2054 -2099 0
-2055 -2100 0
-2051 -2216 0
-2052 -2217 0
-2053 -2218 0
-2054 -2219 0
-2055 -2220 0
-2051 -3446 0
-2052 -3447 0
-2053 -3448 0
-2054 -3449 0
-2055 -3450 0
-2056 -2061 0
-2057 -2062 0
-2058 -2063 0
-2059 -2064 0
-2060 -2065 0
-2056 -2516 0
-2057 -2517 0
-2058 -2518 0
-2059 -2519 0
-2060 -2520 0
-2056 -2896 0
-2057 -2897 0
-2058 -2898 0
-2059 -2899 0
-2060 -2900 0
-2056 -3441 0
-2057 -3442 0
-2058 -3443 0
-2059 -3444 0
-2060 -3445 0
-2056 -3591 0
-2057 -3592 0
-2058 -3593 0
-2059 -3594 0
-2060 -3595 0
-2061 -2226 0
-2062 -2227 0
-2063 -2228 0
-2064 -2229 0
-2065 -2230 0
-2061 -3446 0
-2062 -3447 0
-2063 -3448 0
-2064 -3449 0
-2065 -3450 0
-2066 -2091 0
-2067 -2092 0
-2068 -2093 0
-2069 -2094 0
-2070 -2095 0
-2066 -2231 0
-2067 -2232 0
-2068 -2233 0
-2069 -2234 0
-2070 -2235 0
-2066 -2676 0
-2067 -2677 0
-2068 -2678 0
-2069 -2679 0
-2070 -2680 0
-2066 -3141 0
-2067 -3142 0
-2068 -3143 0
-2069 -3144 0
-2070 -3145 0
-2071 -2111 0
-2072 -2112 0
-2073 -2113 0
-2074 -2114 0
-2075 -2115 0
-2071 -2121 0
-2072 -2122 0
-2073 -2123 0
-2074 -2124 0
-2075 -2125 0
-2071 -2456 0
-2072 -2457 0
-2073 -2458 0
-2074 -2459 0
-2075 -2460 0
-2071 -2526 0
-2072 -2527 0
-2073 -2528 0
-2074 -2529 0
-2075 -2530 0
-2071 -3061 0
-2072 -3062 0
-2073 -3063 0
-2074 -3064 0
-2075 -3065 0
-2071 -3151 0
-2072 -3152 0
-2073 -3153 0
-2074 -3154 0
-2075 -3155 0
-2076 -2081 0
-2077 -2082 0
-2078 -2083 0
-2079 -2084 0
-2080 -2085 0
-2076 -2091 0
-2077 -2092 0
-2078 -2093 0
-2079 -2094 0
-2080 -2095 0
-2076 -2251 0
-2077 -2252 0
-2078 -2253 0
-2079 -2254 0
-2080 -2255 0
-2076 -2596 0
-2077 -2597 0
-2078 -2598 0
-2079 -2599 0
-2080 -2600 0
-2076 -3451 0
-2077 -3452 0
-2078 -3453 0
-2079 -3454 0
-2080 -3455 0
-2081 -2096 0
-2082 -2097 0
-2083 -2098 0
-2084 -2099 0
-2085 -2100 0
-2081 -2601 0
-2082 -2602 0
-2083 -2603 0
-2084 -2604 0
-2085 -2605 0
-2081 -2691 0
-2082 -2692 0
-2083 -2693 0
-2084 -2694 0
-2085 -2695 0
-2081 -3456 0
-2082 -3457 0
-2083 -3458 0
-2084 -3459 0
-2085 -3460 0
-2086 -2091 0
-2087 -2092 0
-2088 -2093 0
-2089 -2094 0
-2090 -2095 0
-2086 -2266 0
-2087 -2267 0
-2088 -2268 0
-2089 -2269 0
-2090 -2270 0
-2086 -2646 0
-2087 -2647 0
-2088 -2648 0
-2089 -2649 0
-2090 -2650 0
-2086 -3026 0
-2087 -3027 0
-2088 -3028 0
-2089 -3029 0
-2090 -3030 0
-2086 -3461 0
-2087 -3462 0
-2088 -3463 0
-2089 -3464 0
-2090 -3465 0
-2091 -2096 0
-2092 -2097 0
-2093 -2098 0
-2094 -2099 0
-2095 -2100 0
-2091 -2101 0
-2092 -2102 0
-2093 -2103 0
-2094 -2104 0
-2095 -2105 0
-2091 -2106 0
-2092 -2107 0
-2093 -2108 0
-2094 -2109 0
-2095 -2110 0
-2091 -2276 0
-2092 -2277 0
-2093 -2278 0
-2094 -2279 0
-2095 -2280 0
-2091 -2611 0
-2092 -2612 0
-2093 -2613 0
-2094 -2614 0
-2095 -2615 0
-2091 -2651 0
-2092 -2652 0
-2093 -2653 0
-2094 -2654 0
-2095 -2655 0
-2091 -3161 0
-2092 -3162 0
-2093 -3163 0
-2094 -3164 0
-2095 -3165 0
-2091 -3451 0
-2092 -3452 0
-2093 -3453 0
-2094 -3454 0
-2095 -3455 0
-2091 -3466 0
-2092 -3467 0
-2093 -3468 0
-2094 -3469 0
-2095 -3470 0
-2096 -2281 0
-2097 -2282 0
-2098 -2283 0
-2099 -2284 0
-2100 -2285 0
-2096 -2696 0
-2097 -2697 0
-2098 -2698 0
-2099 -2699 0
-2100 -2700 0
-2096 -3166 0
-2097 -3167 0
-2098 -3168 0
-2099 -3169 0
-2100 -3170 0
-2096 -3456 0
-2097 -3457 0
-2098 -3458 0
-2099 -3459 0
-2100 -3460 0
-2096 -3471 0
-2097 -3472 0
-2098 -3473 0
-2099 -3474 0
-2100 -3475 0
-2101 -2111 0
-2102 -2112 0
-2103 -2113 0
-2104 -2114 0
-2105 -2115 0
-2101 -2291 0
-2102 -2292 0
-2103 -2293 0
-2104 -2294 0
-2105 -2295 0
-2101 -3171 0
-2102 -3172 0
-2103 -3173 0
-2104 -3174 0
-2105 -3175 0
-2106 -2111 0
-2107 -2112 0
-2108 -2113 0
-2109 -2114 0
-2110 -2115 0
-2106 -2296 0
-2107 -2297 0
-2108 -2298 0
-2109 -2299 0
-2110 -2300 0
-2106 -2616 0
-2107 -2617 0
-2108 -2618 0
-2109 -2619 0
-2110 -2620 0
-2106 -3176 0
-2107 -3177 0
-2108 -3178 0
-2109 -3179 0
-2110 -3180 0
-2111 -2861 0
-2112 -2862 0
-2113 -2863 0
-2114 -2864 0
-2115 -2865 0
-2111 -3071 0
-2112 -3072 0
-2113 -3073 0
-2114 -3074 0
-2115 -3075 0
-2111 -3181 0
-2112 -3182 0
-2113 -3183 0
-2114 -3184 0
-2115 -3185 0
-2116 -2121 0
-2117 -2122 0
-2118 -2123 0
-2119 -2124 0
-2120 -2125 0
-2116 -2626 0
-2117 -2627 0
-2118 -2628 0
-2119 -2629 0
-2120 -2630 0
-2116 -3191 0
-2117 -3192 0
-2118 -3193 0
-2119 -3194 0
-2120 -3195 0
-2116 -3401 0
-2117 -3402 0
-2118 -3403 0
-2119 -3404 0
-2120 -3405 0
-2121 -2551 0
-2122 -2552 0
-2123 -2553 0
-2124 -2554 0
-2125 -2555 0
-2121 -3211 0
-2122 -3212 0
-2123 -3213 0
-2124 -3214 0
-2125 -3215 0
-2121 -3351 0
-2122 -3352 0
-2123 -3353 0
-2124 -3354 0
-2125 -3355 0
-2121 -3401 0
-2122 -3402 0
-2123 -3403 0
-2124 -3404 0
-2125 -3405 0
-2126 -2561 0
-2127 -2562 0
-2128 -2563 0
-2129 -2564 0
-2130 -2565 0
-2126 -3361 0
-2127 -3362 0
-2128 -3363 0
-2129 -3364 0
-2130 -3365 0
-2126 -3416 0
-2127 -3417 0
-2128 -3418 0
-2129 -3419 0
-2130 -3420 0
-2126 -3421 0
-2127 -3422 0
-2128 -3423 0
-2129 -3424 0
-2130 -3425 0
-2131 -2136 0
-2132 -2137 0
-2133 -2138 0
-2134 -2139 0
-2135 -2140 0
-2131 -2141 0
-2132 -2142 0
-2133 -2143 0
-2134 -2144 0
-2135 -2145 0
-2131 -2256 0
-2132 -2257 0
-2133 -2258 0
-2134 -2259 0
-2135 -2260 0
-2131 -2276 0
-2132 -2277 0
-2133 -2278 0
-2134 -2279 0
-2135 -2280 0
-2131 -2701 0
-2132 -2702 0
-2133 -2703 0
-2134 -2704 0
-2135 -2705 0
-2131 -3366 0
-2132 -3367 0
-2133 -3368 0
-2134 -3369 0
-2135 -3370 0
-2131 -3606 0
-2132 -3607 0
-2133 -3608 0
-2134 -3609 0
-2135 -3610 0
-2136 -2146 0
-2137 -2147 0
-2138 -2148 0
-2139 -2149 0
-2140 -2150 0
-2136 -2276 0
-2137 -2277 0
-2138 -2278 0
-2139 -2279 0
-2140 -2280 0
-2136 -2296 0
-2137 -2297 0
-2138 -2298 0
-2139 -2299 0
-2140 -2300 0
-2136 -2566 0
-2137 -2567 0
-2138 -2568 0
-2139 -2569 0
-2140 -2570 0
-2136 -2901 0
-2137 -2902 0
-2138 -2903 0
-2139 -2904 0
-2140 -2905 0
-2136 -3376 0
-2137 -3377 0
-2138 -3378 0
-2139 -3379 0
-2140 -3380 0
-2136 -3476 0
-2137 -3477 0
-2138 -3478 0
-2139 -3479 0
-2140 -3480 0
-2141 -2146 0
-2142 -2147 0
-2143 -2148 0
-2144 -2149 0
-2145 -2150 0
-2141 -2301 0
-2142 -2302 0
-2143 -2303 0
-2144 -2304 0
-2145 -2305 0
-2141 -2321 0
-2142 -2322 0
-2143 -2323 0
-2144 -2324 0
-2145 -2325 0
-2141 -2516 0
-2142 -2517 0
-2143 -2518 0
-2144 -2519 0
-2145 -2520 0
-2141 -2956 0
-2142 -2957 0
-2143 -2958 0
-2144 -2959 0
-2145 -2960 0
-2146 -2321 0
-2147 -2322 0
-2148 -2323 0
-2149 -2324 0
-2150 -2325 0
-2146 -2341 0
-2147 -2342 0
-2148 -2343 0
-2149 -2344 0
-2150 -2345 0
-2146 -2911 0
-2147 -2912 0
-2148 -2913 0
-2149 -2914 0
-2150 -2915 0
-2146 -2961 0
-2147 -2962 0
-2148 -2963 0
-2149 -2964 0
-2150 -2965 0
-2146 -3091 0
-2147 -3092 0
-2148 -3093 0
-2149 -3094 0
-2150 -3095 0
-2146 -3476 0
-2147 -3477 0
-2148 -3478 0
-2149 -3479 0
-2150 -3480 0
-2151 -2716 0
-2152 -2717 0
-2153 -2718 0
-2154 -2719 0
-2155 -2720 0
-2151 -2926 0
-2152 -2927 0
-2153 -2928 0
-2154 -2929 0
-2155 -2930 0
-2151 -3081 0
-2152 -3082 0
-2153 -3083 0
-2154 -3084 0
-2155 -3085 0
-2151 -3541 0
-2152 -3542 0
-2153 -3543 0
-2154 -3544 0
-2155 -3545 0
-2151 -3561 0
-2152 -3562 0
-2153 -3563 0
-2154 -3564 0
-2155 -3565 0
-2156 -2166 0
-2157 -2167 0
-2158 -2168 0
-2159 -2169 0
-2160 -2170 0
-2156 -3006 0
-2157 -3007 0
-2158 -3008 0
-2159 -3009 0
-2160 -3010 0
-2156 -3481 0
-2157 -3482 0
-2158 -3483 0
-2159 -3484 0
-2160 -3485 0
-2156 -3486 0
-2157 -3487 0
-2158 -3488 0
-2159 -3489 0
-2160 -3490 0
-2161 -2166 0
-2162 -2167 0
-2163 -2168 0
-2164 -2169 0
-2165 -2170 0
-2161 -2601 0
-2162 -2602 0
-2163 -2603 0
-2164 -2604 0
-2165 -2605 0
-2161 -2751 0
-2162 -2752 0
-2163 -2753 0
-2164 -2754 0
-2165 -2755 0
-2161 -3491 0
-2162 -3492 0
-2163 -3493 0
-2164 -3494 0
-2165 -3495 0
-2166 -2761 0
-2167 -2762 0
-2168 -2763 0
-2169 -2764 0
-2170 -2765 0
-2166 -3491 0
-2167 -3492 0
-2168 -3493 0
-2169 -3494 0
-2170 -3495 0
-2166 -3496 0
-2167 -3497 0
-2168 -3498 0
-2169 -3499 0
-2170 -3500 0
-2171 -2176 0
-2172 -2177 0
-2173 -2178 0
-2174 -2179 0
-2175 -2180 0
-2171 -2181 0
-2172 -2182 0
-2173 -2183 0
-2174 -2184 0
-2175 -2185 0
-2171 -2261 0
-2172 -2262 0
-2173 -2263 0
-2174 -2264 0
-2175 -2265 0
-2171 -2276 0
-2172 -2277 0
-2173 -2278 0
-2174 -2279 0
-2175 -2280 0
-2171 -2621 0
-2172 -2622 0
-2173 -2623 0
-2174 -2624 0
-2175 -2625 0
-2171 -2916 0
-2172 -2917 0
-2173 -2918 0
-2174 -2919 0
-2175 -2920 0
-2171 -3501 0
-2172 -3502 0
-2173 -3503 0
-2174 -3504 0
-2175 -3505 0
-2176 -2186 0
-2177 -2187 0
-2178 -2188 0
-2179 -2189 0
-2180 -2190 0
-2176 -2276 0
-2177 -2277 0
-2178 -2278 0
-2179 -2279 0
-2180 -2280 0
-2176 -2291 0
-2177 -2292 0
-2178 -2293 0
-2179 -2294 0
-2180 -2295 0
-2176 -2626 0
-2177 -2627 0
-2178 -2628 0
-2179 -2629 0
-2180 -2630 0
-2176 -2921 0
-2177 -2922 0
-2178 -2923 0
-2179 -2924 0
-2180 -2925 0
-2181 -2186 0
-2182 -2187 0
-2183 -2188 0
-2184 -2189 0
-2185 -2190 0
-2181 -2306 0
-2182 -2307 0
-2183 -2308 0
-2184 -2309 0
-2185 -2310 0
-2181 -2321 0
-2182 -2322 0
-2183 -2323 0
-2184 -2324 0
-2185 -2325 0
-2181 -3101 0
-2182 -3102 0
-2183 -3103 0
-2184 -3104 0
-2185 -3105 0
-2181 -3381 0
-2182 -3382 0
-2183 -3383 0
-2184 -3384 0
-2185 -3385 0
-2181 -3501 0
-2182 -3502 0
-2183 -3503 0
-2184 -3504 0
-2185 -3505 0
-2186 -2321 0
-2187 -2322 0
-2188 -2323 0
-2189 -2324 0
-2190 -2325 0
-2186 -2336 0
-2187 -2337 0
-2188 -2338 0
-2189 -2339 0
-2190 -2340 0
-2186 -3096 0
-2187 -3097 0
-2188 -3098 0
-2189 -3099 0
-2190 -3100 0
-2191 -2196 0
-2192 -2197 0
-2193 -2198 0
-2194 -2199 0
-2195 -2200 0
-2191 -2201 0
-2192 -2202 0
-2193 -2203 0
-2194 -2204 0
-2195 -2205 0
-2191 -2266 0
-2192 -2267 0
-2193 -2268 0
-2194 -2269 0
-2195 -2270 0
-2191 -2276 0
-2192 -2277 0
-2193 -2278 0
-2194 -2279 0
-2195 -2280 0
-2191 -3116 0
-2192 -3117 0
-2193 -3118 0
-2194 -3119 0
-2195 -3120 0
-2191 -3506 0
-2192 -3507 0
-2193 -3508 0
-2194 -3509 0
-2195 -3510 0
-2196 -2206 0
-2197 -2207 0
-2198 -2208 0
-2199 -2209 0
-2200 -2210 0
-2196 -2276 0
-2197 -2277 0
-2198 -2278 0
-2199 -2279 0
-2200 -2280 0
-2196 -2286 0
-2197 -2287 0
-2198 -2288 0
-2199 -2289 0
-2200 -2290 0
-2196 -2586 0
-2197 -2587 0
-2198 -2588 0
-2199 -2589 0
-2200 -2590 0
-2196 -2811 0
-2197 -2812 0
-2198 -2813 0
-2199 -2814 0
-2200 -2815 0
-2196 -3126 0
-2197 -3127 0
-2198 -3128 0
-2199 -3129 0
-2200 -3130 0
-2196 -3231 0
-2197 -3232 0
-2198 -3233 0
-2199 -3234 0
-2200 -3235 0
-2196 -3511 0
-2197 -3512 0
-2198 -3513 0
-2199 -3514 0
-2200 -3515 0
-2201 -2206 0
-2202 -2207 0
-2203 -2208 0
-2204 -2209 0
-2205 -2210 0
-2201 -2311 0
-2202 -2312 0
-2203 -2313 0
-2204 -2314 0
-2205 -2315 0
-2201 -2321 0
-2202 -2322 0
-2203 -2323 0
-2204 -2324 0
-2205 -2325 0
-2201 -3506 0
-2202 -3507 0
-2203 -3508 0
-2204 -3509 0
-2205 -3510 0
-2206 -2321 0
-2207 -2322 0
-2208 -2323 0
-2209 -2324 0
-2210 -2325 0
-2206 -2331 0
-2207 -2332 0
-2208 -2333 0
-2209 -2334 0
-2210 -2335 0
-2206 -2591 0
-2207 -2592 0
-2208 -2593 0
-2209 -2594 0
-2210 -2595 0
-2206 -3146 0
-2207 -3147 0
-2208 -3148 0
-2209 -3149 0
-2210 -3150 0
-2206 -3511 0
-2207 -3512 0
-2208 -3513 0
-2209 -3514 0
-2210 -3515 0
-2211 -2216 0
-2212 -2217 0
-2213 -2218 0
-2214 -2219 0
-2215 -2220 0
-2211 -2221 0
-2212 -2222 0
-2213 -2223 0
-2214 -2224 0
-2215 -2225 0
-2211 -2271 0
-2212 -2272 0
-2213 -2273 0
-2214 -2274 0
-2215 -2275 0
-2211 -2276 0
-2212 -2277 0
-2213 -2278 0
-2214 -2279 0
-2215 -2280 0
-2211 -2671 0
-2212 -2672 0
-2213 -2673 0
-2214 -2674 0
-2215 -2675 0
-2211 -2936 0
-2212 -2937 0
-2213 -2938 0
-2214 -2939 0
-2215 -2940 0
-2211 -3236 0
-2212 -3237 0
-2213 -3238 0
-2214 -3239 0
-2215 -3240 0
-2216 -2226 0
-2217 -2227 0
-2218 -2228 0
-2219 -2229 0
-2220 -2230 0
-2216 -2276 0
-2217 -2277 0
-2218 -2278 0
-2219 -2279 0
-2220 -2280 0
-2216 -2281 0
-2217 -2282 0
-2218 -2283 0
-2219 -2284 0
-2220 -2285 0
-2216 -3516 0
-2217 -3517 0
-2218 -3518 0
-2219 -3519 0
-2220 -3520 0
-2221 -2226 0
-2222 -2227 0
-2223 -2228 0
-2224 -2229 0
-2225 -2230 0
-2221 -2316 0
-2222 -2317 0
-2223 -2318 0
-2224 -2319 0
-2225 -2320 0
-2221 -2321 0
-2222 -2322 0
-2223 -2323 0
-2224 -2324 0
-2225 -2325 0
-2221 -2946 0
-2222 -2947 0
-2223 -2948 0
-2224 -2949 0
-2225 -2950 0
-2221 -3171 0
-2222 -3172 0
-2223 -3173 0
-2224 -3174 0
-2225 -3175 0
-2226 -2321 0
-2227 -2322 0
-2228 -2323 0
-2229 -2324 0
-2230 -2325 0
-2226 -2326 0
-2227 -2327 0
-2228 -2328 0
-2229 -2329 0
-2230 -2330 0
-2226 -2701 0
-2227 -2702 0
-2228 -2703 0
-2229 -2704 0
-2230 -2705 0
-2226 -3516 0
-2227 -3517 0
-2228 -3518 0
-2229 -3519 0
-2230 -3520 0
-2231 -2236 0
-2232 -2237 0
-2233 -2238 0
-2234 -2239 0
-2235 -2240 0
-2231 -2276 0
-2232 -2277 0
-2233 -2278 0
-2234 -2279 0
-2235 -2280 0
-2231 -2816 0
-2232 -2817 0
-2233 -2818 0
-2234 -2819 0
-2235 -2820 0
-2231 -3241 0
-2232 -3242 0
-2233 -3243 0
-2234 -3244 0
-2235 -3245 0
-2231 -3576 0
-2232 -3577 0
-2233 -3578 0
-2234 -3579 0
-2235 -3580 0
-2236 -2321 0
-2237 -2322 0
-2238 -2323 0
-2239 -2324 0
-2240 -2325 0
-2236 -2621 0
-2237 -2622 0
-2238 -2623 0
-2239 -2624 0
-2240 -2625 0
-2236 -2821 0
-2237 -2822 0
-2238 -2823 0
-2239 -2824 0
-2240 -2825 0
-2236 -3581 0
-2237 -3582 0
-2238 -3583 0
-2239 -3584 0
-2240 -3585 0
-2241 -2246 0
-2242 -2247 0
-2243 -2248 0
-2244 -2249 0
-2245 -2250 0
-2241 -2276 0
-2242 -2277 0
-2243 -2278 0
-2244 -2279 0
-2245 -2280 0
-2241 -2726 0
-2242 -2727 0
-2243 -2728 0
-2244 -2729 0
-2245 -2730 0
-2241 -3481 0
-2242 -3482 0
-2243 -3483 0
-2244 -3484 0
-2245 -3485 0
-2241 -3521 0
-2242 -3522 0
-2243 -3523 0
-2244 -3524 0
-2245 -3525 0
-2241 -3621 0
-2242 -3622 0
-2243 -3623 0
-2244 -3624 0
-2245 -3625 0
-2246 -2321 0
-2247 -2322 0
-2248 -2323 0
-2249 -2324 0
-2250 -2325 0
-2246 -3051 0
-2247 -3052 0
-2248 -3053 0
-2249 -3054 0
-2250 -3055 0
-2246 -3186 0
-2247 -3187 0
-2248 -3188 0
-2249 -3189 0
-2250 -3190 0
-2246 -3486 0
-2247 -3487 0
-2248 -3488 0
-2249 -3489 0
-2250 -3490 0
-2246 -3521 0
-2247 -3522 0
-2248 -3523 0
-2249 -3524 0
-2250 -3525 0
-2251 -2276 0
-2252 -2277 0
-2253 -2278 0
-2254 -2279 0
-2255 -2280 0
-2251 -2731 0
-2252 -2732 0
-2253 -2733 0
-2254 -2734 0
-2255 -2735 0
-2251 -3526 0
-2252 -3527 0
-2253 -3528 0
-2254 -3529 0
-2255 -3530 0
-2256 -2276 0
-2257 -2277 0
-2258 -2278 0
-2259 -2279 0
-2260 -2280 0
-2256 -2301 0
-2257 -2302 0
-2258 -2303 0
-2259 -2304 0
-2260 -2305 0
-2256 -2451 0
-2257 -2452 0
-2258 -2453 0
-2259 -2454 0
-2260 -2455 0
-2256 -2771 0
-2257 -2772 0
-2258 -2773 0
-2259 -2774 0
-2260 -2775 0
-2256 -3251 0
-2257 -3252 0
-2258 -3253 0
-2259 -3254 0
-2260 -3255 0
-2256 -3531 0
-2257 -3532 0
-2258 -3533 0
-2259 -3534 0
-2260 -3535 0
-2256 -3626 0
-2257 -3627 0
-2258 -3628 0
-2259 -3629 0
-2260 -3630 0
-2261 -2276 0
-2262 -2277 0
-2263 -2278 0
-2264 -2279 0
-2265 -2280 0
-2261 -2306 0
-2262 -2307 0
-2263 -2308 0
-2264 -2309 0
-2265 -2310 0
-2261 -2406 0
-2262 -2407 0
-2263 -2408 0
-2264 -2409 0
-2265 -2410 0
-2261 -2736 0
-2262 -2737 0
-2263 -2738 0
-2264 -2739 0
-2265 -2740 0
-2261 -3536 0
-2262 -3537 0
-2263 -3538 0
-2264 -3539 0
-2265 -3540 0
-2266 -2276 0
-2267 -2277 0
-2268 -2278 0
-2269 -2279 0
-2270 -2280 0
-2266 -2311 0
-2267 -2312 0
-2268 -2313 0
-2269 -2314 0
-2270 -2315 0
-2266 -2386 0
-2267 -2387 0
-2268 -2388 0
-2269 -2389 0
-2270 -2390 0
-2266 -2776 0
-2267 -2777 0
-2268 -2778 0
-2269 -2779 0
-2270 -2780 0
-2271 -2276 0
-2272 -2277 0
-2273 -2278 0
-2274 -2279 0
-2275 -2280 0
-2271 -2316 0
-2272 -2317 0
-2273 -2318 0
-2274 -2319 0
-2275 -2320 0
-2271 -2366 0
-2272 -2367 0
-2273 -2368 0
-2274 -2369 0
-2275 -2370 0
-2271 -2676 0
-2272 -2677 0
-2273 -2678 0
-2274 -2679 0
-2275 -2680 0
-2271 -3106 0
-2272 -3107 0
-2273 -3108 0
-2274 -3109 0
-2275 -3110 0
-2271 -3396 0
-2272 -3397 0
-2273 -3398 0
-2274 -3399 0
-2275 -3400 0
-2276 -2281 0
-2277 -2282 0
-2278 -2283 0
-2279 -2284 0
-2280 -2285 0
-2276 -2286 0
-2277 -2287 0
-2278 -2288 0
-2279 -2289 0
-2280 -2290 0
-2276 -2291 0
-2277 -2292 0
-2278 -2293 0
-2279 -2294 0
-2280 -2295 0
-2276 -2296 0
-2277 -2297 0
-2278 -2298 0
-2279 -2299 0
-2280 -2300 0
-2276 -2321 0
-2277 -2322 0
-2278 -2323 0
-2279 -2324 0
-2280 -2325 0
-2276 -2346 0
-2277 -2347 0
-2278 -2348 0
-2279 -2349 0
-2280 -2350 0
-2276 -2356 0
-2277 -2357 0
-2278 -2358 0
-2279 -2359 0
-2280 -2360 0
-2276 -2366 0
-2277 -2367 0
-2278 -2368 0
-2279 -2369 0
-2280 -2370 0
-2276 -2371 0
-2277 -2372 0
-2278 -2373 0
-2279 -2374 0
-2280 -2375 0
-2276 -2386 0
-2277 -2387 0
-2278 -2388 0
-2279 -2389 0
-2280 -2390 0
-2276 -2391 0
-2277 -2392 0
-2278 -2393 0
-2279 -2394 0
-2280 -2395 0
-2276 -2406 0
-2277 -2407 0
-2278 -2408 0
-2279 -2409 0
-2280 -2410 0
-2276 -2411 0
-2277 -2412 0
-2278 -2413 0
-2279 -2414 0
-2280 -2415 0
-2276 -2451 0
-2277 -2452 0
-2278 -2453 0
-2279 -2454 0
-2280 -2455 0
-2276 -2456 0
-2277 -2457 0
-2278 -2458 0
-2279 -2459 0
-2280 -2460 0
-2276 -2636 0
-2277 -2637 0
-2278 -2638 0
-2279 -2639 0
-2280 -2640 0
-2276 -2681 0
-2277 -2682 0
-2278 -2683 0
-2279 -2684 0
-2280 -2685 0
-2276 -2741 0
-2277 -2742 0
-2278 -2743 0
-2279 -2744 0
-2280 -2745 0
-2276 -2781 0
-2277 -2782 0
-2278 -2783 0
-2279 -2784 0
-2280 -2785 0
-2276 -2831 0
-2277 -2832 0
-2278 -2833 0
-2279 -2834 0
-2280 -2835 0
-2276 -2966 0
-2277 -2967 0
-2278 -2968 0
-2279 -2969 0
-2280 -2970 0
-2276 -3001 0
-2277 -3002 0
-2278 -3003 0
-2279 -3004 0
-2280 -3005 0
-2276 -3111 0
-2277 -3112 0
-2278 -3113 0
-2279 -3114 0
-2280 -3115 0
-2276 -3161 0
-2277 -3162 0
-2278 -3163 0
-2279 -3164 0
-2280 -3165 0
-2276 -3256 0
-2277 -3257 0
-2278 -3258 0
-2279 -3259 0
-2280 -3260 0
-2276 -3261 0
-2277 -3262 0
-2278 -3263 0
-2279 -3264 0
-2280 -3265 0
-2276 -3401 0
-2277 -3402 0
-2278 -3403 0
-2279 -3404 0
-2280 -3405 0
-2276 -3481 0
-2277 -3482 0
-2278 -3483 0
-2279 -3484 0
-2280 -3485 0
-2276 -3491 0
-2277 -3492 0
-2278 -3493 0
-2279 -3494 0
-2280 -3495 0
-2276 -3526 0
-2277 -3527 0
-2278 -3528 0
-2279 -3529 0
-2280 -3530 0
-2276 -3541 0
-2277 -3542 0
-2278 -3543 0
-2279 -3544 0
-2280 -3545 0
-2276 -3576 0
-2277 -3577 0
-2278 -3578 0
-2279 -3579 0
-2280 -3580 0
-2276 -3586 0
-2277 -3587 0
-2278 -3588 0
-2279 -3589 0
-2280 -3590 0
-2276 -3636 0
-2277 -3637 0
-2278 -3638 0
-2279 -3639 0
-2280 -3640 0
-2281 -2326 0
-2282 -2327 0
-2283 -2328 0
-2284 -2329 0
-2285 -2330 0
-2281 -2371 0
-2282 -2372 0
-2283 -2373 0
-2284 -2374 0
-2285 -2375 0
-2281 -2836 0
-2282 -2837 0
-2283 -2838 0
-2284 -2839 0
-2285 -2840 0
-2281 -3166 0
-2282 -3167 0
-2283 -3168 0
-2284 -3169 0
-2285 -3170 0
-2281 -3546 0
-2282 -3547 0
-2283 -3548 0
-2284 -3549 0
-2285 -3550 0
-2286 -2331 0
-2287 -2332 0
-2288 -2333 0
-2289 -2334 0
-2290 -2335 0
-2286 -2391 0
-2287 -2392 0
-2288 -2393 0
-2289 -2394 0
-2290 -2395 0
-2286 -2841 0
-2287 -2842 0
-2288 -2843 0
-2289 -2844 0
-2290 -2845 0
-2286 -3006 0
-2287 -3007 0
-2288 -3008 0
-2289 -3009 0
-2290 -3010 0
-2286 -3266 0
-2287 -3267 0
-2288 -3268 0
-2289 -3269 0
-2290 -3270 0
-2291 -2336 0
-2292 -2337 0
-2293 -2338 0
-2294 -2339 0
-2295 -2340 0
-2291 -2411 0
-2292 -2412 0
-2293 -2413 0
-2294 -2414 0
-2295 -2415 0
-2291 -2641 0
-2292 -2642 0
-2293 -2643 0
-2294 -2644 0
-2295 -2645 0
-2291 -2971 0
-2292 -2972 0
-2293 -2973 0
-2294 -2974 0
-2295 -2975 0
-2291 -3171 0
-2292 -3172 0
-2293 -3173 0
-2294 -3174 0
-2295 -3175 0
-2291 -3551 0
-2292 -3552 0
-2293 -3553 0
-2294 -3554 0
-2295 -3555 0
-2296 -2341 0
-2297 -2342 0
-2298 -2343 0
-2299 -2344 0
-2300 -2345 0
-2296 -2456 0
-2297 -2457 0
-2298 -2458 0
-2299 -2459 0
-2300 -2460 0
-2296 -2746 0
-2297 -2747 0
-2298 -2748 0
-2299 -2749 0
-2300 -2750 0
-2296 -2976 0
-2297 -2977 0
-2298 -2978 0
-2299 -2979 0
-2300 -2980 0
-2296 -3176 0
-2297 -3177 0
-2298 -3178 0
-2299 -3179 0
-2300 -3180 0
-2301 -2321 0
-2302 -2322 0
-2303 -2323 0
-2304 -2324 0
-2305 -2325 0
-2301 -2461 0
-2302 -2462 0
-2303 -2463 0
-2304 -2464 0
-2305 -2465 0
-2301 -2496 0
-2302 -2497 0
-2303 -2498 0
-2304 -2499 0
-2305 -2500 0
-2301 -3531 0
-2302 -3532 0
-2303 -3533 0
-2304 -3534 0
-2305 -3535 0
-2306 -2321 0
-2307 -2322 0
-2308 -2323 0
-2309 -2324 0
-2310 -2325 0
-2306 -2416 0
-2307 -2417 0
-2308 -2418 0
-2309 -2419 0
-2310 -2420 0
-2306 -3196 0
-2307 -3197 0
-2308 -3198 0
-2309 -3199 0
-2310 -3200 0
-2306 -3536 0
-2307 -3537 0
-2308 -3538 0
-2309 -3539 0
-2310 -3540 0
-2311 -2321 0
-2312 -2322 0
-2313 -2323 0
-2314 -2324 0
-2315 -2325 0
-2311 -2396 0
-2312 -2397 0
-2313 -2398 0
-2314 -2399 0
-2315 -2400 0
-2311 -3056 0
-2312 -3057 0
-2313 -3058 0
-2314 -3059 0
-2315 -3060 0
-2311 -3121 0
-2312 -3122 0
-2313 -3123 0
-2314 -3124 0
-2315 -3125 0
-2316 -2321 0
-2317 -2322 0
-2318 -2323 0
-2319 -2324 0
-2320 -2325 0
-2316 -2376 0
-2317 -2377 0
-2318 -2378 0
-2319 -2379 0
-2320 -2380 0
-2316 -2501 0
-2317 -2502 0
-2318 -2503 0
-2319 -2504 0
-2320 -2505 0
-2316 -3126 0
-2317 -3127 0
-2318 -3128 0
-2319 -3129 0
-2320 -3130 0
-2316 -3406 0
-2317 -3407 0
-2318 -3408 0
-2319 -3409 0
-2320 -3410 0
-2321 -2326 0
-2322 -2327 0
-2323 -2328 0
-2324 -2329 0
-2325 -2330 0
-2321 -2331 0
-2322 -2332 0
-2323 -2333 0
-2324 -2334 0
-2325 -2335 0
-2321 -2336 0
-2322 -2337 0
-2323 -2338 0
-2324 -2339 0
-2325 -2340 0
-2321 -2341 0
-2322 -2342 0
-2323 -2343 0
-2324 -2344 0
-2325 -2345 0
-2321 -2351 0
-2322 -2352 0
-2323 -2353 0
-2324 -2354 0
-2325 -2355 0
-2321 -2361 0
-2322 -2362 0
-2323 -2363 0
-2324 -2364 0
-2325 -2365 0
-2321 -2376 0
-2322 -2377 0
-2323 -2378 0
-2324 -2379 0
-2325 -2380 0
-2321 -2381 0
-2322 -2382 0
-2323 -2383 0
-2324 -2384 0
-2325 -2385 0
-2321 -2396 0
-2322 -2397 0
-2323 -2398 0
-2324 -2399 0
-2325 -2400 0
-2321 -2401 0
-2322 -2402 0
-2323 -2403 0
-2324 -2404 0
-2325 -2405 0
-2321 -2416 0
-2322 -2417 0
-2323 -2418 0
-2324 -2419 0
-2325 -2420 0
-2321 -2421 0
-2322 -2422 0
-2323 -2423 0
-2324 -2424 0
-2325 -2425 0
-2321 -2461 0
-2322 -2462 0
-2323 -2463 0
-2324 -2464 0
-2325 -2465 0
-2321 -2466 0
-2322 -2467 0
-2323 -2468 0
-2324 -2469 0
-2325 -2470 0
-2321 -2506 0
-2322 -2507 0
-2323 -2508 0
-2324 -2509 0
-2325 -2510 0
-2321 -2646 0
-2322 -2647 0
-2323 -2648 0
-2324 -2649 0
-2325 -2650 0
-2321 -2706 0
-2322 -2707 0
-2323 -2708 0
-2324 -2709 0
-2325 -2710 0
-2321 -2851 0
-2322 -2852 0
-2323 -2853 0
-2324 -2854 0
-2325 -2855 0
-2321 -2986 0
-2322 -2987 0
-2323 -2988 0
-2324 -2989 0
-2325 -2990 0
-2321 -3011 0
-2322 -3012 0
-2323 -3013 0
-2324 -3014 0
-2325 -3015 0
-2321 -3061 0
-2322 -3062 0
-2323 -3063 0
-2324 -3064 0
-2325 -3065 0
-2321 -3131 0
-2322 -3132 0
-2323 -3133 0
-2324 -3134 0
-2325 -3135 0
-2321 -3201 0
-2322 -3202 0
-2323 -3203 0
-2324 -3204 0
-2325 -3205 0
-2321 -3271 0
-2322 -3272 0
-2323 -3273 0
-2324 -3274 0
-2325 -3275 0
-2321 -3411 0
-2322 -3412 0
-2323 -3413 0
-2324 -3414 0
-2325 -3415 0
-2321 -3416 0
-2322 -3417 0
-2323 -3418 0
-2324 -3419 0
-2325 -3420 0
-2321 -3486 0
-2322 -3487 0
-2323 -3488 0
-2324 -3489 0
-2325 -3490 0
-2321 -3496 0
-2322 -3497 0
-2323 -3498 0
-2324 -3499 0
-2325 -3500 0
-2321 -3541 0
-2322 -3542 0
-2323 -3543 0
-2324 -3544 0
-2325 -3545 0
-2321 -3581 0
-2322 -3582 0
-2323 -3583 0
-2324 -3584 0
-2325 -3585 0
-2321 -3591 0
-2322 -3592 0
-2323 -3593 0
-2324 -3594 0
-2325 -3595 0
-2321 -3641 0
-2322 -3642 0
-2323 -3643 0
-2324 -3644 0
-2325 -3645 0
-2326 -2381 0
-2327 -2382 0
-2328 -2383 0
-2329 -2384 0
-2330 -2385 0
-2326 -2711 0
-2327 -2712 0
-2328 -2713 0
-2329 -2714 0
-2330 -2715 0
-2326 -3066 0
-2327 -3067 0
-2328 -3068 0
-2329 -3069 0
-2330 -3070 0
-2326 -3546 0
-2327 -3547 0
-2328 -3548 0
-2329 -3549 0
-2330 -3550 0
-2331 -2401 0
-2332 -2402 0
-2333 -2403 0
-2334 -2404 0
-2335 -2405 0
-2331 -2511 0
-2332 -2512 0
-2333 -2513 0
-2334 -2514 0
-2335 -2515 0
-2331 -2651 0
-2332 -2652 0
-2333 -2653 0
-2334 -2654 0
-2335 -2655 0
-2331 -3016 0
-2332 -3017 0
-2333 -3018 0
-2334 -3019 0
-2335 -3020 0
-2336 -2421 0
-2337 -2422 0
-2338 -2423 0
-2339 -2424 0
-2340 -2425 0
-2336 -2656 0
-2337 -2657 0
-2338 -2658 0
-2339 -2659 0
-2340 -2660 0
-2336 -2716 0
-2337 -2717 0
-2338 -2718 0
-2339 -2719 0
-2340 -2720 0
-2336 -3551 0
-2337 -3552 0
-2338 -3553 0
-2339 -3554 0
-2340 -3555 0
-2341 -2466 0
-2342 -2467 0
-2343 -2468 0
-2344 -2469 0
-2345 -2470 0
-2341 -2991 0
-2342 -2992 0
-2343 -2993 0
-2344 -2994 0
-2345 -2995 0
-2341 -3211 0
-2342 -3212 0
-2343 -3213 0
-2344 -3214 0
-2345 -3215 0
-2346 -2351 0
-2347 -2352 0
-2348 -2353 0
-2349 -2354 0
-2350 -2355 0
-2346 -2661 0
-2347 -2662 0
-2348 -2663 0
-2349 -2664 0
-2350 -2665 0
-2346 -2796 0
-2347 -2797 0
-2348 -2798 0
-2349 -2799 0
-2350 -2800 0
-2346 -3491 0
-2347 -3492 0
-2348 -3493 0
-2349 -3494 0
-2350 -3495 0
-2346 -3556 0
-2347 -3557 0
-2348 -3558 0
-2349 -3559 0
-2350 -3560 0
-2351 -2666 0
-2352 -2667 0
-2353 -2668 0
-2354 -2669 0
-2355 -2670 0
-2351 -3421 0
-2352 -3422 0
-2353 -3423 0
-2354 -3424 0
-2355 -3425 0
-2351 -3496 0
-2352 -3497 0
-2353 -3498 0
-2354 -3499 0
-2355 -3500 0
-2351 -3556 0
-2352 -3557 0
-2353 -3558 0
-2354 -3559 0
-2355 -3560 0
-2356 -2361 0
-2357 -2362 0
-2358 -2363 0
-2359 -2364 0
-2360 -2365 0
-2356 -2696 0
-2357 -2697 0
-2358 -2698 0
-2359 -2699 0
-2360 -2700 0
-2356 -2761 0
-2357 -2762 0
-2358 -2763 0
-2359 -2764 0
-2360 -2765 0
-2356 -2996 0
-2357 -2997 0
-2358 -2998 0
-2359 -2999 0
-2360 -3000 0
-2356 -3561 0
-2357 -3562 0
-2358 -3563 0
-2359 -3564 0
-2360 -3565 0
-2356 -3586 0
-2357 -3587 0
-2358 -3588 0
-2359 -3589 0
-2360 -3590 0
-2361 -2521 0
-2362 -2522 0
-2363 -2523 0
-2364 -2524 0
-2365 -2525 0
-2361 -3071 0
-2362 -3072 0
-2363 -3073 0
-2364 -3074 0
-2365 -3075 0
-2361 -3561 0
-2362 -3562 0
-2363 -3563 0
-2364 -3564 0
-2365 -3565 0
-2361 -3591 0
-2362 -3592 0
-2363 -3593 0
-2364 -3594 0
-2365 -3595 0
-2366 -2371 0
-2367 -2372 0
-2368 -2373 0
-2369 -2374 0
-2370 -2375 0
-2366 -2376 0
-2367 -2377 0
-2368 -2378 0
-2369 -2379 0
-2370 -2380 0
-2366 -2801 0
-2367 -2802 0
-2368 -2803 0
-2369 -2804 0
-2370 -2805 0
-2366 -3136 0
-2367 -3137 0
-2368 -3138 0
-2369 -3139 0
-2370 -3140 0
-2366 -3281 0
-2367 -3282 0
-2368 -3283 0
-2369 -3284 0
-2370 -3285 0
-2366 -3566 0
-2367 -3567 0
-2368 -3568 0
-2369 -3569 0
-2370 -3570 0
-2371 -2381 0
-2372 -2382 0
-2373 -2383 0
-2374 -2384 0
-2375 -2385 0
-2371 -2856 0
-2372 -2857 0
-2373 -2858 0
-2374 -2859 0
-2375 -2860 0
-2371 -3196 0
-2372 -3197 0
-2373 -3198 0
-2374 -3199 0
-2375 -3200 0
-2371 -3286 0
-2372 -3287 0
-2373 -3288 0
-2374 -3289 0
-2375 -3290 0
-2376 -2381 0
-2377 -2382 0
-2378 -2383 0
-2379 -2384 0
-2380 -2385 0
-2376 -2531 0
-2377 -2532 0
-2378 -2533 0
-2379 -2534 0
-2380 -2535 0
-2376 -3141 0
-2377 -3142 0
-2378 -3143 0
-2379 -3144 0
-2380 -3145 0
-2376 -3426 0
-2377 -3427 0
-2378 -3428 0
-2379 -3429 0
-2380 -3430 0
-2376 -3566 0
-2377 -3567 0
-2378 -3568 0
-2379 -3569 0
-2380 -3570 0
-2381 -3431 0
-2382 -3432 0
-2383 -3433 0
-2384 -3434 0
-2385 -3435 0
-2386 -2391 0
-2387 -2392 0
-2388 -2393 0
-2389 -2394 0
-2390 -2395 0
-2386 -2396 0
-2387 -2397 0
-2388 -2398 0
-2389 -2399 0
-2390 -2400 0
-2386 -2786 0
-2387 -2787 0
-2388 -2788 0
-2389 -2789 0
-2390 -2790 0
-2386 -3656 0
-2387 -3657 0
-2388 -3658 0
-2389 -3659 0
-2390 -3660 0
-2391 -2401 0
-2392 -2402 0
-2393 -2403 0
-2394 -2404 0
-2395 -2405 0
-2391 -2791 0
-2392 -2792 0
-2393 -2793 0
-2394 -2794 0
-2395 -2795 0
-2391 -2876 0
-2392 -2877 0
-2393 -2878 0
-2394 -2879 0
-2395 -2880 0
-2391 -3021 0
-2392 -3022 0
-2393 -3023 0
-2394 -3024 0
-2395 -3025 0
-2391 -3306 0
-2392 -3307 0
-2393 -3308 0
-2394 -3309 0
-2395 -3310 0
-2391 -3571 0
-2392 -3572 0
-2393 -3573 0
-2394 -3574 0
-2395 -3575 0
-2396 -2401 0
-2397 -2402 0
-2398 -2403 0
-2399 -2404 0
-2400 -2405 0
-2396 -3166 0
-2397 -3167 0
-2398 -3168 0
-2399 -3169 0
-2400 -3170 0
-2396 -3441 0
-2397 -3442 0
-2398 -3443 0
-2399 -3444 0
-2400 -3445 0
-2396 -3661 0
-2397 -3662 0
-2398 -3663 0
-2399 -3664 0
-2400 -3665 0
-2401 -2546 0
-2402 -2547 0
-2403 -2548 0
-2404 -2549 0
-2405 -2550 0
-2401 -3446 0
-2402 -3447 0
-2403 -3448 0
-2404 -3449 0
-2405 -3450 0
-2401 -3571 0
-2402 -3572 0
-2403 -3573 0
-2404 -3574 0
-2405 -3575 0
-2406 -2411 0
-2407 -2412 0
-2408 -2413 0
-2409 -2414 0
-2410 -2415 0
-2406 -2416 0
-2407 -2417 0
-2408 -2418 0
-2409 -2419 0
-2410 -2420 0
-2406 -2806 0
-2407 -2807 0
-2408 -2808 0
-2409 -2809 0
-2410 -2810 0
-2406 -2826 0
-2407 -2827 0
-2408 -2828 0
-2409 -2829 0
-2410 -2830 0
-2406 -3026 0
-2407 -3027 0
-2408 -3028 0
-2409 -3029 0
-2410 -3030 0
-2406 -3456 0
-2407 -3457 0
-2408 -3458 0
-2409 -3459 0
-2410 -3460 0
-2411 -2421 0
-2412 -2422 0
-2413 -2423 0
-2414 -2424 0
-2415 -2425 0
-2411 -2691 0
-2412 -2692 0
-2413 -2693 0
-2414 -2694 0
-2415 -2695 0
-2411 -2846 0
-2412 -2847 0
-2413 -2848 0
-2414 -2849 0
-2415 -2850 0
-2411 -3031 0
-2412 -3032 0
-2413 -3033 0
-2414 -3034 0
-2415 -3035 0
-2411 -3311 0
-2412 -3312 0
-2413 -3313 0
-2414 -3314 0
-2415 -3315 0
-2416 -2421 0
-2417 -2422 0
-2418 -2423 0
-2419 -2424 0
-2420 -2425 0
-2416 -2566 0
-2417 -2567 0
-2418 -2568 0
-2419 -2569 0
-2420 -2570 0
-2416 -3036 0
-2417 -3037 0
-2418 -3038 0
-2419 -3039 0
-2420 -3040 0
-2416 -3471 0
-2417 -3472 0
-2418 -3473 0
-2419 -3474 0
-2420 -3475 0
-2421 -2696 0
-2422 -2697 0
-2423 -2698 0
-2424 -2699 0
-2425 -2700 0
-2421 -2721 0
-2422 -2722 0
-2423 -2723 0
-2424 -2724 0
-2425 -2725 0
-2421 -3041 0
-2422 -3042 0
-2423 -3043 0
-2424 -3044 0
-2425 -3045 0
-2421 -3316 0
-2422 -3317 0
-2423 -3318 0
-2424 -3319 0
-2425 -3320 0
-2426 -3056 0
-2427 -3057 0
-2428 -3058 0
-2429 -3059 0
-2430 -3060 0
-2426 -3216 0
-2427 -3217 0
-2428 -3218 0
-2429 -3219 0
-2430 -3220 0
-2426 -3541 0
-2427 -3542 0
-2428 -3543 0
-2429 -3544 0
-2430 -3545 0
-2426 -3556 0
-2427 -3557 0
-2428 -3558 0
-2429 -3559 0
-2430 -3560 0
-2431 -2436 0
-2432 -2437 0
-2433 -2438 0
-2434 -2439 0
-2435 -2440 0
-2431 -2441 0
-2432 -2442 0
-2433 -2443 0
-2434 -2444 0
-2435 -2445 0
-2431 -3576 0
-2432 -3577 0
-2433 -3578 0
-2434 -3579 0
-2435 -3580 0
-2436 -2446 0
-2437 -2447 0
-2438 -2448 0
-2439 -2449 0
-2440 -2450 0
-2436 -2736 0
-2437 -2737 0
-2438 -2738 0
-2439 -2739 0
-2440 -2740 0
-2436 -3576 0
-2437 -3577 0
-2438 -3578 0
-2439 -3579 0
-2440 -3580 0
-2436 -3581 0
-2437 -3582 0
-2438 -3583 0
-2439 -3584 0
-2440 -3585 0
-2441 -2446 0
-2442 -2447 0
-2443 -2448 0
-2444 -2449 0
-2445 -2450 0
-2441 -3026 0
-2442 -3027 0
-2443 -3028 0
-2444 -3029 0
-2445 -3030 0
-2441 -3586 0
-2442 -3587 0
-2443 -3588 0
-2444 -3589 0
-2445 -3590 0
-2446 -2756 0
-2447 -2757 0
-2448 -2758 0
-2449 -2759 0
-2450 -2760 0
-2446 -3036 0
-2447 -3037 0
-2448 -3038 0
-2449 -3039 0
-2450 -3040 0
-2446 -3586 0
-2447 -3587 0
-2448 -3588 0
-2449 -3589 0
-2450 -3590 0
-2446 -3591 0
-2447 -3592 0
-2448 -3593 0
-2449 -3594 0
-2450 -3595 0
-2451 -2456 0
-2452 -2457 0
-2453 -2458 0
-2454 -2459 0
-2455 -2460 0
-2451 -2461 0
-2452 -2462 0
-2453 -2463 0
-2454 -2464 0
-2455 -2465 0
-2451 -3336 0
-2452 -3337 0
-2453 -3338 0
-2454 -3339 0
-2455 -3340 0
-2451 -3596 0
-2452 -3597 0
-2453 -3598 0
-2454 -3599 0
-2455 -3600 0
-2456 -2466 0
-2457 -2467 0
-2458 -2468 0
-2459 -2469 0
-2460 -2470 0
-2456 -3226 0
-2457 -3227 0
-2458 -3228 0
-2459 -3229 0
-2460 -3230 0
-2456 -3341 0
-2457 -3342 0
-2458 -3343 0
-2459 -3344 0
-2460 -3345 0
-2461 -2466 0
-2462 -2467 0
-2463 -2468 0
-2464 -2469 0
-2465 -2470 0
-2461 -2626 0
-2462 -2627 0
-2463 -2628 0
-2464 -2629 0
-2465 -2630 0
-2461 -3596 0
-2462 -3597 0
-2463 -3598 0
-2464 -3599 0
-2465 -3600 0
-2466 -2801 0
-2467 -2802 0
-2468 -2803 0
-2469 -2804 0
-2470 -2805 0
-2466 -3346 0
-2467 -3347 0
-2468 -3348 0
-2469 -3349 0
-2470 -3350 0
-2471 -2926 0
-2472 -2927 0
-2473 -2928 0
-2474 -2929 0
-2475 -2930 0
-2471 -3481 0
-2472 -3482 0
-2473 -3483 0
-2474 -3484 0
-2475 -3485 0
-2471 -3611 0
-2472 -3612 0
-2473 -3613 0
-2474 -3614 0
-2475 -3615 0
-2471 -3616 0
-2472 -3617 0
-2473 -3618 0
-2474 -3619 0
-2475 -3620 0
-2476 -2481 0
-2477 -2482 0
-2478 -2483 0
-2479 -2484 0
-2480 -2485 0
-2476 -2486 0
-2477 -2487 0
-2478 -2488 0
-2479 -2489 0
-2480 -2490 0
-2476 -2586 0
-2477 -2587 0
-2478 -2588 0
-2479 -2589 0
-2480 -2590 0
-2476 -3106 0
-2477 -3107 0
-2478 -3108 0
-2479 -3109 0
-2480 -3110 0
-2476 -3246 0
-2477 -3247 0
-2478 -3248 0
-2479 -3249 0
-2480 -3250 0
-2476 -3481 0
-2477 -3482 0
-2478 -3483 0
-2479 -3484 0
-2480 -3485 0
-2476 -3601 0
-2477 -3602 0
-2478 -3603 0
-2479 -3604 0
-2480 -3605 0
-2481 -2491 0
-2482 -2492 0
-2483 -2493 0
-2484 -2494 0
-2485 -2495 0
-2481 -2516 0
-2482 -2517 0
-2483 -2518 0
-2484 -2519 0
-2485 -2520 0
-2481 -2591 0
-2482 -2592 0
-2483 -2593 0
-2484 -2594 0
-2485 -2595 0
-2481 -3126 0
-2482 -3127 0
-2483 -3128 0
-2484 -3129 0
-2485 -3130 0
-2481 -3251 0
-2482 -3252 0
-2483 -3253 0
-2484 -3254 0
-2485 -3255 0
-2481 -3486 0
-2482 -3487 0
-2483 -3488 0
-2484 -3489 0
-2485 -3490 0
-2481 -3601 0
-2482 -3602 0
-2483 -3603 0
-2484 -3604 0
-2485 -3605 0
-2486 -2491 0
-2487 -2492 0
-2488 -2493 0
-2489 -2494 0
-2490 -2495 0
-2486 -2596 0
-2487 -2597 0
-2488 -2598 0
-2489 -2599 0
-2490 -2600 0
-2486 -2606 0
-2487 -2607 0
-2488 -2608 0
-2489 -2609 0
-2490 -2610 0
-2486 -2806 0
-2487 -2807 0
-2488 -2808 0
-2489 -2809 0
-2490 -2810 0
-2486 -2906 0
-2487 -2907 0
-2488 -2908 0
-2489 -2909 0
-2490 -2910 0
-2486 -3491 0
-2487 -3492 0
-2488 -3493 0
-2489 -3494 0
-2490 -3495 0
-2486 -3606 0
-2487 -3607 0
-2488 -3608 0
-2489 -3609 0
-2490 -3610 0
-2491 -2611 0
-2492 -2612 0
-2493 -2613 0
-2494 -2614 0
-2495 -2615 0
-2491 -2616 0
-2492 -2617 0
-2493 -2618 0
-2494 -2619 0
-2495 -2620 0
-2491 -2756 0
-2492 -2757 0
-2493 -2758 0
-2494 -2759 0
-2495 -2760 0
-2491 -3496 0
-2492 -3497 0
-2493 -3498 0
-2494 -3499 0
-2495 -3500 0
-2491 -3606 0
-2492 -3607 0
-2493 -3608 0
-2494 -3609 0
-2495 -3610 0
-2496 -2506 0
-2497 -2507 0
-2498 -2508 0
-2499 -2509 0
-2500 -2510 0
-2496 -2626 0
-2497 -2627 0
-2498 -2628 0
-2499 -2629 0
-2500 -2630 0
-2496 -2766 0
-2497 -2767 0
-2498 -2768 0
-2499 -2769 0
-2500 -2770 0
-2496 -3676 0
-2497 -3677 0
-2498 -3678 0
-2499 -3679 0
-2500 -3680 0
-2501 -2506 0
-2502 -2507 0
-2503 -2508 0
-2504 -2509 0
-2505 -2510 0
-2501 -2531 0
-2502 -2532 0
-2503 -2533 0
-2504 -2534 0
-2505 -2535 0
-2501 -2541 0
-2502 -2542 0
-2503 -2543 0
-2504 -2544 0
-2505 -2545 0
-2501 -2561 0
-2502 -2562 0
-2503 -2563 0
-2504 -2564 0
-2505 -2565 0
-2501 -2571 0
-2502 -2572 0
-2503 -2573 0
-2504 -2574 0
-2505 -2575 0
-2501 -2821 0
-2502 -2822 0
-2503 -2823 0
-2504 -2824 0
-2505 -2825 0
-2501 -3231 0
-2502 -3232 0
-2503 -3233 0
-2504 -3234 0
-2505 -3235 0
-2506 -2511 0
-2507 -2512 0
-2508 -2513 0
-2509 -2514 0
-2510 -2515 0
-2506 -2521 0
-2507 -2522 0
-2508 -2523 0
-2509 -2524 0
-2510 -2525 0
-2506 -2531 0
-2507 -2532 0
-2508 -2533 0
-2509 -2534 0
-2510 -2535 0
-2506 -2546 0
-2507 -2547 0
-2508 -2548 0
-2509 -2549 0
-2510 -2550 0
-2506 -2566 0
-2507 -2567 0
-2508 -2568 0
-2509 -2569 0
-2510 -2570 0
-2506 -2626 0
-2507 -2627 0
-2508 -2628 0
-2509 -2629 0
-2510 -2630 0
-2506 -2776 0
-2507 -2777 0
-2508 -2778 0
-2509 -2779 0
-2510 -2780 0
-2506 -3151 0
-2507 -3152 0
-2508 -3153 0
-2509 -3154 0
-2510 -3155 0
-2506 -3271 0
-2507 -3272 0
-2508 -3273 0
-2509 -3274 0
-2510 -3275 0
-2511 -2536 0
-2512 -2537 0
-2513 -2538 0
-2514 -2539 0
-2515 -2540 0
-2511 -2546 0
-2512 -2547 0
-2513 -2548 0
-2514 -2549 0
-2515 -2550 0
-2511 -2781 0
-2512 -2782 0
-2513 -2783 0
-2514 -2784 0
-2515 -2785 0
-2511 -3096 0
-2512 -3097 0
-2513 -3098 0
-2514 -3099 0
-2515 -3100 0
-2511 -3301 0
-2512 -3302 0
-2513 -3303 0
-2514 -3304 0
-2515 -3305 0
-2516 -2646 0
-2517 -2647 0
-2518 -2648 0
-2519 -2649 0
-2520 -2650 0
-2516 -3161 0
-2517 -3162 0
-2518 -3163 0
-2519 -3164 0
-2520 -3165 0
-2516 -3686 0
-2517 -3687 0
-2518 -3688 0
-2519 -3689 0
-2520 -3690 0
-2521 -2656 0
-2522 -2657 0
-2523 -2658 0
-2524 -2659 0
-2525 -2660 0
-2521 -3086 0
-2522 -3087 0
-2523 -3088 0
-2524 -3089 0
-2525 -3090 0
-2521 -3181 0
-2522 -3182 0
-2523 -3183 0
-2524 -3184 0
-2525 -3185 0
-2526 -2536 0
-2527 -2537 0
-2528 -2538 0
-2529 -2539 0
-2530 -2540 0
-2526 -2551 0
-2527 -2552 0
-2528 -2553 0
-2529 -2554 0
-2530 -2555 0
-2526 -3291 0
-2527 -3292 0
-2528 -3293 0
-2529 -3294 0
-2530 -3295 0
-2526 -3636 0
-2527 -3637 0
-2528 -3638 0
-2529 -3639 0
-2530 -3640 0
-2531 -2536 0
-2532 -2537 0
-2533 -2538 0
-2534 -2539 0
-2535 -2540 0
-2531 -2556 0
-2532 -2557 0
-2533 -2558 0
-2534 -2559 0
-2535 -2560 0
-2531 -2716 0
-2532 -2717 0
-2533 -2718 0
-2534 -2719 0
-2535 -2720 0
-2531 -3091 0
-2532 -3092 0
-2533 -3093 0
-2534 -3094 0
-2535 -3095 0
-2531 -3241 0
-2532 -3242 0
-2533 -3243 0
-2534 -3244 0
-2535 -3245 0
-2531 -3506 0
-2532 -3507 0
-2533 -3508 0
-2534 -3509 0
-2535 -3510 0
-2536 -2556 0
-2537 -2557 0
-2538 -2558 0
-2539 -2559 0
-2540 -2560 0
-2536 -2801 0
-2537 -2802 0
-2538 -2803 0
-2539 -2804 0
-2540 -2805 0
-2536 -3511 0
-2537 -3512 0
-2538 -3513 0
-2539 -3514 0
-2540 -3515 0
-2536 -3641 0
-2537 -3642 0
-2538 -3643 0
-2539 -3644 0
-2540 -3645 0
-2541 -2546 0
-2542 -2547 0
-2543 -2548 0
-2544 -2549 0
-2545 -2550 0
-2541 -2556 0
-2542 -2557 0
-2543 -2558 0
-2544 -2559 0
-2545 -2560 0
-2541 -2576 0
-2542 -2577 0
-2543 -2578 0
-2544 -2579 0
-2545 -2580 0
-2541 -2871 0
-2542 -2872 0
-2543 -2873 0
-2544 -2874 0
-2545 -2875 0
-2541 -3266 0
-2542 -3267 0
-2543 -3268 0
-2544 -3269 0
-2545 -3270 0
-2546 -2556 0
-2547 -2557 0
-2548 -2558 0
-2549 -2559 0
-2550 -2560 0
-2546 -3516 0
-2547 -3517 0
-2548 -3518 0
-2549 -3519 0
-2550 -3520 0
-2551 -2556 0
-2552 -2557 0
-2553 -2558 0
-2554 -2559 0
-2555 -2560 0
-2551 -3526 0
-2552 -3527 0
-2553 -3528 0
-2554 -3529 0
-2555 -3530 0
-2551 -3656 0
-2552 -3657 0
-2553 -3658 0
-2554 -3659 0
-2555 -3660 0
-2556 -3101 0
-2557 -3102 0
-2558 -3103 0
-2559 -3104 0
-2560 -3105 0
-2556 -3296 0
-2557 -3297 0
-2558 -3298 0
-2559 -3299 0
-2560 -3300 0
-2556 -3541 0
-2557 -3542 0
-2558 -3543 0
-2559 -3544 0
-2560 -3545 0
-2556 -3661 0
-2557 -3662 0
-2558 -3663 0
-2559 -3664 0
-2560 -3665 0
-2561 -2566 0
-2562 -2567 0
-2563 -2568 0
-2564 -2569 0
-2565 -2570 0
-2561 -2571 0
-2562 -2572 0
-2563 -2573 0
-2564 -2574 0
-2565 -2575 0
-2561 -2576 0
-2562 -2577 0
-2563 -2578 0
-2564 -2579 0
-2565 -2580 0
-2561 -2676 0
-2562 -2677 0
-2563 -2678 0
-2564 -2679 0
-2565 -2680 0
-2561 -2686 0
-2562 -2687 0
-2563 -2688 0
-2564 -2689 0
-2565 -2690 0
-2561 -2951 0
-2562 -2952 0
-2563 -2953 0
-2564 -2954 0
-2565 -2955 0
-2561 -3116 0
-2562 -3117 0
-2563 -3118 0
-2564 -3119 0
-2565 -3120 0
-2561 -3321 0
-2562 -3322 0
-2563 -3323 0
-2564 -3324 0
-2565 -3325 0
-2561 -3541 0
-2562 -3542 0
-2563 -3543 0
-2564 -3544 0
-2565 -3545 0
-2561 -3601 0
-2562 -3602 0
-2563 -3603 0
-2564 -3604 0
-2565 -3605 0
-2561 -3606 0
-2562 -3607 0
-2563 -3608 0
-2564 -3609 0
-2565 -3610 0
-2566 -2681 0
-2567 -2682 0
-2568 -2683 0
-2569 -2684 0
-2570 -2685 0
-2566 -3121 0
-2567 -3122 0
-2568 -3123 0
-2569 -3124 0
-2570 -3125 0
-2566 -3216 0
-2567 -3217 0
-2568 -3218 0
-2569 -3219 0
-2570 -3220 0
-2566 -3546 0
-2567 -3547 0
-2568 -3548 0
-2569 -3549 0
-2570 -3550 0
-2571 -2831 0
-2572 -2832 0
-2573 -2833 0
-2574 -2834 0
-2575 -2835 0
-2571 -3551 0
-2572 -3552 0
-2573 -3553 0
-2574 -3554 0
-2575 -3555 0
-2576 -2956 0
-2577 -2957 0
-2578 -2958 0
-2579 -2959 0
-2580 -2960 0
-2576 -3161 0
-2577 -3162 0
-2578 -3163 0
-2579 -3164 0
-2580 -3165 0
-2576 -3571 0
-2577 -3572 0
-2578 -3573 0
-2579 -3574 0
-2580 -3575 0
-2581 -2616 0
-2582 -2617 0
-2583 -2618 0
-2584 -2619 0
-2585 -2620 0
-2581 -2906 0
-2582 -2907 0
-2583 -2908 0
-2584 -2909 0
-2585 -2910 0
-2581 -3131 0
-2582 -3132 0
-2583 -3133 0
-2584 -3134 0
-2585 -3135 0
-2586 -2591 0
-2587 -2592 0
-2588 -2593 0
-2589 -2594 0
-2590 -2595 0
-2586 -2606 0
-2587 -2607 0
-2588 -2608 0
-2589 -2609 0
-2590 -2610 0
-2586 -2636 0
-2587 -2637 0
-2588 -2638 0
-2589 -2639 0
-2590 -2640 0
-2586 -3621 0
-2587 -3622 0
-2588 -3623 0
-2589 -3624 0
-2590 -3625 0
-2591 -2616 0
-2592 -2617 0
-2593 -2618 0
-2594 -2619 0
-2595 -2620 0
-2591 -2646 0
-2592 -2647 0
-2593 -2648 0
-2594 -2649 0
-2595 -2650 0
-2591 -2651 0
-2592 -2652 0
-2593 -2653 0
-2594 -2654 0
-2595 -2655 0
-2591 -3336 0
-2592 -3337 0
-2593 -3338 0
-2594 -3339 0
-2595 -3340 0
-2591 -3381 0
-2592 -3382 0
-2593 -3383 0
-2594 -3384 0
-2595 -3385 0
-2591 -3621 0
-2592 -3622 0
-2593 -3623 0
-2594 -3624 0
-2595 -3625 0
-2596 -2601 0
-2597 -2602 0
-2598 -2603 0
-2599 -2604 0
-2600 -2605 0
-2596 -2606 0
-2597 -2607 0
-2598 -2608 0
-2599 -2609 0
-2600 -2610 0
-2596 -2611 0
-2597 -2612 0
-2598 -2613 0
-2599 -2614 0
-2600 -2615 0
-2596 -2731 0
-2597 -2732 0
-2598 -2733 0
-2599 -2734 0
-2600 -2735 0
-2596 -3006 0
-2597 -3007 0
-2598 -3008 0
-2599 -3009 0
-2600 -3010 0
-2596 -3626 0
-2597 -3627 0
-2598 -3628 0
-2599 -3629 0
-2600 -3630 0
-2601 -3031 0
-2602 -3032 0
-2603 -3033 0
-2604 -3034 0
-2605 -3035 0
-2601 -3631 0
-2602 -3632 0
-2603 -3633 0
-2604 -3634 0
-2605 -3635 0
-2606 -2616 0
-2607 -2617 0
-2608 -2618 0
-2609 -2619 0
-2610 -2620 0
-2606 -2661 0
-2607 -2662 0
-2608 -2663 0
-2609 -2664 0
-2610 -2665 0
-2606 -2886 0
-2607 -2887 0
-2608 -2888 0
-2609 -2889 0
-2610 -2890 0
-2606 -3136 0
-2607 -3137 0
-2608 -3138 0
-2609 -3139 0
-2610 -3140 0
-2606 -3386 0
-2607 -3387 0
-2608 -3388 0
-2609 -3389 0
-2610 -3390 0
-2606 -3636 0
-2607 -3637 0
-2608 -3638 0
-2609 -3639 0
-2610 -3640 0
-2611 -2616 0
-2612 -2617 0
-2613 -2618 0
-2614 -2619 0
-2615 -2620 0
-2611 -2741 0
-2612 -2742 0
-2613 -2743 0
-2614 -2744 0
-2615 -2745 0
-2611 -3016 0
-2612 -3017 0
-2613 -3018 0
-2614 -3019 0
-2615 -3020 0
-2611 -3626 0
-2612 -3627 0
-2613 -3628 0
-2614 -3629 0
-2615 -3630 0
-2616 -2666 0
-2617 -2667 0
-2618 -2668 0
-2619 -2669 0
-2620 -2670 0
-2616 -2746 0
-2617 -2747 0
-2618 -2748 0
-2619 -2749 0
-2620 -2750 0
-2616 -2891 0
-2617 -2892 0
-2618 -2893 0
-2619 -2894 0
-2620 -2895 0
-2616 -3141 0
-2617 -3142 0
-2618 -3143 0
-2619 -3144 0
-2620 -3145 0
-2616 -3391 0
-2617 -3392 0
-2618 -3393 0
-2619 -3394 0
-2620 -3395 0
-2616 -3636 0
-2617 -3637 0
-2618 -3638 0
-2619 -3639 0
-2620 -3640 0
-2616 -3641 0
-2617 -3642 0
-2618 -3643 0
-2619 -3644 0
-2620 -3645 0
-2621 -2626 0
-2622 -2627 0
-2623 -2628 0
-2624 -2629 0
-2625 -2630 0
-2621 -2631 0
-2622 -2632 0
-2623 -2633 0
-2624 -2634 0
-2625 -2635 0
-2621 -2646 0
-2622 -2647 0
-2623 -2648 0
-2624 -2649 0
-2625 -2650 0
-2621 -2681 0
-2622 -2682 0
-2623 -2683 0
-2624 -2684 0
-2625 -2685 0
-2621 -2771 0
-2622 -2772 0
-2623 -2773 0
-2624 -2774 0
-2625 -2775 0
-2621 -3166 0
-2622 -3167 0
-2623 -3168 0
-2624 -3169 0
-2625 -3170 0
-2621 -3611 0
-2622 -3612 0
-2623 -3613 0
-2624 -3614 0
-2625 -3615 0
-2626 -2656 0
-2627 -2657 0
-2628 -2658 0
-2629 -2659 0
-2630 -2660 0
-2626 -2681 0
-2627 -2682 0
-2628 -2683 0
-2629 -2684 0
-2630 -2685 0
-2626 -2921 0
-2627 -2922 0
-2628 -2923 0
-2629 -2924 0
-2630 -2925 0
-2631 -2666 0
-2632 -2667 0
-2633 -2668 0
-2634 -2669 0
-2635 -2670 0
-2631 -2791 0
-2632 -2792 0
-2633 -2793 0
-2634 -2794 0
-2635 -2795 0
-2631 -3056 0
-2632 -3057 0
-2633 -3058 0
-2634 -3059 0
-2635 -3060 0
-2631 -3576 0
-2632 -3577 0
-2633 -3578 0
-2634 -3579 0
-2635 -3580 0
-2631 -3611 0
-2632 -3612 0
-2633 -3613 0
-2634 -3614 0
-2635 -3615 0
-2636 -2641 0
-2637 -2642 0
-2638 -2643 0
-2639 -2644 0
-2640 -2645 0
-2636 -2646 0
-2637 -2647 0
-2638 -2648 0
-2639 -2649 0
-2640 -2650 0
-2636 -2661 0
-2637 -2662 0
-2638 -2663 0
-2639 -2664 0
-2640 -2665 0
-2636 -2691 0
-2637 -2692 0
-2638 -2693 0
-2639 -2694 0
-2640 -2695 0
-2636 -3001 0
-2637 -3002 0
-2638 -3003 0
-2639 -3004 0
-2640 -3005 0
-2636 -3646 0
-2637 -3647 0
-2638 -3648 0
-2639 -3649 0
-2640 -3650 0
-2641 -2656 0
-2642 -2657 0
-2643 -2658 0
-2644 -2659 0
-2645 -2660 0
-2641 -2691 0
-2642 -2692 0
-2643 -2693 0
-2644 -2694 0
-2645 -2695 0
-2646 -2651 0
-2647 -2652 0
-2648 -2653 0
-2649 -2654 0
-2650 -2655 0
-2646 -2656 0
-2647 -2657 0
-2648 -2658 0
-2649 -2659 0
-2650 -2660 0
-2646 -2666 0
-2647 -2667 0
-2648 -2668 0
-2649 -2669 0
-2650 -2670 0
-2646 -2696 0
-2647 -2697 0
-2648 -2698 0
-2649 -2699 0
-2650 -2700 0
-2646 -2776 0
-2647 -2777 0
-2648 -2778 0
-2649 -2779 0
-2650 -2780 0
-2646 -3011 0
-2647 -3012 0
-2648 -3013 0
-2649 -3014 0
-2650 -3015 0
-2646 -3226 0
-2647 -3227 0
-2648 -3228 0
-2649 -3229 0
-2650 -3230 0
-2646 -3616 0
-2647 -3617 0
-2648 -3618 0
-2649 -3619 0
-2650 -3620 0
-2646 -3646 0
-2647 -3647 0
-2648 -3648 0
-2649 -3649 0
-2650 -3650 0
-2646 -3651 0
-2647 -3652 0
-2648 -3653 0
-2649 -3654 0
-2650 -3655 0
-2651 -2781 0
-2652 -2782 0
-2653 -2783 0
-2654 -2784 0
-2655 -2785 0
-2651 -3016 0
-2652 -3017 0
-2653 -3018 0
-2654 -3019 0
-2655 -3020 0
-2656 -2696 0
-2657 -2697 0
-2658 -2698 0
-2659 -2699 0
-2660 -2700 0
-2656 -2926 0
-2657 -2927 0
-2658 -2928 0
-2659 -2929 0
-2660 -2930 0
-2656 -3186 0
-2657 -3187 0
-2658 -3188 0
-2659 -3189 0
-2660 -3190 0
-2656 -3331 0
-2657 -3332 0
-2658 -3333 0
-2659 -3334 0
-2660 -3335 0
-2661 -2666 0
-2662 -2667 0
-2663 -2668 0
-2664 -2669 0
-2665 -2670 0
-2661 -3656 0
-2662 -3657 0
-2663 -3658 0
-2664 -3659 0
-2665 -3660 0
-2666 -3196 0
-2667 -3197 0
-2668 -3198 0
-2669 -3199 0
-2670 -3200 0
-2666 -3586 0
-2667 -3587 0
-2668 -3588 0
-2669 -3589 0
-2670 -3590 0
-2666 -3616 0
-2667 -3617 0
-2668 -3618 0
-2669 -3619 0
-2670 -3620 0
-2666 -3656 0
-2667 -3657 0
-2668 -3658 0
-2669 -3659 0
-2670 -3660 0
-2666 -3661 0
-2667 -3662 0
-2668 -3663 0
-2669 -3664 0
-2670 -3665 0
-2671 -2676 0
-2672 -2677 0
-2673 -2678 0
-2674 -2679 0
-2675 -2680 0
-2671 -2681 0
-2672 -2682 0
-2673 -2683 0
-2674 -2684 0
-2675 -2685 0
-2671 -2936 0
-2672 -2937 0
-2673 -2938 0
-2674 -2939 0
-2675 -2940 0
-2671 -3416 0
-2672 -3417 0
-2673 -3418 0
-2674 -3419 0
-2675 -3420 0
-2676 -2681 0
-2677 -2682 0
-2678 -2683 0
-2679 -2684 0
-2680 -2685 0
-2676 -2686 0
-2677 -2687 0
-2678 -2688 0
-2679 -2689 0
-2680 -2690 0
-2676 -2816 0
-2677 -2817 0
-2678 -2818 0
-2679 -2819 0
-2680 -2820 0
-2676 -3051 0
-2677 -3052 0
-2678 -3053 0
-2679 -3054 0
-2680 -3055 0
-2676 -3426 0
-2677 -3427 0
-2678 -3428 0
-2679 -3429 0
-2680 -3430 0
-2676 -3596 0
-2677 -3597 0
-2678 -3598 0
-2679 -3599 0
-2680 -3600 0
-2676 -3626 0
-2677 -3627 0
-2678 -3628 0
-2679 -3629 0
-2680 -3630 0
-2681 -2696 0
-2682 -2697 0
-2683 -2698 0
-2684 -2699 0
-2685 -2700 0
-2681 -2966 0
-2682 -2967 0
-2683 -2968 0
-2684 -2969 0
-2685 -2970 0
-2681 -3431 0
-2682 -3432 0
-2683 -3433 0
-2684 -3434 0
-2685 -3435 0
-2681 -3436 0
-2682 -3437 0
-2683 -3438 0
-2684 -3439 0
-2685 -3440 0
-2681 -3631 0
-2682 -3632 0
-2683 -3633 0
-2684 -3634 0
-2685 -3635 0
-2681 -3701 0
-2682 -3702 0
-2683 -3703 0
-2684 -3704 0
-2685 -3705 0
-2686 -2841 0
-2687 -2842 0
-2688 -2843 0
-2689 -2844 0
-2690 -2845 0
-2686 -3221 0
-2687 -3222 0
-2688 -3223 0
-2689 -3224 0
-2690 -3225 0
-2686 -3621 0
-2687 -3622 0
-2688 -3623 0
-2689 -3624 0
-2690 -3625 0
-2686 -3636 0
-2687 -3637 0
-2688 -3638 0
-2689 -3639 0
-2690 -3640 0
-2691 -2696 0
-2692 -2697 0
-2693 -2698 0
-2694 -2699 0
-2695 -2700 0
-2691 -3031 0
-2692 -3032 0
-2693 -3033 0
-2694 -3034 0
-2695 -3035 0
-2696 -2836 0
-2697 -2837 0
-2698 -2838 0
-2699 -2839 0
-2700 -2840 0
-2696 -2996 0
-2697 -2997 0
-2698 -2998 0
-2699 -2999 0
-2700 -3000 0
-2696 -3041 0
-2697 -3042 0
-2698 -3043 0
-2699 -3044 0
-2700 -3045 0
-2696 -3441 0
-2697 -3442 0
-2698 -3443 0
-2699 -3444 0
-2700 -3445 0
-2701 -2706 0
-2702 -2707 0
-2703 -2708 0
-2704 -2709 0
-2705 -2710 0
-2701 -2711 0
-2702 -2712 0
-2703 -2713 0
-2704 -2714 0
-2705 -2715 0
-2701 -2771 0
-2702 -2772 0
-2703 -2773 0
-2704 -2774 0
-2705 -2775 0
-2701 -2781 0
-2702 -2782 0
-2703 -2783 0
-2704 -2784 0
-2705 -2785 0
-2701 -3266 0
-2702 -3267 0
-2703 -3268 0
-2704 -3269 0
-2705 -3270 0
-2701 -3366 0
-2702 -3367 0
-2703 -3368 0
-2704 -3369 0
-2705 -3370 0
-2701 -3711 0
-2702 -3712 0
-2703 -3713 0
-2704 -3714 0
-2705 -3715 0
-2706 -2711 0
-2707 -2712 0
-2708 -2713 0
-2709 -2714 0
-2710 -2715 0
-2706 -2716 0
-2707 -2717 0
-2708 -2718 0
-2709 -2719 0
-2710 -2720 0
-2706 -2721 0
-2707 -2722 0
-2708 -2723 0
-2709 -2724 0
-2710 -2725 0
-2706 -2801 0
-2707 -2802 0
-2708 -2803 0
-2709 -2804 0
-2710 -2805 0
-2706 -2986 0
-2707 -2987 0
-2708 -2988 0
-2709 -2989 0
-2710 -2990 0
-2706 -3291 0
-2707 -3292 0
-2708 -3293 0
-2709 -3294 0
-2710 -3295 0
-2706 -3601 0
-2707 -3602 0
-2708 -3603 0
-2709 -3604 0
-2710 -3605 0
-2706 -3671 0
-2707 -3672 0
-2708 -3673 0
-2709 -3674 0
-2710 -3675 0
-2706 -3686 0
-2707 -3687 0
-2708 -3688 0
-2709 -3689 0
-2710 -3690 0
-2711 -3086 0
-2712 -3087 0
-2713 -3088 0
-2714 -3089 0
-2715 -3090 0
-2711 -3296 0
-2712 -3297 0
-2713 -3298 0
-2714 -3299 0
-2715 -3300 0
-2716 -2721 0
-2717 -2722 0
-2718 -2723 0
-2719 -2724 0
-2720 -2725 0
-2716 -2926 0
-2717 -2927 0
-2718 -2928 0
-2719 -2929 0
-2720 -2930 0
-2716 -3091 0
-2717 -3092 0
-2718 -3093 0
-2719 -3094 0
-2720 -3095 0
-2716 -3676 0
-2717 -3677 0
-2718 -3678 0
-2719 -3679 0
-2720 -3680 0
-2716 -3691 0
-2717 -3692 0
-2718 -3693 0
-2719 -3694 0
-2720 -3695 0
-2721 -2861 0
-2722 -2862 0
-2723 -2863 0
-2724 -2864 0
-2725 -2865 0
-2721 -2996 0
-2722 -2997 0
-2723 -2998 0
-2724 -2999 0
-2725 -3000 0
-2721 -3251 0
-2722 -3252 0
-2723 -3253 0
-2724 -3254 0
-2725 -3255 0
-2721 -3696 0
-2722 -3697 0
-2723 -3698 0
-2724 -3699 0
-2725 -3700 0
-2726 -2741 0
-2727 -2742 0
-2728 -2743 0
-2729 -2744 0
-2730 -2745 0
-2726 -2766 0
-2727 -2767 0
-2728 -2768 0
-2729 -2769 0
-2730 -2770 0
-2726 -2771 0
-2727 -2772 0
-2728 -2773 0
-2729 -2774 0
-2730 -2775 0
-2726 -3121 0
-2727 -3122 0
-2728 -3123 0
-2729 -3124 0
-2730 -3125 0
-2731 -2741 0
-2732 -2742 0
-2733 -2743 0
-2734 -2744 0
-2735 -2745 0
-2731 -2751 0
-2732 -2752 0
-2733 -2753 0
-2734 -2754 0
-2735 -2755 0
-2731 -3666 0
-2732 -3667 0
-2733 -3668 0
-2734 -3669 0
-2735 -3670 0
-2736 -2741 0
-2737 -2742 0
-2738 -2743 0
-2739 -2744 0
-2740 -2745 0
-2736 -2756 0
-2737 -2757 0
-2738 -2758 0
-2739 -2759 0
-2740 -2760 0
-2736 -2806 0
-2737 -2807 0
-2738 -2808 0
-2739 -2809 0
-2740 -2810 0
-2736 -3116 0
-2737 -3117 0
-2738 -3118 0
-2739 -3119 0
-2740 -3120 0
-2736 -3611 0
-2737 -3612 0
-2738 -3613 0
-2739 -3614 0
-2740 -3615 0
-2736 -3671 0
-2737 -3672 0
-2738 -3673 0
-2739 -3674 0
-2740 -3675 0
-2741 -2746 0
-2742 -2747 0
-2743 -2748 0
-2744 -2749 0
-2745 -2750 0
-2741 -2761 0
-2742 -2762 0
-2743 -2763 0
-2744 -2764 0
-2745 -2765 0
-2741 -2786 0
-2742 -2787 0
-2743 -2788 0
-2744 -2789 0
-2745 -2790 0
-2741 -2791 0
-2742 -2792 0
-2743 -2793 0
-2744 -2794 0
-2745 -2795 0
-2741 -2806 0
-2742 -2807 0
-2743 -2808 0
-2744 -2809 0
-2745 -2810 0
-2741 -3001 0
-2742 -3002 0
-2743 -3003 0
-2744 -3004 0
-2745 -3005 0
-2741 -3096 0
-2742 -3097 0
-2743 -3098 0
-2744 -3099 0
-2745 -3100 0
-2741 -3666 0
-2742 -3667 0
-2743 -3668 0
-2744 -3669 0
-2745 -3670 0
-2741 -3676 0
-2742 -3677 0
-2743 -3678 0
-2744 -3679 0
-2745 -3680 0
-2746 -2796 0
-2747 -2797 0
-2748 -2798 0
-2749 -2799 0
-2750 -2800 0
-2746 -2811 0
-2747 -2812 0
-2748 -2813 0
-2749 -2814 0
-2750 -2815 0
-2746 -3241 0
-2747 -3242 0
-2748 -3243 0
-2749 -3244 0
-2750 -3245 0
-2746 -3391 0
-2747 -3392 0
-2748 -3393 0
-2749 -3394 0
-2750 -3395 0
-2751 -2761 0
-2752 -2762 0
-2753 -2763 0
-2754 -2764 0
-2755 -2765 0
-2751 -3031 0
-2752 -3032 0
-2753 -3033 0
-2754 -3034 0
-2755 -3035 0
-2751 -3246 0
-2752 -3247 0
-2753 -3248 0
-2754 -3249 0
-2755 -3250 0
-2751 -3681 0
-2752 -3682 0
-2753 -3683 0
-2754 -3684 0
-2755 -3685 0
-2756 -2761 0
-2757 -2762 0
-2758 -2763 0
-2759 -2764 0
-2760 -2765 0
-2756 -2901 0
-2757 -2902 0
-2758 -2903 0
-2759 -2904 0
-2760 -2905 0
-2756 -3036 0
-2757 -3037 0
-2758 -3038 0
-2759 -3039 0
-2760 -3040 0
-2756 -3616 0
-2757 -3617 0
-2758 -3618 0
-2759 -3619 0
-2760 -3620 0
-2756 -3686 0
-2757 -3687 0
-2758 -3688 0
-2759 -3689 0
-2760 -3690 0
-2761 -3041 0
-2762 -3042 0
-2763 -3043 0
-2764 -3044 0
-2765 -3045 0
-2761 -3251 0
-2762 -3252 0
-2763 -3253 0
-2764 -3254 0
-2765 -3255 0
-2761 -3681 0
-2762 -3682 0
-2763 -3683 0
-2764 -3684 0
-2765 -3685 0
-2761 -3691 0
-2762 -3692 0
-2763 -3693 0
-2764 -3694 0
-2765 -3695 0
-2766 -2771 0
-2767 -2772 0
-2768 -2773 0
-2769 -2774 0
-2770 -2775 0
-2766 -2776 0
-2767 -2777 0
-2768 -2778 0
-2769 -2779 0
-2770 -2780 0
-2766 -2786 0
-2767 -2787 0
-2768 -2788 0
-2769 -2789 0
-2770 -2790 0
-2766 -3716 0
-2767 -3717 0
-2768 -3718 0
-2769 -3719 0
-2770 -3720 0
-2771 -2781 0
-2772 -2782 0
-2773 -2783 0
-2774 -2784 0
-2775 -2785 0
-2771 -2791 0
-2772 -2792 0
-2773 -2793 0
-2774 -2794 0
-2775 -2795 0
-2771 -3166 0
-2772 -3167 0
-2773 -3168 0
-2774 -3169 0
-2775 -3170 0
-2771 -3486 0
-2772 -3487 0
-2773 -3488 0
-2774 -3489 0
-2775 -3490 0
-2771 -3721 0
-2772 -3722 0
-2773 -3723 0
-2774 -3724 0
-2775 -3725 0
-2776 -2781 0
-2777 -2782 0
-2778 -2783 0
-2779 -2784 0
-2780 -2785 0
-2776 -2836 0
-2777 -2837 0
-2778 -2838 0
-2779 -2839 0
-2780 -2840 0
-2776 -3341 0
-2777 -3342 0
-2778 -3343 0
-2779 -3344 0
-2780 -3345 0
-2781 -2796 0
-2782 -2797 0
-2783 -2798 0
-2784 -2799 0
-2785 -2800 0
-2781 -2801 0
-2782 -2802 0
-2783 -2803 0
-2784 -2804 0
-2785 -2805 0
-2781 -2826 0
-2782 -2827 0
-2783 -2828 0
-2784 -2829 0
-2785 -2830 0
-2781 -2846 0
-2782 -2847 0
-2783 -2848 0
-2784 -2849 0
-2785 -2850 0
-2781 -3096 0
-2782 -3097 0
-2783 -3098 0
-2784 -3099 0
-2785 -3100 0
-2781 -3156 0
-2782 -3157 0
-2783 -3158 0
-2784 -3159 0
-2785 -3160 0
-2781 -3276 0
-2782 -3277 0
-2783 -3278 0
-2784 -3279 0
-2785 -3280 0
-2781 -3401 0
-2782 -3402 0
-2783 -3403 0
-2784 -3404 0
-2785 -3405 0
-2786 -2791 0
-2787 -2792 0
-2788 -2793 0
-2789 -2794 0
-2790 -2795 0
-2791 -2796 0
-2792 -2797 0
-2793 -2798 0
-2794 -2799 0
-2795 -2800 0
-2791 -3021 0
-2792 -3022 0
-2793 -3023 0
-2794 -3024 0
-2795 -3025 0
-2791 -3171 0
-2792 -3172 0
-2793 -3173 0
-2794 -3174 0
-2795 -3175 0
-2791 -3496 0
-2792 -3497 0
-2793 -3498 0
-2794 -3499 0
-2795 -3500 0
-2796 -3066 0
-2797 -3067 0
-2798 -3068 0
-2799 -3069 0
-2800 -3070 0
-2796 -3181 0
-2797 -3182 0
-2798 -3183 0
-2799 -3184 0
-2800 -3185 0
-2796 -3296 0
-2797 -3297 0
-2798 -3298 0
-2799 -3299 0
-2800 -3300 0
-2801 -2861 0
-2802 -2862 0
-2803 -2863 0
-2804 -2864 0
-2805 -2865 0
-2801 -3306 0
-2802 -3307 0
-2803 -3308 0
-2804 -3309 0
-2805 -3310 0
-2801 -3501 0
-2802 -3502 0
-2803 -3503 0
-2804 -3504 0
-2805 -3505 0
-2801 -3621 0
-2802 -3622 0
-2803 -3623 0
-2804 -3624 0
-2805 -3625 0
-2806 -2811 0
-2807 -2812 0
-2808 -2813 0
-2809 -2814 0
-2810 -2815 0
-2806 -2886 0
-2807 -2887 0
-2808 -2888 0
-2809 -2889 0
-2810 -2890 0
-2806 -3026 0
-2807 -3027 0
-2808 -3028 0
-2809 -3029 0
-2810 -3030 0
-2806 -3131 0
-2807 -3132 0
-2808 -3133 0
-2809 -3134 0
-2810 -3135 0
-2806 -3631 0
-2807 -3632 0
-2808 -3633 0
-2809 -3634 0
-2810 -3635 0
-2806 -3696 0
-2807 -3697 0
-2808 -3698 0
-2809 -3699 0
-2810 -3700 0
-2811 -2886 0
-2812 -2887 0
-2813 -2888 0
-2814 -2889 0
-2815 -2890 0
-2816 -2821 0
-2817 -2822 0
-2818 -2823 0
-2819 -2824 0
-2820 -2825 0
-2816 -2831 0
-2817 -2832 0
-2818 -2833 0
-2819 -2834 0
-2820 -2835 0
-2816 -2866 0
-2817 -2867 0
-2818 -2868 0
-2819 -2869 0
-2820 -2870 0
-2816 -3311 0
-2817 -3312 0
-2818 -3313 0
-2819 -3314 0
-2820 -3315 0
-2816 -3506 0
-2817 -3507 0
-2818 -3508 0
-2819 -3509 0
-2820 -3510 0
-2816 -3666 0
-2817 -3667 0
-2818 -3668 0
-2819 -3669 0
-2820 -3670 0
-2821 -2851 0
-2822 -2852 0
-2823 -2853 0
-2824 -2854 0
-2825 -2855 0
-2821 -2871 0
-2822 -2872 0
-2823 -2873 0
-2824 -2874 0
-2825 -2875 0
-2821 -3316 0
-2822 -3317 0
-2823 -3318 0
-2824 -3319 0
-2825 -3320 0
-2821 -3676 0
-2822 -3677 0
-2823 -3678 0
-2824 -3679 0
-2825 -3680 0
-2826 -2846 0
-2827 -2847 0
-2828 -2848 0
-2829 -2849 0
-2830 -2850 0
-2826 -3131 0
-2827 -3132 0
-2828 -3133 0
-2829 -3134 0
-2830 -3135 0
-2826 -3456 0
-2827 -3457 0
-2828 -3458 0
-2829 -3459 0
-2830 -3460 0
-2831 -2836 0
-2832 -2837 0
-2833 -2838 0
-2834 -2839 0
-2835 -2840 0
-2831 -2841 0
-2832 -2842 0
-2833 -2843 0
-2834 -2844 0
-2835 -2845 0
-2831 -2851 0
-2832 -2852 0
-2833 -2853 0
-2834 -2854 0
-2835 -2855 0
-2831 -2856 0
-2832 -2857 0
-2833 -2858 0
-2834 -2859 0
-2835 -2860 0
-2831 -2876 0
-2832 -2877 0
-2833 -2878 0
-2834 -2879 0
-2835 -2880 0
-2831 -3156 0
-2832 -3157 0
-2833 -3158 0
-2834 -3159 0
-2835 -3160 0
-2831 -3681 0
-2832 -3682 0
-2833 -3683 0
-2834 -3684 0
-2835 -3685 0
-2836 -2846 0
-2837 -2847 0
-2838 -2848 0
-2839 -2849 0
-2840 -2850 0
-2836 -2856 0
-2837 -2857 0
-2838 -2858 0
-2839 -2859 0
-2840 -2860 0
-2836 -3076 0
-2837 -3077 0
-2838 -3078 0
-2839 -3079 0
-2840 -3080 0
-2836 -3351 0
-2837 -3352 0
-2838 -3353 0
-2839 -3354 0
-2840 -3355 0
-2836 -3441 0
-2837 -3442 0
-2838 -3443 0
-2839 -3444 0
-2840 -3445 0
-2841 -2846 0
-2842 -2847 0
-2843 -2848 0
-2844 -2849 0
-2845 -2850 0
-2841 -2861 0
-2842 -2862 0
-2843 -2863 0
-2844 -2864 0
-2845 -2865 0
-2841 -2876 0
-2842 -2877 0
-2843 -2878 0
-2844 -2879 0
-2845 -2880 0
-2841 -3221 0
-2842 -3222 0
-2843 -3223 0
-2844 -3224 0
-2845 -3225 0
-2846 -2861 0
-2847 -2862 0
-2848 -2863 0
-2849 -2864 0
-2850 -2865 0
-2846 -3081 0
-2847 -3082 0
-2848 -3083 0
-2849 -3084 0
-2850 -3085 0
-2846 -3331 0
-2847 -3332 0
-2848 -3333 0
-2849 -3334 0
-2850 -3335 0
-2846 -3446 0
-2847 -3447 0
-2848 -3448 0
-2849 -3449 0
-2850 -3450 0
-2846 -3516 0
-2847 -3517 0
-2848 -3518 0
-2849 -3519 0
-2850 -3520 0
-2851 -3416 0
-2852 -3417 0
-2853 -3418 0
-2854 -3419 0
-2855 -3420 0
-2851 -3691 0
-2852 -3692 0
-2853 -3693 0
-2854 -3694 0
-2855 -3695 0
-2856 -2861 0
-2857 -2862 0
-2858 -2863 0
-2859 -2864 0
-2860 -2865 0
-2856 -2881 0
-2857 -2882 0
-2858 -2883 0
-2859 -2884 0
-2860 -2885 0
-2856 -3191 0
-2857 -3192 0
-2858 -3193 0
-2859 -3194 0
-2860 -3195 0
-2856 -3461 0
-2857 -3462 0
-2858 -3463 0
-2859 -3464 0
-2860 -3465 0
-2861 -2881 0
-2862 -2882 0
-2863 -2883 0
-2864 -2884 0
-2865 -2885 0
-2861 -2981 0
-2862 -2982 0
-2863 -2983 0
-2864 -2984 0
-2865 -2985 0
-2861 -3146 0
-2862 -3147 0
-2863 -3148 0
-2864 -3149 0
-2865 -3150 0
-2861 -3336 0
-2862 -3337 0
-2863 -3338 0
-2864 -3339 0
-2865 -3340 0
-2861 -3466 0
-2862 -3467 0
-2863 -3468 0
-2864 -3469 0
-2865 -3470 0
-2861 -3541 0
-2862 -3542 0
-2863 -3543 0
-2864 -3544 0
-2865 -3545 0
-2861 -3701 0
-2862 -3702 0
-2863 -3703 0
-2864 -3704 0
-2865 -3705 0
-2866 -2871 0
-2867 -2872 0
-2868 -2873 0
-2869 -2874 0
-2870 -2875 0
-2866 -2876 0
-2867 -2877 0
-2868 -2878 0
-2869 -2879 0
-2870 -2880 0
-2866 -3541 0
-2867 -3542 0
-2868 -3543 0
-2869 -3544 0
-2870 -3545 0
-2876 -2881 0
-2877 -2882 0
-2878 -2883 0
-2879 -2884 0
-2880 -2885 0
-2876 -3171 0
-2877 -3172 0
-2878 -3173 0
-2879 -3174 0
-2880 -3175 0
-2876 -3561 0
-2877 -3562 0
-2878 -3563 0
-2879 -3564 0
-2880 -3565 0
-2881 -3201 0
-2882 -3202 0
-2883 -3203 0
-2884 -3204 0
-2885 -3205 0
-2881 -3456 0
-2882 -3457 0
-2883 -3458 0
-2884 -3459 0
-2885 -3460 0
-2886 -2891 0
-2887 -2892 0
-2888 -2893 0
-2889 -2894 0
-2890 -2895 0
-2886 -3136 0
-2887 -3137 0
-2888 -3138 0
-2889 -3139 0
-2890 -3140 0
-2886 -3576 0
-2887 -3577 0
-2888 -3578 0
-2889 -3579 0
-2890 -3580 0
-2886 -3701 0
-2887 -3702 0
-2888 -3703 0
-2889 -3704 0
-2890 -3705 0
-2891 -3141 0
-2892 -3142 0
-2893 -3143 0
-2894 -3144 0
-2895 -3145 0
-2891 -3581 0
-2892 -3582 0
-2893 -3583 0
-2894 -3584 0
-2895 -3585 0
-2891 -3701 0
-2892 -3702 0
-2893 -3703 0
-2894 -3704 0
-2895 -3705 0
-2896 -3161 0
-2897 -3162 0
-2898 -3163 0
-2899 -3164 0
-2900 -3165 0
-2896 -3591 0
-2897 -3592 0
-2898 -3593 0
-2899 -3594 0
-2900 -3595 0
-2901 -2906 0
-2902 -2907 0
-2903 -2908 0
-2904 -2909 0
-2905 -2910 0
-2901 -2911 0
-2902 -2912 0
-2903 -2913 0
-2904 -2914 0
-2905 -2915 0
-2901 -2916 0
-2902 -2917 0
-2903 -2918 0
-2904 -2919 0
-2905 -2920 0
-2901 -3001 0
-2902 -3002 0
-2903 -3003 0
-2904 -3004 0
-2905 -3005 0
-2901 -3121 0
-2902 -3122 0
-2903 -3123 0
-2904 -3124 0
-2905 -3125 0
-2901 -3386 0
-2902 -3387 0
-2903 -3388 0
-2904 -3389 0
-2905 -3390 0
-2901 -3706 0
-2902 -3707 0
-2903 -3708 0
-2904 -3709 0
-2905 -3710 0
-2906 -2916 0
-2907 -2917 0
-2908 -2918 0
-2909 -2919 0
-2910 -2920 0
-2906 -3006 0
-2907 -3007 0
-2908 -3008 0
-2909 -3009 0
-2910 -3010 0
-2906 -3131 0
-2907 -3132 0
-2908 -3133 0
-2909 -3134 0
-2910 -3135 0
-2906 -3236 0
-2907 -3237 0
-2908 -3238 0
-2909 -3239 0
-2910 -3240 0
-2906 -3491 0
-2907 -3492 0
-2908 -3493 0
-2909 -3494 0
-2910 -3495 0
-2906 -3711 0
-2907 -3712 0
-2908 -3713 0
-2909 -3714 0
-2910 -3715 0
-2911 -3011 0
-2912 -3012 0
-2913 -3013 0
-2914 -3014 0
-2915 -3015 0
-2911 -3391 0
-2912 -3392 0
-2913 -3393 0
-2914 -3394 0
-2915 -3395 0
-2911 -3706 0
-2912 -3707 0
-2913 -3708 0
-2914 -3709 0
-2915 -3710 0
-2916 -3021 0
-2917 -3022 0
-2918 -3023 0
-2919 -3024 0
-2920 -3025 0
-2916 -3166 0
-2917 -3167 0
-2918 -3168 0
-2919 -3169 0
-2920 -3170 0
-2921 -2926 0
-2922 -2927 0
-2923 -2928 0
-2924 -2929 0
-2925 -2930 0
-2921 -2966 0
-2922 -2967 0
-2923 -2968 0
-2924 -2969 0
-2925 -2970 0
-2921 -2971 0
-2922 -2972 0
-2923 -2973 0
-2924 -2974 0
-2925 -2975 0
-2921 -3286 0
-2922 -3287 0
-2923 -3288 0
-2924 -3289 0
-2925 -3290 0
-2921 -3366 0
-2922 -3367 0
-2923 -3368 0
-2924 -3369 0
-2925 -3370 0
-2921 -3716 0
-2922 -3717 0
-2923 -3718 0
-2924 -3719 0
-2925 -3720 0
-2926 -2931 0
-2927 -2932 0
-2928 -2933 0
-2929 -2934 0
-2930 -2935 0
-2926 -2996 0
-2927 -2997 0
-2928 -2998 0
-2929 -2999 0
-2930 -3000 0
-2926 -3186 0
-2927 -3187 0
-2928 -3188 0
-2929 -3189 0
-2930 -3190 0
-2926 -3396 0
-2927 -3397 0
-2928 -3398 0
-2929 -3399 0
-2930 -3400 0
-2926 -3481 0
-2927 -3482 0
-2928 -3483 0
-2929 -3484 0
-2930 -3485 0
-2926 -3716 0
-2927 -3717 0
-2928 -3718 0
-2929 -3719 0
-2930 -3720 0
-2931 -3201 0
-2932 -3202 0
-2933 -3203 0
-2934 -3204 0
-2935 -3205 0
-2931 -3491 0
-2932 -3492 0
-2933 -3493 0
-2934 -3494 0
-2935 -3495 0
-2931 -3681 0
-2932 -3682 0
-2933 -3683 0
-2934 -3684 0
-2935 -3685 0
-2936 -2941 0
-2937 -2942 0
-2938 -2943 0
-2939 -2944 0
-2940 -2945 0
-2936 -2946 0
-2937 -2947 0
-2938 -2948 0
-2939 -2949 0
-2940 -2950 0
-2936 -2966 0
-2937 -2967 0
-2938 -2968 0
-2939 -2969 0
-2940 -2970 0
-2936 -3601 0
-2937 -3602 0
-2938 -3603 0
-2939 -3604 0
-2940 -3605 0
-2941 -2951 0
-2942 -2952 0
-2943 -2953 0
-2944 -2954 0
-2945 -2955 0
-2941 -2976 0
-2942 -2977 0
-2943 -2978 0
-2944 -2979 0
-2945 -2980 0
-2941 -3231 0
-2942 -3232 0
-2943 -3233 0
-2944 -3234 0
-2945 -3235 0
-2941 -3526 0
-2942 -3527 0
-2943 -3528 0
-2944 -3529 0
-2945 -3530 0
-2946 -2951 0
-2947 -2952 0
-2948 -2953 0
-2949 -2954 0
-2950 -2955 0
-2946 -2956 0
-2947 -2957 0
-2948 -2958 0
-2949 -2959 0
-2950 -2960 0
-2946 -2986 0
-2947 -2987 0
-2948 -2988 0
-2949 -2989 0
-2950 -2990 0
-2946 -3051 0
-2947 -3052 0
-2948 -3053 0
-2949 -3054 0
-2950 -3055 0
-2946 -3531 0
-2947 -3532 0
-2948 -3533 0
-2949 -3534 0
-2950 -3535 0
-2951 -2961 0
-2952 -2962 0
-2953 -2963 0
-2954 -2964 0
-2955 -2965 0
-2951 -2991 0
-2952 -2992 0
-2953 -2993 0
-2954 -2994 0
-2955 -2995 0
-2951 -3051 0
-2952 -3052 0
-2953 -3053 0
-2954 -3054 0
-2955 -3055 0
-2951 -3381 0
-2952 -3382 0
-2953 -3383 0
-2954 -3384 0
-2955 -3385 0
-2951 -3541 0
-2952 -3542 0
-2953 -3543 0
-2954 -3544 0
-2955 -3545 0
-2951 -3711 0
-2952 -3712 0
-2953 -3713 0
-2954 -3714 0
-2955 -3715 0
-2956 -2961 0
-2957 -2962 0
-2958 -2963 0
-2959 -2964 0
-2960 -2965 0
-2956 -3061 0
-2957 -3062 0
-2958 -3063 0
-2959 -3064 0
-2960 -3065 0
-2956 -3161 0
-2957 -3162 0
-2958 -3163 0
-2959 -3164 0
-2960 -3165 0
-2961 -3061 0
-2962 -3062 0
-2963 -3063 0
-2964 -3064 0
-2965 -3065 0
-2961 -3176 0
-2962 -3177 0
-2963 -3178 0
-2964 -3179 0
-2965 -3180 0
-2961 -3391 0
-2962 -3392 0
-2963 -3393 0
-2964 -3394 0
-2965 -3395 0
-2961 -3556 0
-2962 -3557 0
-2963 -3558 0
-2964 -3559 0
-2965 -3560 0
-2961 -3711 0
-2962 -3712 0
-2963 -3713 0
-2964 -3714 0
-2965 -3715 0
-2966 -2971 0
-2967 -2972 0
-2968 -2973 0
-2969 -2974 0
-2970 -2975 0
-2966 -2976 0
-2967 -2977 0
-2968 -2978 0
-2969 -2979 0
-2970 -2980 0
-2966 -2986 0
-2967 -2987 0
-2968 -2988 0
-2969 -2989 0
-2970 -2990 0
-2966 -2996 0
-2967 -2997 0
-2968 -2998 0
-2969 -2999 0
-2970 -3000 0
-2966 -3276 0
-2967 -3277 0
-2968 -3278 0
-2969 -3279 0
-2970 -3280 0
-2966 -3731 0
-2967 -3732 0
-2968 -3733 0
-2969 -3734 0
-2970 -3735 0
-2971 -2981 0
-2972 -2982 0
-2973 -2983 0
-2974 -2984 0
-2975 -2985 0
-2971 -3531 0
-2972 -3532 0
-2973 -3533 0
-2974 -3534 0
-2975 -3535 0
-2971 -3736 0
-2972 -3737 0
-2973 -3738 0
-2974 -3739 0
-2975 -3740 0
-2976 -2981 0
-2977 -2982 0
-2978 -2983 0
-2979 -2984 0
-2980 -2985 0
-2976 -2991 0
-2977 -2992 0
-2978 -2993 0
-2979 -2994 0
-2980 -2995 0
-2976 -3081 0
-2977 -3082 0
-2978 -3083 0
-2979 -3084 0
-2980 -3085 0
-2976 -3241 0
-2977 -3242 0
-2978 -3243 0
-2979 -3244 0
-2980 -3245 0
-2976 -3536 0
-2977 -3537 0
-2978 -3538 0
-2979 -3539 0
-2980 -3540 0
-2981 -3541 0
-2982 -3542 0
-2983 -3543 0
-2984 -3544 0
-2985 -3545 0
-2986 -2991 0
-2987 -2992 0
-2988 -2993 0
-2989 -2994 0
-2990 -2995 0
-2996 -3076 0
-2997 -3077 0
-2998 -3078 0
-2999 -3079 0
-3000 -3080 0
-2996 -3251 0
-2997 -3252 0
-2998 -3253 0
-2999 -3254 0
-3000 -3255 0
-2996 -3451 0
-2997 -3452 0
-2998 -3453 0
-2999 -3454 0
-3000 -3455 0
-2996 -3731 0
-2997 -3732 0
-2998 -3733 0
-2999 -3734 0
-3000 -3735 0
-3001 -3006 0
-3002 -3007 0
-3003 -3008 0
-3004 -3009 0
-3005 -3010 0
-3001 -3011 0
-3002 -3012 0
-3003 -3013 0
-3004 -3014 0
-3005 -3015 0
-3001 -3021 0
-3002 -3022 0
-3003 -3023 0
-3004 -3024 0
-3005 -3025 0
-3001 -3026 0
-3002 -3027 0
-3003 -3028 0
-3004 -3029 0
-3005 -3030 0
-3001 -3031 0
-3002 -3032 0
-3003 -3033 0
-3004 -3034 0
-3005 -3035 0
-3001 -3716 0
-3002 -3717 0
-3003 -3718 0
-3004 -3719 0
-3005 -3720 0
-3006 -3016 0
-3007 -3017 0
-3008 -3018 0
-3009 -3019 0
-3010 -3020 0
-3006 -3021 0
-3007 -3022 0
-3008 -3023 0
-3009 -3024 0
-3010 -3025 0
-3006 -3721 0
-3007 -3722 0
-3008 -3723 0
-3009 -3724 0
-3010 -3725 0
-3011 -3016 0
-3012 -3017 0
-3013 -3018 0
-3014 -3019 0
-3015 -3020 0
-3011 -3036 0
-3012 -3037 0
-3013 -3038 0
-3014 -3039 0
-3015 -3040 0
-3011 -3041 0
-3012 -3042 0
-3013 -3043 0
-3014 -3044 0
-3015 -3045 0
-3011 -3716 0
-3012 -3717 0
-3013 -3718 0
-3014 -3719 0
-3015 -3720 0
-3016 -3096 0
-3017 -3097 0
-3018 -3098 0
-3019 -3099 0
-3020 -3100 0
-3016 -3721 0
-3017 -3722 0
-3018 -3723 0
-3019 -3724 0
-3020 -3725 0
-3021 -3616 0
-3022 -3617 0
-3023 -3618 0
-3024 -3619 0
-3025 -3620 0
-3021 -3726 0
-3022 -3727 0
-3023 -3728 0
-3024 -3729 0
-3025 -3730 0
-3026 -3031 0
-3027 -3032 0
-3028 -3033 0
-3029 -3034 0
-3030 -3035 0
-3026 -3036 0
-3027 -3037 0
-3028 -3038 0
-3029 -3039 0
-3030 -3040 0
-3026 -3731 0
-3027 -3732 0
-3028 -3733 0
-3029 -3734 0
-3030 -3735 0
-3031 -3041 0
-3032 -3042 0
-3033 -3043 0
-3034 -3044 0
-3035 -3045 0
-3031 -3246 0
-3032 -3247 0
-3033 -3248 0
-3034 -3249 0
-3035 -3250 0
-3031 -3331 0
-3032 -3332 0
-3033 -3333 0
-3034 -3334 0
-3035 -3335 0
-3031 -3736 0
-3032 -3737 0
-3033 -3738 0
-3034 -3739 0
-3035 -3740 0
-3036 -3041 0
-3037 -3042 0
-3038 -3043 0
-3039 -3044 0
-3040 -3045 0
-3036 -3121 0
-3037 -3122 0
-3038 -3123 0
-3039 -3124 0
-3040 -3125 0
-3036 -3731 0
-3037 -3732 0
-3038 -3733 0
-3039 -3734 0
-3040 -3735 0
-3041 -3046 0
-3042 -3047 0
-3043 -3048 0
-3044 -3049 0
-3045 -3050 0
-3041 -3251 0
-3042 -3252 0
-3043 -3253 0
-3044 -3254 0
-3045 -3255 0
-3041 -3736 0
-3042 -3737 0
-3043 -3738 0
-3044 -3739 0
-3045 -3740 0
-3046 -3256 0
-3047 -3257 0
-3048 -3258 0
-3049 -3259 0
-3050 -3260 0
-3046 -3431 0
-3047 -3432 0
-3048 -3433 0
-3049 -3434 0
-3050 -3435 0
-3046 -3591 0
-3047 -3592 0
-3048 -3593 0
-3049 -3594 0
-3050 -3595 0
-3051 -3061 0
-3052 -3062 0
-3053 -3063 0
-3054 -3064 0
-3055 -3065 0
-3051 -3356 0
-3052 -3357 0
-3053 -3358 0
-3054 -3359 0
-3055 -3360 0
-3051 -3446 0
-3052 -3447 0
-3053 -3448 0
-3054 -3449 0
-3055 -3450 0
-3051 -3596 0
-3052 -3597 0
-3053 -3598 0
-3054 -3599 0
-3055 -3600 0
-3051 -3721 0
-3052 -3722 0
-3053 -3723 0
-3054 -3724 0
-3055 -3725 0
-3056 -3061 0
-3057 -3062 0
-3058 -3063 0
-3059 -3064 0
-3060 -3065 0
-3056 -3171 0
-3057 -3172 0
-3058 -3173 0
-3059 -3174 0
-3060 -3175 0
-3056 -3281 0
-3057 -3282 0
-3058 -3283 0
-3059 -3284 0
-3060 -3285 0
-3056 -3346 0
-3057 -3347 0
-3058 -3348 0
-3059 -3349 0
-3060 -3350 0
-3056 -3576 0
-3057 -3577 0
-3058 -3578 0
-3059 -3579 0
-3060 -3580 0
-3056 -3716 0
-3057 -3717 0
-3058 -3718 0
-3059 -3719 0
-3060 -3720 0
-3061 -3066 0
-3062 -3067 0
-3063 -3068 0
-3064 -3069 0
-3065 -3070 0
-3061 -3071 0
-3062 -3072 0
-3063 -3073 0
-3064 -3074 0
-3065 -3075 0
-3061 -3151 0
-3062 -3152 0
-3063 -3153 0
-3064 -3154 0
-3065 -3155 0
-3061 -3226 0
-3062 -3227 0
-3063 -3228 0
-3064 -3229 0
-3065 -3230 0
-3061 -3291 0
-3062 -3292 0
-3063 -3293 0
-3064 -3294 0
-3065 -3295 0
-3061 -3641 0
-3062 -3642 0
-3063 -3643 0
-3064 -3644 0
-3065 -3645 0
-3061 -3721 0
-3062 -3722 0
-3063 -3723 0
-3064 -3724 0
-3065 -3725 0
-3066 -3296 0
-3067 -3297 0
-3068 -3298 0
-3069 -3299 0
-3070 -3300 0
-3066 -3361 0
-3067 -3362 0
-3068 -3363 0
-3069 -3364 0
-3070 -3365 0
-3071 -3181 0
-3072 -3182 0
-3073 -3183 0
-3074 -3184 0
-3075 -3185 0
-3071 -3466 0
-3072 -3467 0
-3073 -3468 0
-3074 -3469 0
-3075 -3470 0
-3076 -3081 0
-3077 -3082 0
-3078 -3083 0
-3079 -3084 0
-3080 -3085 0
-3076 -3086 0
-3077 -3087 0
-3078 -3088 0
-3079 -3089 0
-3080 -3090 0
-3076 -3526 0
-3077 -3527 0
-3078 -3528 0
-3079 -3529 0
-3080 -3530 0
-3081 -3481 0
-3082 -3482 0
-3083 -3483 0
-3084 -3484 0
-3085 -3485 0
-3081 -3741 0
-3082 -3742 0
-3083 -3743 0
-3084 -3744 0
-3085 -3745 0
-3086 -3091 0
-3087 -3092 0
-3088 -3093 0
-3089 -3094 0
-3090 -3095 0
-3086 -3186 0
-3087 -3187 0
-3088 -3188 0
-3089 -3189 0
-3090 -3190 0
-3086 -3191 0
-3087 -3192 0
-3088 -3193 0
-3089 -3194 0
-3090 -3195 0
-3086 -3541 0
-3087 -3542 0
-3088 -3543 0
-3089 -3544 0
-3090 -3545 0
-3091 -3201 0
-3092 -3202 0
-3093 -3203 0
-3094 -3204 0
-3095 -3205 0
-3091 -3211 0
-3092 -3212 0
-3093 -3213 0
-3094 -3214 0
-3095 -3215 0
-3091 -3556 0
-3092 -3557 0
-3093 -3558 0
-3094 -3559 0
-3095 -3560 0
-3096 -3131 0
-3097 -3132 0
-3098 -3133 0
-3099 -3134 0
-3100 -3135 0
-3101 -3196 0
-3102 -3197 0
-3103 -3198 0
-3104 -3199 0
-3105 -3200 0
-3101 -3201 0
-3102 -3202 0
-3103 -3203 0
-3104 -3204 0
-3105 -3205 0
-3101 -3611 0
-3102 -3612 0
-3103 -3613 0
-3104 -3614 0
-3105 -3615 0
-3101 -3716 0
-3102 -3717 0
-3103 -3718 0
-3104 -3719 0
-3105 -3720 0
-3106 -3111 0
-3107 -3112 0
-3108 -3113 0
-3109 -3114 0
-3110 -3115 0
-3106 -3126 0
-3107 -3127 0
-3108 -3128 0
-3109 -3129 0
-3110 -3130 0
-3106 -3136 0
-3107 -3137 0
-3108 -3138 0
-3109 -3139 0
-3110 -3140 0
-3111 -3131 0
-3112 -3132 0
-3113 -3133 0
-3114 -3134 0
-3115 -3135 0
-3111 -3136 0
-3112 -3137 0
-3113 -3138 0
-3114 -3139 0
-3115 -3140 0
-3111 -3741 0
-3112 -3742 0
-3113 -3743 0
-3114 -3744 0
-3115 -3745 0
-3116 -3121 0
-3117 -3122 0
-3118 -3123 0
-3119 -3124 0
-3120 -3125 0
-3116 -3126 0
-3117 -3127 0
-3118 -3128 0
-3119 -3129 0
-3120 -3130 0
-3116 -3161 0
-3117 -3162 0
-3118 -3163 0
-3119 -3164 0
-3120 -3165 0
-3116 -3381 0
-3117 -3382 0
-3118 -3383 0
-3119 -3384 0
-3120 -3385 0
-3116 -3716 0
-3117 -3717 0
-3118 -3718 0
-3119 -3719 0
-3120 -3720 0
-3121 -3131 0
-3122 -3132 0
-3123 -3133 0
-3124 -3134 0
-3125 -3135 0
-3121 -3166 0
-3122 -3167 0
-3123 -3168 0
-3124 -3169 0
-3125 -3170 0
-3121 -3576 0
-3122 -3577 0
-3123 -3578 0
-3124 -3579 0
-3125 -3580 0
-3126 -3131 0
-3127 -3132 0
-3128 -3133 0
-3129 -3134 0
-3130 -3135 0
-3126 -3141 0
-3127 -3142 0
-3128 -3143 0
-3129 -3144 0
-3130 -3145 0
-3126 -3161 0
-3127 -3162 0
-3128 -3163 0
-3129 -3164 0
-3130 -3165 0
-3126 -3231 0
-3127 -3232 0
-3128 -3233 0
-3129 -3234 0
-3130 -3235 0
-3126 -3626 0
-3127 -3627 0
-3128 -3628 0
-3129 -3629 0
-3130 -3630 0
-3126 -3721 0
-3127 -3722 0
-3128 -3723 0
-3129 -3724 0
-3130 -3725 0
-3131 -3141 0
-3132 -3142 0
-3133 -3143 0
-3134 -3144 0
-3135 -3145 0
-3131 -3166 0
-3132 -3167 0
-3133 -3168 0
-3134 -3169 0
-3135 -3170 0
-3131 -3416 0
-3132 -3417 0
-3133 -3418 0
-3134 -3419 0
-3135 -3420 0
-3131 -3631 0
-3132 -3632 0
-3133 -3633 0
-3134 -3634 0
-3135 -3635 0
-3131 -3741 0
-3132 -3742 0
-3133 -3743 0
-3134 -3744 0
-3135 -3745 0
-3131 -3746 0
-3132 -3747 0
-3133 -3748 0
-3134 -3749 0
-3135 -3750 0
-3136 -3141 0
-3137 -3142 0
-3138 -3143 0
-3139 -3144 0
-3140 -3145 0
-3141 -3146 0
-3142 -3147 0
-3143 -3148 0
-3144 -3149 0
-3145 -3150 0
-3141 -3196 0
-3142 -3197 0
-3143 -3198 0
-3144 -3199 0
-3145 -3200 0
-3141 -3241 0
-3142 -3242 0
-3143 -3243 0
-3144 -3244 0
-3145 -3245 0
-3141 -3426 0
-3142 -3427 0
-3143 -3428 0
-3144 -3429 0
-3145 -3430 0
-3141 -3671 0
-3142 -3672 0
-3143 -3673 0
-3144 -3674 0
-3145 -3675 0
-3146 -3201 0
-3147 -3202 0
-3148 -3203 0
-3149 -3204 0
-3150 -3205 0
-3146 -3336 0
-3147 -3337 0
-3148 -3338 0
-3149 -3339 0
-3150 -3340 0
-3146 -3676 0
-3147 -3677 0
-3148 -3678 0
-3149 -3679 0
-3150 -3680 0
-3151 -3181 0
-3152 -3182 0
-3153 -3183 0
-3154 -3184 0
-3155 -3185 0
-3151 -3216 0
-3152 -3217 0
-3153 -3218 0
-3154 -3219 0
-3155 -3220 0
-3151 -3341 0
-3152 -3342 0
-3153 -3343 0
-3154 -3344 0
-3155 -3345 0
-3156 -3181 0
-3157 -3182 0
-3158 -3183 0
-3159 -3184 0
-3160 -3185 0
-3156 -3191 0
-3157 -3192 0
-3158 -3193 0
-3159 -3194 0
-3160 -3195 0
-3156 -3521 0
-3157 -3522 0
-3158 -3523 0
-3159 -3524 0
-3160 -3525 0
-3161 -3166 0
-3162 -3167 0
-3163 -3168 0
-3164 -3169 0
-3165 -3170 0
-3161 -3171 0
-3162 -3172 0
-3163 -3173 0
-3164 -3174 0
-3165 -3175 0
-3161 -3176 0
-3162 -3177 0
-3163 -3178 0
-3164 -3179 0
-3165 -3180 0
-3161 -3196 0
-3162 -3197 0
-3163 -3198 0
-3164 -3199 0
-3165 -3200 0
-3161 -3226 0
-3162 -3227 0
-3163 -3228 0
-3164 -3229 0
-3165 -3230 0
-3161 -3261 0
-3162 -3262 0
-3163 -3263 0
-3164 -3264 0
-3165 -3265 0
-3161 -3686 0
-3162 -3687 0
-3163 -3688 0
-3164 -3689 0
-3165 -3690 0
-3161 -3726 0
-3162 -3727 0
-3163 -3728 0
-3164 -3729 0
-3165 -3730 0
-3166 -3196 0
-3167 -3197 0
-3168 -3198 0
-3169 -3199 0
-3170 -3200 0
-3166 -3441 0
-3167 -3442 0
-3168 -3443 0
-3169 -3444 0
-3170 -3445 0
-3171 -3181 0
-3172 -3182 0
-3173 -3183 0
-3174 -3184 0
-3175 -3185 0
-3171 -3201 0
-3172 -3202 0
-3173 -3203 0
-3174 -3204 0
-3175 -3205 0
-3171 -3531 0
-3172 -3532 0
-3173 -3533 0
-3174 -3534 0
-3175 -3535 0
-3171 -3691 0
-3172 -3692 0
-3173 -3693 0
-3174 -3694 0
-3175 -3695 0
-3176 -3181 0
-3177 -3182 0
-3178 -3183 0
-3179 -3184 0
-3180 -3185 0
-3176 -3221 0
-3177 -3222 0
-3178 -3223 0
-3179 -3224 0
-3180 -3225 0
-3176 -3226 0
-3177 -3227 0
-3178 -3228 0
-3179 -3229 0
-3180 -3230 0
-3176 -3356 0
-3177 -3357 0
-3178 -3358 0
-3179 -3359 0
-3180 -3360 0
-3176 -3391 0
-3177 -3392 0
-3178 -3393 0
-3179 -3394 0
-3180 -3395 0
-3176 -3536 0
-3177 -3537 0
-3178 -3538 0
-3179 -3539 0
-3180 -3540 0
-3176 -3656 0
-3177 -3657 0
-3178 -3658 0
-3179 -3659 0
-3180 -3660 0
-3181 -3206 0
-3182 -3207 0
-3183 -3208 0
-3184 -3209 0
-3185 -3210 0
-3181 -3211 0
-3182 -3212 0
-3183 -3213 0
-3184 -3214 0
-3185 -3215 0
-3181 -3221 0
-3182 -3222 0
-3183 -3223 0
-3184 -3224 0
-3185 -3225 0
-3181 -3361 0
-3182 -3362 0
-3183 -3363 0
-3184 -3364 0
-3185 -3365 0
-3181 -3371 0
-3182 -3372 0
-3183 -3373 0
-3184 -3374 0
-3185 -3375 0
-3181 -3541 0
-3182 -3542 0
-3183 -3543 0
-3184 -3544 0
-3185 -3545 0
-3186 -3191 0
-3187 -3192 0
-3188 -3193 0
-3189 -3194 0
-3190 -3195 0
-3186 -3201 0
-3187 -3202 0
-3188 -3203 0
-3189 -3204 0
-3190 -3205 0
-3186 -3596 0
-3187 -3597 0
-3188 -3598 0
-3189 -3599 0
-3190 -3600 0
-3191 -3211 0
-3192 -3212 0
-3193 -3213 0
-3194 -3214 0
-3195 -3215 0
-3191 -3651 0
-3192 -3652 0
-3193 -3653 0
-3194 -3654 0
-3195 -3655 0
-3196 -3201 0
-3197 -3202 0
-3198 -3203 0
-3199 -3204 0
-3200 -3205 0
-3196 -3286 0
-3197 -3287 0
-3198 -3288 0
-3199 -3289 0
-3200 -3290 0
-3196 -3461 0
-3197 -3462 0
-3198 -3463 0
-3199 -3464 0
-3200 -3465 0
-3196 -3731 0
-3197 -3732 0
-3198 -3733 0
-3199 -3734 0
-3200 -3735 0
-3201 -3211 0
-3202 -3212 0
-3203 -3213 0
-3204 -3214 0
-3205 -3215 0
-3201 -3411 0
-3202 -3412 0
-3203 -3413 0
-3204 -3414 0
-3205 -3415 0
-3201 -3631 0
-3202 -3632 0
-3203 -3633 0
-3204 -3634 0
-3205 -3635 0
-3201 -3736 0
-3202 -3737 0
-3203 -3738 0
-3204 -3739 0
-3205 -3740 0
-3206 -3211 0
-3207 -3212 0
-3208 -3213 0
-3209 -3214 0
-3210 -3215 0
-3206 -3566 0
-3207 -3567 0
-3208 -3568 0
-3209 -3569 0
-3210 -3570 0
-3206 -3636 0
-3207 -3637 0
-3208 -3638 0
-3209 -3639 0
-3210 -3640 0
-3211 -3661 0
-3212 -3662 0
-3213 -3663 0
-3214 -3664 0
-3215 -3665 0
-3216 -3221 0
-3217 -3222 0
-3218 -3223 0
-3219 -3224 0
-3220 -3225 0
-3216 -3576 0
-3217 -3577 0
-3218 -3578 0
-3219 -3579 0
-3220 -3580 0
-3216 -3741 0
-3217 -3742 0
-3218 -3743 0
-3219 -3744 0
-3220 -3745 0
-3221 -3421 0
-3222 -3422 0
-3223 -3423 0
-3224 -3424 0
-3225 -3425 0
-3221 -3586 0
-3222 -3587 0
-3223 -3588 0
-3224 -3589 0
-3225 -3590 0
-3226 -3341 0
-3227 -3342 0
-3228 -3343 0
-3229 -3344 0
-3230 -3345 0
-3231 -3236 0
-3232 -3237 0
-3233 -3238 0
-3234 -3239 0
-3235 -3240 0
-3231 -3241 0
-3232 -3242 0
-3233 -3243 0
-3234 -3244 0
-3235 -3245 0
-3231 -3261 0
-3232 -3262 0
-3233 -3263 0
-3234 -3264 0
-3235 -3265 0
-3231 -3266 0
-3232 -3267 0
-3233 -3268 0
-3234 -3269 0
-3235 -3270 0
-3231 -3666 0
-3232 -3667 0
-3233 -3668 0
-3234 -3669 0
-3235 -3670 0
-3236 -3256 0
-3237 -3257 0
-3238 -3258 0
-3239 -3259 0
-3240 -3260 0
-3236 -3416 0
-3237 -3417 0
-3238 -3418 0
-3239 -3419 0
-3240 -3420 0
-3236 -3601 0
-3237 -3602 0
-3238 -3603 0
-3239 -3604 0
-3240 -3605 0
-3236 -3681 0
-3237 -3682 0
-3238 -3683 0
-3239 -3684 0
-3240 -3685 0
-3241 -3256 0
-3242 -3257 0
-3243 -3258 0
-3244 -3259 0
-3245 -3260 0
-3241 -3286 0
-3242 -3287 0
-3243 -3288 0
-3244 -3289 0
-3245 -3290 0
-3241 -3296 0
-3242 -3297 0
-3243 -3298 0
-3244 -3299 0
-3245 -3300 0
-3241 -3506 0
-3242 -3507 0
-3243 -3508 0
-3244 -3509 0
-3245 -3510 0
-3241 -3671 0
-3242 -3672 0
-3243 -3673 0
-3244 -3674 0
-3245 -3675 0
-3246 -3251 0
-3247 -3252 0
-3248 -3253 0
-3249 -3254 0
-3250 -3255 0
-3246 -3481 0
-3247 -3482 0
-3248 -3483 0
-3249 -3484 0
-3250 -3485 0
-3251 -3256 0
-3252 -3257 0
-3253 -3258 0
-3254 -3259 0
-3255 -3260 0
-3251 -3336 0
-3252 -3337 0
-3253 -3338 0
-3254 -3339 0
-3255 -3340 0
-3251 -3486 0
-3252 -3487 0
-3253 -3488 0
-3254 -3489 0
-3255 -3490 0
-3251 -3626 0
-3252 -3627 0
-3253 -3628 0
-3254 -3629 0
-3255 -3630 0
-3256 -3306 0
-3257 -3307 0
-3258 -3308 0
-3259 -3309 0
-3260 -3310 0
-3256 -3336 0
-3257 -3337 0
-3258 -3338 0
-3259 -3339 0
-3260 -3340 0
-3256 -3431 0
-3257 -3432 0
-3258 -3433 0
-3259 -3434 0
-3260 -3435 0
-3256 -3636 0
-3257 -3637 0
-3258 -3638 0
-3259 -3639 0
-3260 -3640 0
-3256 -3686 0
-3257 -3687 0
-3258 -3688 0
-3259 -3689 0
-3260 -3690 0
-3256 -3706 0
-3257 -3707 0
-3258 -3708 0
-3259 -3709 0
-3260 -3710 0
-3261 -3266 0
-3262 -3267 0
-3263 -3268 0
-3264 -3269 0
-3265 -3270 0
-3261 -3271 0
-3262 -3272 0
-3263 -3273 0
-3264 -3274 0
-3265 -3275 0
-3261 -3281 0
-3262 -3282 0
-3263 -3283 0
-3264 -3284 0
-3265 -3285 0
-3261 -3286 0
-3262 -3287 0
-3263 -3288 0
-3264 -3289 0
-3265 -3290 0
-3261 -3311 0
-3262 -3312 0
-3263 -3313 0
-3264 -3314 0
-3265 -3315 0
-3261 -3341 0
-3262 -3342 0
-3263 -3343 0
-3264 -3344 0
-3265 -3345 0
-3261 -3436 0
-3262 -3437 0
-3263 -3438 0
-3264 -3439 0
-3265 -3440 0
-3261 -3706 0
-3262 -3707 0
-3263 -3708 0
-3264 -3709 0
-3265 -3710 0
-3266 -3291 0
-3267 -3292 0
-3268 -3293 0
-3269 -3294 0
-3270 -3295 0
-3266 -3296 0
-3267 -3297 0
-3268 -3298 0
-3269 -3299 0
-3270 -3300 0
-3266 -3711 0
-3267 -3712 0
-3268 -3713 0
-3269 -3714 0
-3270 -3715 0
-3271 -3316 0
-3272 -3317 0
-3273 -3318 0
-3274 -3319 0
-3275 -3320 0
-3271 -3346 0
-3272 -3347 0
-3273 -3348 0
-3274 -3349 0
-3275 -3350 0
-3276 -3296 0
-3277 -3297 0
-3278 -3298 0
-3279 -3299 0
-3280 -3300 0
-3276 -3521 0
-3277 -3522 0
-3278 -3523 0
-3279 -3524 0
-3280 -3525 0
-3281 -3286 0
-3282 -3287 0
-3283 -3288 0
-3284 -3289 0
-3285 -3290 0
-3281 -3291 0
-3282 -3292 0
-3283 -3293 0
-3284 -3294 0
-3285 -3295 0
-3281 -3321 0
-3282 -3322 0
-3283 -3323 0
-3284 -3324 0
-3285 -3325 0
-3281 -3501 0
-3282 -3502 0
-3283 -3503 0
-3284 -3504 0
-3285 -3505 0
-3286 -3296 0
-3287 -3297 0
-3288 -3298 0
-3289 -3299 0
-3290 -3300 0
-3286 -3366 0
-3287 -3367 0
-3288 -3368 0
-3289 -3369 0
-3290 -3370 0
-3291 -3296 0
-3292 -3297 0
-3293 -3298 0
-3294 -3299 0
-3295 -3300 0
-3296 -3301 0
-3297 -3302 0
-3298 -3303 0
-3299 -3304 0
-3300 -3305 0
-3296 -3306 0
-3297 -3307 0
-3298 -3308 0
-3299 -3309 0
-3300 -3310 0
-3296 -3541 0
-3297 -3542 0
-3298 -3543 0
-3299 -3544 0
-3300 -3545 0
-3296 -3611 0
-3297 -3612 0
-3298 -3613 0
-3299 -3614 0
-3300 -3615 0
-3296 -3741 0
-3297 -3742 0
-3298 -3743 0
-3299 -3744 0
-3300 -3745 0
-3301 -3401 0
-3302 -3402 0
-3303 -3403 0
-3304 -3404 0
-3305 -3405 0
-3301 -3551 0
-3302 -3552 0
-3303 -3553 0
-3304 -3554 0
-3305 -3555 0
-3306 -3376 0
-3307 -3377 0
-3308 -3378 0
-3309 -3379 0
-3310 -3380 0
-3306 -3471 0
-3307 -3472 0
-3308 -3473 0
-3309 -3474 0
-3310 -3475 0
-3306 -3496 0
-3307 -3497 0
-3308 -3498 0
-3309 -3499 0
-3310 -3500 0
-3306 -3561 0
-3307 -3562 0
-3308 -3563 0
-3309 -3564 0
-3310 -3565 0
-3306 -3616 0
-3307 -3617 0
-3308 -3618 0
-3309 -3619 0
-3310 -3620 0
-3311 -3316 0
-3312 -3317 0
-3313 -3318 0
-3314 -3319 0
-3315 -3320 0
-3311 -3321 0
-3312 -3322 0
-3313 -3323 0
-3314 -3324 0
-3315 -3325 0
-3311 -3351 0
-3312 -3352 0
-3313 -3353 0
-3314 -3354 0
-3315 -3355 0
-3311 -3516 0
-3312 -3517 0
-3313 -3518 0
-3314 -3519 0
-3315 -3520 0
-3316 -3326 0
-3317 -3327 0
-3318 -3328 0
-3319 -3329 0
-3320 -3330 0
-3316 -3361 0
-3317 -3362 0
-3318 -3363 0
-3319 -3364 0
-3320 -3365 0
-3316 -3441 0
-3317 -3442 0
-3318 -3443 0
-3319 -3444 0
-3320 -3445 0
-3321 -3326 0
-3322 -3327 0
-3323 -3328 0
-3324 -3329 0
-3325 -3330 0
-3321 -3541 0
-3322 -3542 0
-3323 -3543 0
-3324 -3544 0
-3325 -3545 0
-3326 -3461 0
-3327 -3462 0
-3328 -3463 0
-3329 -3464 0
-3330 -3465 0
-3326 -3696 0
-3327 -3697 0
-3328 -3698 0
-3329 -3699 0
-3330 -3700 0
-3331 -3336 0
-3332 -3337 0
-3333 -3338 0
-3334 -3339 0
-3335 -3340 0
-3331 -3481 0
-3332 -3482 0
-3333 -3483 0
-3334 -3484 0
-3335 -3485 0
-3336 -3716 0
-3337 -3717 0
-3338 -3718 0
-3339 -3719 0
-3340 -3720 0
-3341 -3346 0
-3342 -3347 0
-3343 -3348 0
-3344 -3349 0
-3345 -3350 0
-3341 -3351 0
-3342 -3352 0
-3343 -3353 0
-3344 -3354 0
-3345 -3355 0
-3346 -3356 0
-3347 -3357 0
-3348 -3358 0
-3349 -3359 0
-3350 -3360 0
-3346 -3361 0
-3347 -3362 0
-3348 -3363 0
-3349 -3364 0
-3350 -3365 0
-3346 -3501 0
-3347 -3502 0
-3348 -3503 0
-3349 -3504 0
-3350 -3505 0
-3351 -3361 0
-3352 -3362 0
-3353 -3363 0
-3354 -3364 0
-3355 -3365 0
-3351 -3526 0
-3352 -3527 0
-3353 -3528 0
-3354 -3529 0
-3355 -3530 0
-3356 -3361 0
-3357 -3362 0
-3358 -3363 0
-3359 -3364 0
-3360 -3365 0
-3356 -3446 0
-3357 -3447 0
-3358 -3448 0
-3359 -3449 0
-3360 -3450 0
-3356 -3536 0
-3357 -3537 0
-3358 -3538 0
-3359 -3539 0
-3360 -3540 0
-3356 -3581 0
-3357 -3582 0
-3358 -3583 0
-3359 -3584 0
-3360 -3585 0
-3361 -3541 0
-3362 -3542 0
-3363 -3543 0
-3364 -3544 0
-3365 -3545 0
-3366 -3376 0
-3367 -3377 0
-3368 -3378 0
-3369 -3379 0
-3370 -3380 0
-3366 -3401 0
-3367 -3402 0
-3368 -3403 0
-3369 -3404 0
-3370 -3405 0
-3371 -3376 0
-3372 -3377 0
-3373 -3378 0
-3374 -3379 0
-3375 -3380 0
-3371 -3396 0
-3372 -3397 0
-3373 -3398 0
-3374 -3399 0
-3375 -3400 0
-3371 -3541 0
-3372 -3542 0
-3373 -3543 0
-3374 -3544 0
-3375 -3545 0
-3376 -3401 0
-3377 -3402 0
-3378 -3403 0
-3379 -3404 0
-3380 -3405 0
-3376 -3546 0
-3377 -3547 0
-3378 -3548 0
-3379 -3549 0
-3380 -3550 0
-3381 -3391 0
-3382 -3392 0
-3383 -3393 0
-3384 -3394 0
-3385 -3395 0
-3381 -3416 0
-3382 -3417 0
-3383 -3418 0
-3384 -3419 0
-3385 -3420 0
-3381 -3716 0
-3382 -3717 0
-3383 -3718 0
-3384 -3719 0
-3385 -3720 0
-3386 -3391 0
-3387 -3392 0
-3388 -3393 0
-3389 -3394 0
-3390 -3395 0
-3386 -3576 0
-3387 -3577 0
-3388 -3578 0
-3389 -3579 0
-3390 -3580 0
-3391 -3421 0
-3392 -3422 0
-3393 -3423 0
-3394 -3424 0
-3395 -3425 0
-3391 -3581 0
-3392 -3582 0
-3393 -3583 0
-3394 -3584 0
-3395 -3585 0
-3391 -3671 0
-3392 -3672 0
-3393 -3673 0
-3394 -3674 0
-3395 -3675 0
-3396 -3401 0
-3397 -3402 0
-3398 -3403 0
-3399 -3404 0
-3400 -3405 0
-3396 -3406 0
-3397 -3407 0
-3398 -3408 0
-3399 -3409 0
-3400 -3410 0
-3396 -3451 0
-3397 -3452 0
-3398 -3453 0
-3399 -3454 0
-3400 -3455 0
-3396 -3596 0
-3397 -3597 0
-3398 -3598 0
-3399 -3599 0
-3400 -3600 0
-3396 -3656 0
-3397 -3657 0
-3398 -3658 0
-3399 -3659 0
-3400 -3660 0
-3401 -3411 0
-3402 -3412 0
-3403 -3413 0
-3404 -3414 0
-3405 -3415 0
-3401 -3456 0
-3402 -3457 0
-3403 -3458 0
-3404 -3459 0
-3405 -3460 0
-3401 -3726 0
-3402 -3727 0
-3403 -3728 0
-3404 -3729 0
-3405 -3730 0
-3406 -3411 0
-3407 -3412 0
-3408 -3413 0
-3409 -3414 0
-3410 -3415 0
-3406 -3466 0
-3407 -3467 0
-3408 -3468 0
-3409 -3469 0
-3410 -3470 0
-3406 -3661 0
-3407 -3662 0
-3408 -3663 0
-3409 -3664 0
-3410 -3665 0
-3406 -3721 0
-3407 -3722 0
-3408 -3723 0
-3409 -3724 0
-3410 -3725 0
-3411 -3471 0
-3412 -3472 0
-3413 -3473 0
-3414 -3474 0
-3415 -3475 0
-3416 -3421 0
-3417 -3422 0
-3418 -3423 0
-3419 -3424 0
-3420 -3425 0
-3416 -3426 0
-3417 -3427 0
-3418 -3428 0
-3419 -3429 0
-3420 -3430 0
-3416 -3431 0
-3417 -3432 0
-3418 -3433 0
-3419 -3434 0
-3420 -3435 0
-3416 -3441 0
-3417 -3442 0
-3418 -3443 0
-3419 -3444 0
-3420 -3445 0
-3416 -3446 0
-3417 -3447 0
-3418 -3448 0
-3419 -3449 0
-3420 -3450 0
-3416 -3601 0
-3417 -3602 0
-3418 -3603 0
-3419 -3604 0
-3420 -3605 0
-3416 -3736 0
-3417 -3737 0
-3418 -3738 0
-3419 -3739 0
-3420 -3740 0
-3421 -3586 0
-3422 -3587 0
-3423 -3588 0
-3424 -3589 0
-3425 -3590 0
-3421 -3606 0
-3422 -3607 0
-3423 -3608 0
-3424 -3609 0
-3425 -3610 0
-3421 -3696 0
-3422 -3697 0
-3423 -3698 0
-3424 -3699 0
-3425 -3700 0
-3426 -3431 0
-3427 -3432 0
-3428 -3433 0
-3429 -3434 0
-3430 -3435 0
-3426 -3461 0
-3427 -3462 0
-3428 -3463 0
-3429 -3464 0
-3430 -3465 0
-3426 -3466 0
-3427 -3467 0
-3428 -3468 0
-3429 -3469 0
-3430 -3470 0
-3426 -3506 0
-3427 -3507 0
-3428 -3508 0
-3429 -3509 0
-3430 -3510 0
-3431 -3471 0
-3432 -3472 0
-3433 -3473 0
-3434 -3474 0
-3435 -3475 0
-3431 -3701 0
-3432 -3702 0
-3433 -3703 0
-3434 -3704 0
-3435 -3705 0
-3436 -3441 0
-3437 -3442 0
-3438 -3443 0
-3439 -3444 0
-3440 -3445 0
-3436 -3751 0
-3437 -3752 0
-3438 -3753 0
-3439 -3754 0
-3440 -3755 0
-3441 -3446 0
-3442 -3447 0
-3443 -3448 0
-3444 -3449 0
-3445 -3450 0
-3441 -3461 0
-3442 -3462 0
-3443 -3463 0
-3444 -3464 0
-3445 -3465 0
-3446 -3466 0
-3447 -3467 0
-3448 -3468 0
-3449 -3469 0
-3450 -3470 0
-3446 -3471 0
-3447 -3472 0
-3448 -3473 0
-3449 -3474 0
-3450 -3475 0
-3446 -3516 0
-3447 -3517 0
-3448 -3518 0
-3449 -3519 0
-3450 -3520 0
-3451 -3456 0
-3452 -3457 0
-3453 -3458 0
-3454 -3459 0
-3455 -3460 0
-3451 -3466 0
-3452 -3467 0
-3453 -3468 0
-3454 -3469 0
-3455 -3470 0
-3451 -3526 0
-3452 -3527 0
-3453 -3528 0
-3454 -3529 0
-3455 -3530 0
-3451 -3626 0
-3452 -3627 0
-3453 -3628 0
-3454 -3629 0
-3455 -3630 0
-3456 -3471 0
-3457 -3472 0
-3458 -3473 0
-3459 -3474 0
-3460 -3475 0
-3456 -3631 0
-3457 -3632 0
-3458 -3633 0
-3459 -3634 0
-3460 -3635 0
-3461 -3466 0
-3462 -3467 0
-3463 -3468 0
-3464 -3469 0
-3465 -3470 0
-3461 -3651 0
-3462 -3652 0
-3463 -3653 0
-3464 -3654 0
-3465 -3655 0
-3461 -3731 0
-3462 -3732 0
-3463 -3733 0
-3464 -3734 0
-3465 -3735 0
-3466 -3471 0
-3467 -3472 0
-3468 -3473 0
-3469 -3474 0
-3470 -3475 0
-3466 -3541 0
-3467 -3542 0
-3468 -3543 0
-3469 -3544 0
-3470 -3545 0
-3471 -3546 0
-3472 -3547 0
-3473 -3548 0
-3474 -3549 0
-3475 -3550 0
-3476 -3541 0
-3477 -3542 0
-3478 -3543 0
-3479 -3544 0
-3480 -3545 0
-3476 -3706 0
-3477 -3707 0
-3478 -3708 0
-3479 -3709 0
-3480 -3710 0
-3481 -3486 0
-3482 -3487 0
-3483 -3488 0
-3484 -3489 0
-3485 -3490 0
-3481 -3491 0
-3482 -3492 0
-3483 -3493 0
-3484 -3494 0
-3485 -3495 0
-3486 -3496 0
-3487 -3497 0
-3488 -3498 0
-3489 -3499 0
-3490 -3500 0
-3486 -3721 0
-3487 -3722 0
-3488 -3723 0
-3489 -3724 0
-3490 -3725 0
-3491 -3496 0
-3492 -3497 0
-3493 -3498 0
-3494 -3499 0
-3495 -3500 0
-3491 -3631 0
-3492 -3632 0
-3493 -3633 0
-3494 -3634 0
-3495 -3635 0
-3491 -3681 0
-3492 -3682 0
-3493 -3683 0
-3494 -3684 0
-3495 -3685 0
-3496 -3616 0
-3497 -3617 0
-3498 -3618 0
-3499 -3619 0
-3500 -3620 0
-3496 -3691 0
-3497 -3692 0
-3498 -3693 0
-3499 -3694 0
-3500 -3695 0
-3501 -3536 0
-3502 -3537 0
-3503 -3538 0
-3504 -3539 0
-3505 -3540 0
-3501 -3541 0
-3502 -3542 0
-3503 -3543 0
-3504 -3544 0
-3505 -3545 0
-3506 -3511 0
-3507 -3512 0
-3508 -3513 0
-3509 -3514 0
-3510 -3515 0
-3506 -3541 0
-3507 -3542 0
-3508 -3543 0
-3509 -3544 0
-3510 -3545 0
-3511 -3541 0
-3512 -3542 0
-3513 -3543 0
-3514 -3544 0
-3515 -3545 0
-3511 -3621 0
-3512 -3622 0
-3513 -3623 0
-3514 -3624 0
-3515 -3625 0
-3516 -3541 0
-3517 -3542 0
-3518 -3543 0
-3519 -3544 0
-3520 -3545 0
-3516 -3546 0
-3517 -3547 0
-3518 -3548 0
-3519 -3549 0
-3520 -3550 0
-3521 -3541 0
-3522 -3542 0
-3523 -3543 0
-3524 -3544 0
-3525 -3545 0
-3526 -3541 0
-3527 -3542 0
-3528 -3543 0
-3529 -3544 0
-3530 -3545 0
-3526 -3666 0
-3527 -3667 0
-3528 -3668 0
-3529 -3669 0
-3530 -3670 0
-3531 -3541 0
-3532 -3542 0
-3533 -3543 0
-3534 -3544 0
-3535 -3545 0
-3531 -3596 0
-3532 -3597 0
-3533 -3598 0
-3534 -3599 0
-3535 -3600 0
-3536 -3541 0
-3537 -3542 0
-3538 -3543 0
-3539 -3544 0
-3540 -3545 0
-3536 -3671 0
-3537 -3672 0
-3538 -3673 0
-3539 -3674 0
-3540 -3675 0
-3541 -3546 0
-3542 -3547 0
-3543 -3548 0
-3544 -3549 0
-3545 -3550 0
-3541 -3551 0
-3542 -3552 0
-3543 -3553 0
-3544 -3554 0
-3545 -3555 0
-3541 -3556 0
-3542 -3557 0
-3543 -3558 0
-3544 -3559 0
-3545 -3560 0
-3541 -3561 0
-3542 -3562 0
-3543 -3563 0
-3544 -3564 0
-3545 -3565 0
-3541 -3566 0
-3542 -3567 0
-3543 -3568 0
-3544 -3569 0
-3545 -3570 0
-3541 -3571 0
-3542 -3572 0
-3543 -3573 0
-3544 -3574 0
-3545 -3575 0
-3541 -3596 0
-3542 -3597 0
-3543 -3598 0
-3544 -3599 0
-3545 -3600 0
-3541 -3646 0
-3542 -3647 0
-3543 -3648 0
-3544 -3649 0
-3545 -3650 0
-3541 -3676 0
-3542 -3677 0
-3543 -3678 0
-3544 -3679 0
-3545 -3680 0
-3541 -3716 0
-3542 -3717 0
-3543 -3718 0
-3544 -3719 0
-3545 -3720 0
-3541 -3741 0
-3542 -3742 0
-3543 -3743 0
-3544 -3744 0
-3545 -3745 0
-3541 -3751 0
-3542 -3752 0
-3543 -3753 0
-3544 -3754 0
-3545 -3755 0
-3541 -7291 0
-3542 -7292 0
-3543 -7293 0
-3544 -7294 0
-3545 -7295 0
-3556 -3656 0
-3557 -3657 0
-3558 -3658 0
-3559 -3659 0
-3560 -3660 0
-3561 -3691 0
-3562 -3692 0
-3563 -3693 0
-3564 -3694 0
-3565 -3695 0
-3571 -3726 0
-3572 -3727 0
-3573 -3728 0
-3574 -3729 0
-3575 -3730 0
-3576 -3581 0
-3577 -3582 0
-3578 -3583 0
-3579 -3584 0
-3580 -3585 0
-3576 -3586 0
-3577 -3587 0
-3578 -3588 0
-3579 -3589 0
-3580 -3590 0
-3576 -3751 0
-3577 -3752 0
-3578 -3753 0
-3579 -3754 0
-3580 -3755 0
-3581 -3591 0
-3582 -3592 0
-3583 -3593 0
-3584 -3594 0
-3585 -3595 0
-3581 -3671 0
-3582 -3672 0
-3583 -3673 0
-3584 -3674 0
-3585 -3675 0
-3581 -3751 0
-3582 -3752 0
-3583 -3753 0
-3584 -3754 0
-3585 -3755 0
-3586 -3591 0
-3587 -3592 0
-3588 -3593 0
-3589 -3594 0
-3590 -3595 0
-3586 -3731 0
-3587 -3732 0
-3588 -3733 0
-3589 -3734 0
-3590 -3735 0
-3591 -3686 0
-3592 -3687 0
-3593 -3688 0
-3594 -3689 0
-3595 -3690 0
-3601 -3606 0
-3602 -3607 0
-3603 -3608 0
-3604 -3609 0
-3605 -3610 0
-3601 -3621 0
-3602 -3622 0
-3603 -3623 0
-3604 -3624 0
-3605 -3625 0
-3606 -3626 0
-3607 -3627 0
-3608 -3628 0
-3609 -3629 0
-3610 -3630 0
-3606 -3636 0
-3607 -3637 0
-3608 -3638 0
-3609 -3639 0
-3610 -3640 0
-3606 -3696 0
-3607 -3697 0
-3608 -3698 0
-3609 -3699 0
-3610 -3700 0
-3606 -3711 0
-3607 -3712 0
-3608 -3713 0
-3609 -3714 0
-3610 -3715 0
-3611 -3616 0
-3612 -3617 0
-3613 -3618 0
-3614 -3619 0
-3615 -3620 0
-3611 -3631 0
-3612 -3632 0
-3613 -3633 0
-3614 -3634 0
-3615 -3635 0
-3611 -3716 0
-3612 -3717 0
-3613 -3718 0
-3614 -3719 0
-3615 -3720 0
-3621 -3636 0
-3622 -3637 0
-3623 -3638 0
-3624 -3639 0
-3625 -3640 0
-3621 -3646 0
-3622 -3647 0
-3623 -3648 0
-3624 -3649 0
-3625 -3650 0
-3626 -3631 0
-3627 -3632 0
-3628 -3633 0
-3629 -3634 0
-3630 -3635 0
-3626 -3636 0
-3627 -3637 0
-3628 -3638 0
-3629 -3639 0
-3630 -3640 0
-3626 -3666 0
-3627 -3667 0
-3628 -3668 0
-3629 -3669 0
-3630 -3670 0
-3626 -3721 0
-3627 -3722 0
-3628 -3723 0
-3629 -3724 0
-3630 -3725 0
-3631 -3736 0
-3632 -3737 0
-3633 -3738 0
-3634 -3739 0
-3635 -3740 0
-3636 -3641 0
-3637 -3642 0
-3638 -3643 0
-3639 -3644 0
-3640 -3645 0
-3636 -3656 0
-3637 -3657 0
-3638 -3658 0
-3639 -3659 0
-3640 -3660 0
-3636 -3701 0
-3637 -3702 0
-3638 -3703 0
-3639 -3704 0
-3640 -3705 0
-3641 -3661 0
-3642 -3662 0
-3643 -3663 0
-3644 -3664 0
-3645 -3665 0
-3646 -3651 0
-3647 -3652 0
-3648 -3653 0
-3649 -3654 0
-3650 -3655 0
-3646 -3656 0
-3647 -3657 0
-3648 -3658 0
-3649 -3659 0
-3650 -3660 0
-3646 -3716 0
-3647 -3717 0
-3648 -3718 0
-3649 -3719 0
-3650 -3720 0
-3651 -3661 0
-3652 -3662 0
-3653 -3663 0
-3654 -3664 0
-3655 -3665 0
-3656 -3661 0
-3657 -3662 0
-3658 -3663 0
-3659 -3664 0
-3660 -3665 0
-3666 -3676 0
-3667 -3677 0
-3668 -3678 0
-3669 -3679 0
-3670 -3680 0
-3666 -3681 0
-3667 -3682 0
-3668 -3683 0
-3669 -3684 0
-3670 -3685 0
-3671 -3676 0
-3672 -3677 0
-3673 -3678 0
-3674 -3679 0
-3675 -3680 0
-3671 -3686 0
-3672 -3687 0
-3673 -3688 0
-3674 -3689 0
-3675 -3690 0
-3671 -3696 0
-3672 -3697 0
-3673 -3698 0
-3674 -3699 0
-3675 -3700 0
-3676 -3691 0
-3677 -3692 0
-3678 -3693 0
-3679 -3694 0
-3680 -3695 0
-3676 -3696 0
-3677 -3697 0
-3678 -3698 0
-3679 -3699 0
-3680 -3700 0
-3676 -3716 0
-3677 -3717 0
-3678 -3718 0
-3679 -3719 0
-3680 -3720 0
-3681 -3691 0
-3682 -3692 0
-3683 -3693 0
-3684 -3694 0
-3685 -3695 0
-3681 -3736 0
-3682 -3737 0
-3683 -3738 0
-3684 -3739 0
-3685 -3740 0
-3686 -3691 0
-3687 -3692 0
-3688 -3693 0
-3689 -3694 0
-3690 -3695 0
-3686 -3706 0
-3687 -3707 0
-3688 -3708 0
-3689 -3709 0
-3690 -3710 0
-3696 -3701 0
-3697 -3702 0
-3698 -3703 0
-3699 -3704 0
-3700 -3705 0
-3696 -3731 0
-3697 -3732 0
-3698 -3733 0
-3699 -3734 0
-3700 -3735 0
-3696 -3746 0
-3697 -3747 0
-3698 -3748 0
-3699 -3749 0
-3700 -3750 0
-3701 -3751 0
-3702 -3752 0
-3703 -3753 0
-3704 -3754 0
-3705 -3755 0
-3706 -3711 0
-3707 -3712 0
-3708 -3713 0
-3709 -3714 0
-3710 -3715 0
-3706 -3716 0
-3707 -3717 0
-3708 -3718 0
-3709 -3719 0
-3710 -3720 0
-3711 -3721 0
-3712 -3722 0
-3713 -3723 0
-3714 -3724 0
-3715 -3725 0
-3711 -3746 0
-3712 -3747 0
-3713 -3748 0
-3714 -3749 0
-3715 -3750 0
-3716 -3721 0
-3717 -3722 0
-3718 -3723 0
-3719 -3724 0
-3720 -3725 0
-3716 -3726 0
-3717 -3727 0
-3718 -3728 0
-3719 -3729 0
-3720 -3730 0
-3716 -3731 0
-3717 -3732 0
-3718 -3733 0
-3719 -3734 0
-3720 -3735 0
-3716 -3736 0
-3717 -3737 0
-3718 -3738 0
-3719 -3739 0
-3720 -3740 0
-3721 -3726 0
-3722 -3727 0
-3723 -3728 0
-3724 -3729 0
-3725 -3730 0
-3731 -3736 0
-3732 -3737 0
-3733 -3738 0
-3734 -3739 0
-3735 -3740 0
-3741 -3746 0
-3742 -3747 0
-3743 -3748 0
-3744 -3749 0
-3745 -3750 0
-3756 -3761 0
-3757 -3762 0
-3758 -3763 0
-3759 -3764 0
-3760 -3765 0
-3756 -3906 0
-3757 -3907 0
-3758 -3908 0
-3759 -3909 0
-3760 -3910 0
-3756 -3971 0
-3757 -3972 0
-3758 -3973 0
-3759 -3974 0
-3760 -3975 0
-3756 -4216 0
-3757 -4217 0
-3758 -4218 0
-3759 -4219 0
-3760 -4220 0
-3756 -4481 0
-3757 -4482 0
-3758 -4483 0
-3759 -4484 0
-3760 -4485 0
-3761 -3766 0
-3762 -3767 0
-3763 -3768 0
-3764 -3769 0
-3765 -3770 0
-3761 -3786 0
-3762 -3787 0
-3763 -3788 0
-3764 -3789 0
-3765 -3790 0
-3761 -4076 0
-3762 -4077 0
-3763 -4078 0
-3764 -4079 0
-3765 -4080 0
-3761 -4216 0
-3762 -4217 0
-3763 -4218 0
-3764 -4219 0
-3765 -4220 0
-3761 -4221 0
-3762 -4222 0
-3763 -4223 0
-3764 -4224 0
-3765 -4225 0
-3761 -4276 0
-3762 -4277 0
-3763 -4278 0
-3764 -4279 0
-3765 -4280 0
-3761 -4326 0
-3762 -4327 0
-3763 -4328 0
-3764 -4329 0
-3765 -4330 0
-3761 -4491 0
-3762 -4492 0
-3763 -4493 0
-3764 -4494 0
-3765 -4495 0
-3766 -3876 0
-3767 -3877 0
-3768 -3878 0
-3769 -3879 0
-3770 -3880 0
-3766 -3901 0
-3767 -3902 0
-3768 -3903 0
-3769 -3904 0
-3770 -3905 0
-3766 -3976 0
-3767 -3977 0
-3768 -3978 0
-3769 -3979 0
-3770 -3980 0
-3766 -4226 0
-3767 -4227 0
-3768 -4228 0
-3769 -4229 0
-3770 -4230 0
-3766 -4231 0
-3767 -4232 0
-3768 -4233 0
-3769 -4234 0
-3770 -4235 0
-3766 -4326 0
-3767 -4327 0
-3768 -4328 0
-3769 -4329 0
-3770 -4330 0
-3766 -4361 0
-3767 -4362 0
-3768 -4363 0
-3769 -4364 0
-3770 -4365 0
-3766 -4496 0
-3767 -4497 0
-3768 -4498 0
-3769 -4499 0
-3770 -4500 0
-3771 -3776 0
-3772 -3777 0
-3773 -3778 0
-3774 -3779 0
-3775 -3780 0
-3771 -3811 0
-3772 -3812 0
-3773 -3813 0
-3774 -3814 0
-3775 -3815 0
-3771 -4001 0
-3772 -4002 0
-3773 -4003 0
-3774 -4004 0
-3775 -4005 0
-3771 -4176 0
-3772 -4177 0
-3773 -4178 0
-3774 -4179 0
-3775 -4180 0
-3771 -4281 0
-3772 -4282 0
-3773 -4283 0
-3774 -4284 0
-3775 -4285 0
-3771 -4416 0
-3772 -4417 0
-3773 -4418 0
-3774 -4419 0
-3775 -4420 0
-3771 -4621 0
-3772 -4622 0
-3773 -4623 0
-3774 -4624 0
-3775 -4625 0
-3776 -3781 0
-3777 -3782 0
-3778 -3783 0
-3779 -3784 0
-3780 -3785 0
-3776 -3961 0
-3777 -3962 0
-3778 -3963 0
-3779 -3964 0
-3780 -3965 0
-3776 -4181 0
-3777 -4182 0
-3778 -4183 0
-3779 -4184 0
-3780 -4185 0
-3776 -4286 0
-3777 -4287 0
-3778 -4288 0
-3779 -4289 0
-3780 -4290 0
-3776 -4326 0
-3777 -4327 0
-3778 -4328 0
-3779 -4329 0
-3780 -4330 0
-3776 -4416 0
-3777 -4417 0
-3778 -4418 0
-3779 -4419 0
-3780 -4420 0
-3776 -4421 0
-3777 -4422 0
-3778 -4423 0
-3779 -4424 0
-3780 -4425 0
-3776 -4636 0
-3777 -4637 0
-3778 -4638 0
-3779 -4639 0
-3780 -4640 0
-3781 -3806 0
-3782 -3807 0
-3783 -3808 0
-3784 -3809 0
-3785 -3810 0
-3781 -3956 0
-3782 -3957 0
-3783 -3958 0
-3784 -3959 0
-3785 -3960 0
-3781 -4191 0
-3782 -4192 0
-3783 -4193 0
-3784 -4194 0
-3785 -4195 0
-3781 -4326 0
-3782 -4327 0
-3783 -4328 0
-3784 -4329 0
-3785 -4330 0
-3781 -4356 0
-3782 -4357 0
-3783 -4358 0
-3784 -4359 0
-3785 -4360 0
-3781 -4426 0
-3782 -4427 0
-3783 -4428 0
-3784 -4429 0
-3785 -4430 0
-3781 -4431 0
-3782 -4432 0
-3783 -4433 0
-3784 -4434 0
-3785 -4435 0
-3786 -3791 0
-3787 -3792 0
-3788 -3793 0
-3789 -3794 0
-3790 -3795 0
-3786 -3796 0
-3787 -3797 0
-3788 -3798 0
-3789 -3799 0
-3790 -3800 0
-3786 -4281 0
-3787 -4282 0
-3788 -4283 0
-3789 -4284 0
-3790 -4285 0
-3786 -4511 0
-3787 -4512 0
-3788 -4513 0
-3789 -4514 0
-3790 -4515 0
-3786 -4581 0
-3787 -4582 0
-3788 -4583 0
-3789 -4584 0
-3790 -4585 0
-3786 -4591 0
-3787 -4592 0
-3788 -4593 0
-3789 -4594 0
-3790 -4595 0
-3786 -4731 0
-3787 -4732 0
-3788 -4733 0
-3789 -4734 0
-3790 -4735 0
-3791 -3866 0
-3792 -3867 0
-3793 -3868 0
-3794 -3869 0
-3795 -3870 0
-3791 -4516 0
-3792 -4517 0
-3793 -4518 0
-3794 -4519 0
-3795 -4520 0
-3791 -4521 0
-3792 -4522 0
-3793 -4523 0
-3794 -4524 0
-3795 -4525 0
-3791 -4601 0
-3792 -4602 0
-3793 -4603 0
-3794 -4604 0
-3795 -4605 0
-3796 -3841 0
-3797 -3842 0
-3798 -3843 0
-3799 -3844 0
-3800 -3845 0
-3796 -4031 0
-3797 -4032 0
-3798 -4033 0
-3799 -4034 0
-3800 -4035 0
-3796 -4116 0
-3797 -4117 0
-3798 -4118 0
-3799 -4119 0
-3800 -4120 0
-3796 -4566 0
-3797 -4567 0
-3798 -4568 0
-3799 -4569 0
-3800 -4570 0
-3796 -4616 0
-3797 -4617 0
-3798 -4618 0
-3799 -4619 0
-3800 -4620 0
-3796 -4641 0
-3797 -4642 0
-3798 -4643 0
-3799 -4644 0
-3800 -4645 0
-3796 -4811 0
-3797 -4812 0
-3798 -4813 0
-3799 -4814 0
-3800 -4815 0
-3801 -3806 0
-3802 -3807 0
-3803 -3808 0
-3804 -3809 0
-3805 -3810 0
-3801 -3816 0
-3802 -3817 0
-3803 -3818 0
-3804 -3819 0
-3805 -3820 0
-3801 -3821 0
-3802 -3822 0
-3803 -3823 0
-3804 -3824 0
-3805 -3825 0
-3801 -4141 0
-3802 -4142 0
-3803 -4143 0
-3804 -4144 0
-3805 -4145 0
-3801 -4211 0
-3802 -4212 0
-3803 -4213 0
-3804 -4214 0
-3805 -4215 0
-3801 -4506 0
-3802 -4507 0
-3803 -4508 0
-3804 -4509 0
-3805 -4510 0
-3801 -4646 0
-3802 -4647 0
-3803 -4648 0
-3804 -4649 0
-3805 -4650 0
-3801 -4681 0
-3802 -4682 0
-3803 -4683 0
-3804 -4684 0
-3805 -4685 0
-3801 -4686 0
-3802 -4687 0
-3803 -4688 0
-3804 -4689 0
-3805 -4690 0
-3801 -4936 0
-3802 -4937 0
-3803 -4938 0
-3804 -4939 0
-3805 -4940 0
-3806 -3921 0
-3807 -3922 0
-3808 -3923 0
-3809 -3924 0
-3810 -3925 0
-3806 -3981 0
-3807 -3982 0
-3808 -3983 0
-3809 -3984 0
-3810 -3985 0
-3806 -4086 0
-3807 -4087 0
-3808 -4088 0
-3809 -4089 0
-3810 -4090 0
-3806 -4521 0
-3807 -4522 0
-3808 -4523 0
-3809 -4524 0
-3810 -4525 0
-3806 -4526 0
-3807 -4527 0
-3808 -4528 0
-3809 -4529 0
-3810 -4530 0
-3806 -4651 0
-3807 -4652 0
-3808 -4653 0
-3809 -4654 0
-3810 -4655 0
-3806 -4691 0
-3807 -4692 0
-3808 -4693 0
-3809 -4694 0
-3810 -4695 0
-3811 -3816 0
-3812 -3817 0
-3813 -3818 0
-3814 -3819 0
-3815 -3820 0
-3811 -3991 0
-3812 -3992 0
-3813 -3993 0
-3814 -3994 0
-3815 -3995 0
-3811 -4251 0
-3812 -4252 0
-3813 -4253 0
-3814 -4254 0
-3815 -4255 0
-3811 -4586 0
-3812 -4587 0
-3813 -4588 0
-3814 -4589 0
-3815 -4590 0
-3811 -4696 0
-3812 -4697 0
-3813 -4698 0
-3814 -4699 0
-3815 -4700 0
-3811 -4741 0
-3812 -4742 0
-3813 -4743 0
-3814 -4744 0
-3815 -4745 0
-3811 -4746 0
-3812 -4747 0
-3813 -4748 0
-3814 -4749 0
-3815 -4750 0
-3816 -3821 0
-3817 -3822 0
-3818 -3823 0
-3819 -3824 0
-3820 -3825 0
-3816 -3826 0
-3817 -3827 0
-3818 -3828 0
-3819 -3829 0
-3820 -3830 0
-3816 -3906 0
-3817 -3907 0
-3818 -3908 0
-3819 -3909 0
-3820 -3910 0
-3816 -4326 0
-3817 -4327 0
-3818 -4328 0
-3819 -4329 0
-3820 -4330 0
-3816 -4606 0
-3817 -4607 0
-3818 -4608 0
-3819 -4609 0
-3820 -4610 0
-3816 -4701 0
-3817 -4702 0
-3818 -4703 0
-3819 -4704 0
-3820 -4705 0
-3816 -4721 0
-3817 -4722 0
-3818 -4723 0
-3819 -4724 0
-3820 -4725 0
-3816 -4826 0
-3817 -4827 0
-3818 -4828 0
-3819 -4829 0
-3820 -4830 0
-3816 -4841 0
-3817 -4842 0
-3818 -4843 0
-3819 -4844 0
-3820 -4845 0
-3816 -5076 0
-3817 -5077 0
-3818 -5078 0
-3819 -5079 0
-3820 -5080 0
-3821 -3911 0
-3822 -3912 0
-3823 -3913 0
-3824 -3914 0
-3825 -3915 0
-3821 -4016 0
-3822 -4017 0
-3823 -4018 0
-3824 -4019 0
-3825 -4020 0
-3821 -4186 0
-3822 -4187 0
-3823 -4188 0
-3824 -4189 0
-3825 -4190 0
-3821 -4346 0
-3822 -4347 0
-3823 -4348 0
-3824 -4349 0
-3825 -4350 0
-3821 -4711 0
-3822 -4712 0
-3823 -4713 0
-3824 -4714 0
-3825 -4715 0
-3821 -4726 0
-3822 -4727 0
-3823 -4728 0
-3824 -4729 0
-3825 -4730 0
-3821 -4831 0
-3822 -4832 0
-3823 -4833 0
-3824 -4834 0
-3825 -4835 0
-3821 -4846 0
-3822 -4847 0
-3823 -4848 0
-3824 -4849 0
-3825 -4850 0
-3826 -3861 0
-3827 -3862 0
-3828 -3863 0
-3829 -3864 0
-3830 -3865 0
-3826 -4031 0
-3827 -4032 0
-3828 -4033 0
-3829 -4034 0
-3830 -4035 0
-3826 -4361 0
-3827 -4362 0
-3828 -4363 0
-3829 -4364 0
-3830 -4365 0
-3826 -4851 0
-3827 -4852 0
-3828 -4853 0
-3829 -4854 0
-3830 -4855 0
-3826 -4856 0
-3827 -4857 0
-3828 -4858 0
-3829 -4859 0
-3830 -4860 0
-3831 -3836 0
-3832 -3837 0
-3833 -3838 0
-3834 -3839 0
-3835 -3840 0
-3831 -3846 0
-3832 -3847 0
-3833 -3848 0
-3834 -3849 0
-3835 -3850 0
-3831 -4711 0
-3832 -4712 0
-3833 -4713 0
-3834 -4714 0
-3835 -4715 0
-3831 -4906 0
-3832 -4907 0
-3833 -4908 0
-3834 -4909 0
-3835 -4910 0
-3831 -4921 0
-3832 -4922 0
-3833 -4923 0
-3834 -4924 0
-3835 -4925 0
-3836 -3851 0
-3837 -3852 0
-3838 -3853 0
-3839 -3854 0
-3840 -3855 0
-3836 -3856 0
-3837 -3857 0
-3838 -3858 0
-3839 -3859 0
-3840 -3860 0
-3836 -3861 0
-3837 -3862 0
-3838 -3863 0
-3839 -3864 0
-3840 -3865 0
-3836 -4076 0
-3837 -4077 0
-3838 -4078 0
-3839 -4079 0
-3840 -4080 0
-3836 -4266 0
-3837 -4267 0
-3838 -4268 0
-3839 -4269 0
-3840 -4270 0
-3836 -4301 0
-3837 -4302 0
-3838 -4303 0
-3839 -4304 0
-3840 -4305 0
-3836 -4926 0
-3837 -4927 0
-3838 -4928 0
-3839 -4929 0
-3840 -4930 0
-3841 -3856 0
-3842 -3857 0
-3843 -3858 0
-3844 -3859 0
-3845 -3860 0
-3841 -4306 0
-3842 -4307 0
-3843 -4308 0
-3844 -4309 0
-3845 -4310 0
-3841 -4946 0
-3842 -4947 0
-3843 -4948 0
-3844 -4949 0
-3845 -4950 0
-3841 -4966 0
-3842 -4967 0
-3843 -4968 0
-3844 -4969 0
-3845 -4970 0
-3841 -5206 0
-3842 -5207 0
-3843 -5208 0
-3844 -5209 0
-3845 -5210 0
-3846 -3856 0
-3847 -3857 0
-3848 -3858 0
-3849 -3859 0
-3850 -3860 0
-3846 -3901 0
-3847 -3902 0
-3848 -3903 0
-3849 -3904 0
-3850 -3905 0
-3846 -4001 0
-3847 -4002 0
-3848 -4003 0
-3849 -4004 0
-3850 -4005 0
-3846 -4311 0
-3847 -4312 0
-3848 -4313 0
-3849 -4314 0
-3850 -4315 0
-3846 -4371 0
-3847 -4372 0
-3848 -4373 0
-3849 -4374 0
-3850 -4375 0
-3846 -4951 0
-3847 -4952 0
-3848 -4953 0
-3849 -4954 0
-3850 -4955 0
-3846 -4976 0
-3847 -4977 0
-3848 -4978 0
-3849 -4979 0
-3850 -4980 0
-3851 -3856 0
-3852 -3857 0
-3853 -3858 0
-3854 -3859 0
-3855 -3860 0
-3851 -3866 0
-3852 -3867 0
-3853 -3868 0
-3854 -3869 0
-3855 -3870 0
-3851 -3876 0
-3852 -3877 0
-3853 -3878 0
-3854 -3879 0
-3855 -3880 0
-3851 -4011 0
-3852 -4012 0
-3853 -4013 0
-3854 -4014 0
-3855 -4015 0
-3851 -4111 0
-3852 -4112 0
-3853 -4113 0
-3854 -4114 0
-3855 -4115 0
-3851 -4321 0
-3852 -4322 0
-3853 -4323 0
-3854 -4324 0
-3855 -4325 0
-3851 -4451 0
-3852 -4452 0
-3853 -4453 0
-3854 -4454 0
-3855 -4455 0
-3851 -4981 0
-3852 -4982 0
-3853 -4983 0
-3854 -4984 0
-3855 -4985 0
-3856 -3871 0
-3857 -3872 0
-3858 -3873 0
-3859 -3874 0
-3860 -3875 0
-3856 -3881 0
-3857 -3882 0
-3858 -3883 0
-3859 -3884 0
-3860 -3885 0
-3856 -3971 0
-3857 -3972 0
-3858 -3973 0
-3859 -3974 0
-3860 -3975 0
-3856 -4166 0
-3857 -4167 0
-3858 -4168 0
-3859 -4169 0
-3860 -4170 0
-3856 -4326 0
-3857 -4327 0
-3858 -4328 0
-3859 -4329 0
-3860 -4330 0
-3856 -4456 0
-3857 -4457 0
-3858 -4458 0
-3859 -4459 0
-3860 -4460 0
-3856 -4956 0
-3857 -4957 0
-3858 -4958 0
-3859 -4959 0
-3860 -4960 0
-3856 -4986 0
-3857 -4987 0
-3858 -4988 0
-3859 -4989 0
-3860 -4990 0
-3861 -3866 0
-3862 -3867 0
-3863 -3868 0
-3864 -3869 0
-3865 -3870 0
-3861 -3871 0
-3862 -3872 0
-3863 -3873 0
-3864 -3874 0
-3865 -3875 0
-3861 -4116 0
-3862 -4117 0
-3863 -4118 0
-3864 -4119 0
-3865 -4120 0
-3861 -4476 0
-3862 -4477 0
-3863 -4478 0
-3864 -4479 0
-3865 -4480 0
-3861 -5011 0
-3862 -5012 0
-3863 -5013 0
-3864 -5014 0
-3865 -5015 0
-3861 -5251 0
-3862 -5252 0
-3863 -5253 0
-3864 -5254 0
-3865 -5255 0
-3866 -3871 0
-3867 -3872 0
-3868 -3873 0
-3869 -3874 0
-3870 -3875 0
-3866 -3876 0
-3867 -3877 0
-3868 -3878 0
-3869 -3879 0
-3870 -3880 0
-3866 -3886 0
-3867 -3887 0
-3868 -3888 0
-3869 -3889 0
-3870 -3890 0
-3866 -3891 0
-3867 -3892 0
-3868 -3893 0
-3869 -3894 0
-3870 -3895 0
-3866 -3961 0
-3867 -3962 0
-3868 -3963 0
-3869 -3964 0
-3870 -3965 0
-3866 -3986 0
-3867 -3987 0
-3868 -3988 0
-3869 -3989 0
-3870 -3990 0
-3866 -4151 0
-3867 -4152 0
-3868 -4153 0
-3869 -4154 0
-3870 -4155 0
-3866 -4756 0
-3867 -4757 0
-3868 -4758 0
-3869 -4759 0
-3870 -4760 0
-3866 -4891 0
-3867 -4892 0
-3868 -4893 0
-3869 -4894 0
-3870 -4895 0
-3866 -4901 0
-3867 -4902 0
-3868 -4903 0
-3869 -4904 0
-3870 -4905 0
-3866 -5021 0
-3867 -5022 0
-3868 -5023 0
-3869 -5024 0
-3870 -5025 0
-3866 -5071 0
-3867 -5072 0
-3868 -5073 0
-3869 -5074 0
-3870 -5075 0
-3866 -5301 0
-3867 -5302 0
-3868 -5303 0
-3869 -5304 0
-3870 -5305 0
-3871 -3881 0
-3872 -3882 0
-3873 -3883 0
-3874 -3884 0
-3875 -3885 0
-3871 -4186 0
-3872 -4187 0
-3873 -4188 0
-3874 -4189 0
-3875 -4190 0
-3871 -4391 0
-3872 -4392 0
-3873 -4393 0
-3874 -4394 0
-3875 -4395 0
-3871 -4761 0
-3872 -4762 0
-3873 -4763 0
-3874 -4764 0
-3875 -4765 0
-3871 -5016 0
-3872 -5017 0
-3873 -5018 0
-3874 -5019 0
-3875 -5020 0
-3871 -5026 0
-3872 -5027 0
-3873 -5028 0
-3874 -5029 0
-3875 -5030 0
-3871 -5306 0
-3872 -5307 0
-3873 -5308 0
-3874 -5309 0
-3875 -5310 0
-3876 -3881 0
-3877 -3882 0
-3878 -3883 0
-3879 -3884 0
-3880 -3885 0
-3876 -3916 0
-3877 -3917 0
-3878 -3918 0
-3879 -3919 0
-3880 -3920 0
-3876 -3966 0
-3877 -3967 0
-3878 -3968 0
-3879 -3969 0
-3880 -3970 0
-3876 -4161 0
-3877 -4162 0
-3878 -4163 0
-3879 -4164 0
-3880 -4165 0
-3876 -4296 0
-3877 -4297 0
-3878 -4298 0
-3879 -4299 0
-3880 -4300 0
-3876 -4496 0
-3877 -4497 0
-3878 -4498 0
-3879 -4499 0
-3880 -4500 0
-3876 -4501 0
-3877 -4502 0
-3878 -4503 0
-3879 -4504 0
-3880 -4505 0
-3876 -4766 0
-3877 -4767 0
-3878 -4768 0
-3879 -4769 0
-3880 -4770 0
-3876 -5031 0
-3877 -5032 0
-3878 -5033 0
-3879 -5034 0
-3880 -5035 0
-3876 -5076 0
-3877 -5077 0
-3878 -5078 0
-3879 -5079 0
-3880 -5080 0
-3881 -4041 0
-3882 -4042 0
-3883 -4043 0
-3884 -4044 0
-3885 -4045 0
-3881 -4396 0
-3882 -4397 0
-3883 -4398 0
-3884 -4399 0
-3885 -4400 0
-3881 -4506 0
-3882 -4507 0
-3883 -4508 0
-3884 -4509 0
-3885 -4510 0
-3881 -4771 0
-3882 -4772 0
-3883 -4773 0
-3884 -4774 0
-3885 -4775 0
-3881 -5036 0
-3882 -5037 0
-3883 -5038 0
-3884 -5039 0
-3885 -5040 0
-3881 -5081 0
-3882 -5082 0
-3883 -5083 0
-3884 -5084 0
-3885 -5085 0
-3886 -4156 0
-3887 -4157 0
-3888 -4158 0
-3889 -4159 0
-3890 -4160 0
-3886 -4326 0
-3887 -4327 0
-3888 -4328 0
-3889 -4329 0
-3890 -4330 0
-3886 -4781 0
-3887 -4782 0
-3888 -4783 0
-3889 -4784 0
-3890 -4785 0
-3886 -4896 0
-3887 -4897 0
-3888 -4898 0
-3889 -4899 0
-3890 -4900 0
-3886 -5021 0
-3887 -5022 0
-3888 -5023 0
-3889 -5024 0
-3890 -5025 0
-3886 -5086 0
-3887 -5087 0
-3888 -5088 0
-3889 -5089 0
-3890 -5090 0
-3891 -3936 0
-3892 -3937 0
-3893 -3938 0
-3894 -3939 0
-3895 -3940 0
-3891 -4006 0
-3892 -4007 0
-3893 -4008 0
-3894 -4009 0
-3895 -4010 0
-3891 -4036 0
-3892 -4037 0
-3893 -4038 0
-3894 -4039 0
-3895 -4040 0
-3891 -4401 0
-3892 -4402 0
-3893 -4403 0
-3894 -4404 0
-3895 -4405 0
-3891 -4866 0
-3892 -4867 0
-3893 -4868 0
-3894 -4869 0
-3895 -4870 0
-3891 -4996 0
-3892 -4997 0
-3893 -4998 0
-3894 -4999 0
-3895 -5000 0
-3891 -5056 0
-3892 -5057 0
-3893 -5058 0
-3894 -5059 0
-3895 -5060 0
-3896 -3901 0
-3897 -3902 0
-3898 -3903 0
-3899 -3904 0
-3900 -3905 0
-3896 -5106 0
-3897 -5107 0
-3898 -5108 0
-3899 -5109 0
-3900 -5110 0
-3896 -5121 0
-3897 -5122 0
-3898 -5123 0
-3899 -5124 0
-3900 -5125 0
-3896 -5186 0
-3897 -5187 0
-3898 -5188 0
-3899 -5189 0
-3900 -5190 0
-3896 -5391 0
-3897 -5392 0
-3898 -5393 0
-3899 -5394 0
-3900 -5395 0
-3901 -4296 0
-3902 -4297 0
-3903 -4298 0
-3904 -4299 0
-3905 -4300 0
-3901 -4646 0
-3902 -4647 0
-3903 -4648 0
-3904 -4649 0
-3905 -4650 0
-3901 -5111 0
-3902 -5112 0
-3903 -5113 0
-3904 -5114 0
-3905 -5115 0
-3901 -5126 0
-3902 -5127 0
-3903 -5128 0
-3904 -5129 0
-3905 -5130 0
-3901 -5196 0
-3902 -5197 0
-3903 -5198 0
-3904 -5199 0
-3905 -5200 0
-3906 -3911 0
-3907 -3912 0
-3908 -3913 0
-3909 -3914 0
-3910 -3915 0
-3906 -4651 0
-3907 -4652 0
-3908 -4653 0
-3909 -4654 0
-3910 -4655 0
-3906 -5136 0
-3907 -5137 0
-3908 -5138 0
-3909 -5139 0
-3910 -5140 0
-3906 -5231 0
-3907 -5232 0
-3908 -5233 0
-3909 -5234 0
-3910 -5235 0
-3906 -5441 0
-3907 -5442 0
-3908 -5443 0
-3909 -5444 0
-3910 -5445 0
-3911 -3916 0
-3912 -3917 0
-3913 -3918 0
-3914 -3919 0
-3915 -3920 0
-3911 -3921 0
-3912 -3922 0
-3913 -3923 0
-3914 -3924 0
-3915 -3925 0
-3911 -3941 0
-3912 -3942 0
-3913 -3943 0
-3914 -3944 0
-3915 -3945 0
-3911 -4016 0
-3912 -4017 0
-3913 -4018 0
-3914 -4019 0
-3915 -4020 0
-3911 -4061 0
-3912 -4062 0
-3913 -4063 0
-3914 -4064 0
-3915 -4065 0
-3911 -4516 0
-3912 -4517 0
-3913 -4518 0
-3914 -4519 0
-3915 -4520 0
-3911 -4906 0
-3912 -4907 0
-3913 -4908 0
-3914 -4909 0
-3915 -4910 0
-3911 -5146 0
-3912 -5147 0
-3913 -5148 0
-3914 -5149 0
-3915 -5150 0
-3911 -5246 0
-3912 -5247 0
-3913 -5248 0
-3914 -5249 0
-3915 -5250 0
-3916 -3926 0
-3917 -3927 0
-3918 -3928 0
-3919 -3929 0
-3920 -3930 0
-3916 -3941 0
-3917 -3942 0
-3918 -3943 0
-3919 -3944 0
-3920 -3945 0
-3916 -4021 0
-3917 -4022 0
-3918 -4023 0
-3919 -4024 0
-3920 -4025 0
-3916 -4216 0
-3917 -4217 0
-3918 -4218 0
-3919 -4219 0
-3920 -4220 0
-3916 -4236 0
-3917 -4237 0
-3918 -4238 0
-3919 -4239 0
-3920 -4240 0
-3916 -4501 0
-3917 -4502 0
-3918 -4503 0
-3919 -4504 0
-3920 -4505 0
-3916 -5151 0
-3917 -5152 0
-3918 -5153 0
-3919 -5154 0
-3920 -5155 0
-3916 -5211 0
-3917 -5212 0
-3918 -5213 0
-3919 -5214 0
-3920 -5215 0
-3916 -5251 0
-3917 -5252 0
-3918 -5253 0
-3919 -5254 0
-3920 -5255 0
-3921 -3926 0
-3922 -3927 0
-3923 -3928 0
-3924 -3929 0
-3925 -3930 0
-3921 -3951 0
-3922 -3952 0
-3923 -3953 0
-3924 -3954 0
-3925 -3955 0
-3921 -4026 0
-3922 -4027 0
-3923 -4028 0
-3924 -4029 0
-3925 -4030 0
-3921 -4131 0
-3922 -4132 0
-3923 -4133 0
-3924 -4134 0
-3925 -4135 0
-3921 -4241 0
-3922 -4242 0
-3923 -4243 0
-3924 -4244 0
-3925 -4245 0
-3921 -4521 0
-3922 -4522 0
-3923 -4523 0
-3924 -4524 0
-3925 -4525 0
-3921 -4921 0
-3922 -4922 0
-3923 -4923 0
-3924 -4924 0
-3925 -4925 0
-3921 -5146 0
-3922 -5147 0
-3923 -5148 0
-3924 -5149 0
-3925 -5150 0
-3921 -5266 0
-3922 -5267 0
-3923 -5268 0
-3924 -5269 0
-3925 -5270 0
-3926 -3951 0
-3927 -3952 0
-3928 -3953 0
-3929 -3954 0
-3930 -3955 0
-3926 -3986 0
-3927 -3987 0
-3928 -3988 0
-3929 -3989 0
-3930 -3990 0
-3926 -4221 0
-3927 -4222 0
-3928 -4223 0
-3929 -4224 0
-3930 -4225 0
-3926 -4246 0
-3927 -4247 0
-3928 -4248 0
-3929 -4249 0
-3930 -4250 0
-3926 -4461 0
-3927 -4462 0
-3928 -4463 0
-3929 -4464 0
-3930 -4465 0
-3926 -4926 0
-3927 -4927 0
-3928 -4928 0
-3929 -4929 0
-3930 -4930 0
-3926 -5151 0
-3927 -5152 0
-3928 -5153 0
-3929 -5154 0
-3930 -5155 0
-3926 -5216 0
-3927 -5217 0
-3928 -5218 0
-3929 -5219 0
-3930 -5220 0
-3926 -5271 0
-3927 -5272 0
-3928 -5273 0
-3929 -5274 0
-3930 -5275 0
-3931 -3946 0
-3932 -3947 0
-3933 -3948 0
-3934 -3949 0
-3935 -3950 0
-3931 -3951 0
-3932 -3952 0
-3933 -3953 0
-3934 -3954 0
-3935 -3955 0
-3931 -4001 0
-3932 -4002 0
-3933 -4003 0
-3934 -4004 0
-3935 -4005 0
-3931 -4251 0
-3932 -4252 0
-3933 -4253 0
-3934 -4254 0
-3935 -4255 0
-3931 -4541 0
-3932 -4542 0
-3933 -4543 0
-3934 -4544 0
-3935 -4545 0
-3931 -4986 0
-3932 -4987 0
-3933 -4988 0
-3934 -4989 0
-3935 -4990 0
-3936 -3941 0
-3937 -3942 0
-3938 -3943 0
-3939 -3944 0
-3940 -3945 0
-3936 -3946 0
-3937 -3947 0
-3938 -3948 0
-3939 -3949 0
-3940 -3950 0
-3936 -4091 0
-3937 -4092 0
-3938 -4093 0
-3939 -4094 0
-3940 -4095 0
-3936 -4121 0
-3937 -4122 0
-3938 -4123 0
-3939 -4124 0
-3940 -4125 0
-3936 -4291 0
-3937 -4292 0
-3938 -4293 0
-3939 -4294 0
-3940 -4295 0
-3936 -5016 0
-3937 -5017 0
-3938 -5018 0
-3939 -5019 0
-3940 -5020 0
-3936 -5106 0
-3937 -5107 0
-3938 -5108 0
-3939 -5109 0
-3940 -5110 0
-3936 -5161 0
-3937 -5162 0
-3938 -5163 0
-3939 -5164 0
-3940 -5165 0
-3941 -3951 0
-3942 -3952 0
-3943 -3953 0
-3944 -3954 0
-3945 -3955 0
-3941 -4096 0
-3942 -4097 0
-3943 -4098 0
-3944 -4099 0
-3945 -4100 0
-3941 -4551 0
-3942 -4552 0
-3943 -4553 0
-3944 -4554 0
-3945 -4555 0
-3941 -4671 0
-3942 -4672 0
-3943 -4673 0
-3944 -4674 0
-3945 -4675 0
-3941 -4681 0
-3942 -4682 0
-3943 -4683 0
-3944 -4684 0
-3945 -4685 0
-3941 -5111 0
-3942 -5112 0
-3943 -5113 0
-3944 -5114 0
-3945 -5115 0
-3941 -5166 0
-3942 -5167 0
-3943 -5168 0
-3944 -5169 0
-3945 -5170 0
-3941 -5326 0
-3942 -5327 0
-3943 -5328 0
-3944 -5329 0
-3945 -5330 0
-3941 -5336 0
-3942 -5337 0
-3943 -5338 0
-3944 -5339 0
-3945 -5340 0
-3946 -3951 0
-3947 -3952 0
-3948 -3953 0
-3949 -3954 0
-3950 -3955 0
-3946 -3961 0
-3947 -3962 0
-3948 -3963 0
-3949 -3964 0
-3950 -3965 0
-3946 -4136 0
-3947 -4137 0
-3948 -4138 0
-3949 -4139 0
-3950 -4140 0
-3946 -4316 0
-3947 -4317 0
-3948 -4318 0
-3949 -4319 0
-3950 -4320 0
-3946 -4426 0
-3947 -4427 0
-3948 -4428 0
-3949 -4429 0
-3950 -4430 0
-3946 -4531 0
-3947 -4532 0
-3948 -4533 0
-3949 -4534 0
-3950 -4535 0
-3946 -5026 0
-3947 -5027 0
-3948 -5028 0
-3949 -5029 0
-3950 -5030 0
-3946 -5121 0
-3947 -5122 0
-3948 -5123 0
-3949 -5124 0
-3950 -5125 0
-3946 -5131 0
-3947 -5132 0
-3948 -5133 0
-3949 -5134 0
-3950 -5135 0
-3946 -5161 0
-3947 -5162 0
-3948 -5163 0
-3949 -5164 0
-3950 -5165 0
-3946 -5171 0
-3947 -5172 0
-3948 -5173 0
-3949 -5174 0
-3950 -5175 0
-3946 -5551 0
-3947 -5552 0
-3948 -5553 0
-3949 -5554 0
-3950 -5555 0
-3951 -3966 0
-3952 -3967 0
-3953 -3968 0
-3954 -3969 0
-3955 -3970 0
-3951 -4036 0
-3952 -4037 0
-3953 -4038 0
-3954 -4039 0
-3955 -4040 0
-3951 -4101 0
-3952 -4102 0
-3953 -4103 0
-3954 -4104 0
-3955 -4105 0
-3951 -4326 0
-3952 -4327 0
-3953 -4328 0
-3954 -4329 0
-3955 -4330 0
-3951 -4561 0
-3952 -4562 0
-3953 -4563 0
-3954 -4564 0
-3955 -4565 0
-3951 -4571 0
-3952 -4572 0
-3953 -4573 0
-3954 -4574 0
-3955 -4575 0
-3951 -4686 0
-3952 -4687 0
-3953 -4688 0
-3954 -4689 0
-3955 -4690 0
-3951 -5036 0
-3952 -5037 0
-3953 -5038 0
-3954 -5039 0
-3955 -5040 0
-3951 -5041 0
-3952 -5042 0
-3953 -5043 0
-3954 -5044 0
-3955 -5045 0
-3951 -5126 0
-3952 -5127 0
-3953 -5128 0
-3954 -5129 0
-3955 -5130 0
-3951 -5166 0
-3952 -5167 0
-3953 -5168 0
-3954 -5169 0
-3955 -5170 0
-3951 -5176 0
-3952 -5177 0
-3953 -5178 0
-3954 -5179 0
-3955 -5180 0
-3951 -5331 0
-3952 -5332 0
-3953 -5333 0
-3954 -5334 0
-3955 -5335 0
-3951 -5341 0
-3952 -5342 0
-3953 -5343 0
-3954 -5344 0
-3955 -5345 0
-3956 -4086 0
-3957 -4087 0
-3958 -4088 0
-3959 -4089 0
-3960 -4090 0
-3956 -5081 0
-3957 -5082 0
-3958 -5083 0
-3959 -5084 0
-3960 -5085 0
-3956 -5196 0
-3957 -5197 0
-3958 -5198 0
-3959 -5199 0
-3960 -5200 0
-3956 -5326 0
-3957 -5327 0
-3958 -5328 0
-3959 -5329 0
-3960 -5330 0
-3956 -5331 0
-3957 -5332 0
-3958 -5333 0
-3959 -5334 0
-3960 -5335 0
-3961 -3966 0
-3962 -3967 0
-3963 -3968 0
-3964 -3969 0
-3965 -3970 0
-3961 -4151 0
-3962 -4152 0
-3963 -4153 0
-3964 -4154 0
-3965 -4155 0
-3961 -4181 0
-3962 -4182 0
-3963 -4183 0
-3964 -4184 0
-3965 -4185 0
-3961 -4616 0
-3962 -4617 0
-3963 -4618 0
-3964 -4619 0
-3965 -4620 0
-3961 -4816 0
-3962 -4817 0
-3963 -4818 0
-3964 -4819 0
-3965 -4820 0
-3961 -4836 0
-3962 -4837 0
-3963 -4838 0
-3964 -4839 0
-3965 -4840 0
-3961 -5276 0
-3962 -5277 0
-3963 -5278 0
-3964 -5279 0
-3965 -5280 0
-3961 -5296 0
-3962 -5297 0
-3963 -5298 0
-3964 -5299 0
-3965 -5300 0
-3961 -5346 0
-3962 -5347 0
-3963 -5348 0
-3964 -5349 0
-3965 -5350 0
-3961 -5626 0
-3962 -5627 0
-3963 -5628 0
-3964 -5629 0
-3965 -5630 0
-3966 -4021 0
-3967 -4022 0
-3968 -4023 0
-3969 -4024 0
-3970 -4025 0
-3966 -4441 0
-3967 -4442 0
-3968 -4443 0
-3969 -4444 0
-3970 -4445 0
-3966 -4821 0
-3967 -4822 0
-3968 -4823 0
-3969 -4824 0
-3970 -4825 0
-3966 -4841 0
-3967 -4842 0
-3968 -4843 0
-3969 -4844 0
-3970 -4845 0
-3971 -4481 0
-3972 -4482 0
-3973 -4483 0
-3974 -4484 0
-3975 -4485 0
-3971 -4651 0
-3972 -4652 0
-3973 -4653 0
-3974 -4654 0
-3975 -4655 0
-3971 -5356 0
-3972 -5357 0
-3973 -5358 0
-3974 -5359 0
-3975 -5360 0
-3971 -5376 0
-3972 -5377 0
-3973 -5378 0
-3974 -5379 0
-3975 -5380 0
-3971 -5391 0
-3972 -5392 0
-3973 -5393 0
-3974 -5394 0
-3975 -5395 0
-3976 -3986 0
-3977 -3987 0
-3978 -3988 0
-3979 -3989 0
-3980 -3990 0
-3976 -4126 0
-3977 -4127 0
-3978 -4128 0
-3979 -4129 0
-3980 -4130 0
-3976 -4501 0
-3977 -4502 0
-3978 -4503 0
-3979 -4504 0
-3980 -4505 0
-3976 -4646 0
-3977 -4647 0
-3978 -4648 0
-3979 -4649 0
-3980 -4650 0
-3976 -5411 0
-3977 -5412 0
-3978 -5413 0
-3979 -5414 0
-3980 -5415 0
-3976 -5661 0
-3977 -5662 0
-3978 -5663 0
-3979 -5664 0
-3980 -5665 0
-3981 -4006 0
-3982 -4007 0
-3983 -4008 0
-3984 -4009 0
-3985 -4010 0
-3981 -4241 0
-3982 -4242 0
-3983 -4243 0
-3984 -4244 0
-3985 -4245 0
-3981 -5181 0
-3982 -5182 0
-3983 -5183 0
-3984 -5184 0
-3985 -5185 0
-3981 -5431 0
-3982 -5432 0
-3983 -5433 0
-3984 -5434 0
-3985 -5435 0
-3981 -5456 0
-3982 -5457 0
-3983 -5458 0
-3984 -5459 0
-3985 -5460 0
-3986 -4036 0
-3987 -4037 0
-3988 -4038 0
-3989 -4039 0
-3990 -4040 0
-3986 -4041 0
-3987 -4042 0
-3988 -4043 0
-3989 -4044 0
-3990 -4045 0
-3986 -4181 0
-3987 -4182 0
-3988 -4183 0
-3989 -4184 0
-3990 -4185 0
-3986 -4246 0
-3987 -4247 0
-3988 -4248 0
-3989 -4249 0
-3990 -4250 0
-3986 -4511 0
-3987 -4512 0
-3988 -4513 0
-3989 -4514 0
-3990 -4515 0
-3986 -4711 0
-3987 -4712 0
-3988 -4713 0
-3989 -4714 0
-3990 -4715 0
-3986 -5221 0
-3987 -5222 0
-3988 -5223 0
-3989 -5224 0
-3990 -5225 0
-3986 -5491 0
-3987 -5492 0
-3988 -5493 0
-3989 -5494 0
-3990 -5495 0
-3986 -5596 0
-3987 -5597 0
-3988 -5598 0
-3989 -5599 0
-3990 -5600 0
-3991 -4006 0
-3992 -4007 0
-3993 -4008 0
-3994 -4009 0
-3995 -4010 0
-3991 -4051 0
-3992 -4052 0
-3993 -4053 0
-3994 -4054 0
-3995 -4055 0
-3991 -4196 0
-3992 -4197 0
-3993 -4198 0
-3994 -4199 0
-3995 -4200 0
-3991 -4271 0
-3992 -4272 0
-3993 -4273 0
-3994 -4274 0
-3995 -4275 0
-3991 -5496 0
-3992 -5497 0
-3993 -5498 0
-3994 -5499 0
-3995 -5500 0
-3991 -5506 0
-3992 -5507 0
-3993 -5508 0
-3994 -5509 0
-3995 -5510 0
-3991 -5776 0
-3992 -5777 0
-3993 -5778 0
-3994 -5779 0
-3995 -5780 0
-3996 -4001 0
-3997 -4002 0
-3998 -4003 0
-3999 -4004 0
-4000 -4005 0
-3996 -4006 0
-3997 -4007 0
-3998 -4008 0
-3999 -4009 0
-4000 -4010 0
-3996 -4031 0
-3997 -4032 0
-3998 -4033 0
-3999 -4034 0
-4000 -4035 0
-3996 -4286 0
-3997 -4287 0
-3998 -4288 0
-3999 -4289 0
-4000 -4290 0
-3996 -4611 0
-3997 -4612 0
-3998 -4613 0
-3999 -4614 0
-4000 -4615 0
-3996 -5276 0
-3997 -5277 0
-3998 -5278 0
-3999 -5279 0
-4000 -5280 0
-3996 -5386 0
-3997 -5387 0
-3998 -5388 0
-3999 -5389 0
-4000 -5390 0
-3996 -5521 0
-3997 -5522 0
-3998 -5523 0
-3999 -5524 0
-4000 -5525 0
-3996 -5781 0
-3997 -5782 0
-3998 -5783 0
-3999 -5784 0
-4000 -5785 0
-4001 -4011 0
-4002 -4012 0
-4003 -4013 0
-4004 -4014 0
-4005 -4015 0
-4001 -4036 0
-4002 -4037 0
-4003 -4038 0
-4004 -4039 0
-4005 -4040 0
-4001 -4251 0
-4002 -4252 0
-4003 -4253 0
-4004 -4254 0
-4005 -4255 0
-4001 -4621 0
-4002 -4622 0
-4003 -4623 0
-4004 -4624 0
-4005 -4625 0
-4001 -4776 0
-4002 -4777 0
-4003 -4778 0
-4004 -4779 0
-4005 -4780 0
-4001 -4806 0
-4002 -4807 0
-4003 -4808 0
-4004 -4809 0
-4005 -4810 0
-4001 -5286 0
-4002 -5287 0
-4003 -5288 0
-4004 -5289 0
-4005 -5290 0
-4001 -5391 0
-4002 -5392 0
-4003 -5393 0
-4004 -5394 0
-4005 -5395 0
-4001 -5526 0
-4002 -5527 0
-4003 -5528 0
-4004 -5529 0
-4005 -5530 0
-4006 -4011 0
-4007 -4012 0
-4008 -4013 0
-4009 -4014 0
-4010 -4015 0
-4006 -4056 0
-4007 -4057 0
-4008 -4058 0
-4009 -4059 0
-4010 -4060 0
-4006 -4091 0
-4007 -4092 0
-4008 -4093 0
-4009 -4094 0
-4010 -4095 0
-4006 -4326 0
-4007 -4327 0
-4008 -4328 0
-4009 -4329 0
-4010 -4330 0
-4006 -5296 0
-4007 -5297 0
-4008 -5298 0
-4009 -5299 0
-4010 -5300 0
-4006 -5386 0
-4007 -5387 0
-4008 -5388 0
-4009 -5389 0
-4010 -5390 0
-4006 -5536 0
-4007 -5537 0
-4008 -5538 0
-4009 -5539 0
-4010 -5540 0
-4006 -5541 0
-4007 -5542 0
-4008 -5543 0
-4009 -5544 0
-4010 -5545 0
-4011 -4056 0
-4012 -4057 0
-4013 -4058 0
-4014 -4059 0
-4015 -4060 0
-4011 -4111 0
-4012 -4112 0
-4013 -4113 0
-4014 -4114 0
-4015 -4115 0
-4011 -4346 0
-4012 -4347 0
-4013 -4348 0
-4014 -4349 0
-4015 -4350 0
-4011 -5306 0
-4012 -5307 0
-4013 -5308 0
-4014 -5309 0
-4015 -5310 0
-4011 -5391 0
-4012 -5392 0
-4013 -5393 0
-4014 -5394 0
-4015 -5395 0
-4011 -5551 0
-4012 -5552 0
-4013 -5553 0
-4014 -5554 0
-4015 -5555 0
-4016 -4021 0
-4017 -4022 0
-4018 -4023 0
-4019 -4024 0
-4020 -4025 0
-4016 -4026 0
-4017 -4027 0
-4018 -4028 0
-4019 -4029 0
-4020 -4030 0
-4016 -4036 0
-4017 -4037 0
-4018 -4038 0
-4019 -4039 0
-4020 -4040 0
-4016 -4276 0
-4017 -4277 0
-4018 -4278 0
-4019 -4279 0
-4020 -4280 0
-4016 -4416 0
-4017 -4417 0
-4018 -4418 0
-4019 -4419 0
-4020 -4420 0
-4016 -4581 0
-4017 -4582 0
-4018 -4583 0
-4019 -4584 0
-4020 -4585 0
-4016 -4976 0
-4017 -4977 0
-4018 -4978 0
-4019 -4979 0
-4020 -4980 0
-4016 -5421 0
-4017 -5422 0
-4018 -5423 0
-4019 -5424 0
-4020 -5425 0
-4016 -5446 0
-4017 -5447 0
-4018 -5448 0
-4019 -5449 0
-4020 -5450 0
-4016 -5556 0
-4017 -5557 0
-4018 -5558 0
-4019 -5559 0
-4020 -5560 0
-4016 -5606 0
-4017 -5607 0
-4018 -5608 0
-4019 -5609 0
-4020 -5610 0
-4021 -4041 0
-4022 -4042 0
-4023 -4043 0
-4024 -4044 0
-4025 -4045 0
-4021 -4176 0
-4022 -4177 0
-4023 -4178 0
-4024 -4179 0
-4025 -4180 0
-4021 -4216 0
-4022 -4217 0
-4023 -4218 0
-4024 -4219 0
-4025 -4220 0
-4021 -4586 0
-4022 -4587 0
-4023 -4588 0
-4024 -4589 0
-4025 -4590 0
-4021 -4841 0
-4022 -4842 0
-4023 -4843 0
-4024 -4844 0
-4025 -4845 0
-4021 -4986 0
-4022 -4987 0
-4023 -4988 0
-4024 -4989 0
-4025 -4990 0
-4021 -5426 0
-4022 -5427 0
-4023 -5428 0
-4024 -5429 0
-4025 -5430 0
-4021 -5451 0
-4022 -5452 0
-4023 -5453 0
-4024 -5454 0
-4025 -5455 0
-4021 -5561 0
-4022 -5562 0
-4023 -5563 0
-4024 -5564 0
-4025 -5565 0
-4021 -5616 0
-4022 -5617 0
-4023 -5618 0
-4024 -5619 0
-4025 -5620 0
-4021 -5821 0
-4022 -5822 0
-4023 -5823 0
-4024 -5824 0
-4025 -5825 0
-4026 -4046 0
-4027 -4047 0
-4028 -4048 0
-4029 -4049 0
-4030 -4050 0
-4026 -4421 0
-4027 -4422 0
-4028 -4423 0
-4029 -4424 0
-4030 -4425 0
-4026 -4861 0
-4027 -4862 0
-4028 -4863 0
-4029 -4864 0
-4030 -4865 0
-4026 -5321 0
-4027 -5322 0
-4028 -5323 0
-4029 -5324 0
-4030 -5325 0
-4026 -5471 0
-4027 -5472 0
-4028 -5473 0
-4029 -5474 0
-4030 -5475 0
-4026 -5556 0
-4027 -5557 0
-4028 -5558 0
-4029 -5559 0
-4030 -5560 0
-4026 -5621 0
-4027 -5622 0
-4028 -5623 0
-4029 -5624 0
-4030 -5625 0
-4031 -4036 0
-4032 -4037 0
-4033 -4038 0
-4034 -4039 0
-4035 -4040 0
-4031 -4116 0
-4032 -4117 0
-4033 -4118 0
-4034 -4119 0
-4035 -4120 0
-4031 -4306 0
-4032 -4307 0
-4033 -4308 0
-4034 -4309 0
-4035 -4310 0
-4031 -5001 0
-4032 -5002 0
-4033 -5003 0
-4034 -5004 0
-4035 -5005 0
-4031 -5566 0
-4032 -5567 0
-4033 -5568 0
-4034 -5569 0
-4035 -5570 0
-4031 -5841 0
-4032 -5842 0
-4033 -5843 0
-4034 -5844 0
-4035 -5845 0
-4036 -4041 0
-4037 -4042 0
-4038 -4043 0
-4039 -4044 0
-4040 -4045 0
-4036 -4046 0
-4037 -4047 0
-4038 -4048 0
-4039 -4049 0
-4040 -4050 0
-4036 -4121 0
-4037 -4122 0
-4038 -4123 0
-4039 -4124 0
-4040 -4125 0
-4036 -4326 0
-4037 -4327 0
-4038 -4328 0
-4039 -4329 0
-4040 -4330 0
-4036 -4591 0
-4037 -4592 0
-4038 -4593 0
-4039 -4594 0
-4040 -4595 0
-4036 -4751 0
-4037 -4752 0
-4038 -4753 0
-4039 -4754 0
-4040 -4755 0
-4036 -4866 0
-4037 -4867 0
-4038 -4868 0
-4039 -4869 0
-4040 -4870 0
-4036 -5006 0
-4037 -5007 0
-4038 -5008 0
-4039 -5009 0
-4040 -5010 0
-4036 -5481 0
-4037 -5482 0
-4038 -5483 0
-4039 -5484 0
-4040 -5485 0
-4036 -5571 0
-4037 -5572 0
-4038 -5573 0
-4039 -5574 0
-4040 -5575 0
-4036 -5606 0
-4037 -5607 0
-4038 -5608 0
-4039 -5609 0
-4040 -5610 0
-4036 -5856 0
-4037 -5857 0
-4038 -5858 0
-4039 -5859 0
-4040 -5860 0
-4041 -4226 0
-4042 -4227 0
-4043 -4228 0
-4044 -4229 0
-4045 -4230 0
-4041 -4341 0
-4042 -4342 0
-4043 -4343 0
-4044 -4344 0
-4045 -4345 0
-4041 -4566 0
-4042 -4567 0
-4043 -4568 0
-4044 -4569 0
-4045 -4570 0
-4041 -4596 0
-4042 -4597 0
-4043 -4598 0
-4044 -4599 0
-4045 -4600 0
-4041 -4771 0
-4042 -4772 0
-4043 -4773 0
-4044 -4774 0
-4045 -4775 0
-4041 -4856 0
-4042 -4857 0
-4043 -4858 0
-4044 -4859 0
-4045 -4860 0
-4041 -5011 0
-4042 -5012 0
-4043 -5013 0
-4044 -5014 0
-4045 -5015 0
-4041 -5576 0
-4042 -5577 0
-4043 -5578 0
-4044 -5579 0
-4045 -5580 0
-4041 -5616 0
-4042 -5617 0
-4043 -5618 0
-4044 -5619 0
-4045 -5620 0
-4041 -5861 0
-4042 -5862 0
-4043 -5863 0
-4044 -5864 0
-4045 -5865 0
-4046 -4136 0
-4047 -4137 0
-4048 -4138 0
-4049 -4139 0
-4050 -4140 0
-4046 -4351 0
-4047 -4352 0
-4048 -4353 0
-4049 -4354 0
-4050 -4355 0
-4046 -4871 0
-4047 -4872 0
-4048 -4873 0
-4049 -4874 0
-4050 -4875 0
-4046 -5486 0
-4047 -5487 0
-4048 -5488 0
-4049 -5489 0
-4050 -5490 0
-4046 -5571 0
-4047 -5572 0
-4048 -5573 0
-4049 -5574 0
-4050 -5575 0
-4046 -5621 0
-4047 -5622 0
-4048 -5623 0
-4049 -5624 0
-4050 -5625 0
-4051 -4056 0
-4052 -4057 0
-4053 -4058 0
-4054 -4059 0
-4055 -4060 0
-4051 -4616 0
-4052 -4617 0
-4053 -4618 0
-4054 -4619 0
-4055 -4620 0
-4051 -5601 0
-4052 -5602 0
-4053 -5603 0
-4054 -5604 0
-4055 -5605 0
-4051 -5616 0
-4052 -5617 0
-4053 -5618 0
-4054 -5619 0
-4055 -5620 0
-4056 -4366 0
-4057 -4367 0
-4058 -4368 0
-4059 -4369 0
-4060 -4370 0
-4056 -4446 0
-4057 -4447 0
-4058 -4448 0
-4059 -4449 0
-4060 -4450 0
-4056 -5071 0
-4057 -5072 0
-4058 -5073 0
-4059 -5074 0
-4060 -5075 0
-4056 -5581 0
-4057 -5582 0
-4058 -5583 0
-4059 -5584 0
-4060 -5585 0
-4056 -5626 0
-4057 -5627 0
-4058 -5628 0
-4059 -5629 0
-4060 -5630 0
-4061 -4066 0
-4062 -4067 0
-4063 -4068 0
-4064 -4069 0
-4065 -4070 0
-4061 -4086 0
-4062 -4087 0
-4063 -4088 0
-4064 -4089 0
-4065 -4090 0
-4061 -4096 0
-4062 -4097 0
-4063 -4098 0
-4064 -4099 0
-4065 -4100 0
-4061 -4276 0
-4062 -4277 0
-4063 -4278 0
-4064 -4279 0
-4065 -4280 0
-4061 -4451 0
-4062 -4452 0
-4063 -4453 0
-4064 -4454 0
-4065 -4455 0
-4061 -5361 0
-4062 -5362 0
-4063 -5363 0
-4064 -5364 0
-4065 -5365 0
-4061 -5631 0
-4062 -5632 0
-4063 -5633 0
-4064 -5634 0
-4065 -5635 0
-4061 -5636 0
-4062 -5637 0
-4063 -5638 0
-4064 -5639 0
-4065 -5640 0
-4061 -5731 0
-4062 -5732 0
-4063 -5733 0
-4064 -5734 0
-4065 -5735 0
-4066 -4071 0
-4067 -4072 0
-4068 -4073 0
-4069 -4074 0
-4070 -4075 0
-4066 -4106 0
-4067 -4107 0
-4068 -4108 0
-4069 -4109 0
-4070 -4110 0
-4066 -4111 0
-4067 -4112 0
-4068 -4113 0
-4069 -4114 0
-4070 -4115 0
-4066 -4161 0
-4067 -4162 0
-4068 -4163 0
-4069 -4164 0
-4070 -4165 0
-4066 -4326 0
-4067 -4327 0
-4068 -4328 0
-4069 -4329 0
-4070 -4330 0
-4066 -4651 0
-4067 -4652 0
-4068 -4653 0
-4069 -4654 0
-4070 -4655 0
-4066 -4901 0
-4067 -4902 0
-4068 -4903 0
-4069 -4904 0
-4070 -4905 0
-4066 -5371 0
-4067 -5372 0
-4068 -5373 0
-4069 -5374 0
-4070 -5375 0
-4066 -5646 0
-4067 -5647 0
-4068 -5648 0
-4069 -5649 0
-4070 -5650 0
-4066 -5661 0
-4067 -5662 0
-4068 -5663 0
-4069 -5664 0
-4070 -5665 0
-4066 -5731 0
-4067 -5732 0
-4068 -5733 0
-4069 -5734 0
-4070 -5735 0
-4071 -4331 0
-4072 -4332 0
-4073 -4333 0
-4074 -4334 0
-4075 -4335 0
-4071 -4476 0
-4072 -4477 0
-4073 -4478 0
-4074 -4479 0
-4075 -4480 0
-4071 -4726 0
-4072 -4727 0
-4073 -4728 0
-4074 -4729 0
-4075 -4730 0
-4071 -5651 0
-4072 -5652 0
-4073 -5653 0
-4074 -5654 0
-4075 -5655 0
-4071 -5666 0
-4072 -5667 0
-4073 -5668 0
-4074 -5669 0
-4075 -5670 0
-4076 -4081 0
-4077 -4082 0
-4078 -4083 0
-4079 -4084 0
-4080 -4085 0
-4076 -4096 0
-4077 -4097 0
-4078 -4098 0
-4079 -4099 0
-4080 -4100 0
-4076 -4116 0
-4077 -4117 0
-4078 -4118 0
-4079 -4119 0
-4080 -4120 0
-4076 -4281 0
-4077 -4282 0
-4078 -4283 0
-4079 -4284 0
-4080 -4285 0
-4076 -4531 0
-4077 -4532 0
-4078 -4533 0
-4079 -4534 0
-4080 -4535 0
-4076 -4911 0
-4077 -4912 0
-4078 -4913 0
-4079 -4914 0
-4080 -4915 0
-4076 -4946 0
-4077 -4947 0
-4078 -4948 0
-4079 -4949 0
-4080 -4950 0
-4076 -5426 0
-4077 -5427 0
-4078 -5428 0
-4079 -5429 0
-4080 -5430 0
-4076 -5676 0
-4077 -5677 0
-4078 -5678 0
-4079 -5679 0
-4080 -5680 0
-4076 -5766 0
-4077 -5767 0
-4078 -5768 0
-4079 -5769 0
-4080 -5770 0
-4076 -5946 0
-4077 -5947 0
-4078 -5948 0
-4079 -5949 0
-4080 -5950 0
-4081 -4101 0
-4082 -4102 0
-4083 -4103 0
-4084 -4104 0
-4085 -4105 0
-4081 -4126 0
-4082 -4127 0
-4083 -4128 0
-4084 -4129 0
-4085 -4130 0
-4081 -4286 0
-4082 -4287 0
-4083 -4288 0
-4084 -4289 0
-4085 -4290 0
-4081 -4546 0
-4082 -4547 0
-4083 -4548 0
-4084 -4549 0
-4085 -4550 0
-4081 -4966 0
-4082 -4967 0
-4083 -4968 0
-4084 -4969 0
-4085 -4970 0
-4081 -5676 0
-4082 -5677 0
-4083 -5678 0
-4084 -5679 0
-4085 -5680 0
-4081 -5771 0
-4082 -5772 0
-4083 -5773 0
-4084 -5774 0
-4085 -5775 0
-4081 -5956 0
-4082 -5957 0
-4083 -5958 0
-4084 -5959 0
-4085 -5960 0
-4086 -4096 0
-4087 -4097 0
-4088 -4098 0
-4089 -4099 0
-4090 -4100 0
-4086 -4106 0
-4087 -4107 0
-4088 -4108 0
-4089 -4109 0
-4090 -4110 0
-4086 -4526 0
-4087 -4527 0
-4088 -4528 0
-4089 -4529 0
-4090 -4530 0
-4086 -5446 0
-4087 -5447 0
-4088 -5448 0
-4089 -5449 0
-4090 -5450 0
-4086 -5681 0
-4087 -5682 0
-4088 -5683 0
-4089 -5684 0
-4090 -5685 0
-4091 -4096 0
-4092 -4097 0
-4093 -4098 0
-4094 -4099 0
-4095 -4100 0
-4091 -4141 0
-4092 -4142 0
-4093 -4143 0
-4094 -4144 0
-4095 -4145 0
-4091 -4291 0
-4092 -4292 0
-4093 -4293 0
-4094 -4294 0
-4095 -4295 0
-4091 -4456 0
-4092 -4457 0
-4093 -4458 0
-4094 -4459 0
-4095 -4460 0
-4091 -5686 0
-4092 -5687 0
-4093 -5688 0
-4094 -5689 0
-4095 -5690 0
-4096 -4101 0
-4097 -4102 0
-4098 -4103 0
-4099 -4104 0
-4100 -4105 0
-4096 -4111 0
-4097 -4112 0
-4098 -4113 0
-4099 -4114 0
-4100 -4115 0
-4096 -4141 0
-4097 -4142 0
-4098 -4143 0
-4099 -4144 0
-4100 -4145 0
-4096 -4166 0
-4097 -4167 0
-4098 -4168 0
-4099 -4169 0
-4100 -4170 0
-4096 -4461 0
-4097 -4462 0
-4098 -4463 0
-4099 -4464 0
-4100 -4465 0
-4096 -4536 0
-4097 -4537 0
-4098 -4538 0
-4099 -4539 0
-4100 -4540 0
-4096 -4696 0
-4097 -4697 0
-4098 -4698 0
-4099 -4699 0
-4100 -4700 0
-4096 -4931 0
-4097 -4932 0
-4098 -4933 0
-4099 -4934 0
-4100 -4935 0
-4096 -5451 0
-4097 -5452 0
-4098 -5453 0
-4099 -5454 0
-4100 -5455 0
-4096 -5691 0
-4097 -5692 0
-4098 -5693 0
-4099 -5694 0
-4100 -5695 0
-4096 -5776 0
-4097 -5777 0
-4098 -5778 0
-4099 -5779 0
-4100 -5780 0
-4101 -4146 0
-4102 -4147 0
-4103 -4148 0
-4104 -4149 0
-4105 -4150 0
-4101 -4326 0
-4102 -4327 0
-4103 -4328 0
-4104 -4329 0
-4105 -4330 0
-4101 -5691 0
-4102 -5692 0
-4103 -5693 0
-4104 -5694 0
-4105 -5695 0
-4106 -4111 0
-4107 -4112 0
-4108 -4113 0
-4109 -4114 0
-4110 -4115 0
-4106 -4171 0
-4107 -4172 0
-4108 -4173 0
-4109 -4174 0
-4110 -4175 0
-4106 -4201 0
-4107 -4202 0
-4108 -4203 0
-4109 -4204 0
-4110 -4205 0
-4106 -4406 0
-4107 -4407 0
-4108 -4408 0
-4109 -4409 0
-4110 -4410 0
-4106 -5481 0
-4107 -5482 0
-4108 -5483 0
-4109 -5484 0
-4110 -5485 0
-4106 -5696 0
-4107 -5697 0
-4108 -5698 0
-4109 -5699 0
-4110 -5700 0
-4111 -4411 0
-4112 -4412 0
-4113 -4413 0
-4114 -4414 0
-4115 -4415 0
-4111 -4666 0
-4112 -4667 0
-4113 -4668 0
-4114 -4669 0
-4115 -4670 0
-4111 -5701 0
-4112 -5702 0
-4113 -5703 0
-4114 -5704 0
-4115 -5705 0
-4111 -5776 0
-4112 -5777 0
-4113 -5778 0
-4114 -5779 0
-4115 -5780 0
-4116 -4121 0
-4117 -4122 0
-4118 -4123 0
-4119 -4124 0
-4120 -4125 0
-4116 -4126 0
-4117 -4127 0
-4118 -4128 0
-4119 -4129 0
-4120 -4130 0
-4116 -4141 0
-4117 -4142 0
-4118 -4143 0
-4119 -4144 0
-4120 -4145 0
-4116 -4151 0
-4117 -4152 0
-4118 -4153 0
-4119 -4154 0
-4120 -4155 0
-4116 -4176 0
-4117 -4177 0
-4118 -4178 0
-4119 -4179 0
-4120 -4180 0
-4116 -4826 0
-4117 -4827 0
-4118 -4828 0
-4119 -4829 0
-4120 -4830 0
-4116 -5121 0
-4117 -5122 0
-4118 -5123 0
-4119 -5124 0
-4120 -5125 0
-4116 -5641 0
-4117 -5642 0
-4118 -5643 0
-4119 -5644 0
-4120 -5645 0
-4116 -5706 0
-4117 -5707 0
-4118 -5708 0
-4119 -5709 0
-4120 -5710 0
-4116 -5791 0
-4117 -5792 0
-4118 -5793 0
-4119 -5794 0
-4120 -5795 0
-4116 -5796 0
-4117 -5797 0
-4118 -5798 0
-4119 -5799 0
-4120 -5800 0
-4116 -6026 0
-4117 -6027 0
-4118 -6028 0
-4119 -6029 0
-4120 -6030 0
-4121 -4136 0
-4122 -4137 0
-4123 -4138 0
-4124 -4139 0
-4125 -4140 0
-4121 -4176 0
-4122 -4177 0
-4123 -4178 0
-4124 -4179 0
-4125 -4180 0
-4121 -4456 0
-4122 -4457 0
-4123 -4458 0
-4124 -4459 0
-4125 -4460 0
-4121 -4706 0
-4122 -4707 0
-4123 -4708 0
-4124 -4709 0
-4125 -4710 0
-4121 -4831 0
-4122 -4832 0
-4123 -4833 0
-4124 -4834 0
-4125 -4835 0
-4121 -5006 0
-4122 -5007 0
-4123 -5008 0
-4124 -5009 0
-4125 -5010 0
-4121 -5016 0
-4122 -5017 0
-4123 -5018 0
-4124 -5019 0
-4125 -5020 0
-4121 -5651 0
-4122 -5652 0
-4123 -5653 0
-4124 -5654 0
-4125 -5655 0
-4121 -5711 0
-4122 -5712 0
-4123 -5713 0
-4124 -5714 0
-4125 -5715 0
-4121 -6046 0
-4122 -6047 0
-4123 -6048 0
-4124 -6049 0
-4125 -6050 0
-4126 -4136 0
-4127 -4137 0
-4128 -4138 0
-4129 -4139 0
-4130 -4140 0
-4126 -4146 0
-4127 -4147 0
-4128 -4148 0
-4129 -4149 0
-4130 -4150 0
-4126 -4156 0
-4127 -4157 0
-4128 -4158 0
-4129 -4159 0
-4130 -4160 0
-4126 -4181 0
-4127 -4182 0
-4128 -4183 0
-4129 -4184 0
-4130 -4185 0
-4126 -4841 0
-4127 -4842 0
-4128 -4843 0
-4129 -4844 0
-4130 -4845 0
-4126 -4916 0
-4127 -4917 0
-4128 -4918 0
-4129 -4919 0
-4130 -4920 0
-4126 -5656 0
-4127 -5657 0
-4128 -5658 0
-4129 -5659 0
-4130 -5660 0
-4126 -5706 0
-4127 -5707 0
-4128 -5708 0
-4129 -5709 0
-4130 -5710 0
-4126 -5806 0
-4127 -5807 0
-4128 -5808 0
-4129 -5809 0
-4130 -5810 0
-4126 -6071 0
-4127 -6072 0
-4128 -6073 0
-4129 -6074 0
-4130 -6075 0
-4131 -4136 0
-4132 -4137 0
-4133 -4138 0
-4134 -4139 0
-4135 -4140 0
-4131 -4421 0
-4132 -4422 0
-4133 -4423 0
-4134 -4424 0
-4135 -4425 0
-4131 -4466 0
-4132 -4467 0
-4133 -4468 0
-4134 -4469 0
-4135 -4470 0
-4131 -4921 0
-4132 -4922 0
-4133 -4923 0
-4134 -4924 0
-4135 -4925 0
-4131 -5021 0
-4132 -5022 0
-4133 -5023 0
-4134 -5024 0
-4135 -5025 0
-4131 -5491 0
-4132 -5492 0
-4133 -5493 0
-4134 -5494 0
-4135 -5495 0
-4131 -5661 0
-4132 -5662 0
-4133 -5663 0
-4134 -5664 0
-4135 -5665 0
-4136 -4181 0
-4137 -4182 0
-4138 -4183 0
-4139 -4184 0
-4140 -4185 0
-4136 -4471 0
-4137 -4472 0
-4138 -4473 0
-4139 -4474 0
-4140 -4475 0
-4136 -4846 0
-4137 -4847 0
-4138 -4848 0
-4139 -4849 0
-4140 -4850 0
-4136 -5026 0
-4137 -5027 0
-4138 -5028 0
-4139 -5029 0
-4140 -5030 0
-4136 -5666 0
-4137 -5667 0
-4138 -5668 0
-4139 -5669 0
-4140 -5670 0
-4136 -5711 0
-4137 -5712 0
-4138 -5713 0
-4139 -5714 0
-4140 -5715 0
-4136 -6091 0
-4137 -6092 0
-4138 -6093 0
-4139 -6094 0
-4140 -6095 0
-4141 -4146 0
-4142 -4147 0
-4143 -4148 0
-4144 -4149 0
-4145 -4150 0
-4141 -4186 0
-4142 -4187 0
-4143 -4188 0
-4144 -4189 0
-4145 -4190 0
-4141 -4506 0
-4142 -4507 0
-4143 -4508 0
-4144 -4509 0
-4145 -4510 0
-4141 -5131 0
-4142 -5132 0
-4143 -5133 0
-4144 -5134 0
-4145 -5135 0
-4141 -5496 0
-4142 -5497 0
-4143 -5498 0
-4144 -5499 0
-4145 -5500 0
-4141 -5641 0
-4142 -5642 0
-4143 -5643 0
-4144 -5644 0
-4145 -5645 0
-4141 -5716 0
-4142 -5717 0
-4143 -5718 0
-4144 -5719 0
-4145 -5720 0
-4141 -6096 0
-4142 -6097 0
-4143 -6098 0
-4144 -6099 0
-4145 -6100 0
-4146 -4191 0
-4147 -4192 0
-4148 -4193 0
-4149 -4194 0
-4150 -4195 0
-4146 -4391 0
-4147 -4392 0
-4148 -4393 0
-4149 -4394 0
-4150 -4395 0
-4146 -5506 0
-4147 -5507 0
-4148 -5508 0
-4149 -5509 0
-4150 -5510 0
-4146 -5656 0
-4147 -5657 0
-4148 -5658 0
-4149 -5659 0
-4150 -5660 0
-4146 -5716 0
-4147 -5717 0
-4148 -5718 0
-4149 -5719 0
-4150 -5720 0
-4146 -6101 0
-4147 -6102 0
-4148 -6103 0
-4149 -6104 0
-4150 -6105 0
-4151 -4156 0
-4152 -4157 0
-4153 -4158 0
-4154 -4159 0
-4155 -4160 0
-4151 -4511 0
-4152 -4512 0
-4153 -4513 0
-4154 -4514 0
-4155 -4515 0
-4151 -4941 0
-4152 -4942 0
-4153 -4943 0
-4154 -4944 0
-4155 -4945 0
-4151 -5721 0
-4152 -5722 0
-4153 -5723 0
-4154 -5724 0
-4155 -5725 0
-4151 -5836 0
-4152 -5837 0
-4153 -5838 0
-4154 -5839 0
-4155 -5840 0
-4151 -6116 0
-4152 -6117 0
-4153 -6118 0
-4154 -6119 0
-4155 -6120 0
-4156 -4961 0
-4157 -4962 0
-4158 -4963 0
-4159 -4964 0
-4160 -4965 0
-4156 -5521 0
-4157 -5522 0
-4158 -5523 0
-4159 -5524 0
-4160 -5525 0
-4156 -5721 0
-4157 -5722 0
-4158 -5723 0
-4159 -5724 0
-4160 -5725 0
-4156 -6126 0
-4157 -6127 0
-4158 -6128 0
-4159 -6129 0
-4160 -6130 0
-4161 -4171 0
-4162 -4172 0
-4163 -4173 0
-4164 -4174 0
-4165 -4175 0
-4161 -4236 0
-4162 -4237 0
-4163 -4238 0
-4164 -4239 0
-4165 -4240 0
-4161 -4441 0
-4162 -4442 0
-4163 -4443 0
-4164 -4444 0
-4165 -4445 0
-4161 -4601 0
-4162 -4602 0
-4163 -4603 0
-4164 -4604 0
-4165 -4605 0
-4161 -5741 0
-4162 -5742 0
-4163 -5743 0
-4164 -5744 0
-4165 -5745 0
-4161 -5756 0
-4162 -5757 0
-4163 -5758 0
-4164 -5759 0
-4165 -5760 0
-4166 -4186 0
-4167 -4187 0
-4168 -4188 0
-4169 -4189 0
-4170 -4190 0
-4166 -4436 0
-4167 -4437 0
-4168 -4438 0
-4169 -4439 0
-4170 -4440 0
-4166 -4481 0
-4167 -4482 0
-4168 -4483 0
-4169 -4484 0
-4170 -4485 0
-4166 -5076 0
-4167 -5077 0
-4168 -5078 0
-4169 -5079 0
-4170 -5080 0
-4166 -5211 0
-4167 -5212 0
-4168 -5213 0
-4169 -5214 0
-4170 -5215 0
-4166 -5821 0
-4167 -5822 0
-4168 -5823 0
-4169 -5824 0
-4170 -5825 0
-4171 -5231 0
-4172 -5232 0
-4173 -5233 0
-4174 -5234 0
-4175 -5235 0
-4171 -5826 0
-4172 -5827 0
-4173 -5828 0
-4174 -5829 0
-4175 -5830 0
-4171 -5841 0
-4172 -5842 0
-4173 -5843 0
-4174 -5844 0
-4175 -5845 0
-4176 -4181 0
-4177 -4182 0
-4178 -4183 0
-4179 -4184 0
-4180 -4185 0
-4176 -4186 0
-4177 -4187 0
-4178 -4188 0
-4179 -4189 0
-4180 -4190 0
-4176 -4586 0
-4177 -4587 0
-4178 -4588 0
-4179 -4589 0
-4180 -4590 0
-4176 -5286 0
-4177 -5287 0
-4178 -5288 0
-4179 -5289 0
-4180 -5290 0
-4176 -5746 0
-4177 -5747 0
-4178 -5748 0
-4179 -5749 0
-4180 -5750 0
-4176 -5866 0
-4177 -5867 0
-4178 -5868 0
-4179 -5869 0
-4180 -5870 0
-4176 -6206 0
-4177 -6207 0
-4178 -6208 0
-4179 -6209 0
-4180 -6210 0
-4181 -4191 0
-4182 -4192 0
-4183 -4193 0
-4184 -4194 0
-4185 -4195 0
-4181 -4511 0
-4182 -4512 0
-4183 -4513 0
-4184 -4514 0
-4185 -4515 0
-4181 -5761 0
-4182 -5762 0
-4183 -5763 0
-4184 -5764 0
-4185 -5765 0
-4181 -5866 0
-4182 -5867 0
-4183 -5868 0
-4184 -5869 0
-4185 -5870 0
-4181 -6216 0
-4182 -6217 0
-4183 -6218 0
-4184 -6219 0
-4185 -6220 0
-4186 -4191 0
-4187 -4192 0
-4188 -4193 0
-4189 -4194 0
-4190 -4195 0
-4186 -4516 0
-4187 -4517 0
-4188 -4518 0
-4189 -4519 0
-4190 -4520 0
-4186 -5306 0
-4187 -5307 0
-4188 -5308 0
-4189 -5309 0
-4190 -5310 0
-4186 -5601 0
-4187 -5602 0
-4188 -5603 0
-4189 -5604 0
-4190 -5605 0
-4186 -5746 0
-4187 -5747 0
-4188 -5748 0
-4189 -5749 0
-4190 -5750 0
-4186 -5871 0
-4187 -5872 0
-4188 -5873 0
-4189 -5874 0
-4190 -5875 0
-4191 -4521 0
-4192 -4522 0
-4193 -4523 0
-4194 -4524 0
-4195 -4525 0
-4191 -4861 0
-4192 -4862 0
-4193 -4863 0
-4194 -4864 0
-4195 -4865 0
-4191 -5081 0
-4192 -5082 0
-4193 -5083 0
-4194 -5084 0
-4195 -5085 0
-4191 -5316 0
-4192 -5317 0
-4193 -5318 0
-4194 -5319 0
-4195 -5320 0
-4191 -5616 0
-4192 -5617 0
-4193 -5618 0
-4194 -5619 0
-4195 -5620 0
-4191 -5761 0
-4192 -5762 0
-4193 -5763 0
-4194 -5764 0
-4195 -5765 0
-4191 -5871 0
-4192 -5872 0
-4193 -5873 0
-4194 -5874 0
-4195 -5875 0
-4196 -4201 0
-4197 -4202 0
-4198 -4203 0
-4199 -4204 0
-4200 -4205 0
-4196 -4206 0
-4197 -4207 0
-4198 -4208 0
-4199 -4209 0
-4200 -4210 0
-4196 -4646 0
-4197 -4647 0
-4198 -4648 0
-4199 -4649 0
-4200 -4650 0
-4196 -5641 0
-4197 -5642 0
-4198 -5643 0
-4199 -5644 0
-4200 -5645 0
-4196 -5881 0
-4197 -5882 0
-4198 -5883 0
-4199 -5884 0
-4200 -5885 0
-4196 -6236 0
-4197 -6237 0
-4198 -6238 0
-4199 -6239 0
-4200 -6240 0
-4201 -4211 0
-4202 -4212 0
-4203 -4213 0
-4204 -4214 0
-4205 -4215 0
-4201 -4531 0
-4202 -4532 0
-4203 -4533 0
-4204 -4534 0
-4205 -4535 0
-4201 -5651 0
-4202 -5652 0
-4203 -5653 0
-4204 -5654 0
-4205 -5655 0
-4201 -5886 0
-4202 -5887 0
-4203 -5888 0
-4204 -5889 0
-4205 -5890 0
-4206 -4211 0
-4207 -4212 0
-4208 -4213 0
-4209 -4214 0
-4210 -4215 0
-4206 -4306 0
-4207 -4307 0
-4208 -4308 0
-4209 -4309 0
-4210 -4310 0
-4206 -4326 0
-4207 -4327 0
-4208 -4328 0
-4209 -4329 0
-4210 -4330 0
-4206 -4931 0
-4207 -4932 0
-4208 -4933 0
-4209 -4934 0
-4210 -4935 0
-4206 -5656 0
-4207 -5657 0
-4208 -5658 0
-4209 -5659 0
-4210 -5660 0
-4206 -5881 0
-4207 -5882 0
-4208 -5883 0
-4209 -5884 0
-4210 -5885 0
-4206 -5891 0
-4207 -5892 0
-4208 -5893 0
-4209 -5894 0
-4210 -5895 0
-4206 -6241 0
-4207 -6242 0
-4208 -6243 0
-4209 -6244 0
-4210 -6245 0
-4211 -4326 0
-4212 -4327 0
-4213 -4328 0
-4214 -4329 0
-4215 -4330 0
-4211 -4346 0
-4212 -4347 0
-4213 -4348 0
-4214 -4349 0
-4215 -4350 0
-4211 -4546 0
-4212 -4547 0
-4213 -4548 0
-4214 -4549 0
-4215 -4550 0
-4211 -4936 0
-4212 -4937 0
-4213 -4938 0
-4214 -4939 0
-4215 -4940 0
-4211 -5131 0
-4212 -5132 0
-4213 -5133 0
-4214 -5134 0
-4215 -5135 0
-4211 -5666 0
-4212 -5667 0
-4213 -5668 0
-4214 -5669 0
-4215 -5670 0
-4211 -5886 0
-4212 -5887 0
-4213 -5888 0
-4214 -5889 0
-4215 -5890 0
-4211 -5896 0
-4212 -5897 0
-4213 -5898 0
-4214 -5899 0
-4215 -5900 0
-4216 -4221 0
-4217 -4222 0
-4218 -4223 0
-4219 -4224 0
-4220 -4225 0
-4216 -4226 0
-4217 -4227 0
-4218 -4228 0
-4219 -4229 0
-4220 -4230 0
-4216 -4881 0
-4217 -4882 0
-4218 -4883 0
-4219 -4884 0
-4220 -4885 0
-4216 -5136 0
-4217 -5137 0
-4218 -5138 0
-4219 -5139 0
-4220 -5140 0
-4216 -5356 0
-4217 -5357 0
-4218 -5358 0
-4219 -5359 0
-4220 -5360 0
-4216 -5981 0
-4217 -5982 0
-4218 -5983 0
-4219 -5984 0
-4220 -5985 0
-4216 -6026 0
-4217 -6027 0
-4218 -6028 0
-4219 -6029 0
-4220 -6030 0
-4216 -6276 0
-4217 -6277 0
-4218 -6278 0
-4219 -6279 0
-4220 -6280 0
-4221 -4231 0
-4222 -4232 0
-4223 -4233 0
-4224 -4234 0
-4225 -4235 0
-4221 -4511 0
-4222 -4512 0
-4223 -4513 0
-4224 -4514 0
-4225 -4515 0
-4221 -4886 0
-4222 -4887 0
-4223 -4888 0
-4224 -4889 0
-4225 -4890 0
-4221 -5101 0
-4222 -5102 0
-4223 -5103 0
-4224 -5104 0
-4225 -5105 0
-4221 -5676 0
-4222 -5677 0
-4223 -5678 0
-4224 -5679 0
-4225 -5680 0
-4221 -5986 0
-4222 -5987 0
-4223 -5988 0
-4224 -5989 0
-4225 -5990 0
-4221 -6071 0
-4222 -6072 0
-4223 -6073 0
-4224 -6074 0
-4225 -6075 0
-4221 -6286 0
-4222 -6287 0
-4223 -6288 0
-4224 -6289 0
-4225 -6290 0
-4226 -4231 0
-4227 -4232 0
-4228 -4233 0
-4229 -4234 0
-4230 -4235 0
-4226 -4566 0
-4227 -4567 0
-4228 -4568 0
-4229 -4569 0
-4230 -4570 0
-4226 -4656 0
-4227 -4657 0
-4228 -4658 0
-4229 -4659 0
-4230 -4660 0
-4226 -4891 0
-4227 -4892 0
-4228 -4893 0
-4229 -4894 0
-4230 -4895 0
-4226 -5111 0
-4227 -5112 0
-4228 -5113 0
-4229 -5114 0
-4230 -5115 0
-4226 -5901 0
-4227 -5902 0
-4228 -5903 0
-4229 -5904 0
-4230 -5905 0
-4226 -6026 0
-4227 -6027 0
-4228 -6028 0
-4229 -6029 0
-4230 -6030 0
-4226 -6106 0
-4227 -6107 0
-4228 -6108 0
-4229 -6109 0
-4230 -6110 0
-4231 -4896 0
-4232 -4897 0
-4233 -4898 0
-4234 -4899 0
-4235 -4900 0
-4231 -5031 0
-4232 -5032 0
-4233 -5033 0
-4234 -5034 0
-4235 -5035 0
-4231 -5126 0
-4232 -5127 0
-4233 -5128 0
-4234 -5129 0
-4235 -5130 0
-4231 -5901 0
-4232 -5902 0
-4233 -5903 0
-4234 -5904 0
-4235 -5905 0
-4231 -6071 0
-4232 -6072 0
-4233 -6073 0
-4234 -6074 0
-4235 -6075 0
-4231 -6111 0
-4232 -6112 0
-4233 -6113 0
-4234 -6114 0
-4235 -6115 0
-4236 -4246 0
-4237 -4247 0
-4238 -4248 0
-4239 -4249 0
-4240 -4250 0
-4236 -4301 0
-4237 -4302 0
-4238 -4303 0
-4239 -4304 0
-4240 -4305 0
-4236 -4586 0
-4237 -4587 0
-4238 -4588 0
-4239 -4589 0
-4240 -4590 0
-4236 -4881 0
-4237 -4882 0
-4238 -4883 0
-4239 -4884 0
-4240 -4885 0
-4236 -5926 0
-4237 -5927 0
-4238 -5928 0
-4239 -5929 0
-4240 -5930 0
-4241 -4246 0
-4242 -4247 0
-4243 -4248 0
-4244 -4249 0
-4245 -4250 0
-4241 -4311 0
-4242 -4312 0
-4243 -4313 0
-4244 -4314 0
-4245 -4315 0
-4241 -4326 0
-4242 -4327 0
-4243 -4328 0
-4244 -4329 0
-4245 -4330 0
-4241 -5726 0
-4242 -5727 0
-4243 -5728 0
-4244 -5729 0
-4245 -5730 0
-4241 -5921 0
-4242 -5922 0
-4243 -5923 0
-4244 -5924 0
-4245 -5925 0
-4241 -5931 0
-4242 -5932 0
-4243 -5933 0
-4244 -5934 0
-4245 -5935 0
-4246 -4326 0
-4247 -4327 0
-4248 -4328 0
-4249 -4329 0
-4250 -4330 0
-4246 -4341 0
-4247 -4342 0
-4248 -4343 0
-4249 -4344 0
-4250 -4345 0
-4246 -4886 0
-4247 -4887 0
-4248 -4888 0
-4249 -4889 0
-4250 -4890 0
-4246 -5926 0
-4247 -5927 0
-4248 -5928 0
-4249 -5929 0
-4250 -5930 0
-4246 -5936 0
-4247 -5937 0
-4248 -5938 0
-4249 -5939 0
-4250 -5940 0
-4251 -4256 0
-4252 -4257 0
-4253 -4258 0
-4254 -4259 0
-4255 -4260 0
-4251 -4316 0
-4252 -4317 0
-4253 -4318 0
-4254 -4319 0
-4255 -4320 0
-4251 -4326 0
-4252 -4327 0
-4253 -4328 0
-4254 -4329 0
-4255 -4330 0
-4251 -5736 0
-4252 -5737 0
-4253 -5738 0
-4254 -5739 0
-4255 -5740 0
-4251 -5941 0
-4252 -5942 0
-4253 -5943 0
-4254 -5944 0
-4255 -5945 0
-4251 -5951 0
-4252 -5952 0
-4253 -5953 0
-4254 -5954 0
-4255 -5955 0
-4256 -4326 0
-4257 -4327 0
-4258 -4328 0
-4259 -4329 0
-4260 -4330 0
-4256 -4336 0
-4257 -4337 0
-4258 -4338 0
-4259 -4339 0
-4260 -4340 0
-4256 -4576 0
-4257 -4577 0
-4258 -4578 0
-4259 -4579 0
-4260 -4580 0
-4256 -5206 0
-4257 -5207 0
-4258 -5208 0
-4259 -5209 0
-4260 -5210 0
-4256 -5366 0
-4257 -5367 0
-4258 -5368 0
-4259 -5369 0
-4260 -5370 0
-4256 -5946 0
-4257 -5947 0
-4258 -5948 0
-4259 -5949 0
-4260 -5950 0
-4256 -5956 0
-4257 -5957 0
-4258 -5958 0
-4259 -5959 0
-4260 -5960 0
-4261 -4266 0
-4262 -4267 0
-4263 -4268 0
-4264 -4269 0
-4265 -4270 0
-4261 -4606 0
-4262 -4607 0
-4263 -4608 0
-4264 -4609 0
-4265 -4610 0
-4261 -5371 0
-4262 -5372 0
-4263 -5373 0
-4264 -5374 0
-4265 -5375 0
-4261 -5961 0
-4262 -5962 0
-4263 -5963 0
-4264 -5964 0
-4265 -5965 0
-4266 -4271 0
-4267 -4272 0
-4268 -4273 0
-4269 -4274 0
-4270 -4275 0
-4266 -4321 0
-4267 -4322 0
-4268 -4323 0
-4269 -4324 0
-4270 -4325 0
-4266 -4326 0
-4267 -4327 0
-4268 -4328 0
-4269 -4329 0
-4270 -4330 0
-4266 -4911 0
-4267 -4912 0
-4268 -4913 0
-4269 -4914 0
-4270 -4915 0
-4266 -5241 0
-4267 -5242 0
-4268 -5243 0
-4269 -5244 0
-4270 -5245 0
-4266 -5961 0
-4267 -5962 0
-4268 -5963 0
-4269 -5964 0
-4270 -5965 0
-4266 -5971 0
-4267 -5972 0
-4268 -5973 0
-4269 -5974 0
-4270 -5975 0
-4271 -4326 0
-4272 -4327 0
-4273 -4328 0
-4274 -4329 0
-4275 -4330 0
-4271 -4331 0
-4272 -4332 0
-4273 -4333 0
-4274 -4334 0
-4275 -4335 0
-4271 -4646 0
-4272 -4647 0
-4273 -4648 0
-4274 -4649 0
-4275 -4650 0
-4271 -4916 0
-4272 -4917 0
-4273 -4918 0
-4274 -4919 0
-4275 -4920 0
-4271 -5966 0
-4272 -5967 0
-4273 -5968 0
-4274 -5969 0
-4275 -5970 0
-4271 -5976 0
-4272 -5977 0
-4273 -5978 0
-4274 -5979 0
-4275 -5980 0
-4271 -6331 0
-4272 -6332 0
-4273 -6333 0
-4274 -6334 0
-4275 -6335 0
-4276 -4326 0
-4277 -4327 0
-4278 -4328 0
-4279 -4329 0
-4280 -4330 0
-4276 -4581 0
-4277 -4582 0
-4278 -4583 0
-4279 -4584 0
-4280 -4585 0
-4276 -4746 0
-4277 -4747 0
-4278 -4748 0
-4279 -4749 0
-4280 -4750 0
-4276 -5381 0
-4277 -5382 0
-4278 -5383 0
-4279 -5384 0
-4280 -5385 0
-4276 -5981 0
-4277 -5982 0
-4278 -5983 0
-4279 -5984 0
-4280 -5985 0
-4276 -5986 0
-4277 -5987 0
-4278 -5988 0
-4279 -5989 0
-4280 -5990 0
-4276 -6186 0
-4277 -6187 0
-4278 -6188 0
-4279 -6189 0
-4280 -6190 0
-4281 -4286 0
-4282 -4287 0
-4283 -4288 0
-4284 -4289 0
-4285 -4290 0
-4281 -5991 0
-4282 -5992 0
-4283 -5993 0
-4284 -5994 0
-4285 -5995 0
-4281 -6336 0
-4282 -6337 0
-4283 -6338 0
-4284 -6339 0
-4285 -6340 0
-4286 -4326 0
-4287 -4327 0
-4288 -4328 0
-4289 -4329 0
-4290 -4330 0
-4286 -5061 0
-4287 -5062 0
-4288 -5063 0
-4289 -5064 0
-4290 -5065 0
-4286 -5276 0
-4287 -5277 0
-4288 -5278 0
-4289 -5279 0
-4290 -5280 0
-4286 -5906 0
-4287 -5907 0
-4288 -5908 0
-4289 -5909 0
-4290 -5910 0
-4286 -5991 0
-4287 -5992 0
-4288 -5993 0
-4289 -5994 0
-4290 -5995 0
-4286 -5996 0
-4287 -5997 0
-4288 -5998 0
-4289 -5999 0
-4290 -6000 0
-4286 -6341 0
-4287 -6342 0
-4288 -6343 0
-4289 -6344 0
-4290 -6345 0
-4291 -4316 0
-4292 -4317 0
-4293 -4318 0
-4294 -4319 0
-4295 -4320 0
-4291 -4706 0
-4292 -4707 0
-4293 -4708 0
-4294 -4709 0
-4295 -4710 0
-4291 -6016 0
-4292 -6017 0
-4293 -6018 0
-4294 -6019 0
-4295 -6020 0
-4296 -4336 0
-4297 -4337 0
-4298 -4338 0
-4299 -4339 0
-4300 -4340 0
-4296 -4386 0
-4297 -4387 0
-4298 -4388 0
-4299 -4389 0
-4300 -4390 0
-4296 -4766 0
-4297 -4767 0
-4298 -4768 0
-4299 -4769 0
-4300 -4770 0
-4296 -5406 0
-4297 -5407 0
-4298 -5408 0
-4299 -5409 0
-4300 -5410 0
-4296 -6036 0
-4297 -6037 0
-4298 -6038 0
-4299 -6039 0
-4300 -6040 0
-4301 -4341 0
-4302 -4342 0
-4303 -4343 0
-4304 -4344 0
-4305 -4345 0
-4301 -4946 0
-4302 -4947 0
-4303 -4948 0
-4304 -4949 0
-4305 -4950 0
-4301 -5241 0
-4302 -5242 0
-4303 -5243 0
-4304 -5244 0
-4305 -5245 0
-4301 -6041 0
-4302 -6042 0
-4303 -6043 0
-4304 -6044 0
-4305 -6045 0
-4306 -4326 0
-4307 -4327 0
-4308 -4328 0
-4309 -4329 0
-4310 -4330 0
-4306 -4441 0
-4307 -4442 0
-4308 -4443 0
-4309 -4444 0
-4310 -4445 0
-4306 -6006 0
-4307 -6007 0
-4308 -6008 0
-4309 -6009 0
-4310 -6010 0
-4306 -6051 0
-4307 -6052 0
-4308 -6053 0
-4309 -6054 0
-4310 -6055 0
-4306 -6361 0
-4307 -6362 0
-4308 -6363 0
-4309 -6364 0
-4310 -6365 0
-4311 -4326 0
-4312 -4327 0
-4313 -4328 0
-4314 -4329 0
-4315 -4330 0
-4311 -4406 0
-4312 -4407 0
-4313 -4408 0
-4314 -4409 0
-4315 -4410 0
-4311 -4776 0
-4312 -4777 0
-4313 -4778 0
-4314 -4779 0
-4315 -4780 0
-4311 -5291 0
-4312 -5292 0
-4313 -5293 0
-4314 -5294 0
-4315 -5295 0
-4311 -5751 0
-4312 -5752 0
-4313 -5753 0
-4314 -5754 0
-4315 -5755 0
-4311 -6011 0
-4312 -6012 0
-4313 -6013 0
-4314 -6014 0
-4315 -6015 0
-4311 -6056 0
-4312 -6057 0
-4313 -6058 0
-4314 -6059 0
-4315 -6060 0
-4316 -4326 0
-4317 -4327 0
-4318 -4328 0
-4319 -4329 0
-4320 -4330 0
-4316 -4391 0
-4317 -4392 0
-4318 -4393 0
-4319 -4394 0
-4320 -4395 0
-4316 -5071 0
-4317 -5072 0
-4318 -5073 0
-4319 -5074 0
-4320 -5075 0
-4316 -5186 0
-4317 -5187 0
-4318 -5188 0
-4319 -5189 0
-4320 -5190 0
-4316 -6016 0
-4317 -6017 0
-4318 -6018 0
-4319 -6019 0
-4320 -6020 0
-4316 -6061 0
-4317 -6062 0
-4318 -6063 0
-4319 -6064 0
-4320 -6065 0
-4321 -4326 0
-4322 -4327 0
-4323 -4328 0
-4324 -4329 0
-4325 -4330 0
-4321 -4376 0
-4322 -4377 0
-4323 -4378 0
-4324 -4379 0
-4325 -4380 0
-4321 -4451 0
-4322 -4452 0
-4323 -4453 0
-4324 -4454 0
-4325 -4455 0
-4321 -4626 0
-4322 -4627 0
-4323 -4628 0
-4324 -4629 0
-4325 -4630 0
-4321 -5191 0
-4322 -5192 0
-4323 -5193 0
-4324 -5194 0
-4325 -5195 0
-4321 -5756 0
-4322 -5757 0
-4323 -5758 0
-4324 -5759 0
-4325 -5760 0
-4321 -6021 0
-4322 -6022 0
-4323 -6023 0
-4324 -6024 0
-4325 -6025 0
-4321 -6066 0
-4322 -6067 0
-4323 -6068 0
-4324 -6069 0
-4325 -6070 0
-4326 -4331 0
-4327 -4332 0
-4328 -4333 0
-4329 -4334 0
-4330 -4335 0
-4326 -4336 0
-4327 -4337 0
-4328 -4338 0
-4329 -4339 0
-4330 -4340 0
-4326 -4341 0
-4327 -4342 0
-4328 -4343 0
-4329 -4344 0
-4330 -4345 0
-4326 -4346 0
-4327 -4347 0
-4328 -4348 0
-4329 -4349 0
-4330 -4350 0
-4326 -4351 0
-4327 -4352 0
-4328 -4353 0
-4329 -4354 0
-4330 -4355 0
-4326 -4356 0
-4327 -4357 0
-4328 -4358 0
-4329 -4359 0
-4330 -4360 0
-4326 -4361 0
-4327 -4362 0
-4328 -4363 0
-4329 -4364 0
-4330 -4365 0
-4326 -4376 0
-4327 -4377 0
-4328 -4378 0
-4329 -4379 0
-4330 -4380 0
-4326 -4381 0
-4327 -4382 0
-4328 -4383 0
-4329 -4384 0
-4330 -4385 0
-4326 -4391 0
-4327 -4392 0
-4328 -4393 0
-4329 -4394 0
-4330 -4395 0
-4326 -4396 0
-4327 -4397 0
-4328 -4398 0
-4329 -4399 0
-4330 -4400 0
-4326 -4406 0
-4327 -4407 0
-4328 -4408 0
-4329 -4409 0
-4330 -4410 0
-4326 -4411 0
-4327 -4412 0
-4328 -4413 0
-4329 -4414 0
-4330 -4415 0
-4326 -4441 0
-4327 -4442 0
-4328 -4443 0
-4329 -4444 0
-4330 -4445 0
-4326 -4446 0
-4327 -4447 0
-4328 -4448 0
-4329 -4449 0
-4330 -4450 0
-4326 -4456 0
-4327 -4457 0
-4328 -4458 0
-4329 -4459 0
-4330 -4460 0
-4326 -4591 0
-4327 -4592 0
-4328 -4593 0
-4329 -4594 0
-4330 -4595 0
-4326 -4631 0
-4327 -4632 0
-4328 -4633 0
-4329 -4634 0
-4330 -4635 0
-4326 -4651 0
-4327 -4652 0
-4328 -4653 0
-4329 -4654 0
-4330 -4655 0
-4326 -4716 0
-4327 -4717 0
-4328 -4718 0
-4329 -4719 0
-4330 -4720 0
-4326 -4781 0
-4327 -4782 0
-4328 -4783 0
-4329 -4784 0
-4330 -4785 0
-4326 -4961 0
-4327 -4962 0
-4328 -4963 0
-4329 -4964 0
-4330 -4965 0
-4326 -5076 0
-4327 -5077 0
-4328 -5078 0
-4329 -5079 0
-4330 -5080 0
-4326 -5196 0
-4327 -5197 0
-4328 -5198 0
-4329 -5199 0
-4330 -5200 0
-4326 -5256 0
-4327 -5257 0
-4328 -5258 0
-4329 -5259 0
-4330 -5260 0
-4326 -5296 0
-4327 -5297 0
-4328 -5298 0
-4329 -5299 0
-4330 -5300 0
-4326 -5396 0
-4327 -5397 0
-4328 -5398 0
-4329 -5399 0
-4330 -5400 0
-4326 -5411 0
-4327 -5412 0
-4328 -5413 0
-4329 -5414 0
-4330 -5415 0
-4326 -5761 0
-4327 -5762 0
-4328 -5763 0
-4329 -5764 0
-4330 -5765 0
-4326 -5766 0
-4327 -5767 0
-4328 -5768 0
-4329 -5769 0
-4330 -5770 0
-4326 -5906 0
-4327 -5907 0
-4328 -5908 0
-4329 -5909 0
-4330 -5910 0
-4326 -5916 0
-4327 -5917 0
-4328 -5918 0
-4329 -5919 0
-4330 -5920 0
-4326 -6026 0
-4327 -6027 0
-4328 -6028 0
-4329 -6029 0
-4330 -6030 0
-4326 -6071 0
-4327 -6072 0
-4328 -6073 0
-4329 -6074 0
-4330 -6075 0
-4326 -6186 0
-4327 -6187 0
-4328 -6188 0
-4329 -6189 0
-4330 -6190 0
-4326 -6196 0
-4327 -6197 0
-4328 -6198 0
-4329 -6199 0
-4330 -6200 0
-4326 -6366 0
-4327 -6367 0
-4328 -6368 0
-4329 -6369 0
-4330 -6370 0
-4331 -4381 0
-4332 -4382 0
-4333 -4383 0
-4334 -4384 0
-4335 -4385 0
-4331 -4786 0
-4332 -4787 0
-4333 -4788 0
-4334 -4789 0
-4335 -4790 0
-4331 -5081 0
-4332 -5082 0
-4333 -5083 0
-4334 -5084 0
-4335 -5085 0
-4331 -6031 0
-4332 -6032 0
-4333 -6033 0
-4334 -6034 0
-4335 -6035 0
-4331 -6076 0
-4332 -6077 0
-4333 -6078 0
-4334 -6079 0
-4335 -6080 0
-4336 -4396 0
-4337 -4397 0
-4338 -4398 0
-4339 -4399 0
-4340 -4400 0
-4336 -4461 0
-4337 -4462 0
-4338 -4463 0
-4339 -4464 0
-4340 -4465 0
-4336 -4791 0
-4337 -4792 0
-4338 -4793 0
-4339 -4794 0
-4340 -4795 0
-4336 -5416 0
-4337 -5417 0
-4338 -5418 0
-4339 -5419 0
-4340 -5420 0
-4336 -6036 0
-4337 -6037 0
-4338 -6038 0
-4339 -6039 0
-4340 -6040 0
-4336 -6081 0
-4337 -6082 0
-4338 -6083 0
-4339 -6084 0
-4340 -6085 0
-4341 -4411 0
-4342 -4412 0
-4343 -4413 0
-4344 -4414 0
-4345 -4415 0
-4341 -4596 0
-4342 -4597 0
-4343 -4598 0
-4344 -4599 0
-4345 -4600 0
-4341 -4656 0
-4342 -4657 0
-4343 -4658 0
-4344 -4659 0
-4345 -4660 0
-4341 -4966 0
-4342 -4967 0
-4343 -4968 0
-4344 -4969 0
-4345 -4970 0
-4341 -5261 0
-4342 -5262 0
-4343 -5263 0
-4344 -5264 0
-4345 -5265 0
-4341 -6041 0
-4342 -6042 0
-4343 -6043 0
-4344 -6044 0
-4345 -6045 0
-4341 -6086 0
-4342 -6087 0
-4343 -6088 0
-4344 -6089 0
-4345 -6090 0
-4346 -4446 0
-4347 -4447 0
-4348 -4448 0
-4349 -4449 0
-4350 -4450 0
-4346 -4976 0
-4347 -4977 0
-4348 -4978 0
-4349 -4979 0
-4350 -4980 0
-4346 -5266 0
-4347 -5267 0
-4348 -5268 0
-4349 -5269 0
-4350 -5270 0
-4346 -5306 0
-4347 -5307 0
-4348 -5308 0
-4349 -5309 0
-4350 -5310 0
-4346 -6046 0
-4347 -6047 0
-4348 -6048 0
-4349 -6049 0
-4350 -6050 0
-4346 -6091 0
-4347 -6092 0
-4348 -6093 0
-4349 -6094 0
-4350 -6095 0
-4351 -4471 0
-4352 -4472 0
-4353 -4473 0
-4354 -4474 0
-4355 -4475 0
-4351 -4661 0
-4352 -4662 0
-4353 -4663 0
-4354 -4664 0
-4355 -4665 0
-4351 -5091 0
-4352 -5092 0
-4353 -5093 0
-4354 -5094 0
-4355 -5095 0
-4351 -5311 0
-4352 -5312 0
-4353 -5313 0
-4354 -5314 0
-4355 -5315 0
-4351 -5771 0
-4352 -5772 0
-4353 -5773 0
-4354 -5774 0
-4355 -5775 0
-4351 -6071 0
-4352 -6072 0
-4353 -6073 0
-4354 -6074 0
-4355 -6075 0
-4356 -4601 0
-4357 -4602 0
-4358 -4603 0
-4359 -4604 0
-4360 -4605 0
-4356 -4801 0
-4357 -4802 0
-4358 -4803 0
-4359 -4804 0
-4360 -4805 0
-4356 -4991 0
-4357 -4992 0
-4358 -4993 0
-4359 -4994 0
-4360 -4995 0
-4356 -5776 0
-4357 -5777 0
-4358 -5778 0
-4359 -5779 0
-4360 -5780 0
-4356 -5916 0
-4357 -5917 0
-4358 -5918 0
-4359 -5919 0
-4360 -5920 0
-4356 -6096 0
-4357 -6097 0
-4358 -6098 0
-4359 -6099 0
-4360 -6100 0
-4356 -6101 0
-4357 -6102 0
-4358 -6103 0
-4359 -6104 0
-4360 -6105 0
-4361 -4476 0
-4362 -4477 0
-4363 -4478 0
-4364 -4479 0
-4365 -4480 0
-4361 -5001 0
-4362 -5002 0
-4363 -5003 0
-4364 -5004 0
-4365 -5005 0
-4361 -6106 0
-4362 -6107 0
-4363 -6108 0
-4364 -6109 0
-4365 -6110 0
-4361 -6111 0
-4362 -6112 0
-4363 -6113 0
-4364 -6114 0
-4365 -6115 0
-4361 -6196 0
-4362 -6197 0
-4363 -6198 0
-4364 -6199 0
-4365 -6200 0
-4366 -4371 0
-4367 -4372 0
-4368 -4373 0
-4369 -4374 0
-4370 -4375 0
-4366 -4376 0
-4367 -4377 0
-4368 -4378 0
-4369 -4379 0
-4370 -4380 0
-4366 -4731 0
-4367 -4732 0
-4368 -4733 0
-4369 -4734 0
-4370 -4735 0
-4366 -5431 0
-4367 -5432 0
-4368 -5433 0
-4369 -5434 0
-4370 -5435 0
-4366 -6116 0
-4367 -6117 0
-4368 -6118 0
-4369 -6119 0
-4370 -6120 0
-4371 -4381 0
-4372 -4382 0
-4373 -4383 0
-4374 -4384 0
-4375 -4385 0
-4371 -4806 0
-4372 -4807 0
-4373 -4808 0
-4374 -4809 0
-4375 -4810 0
-4371 -5291 0
-4372 -5292 0
-4373 -5293 0
-4374 -5294 0
-4375 -5295 0
-4371 -5436 0
-4372 -5437 0
-4373 -5438 0
-4374 -5439 0
-4375 -5440 0
-4371 -6121 0
-4372 -6122 0
-4373 -6123 0
-4374 -6124 0
-4375 -6125 0
-4376 -4381 0
-4377 -4382 0
-4378 -4383 0
-4379 -4384 0
-4380 -4385 0
-4376 -4486 0
-4377 -4487 0
-4378 -4488 0
-4379 -4489 0
-4380 -4490 0
-4376 -4736 0
-4377 -4737 0
-4378 -4738 0
-4379 -4739 0
-4380 -4740 0
-4376 -5201 0
-4377 -5202 0
-4378 -5203 0
-4379 -5204 0
-4380 -5205 0
-4376 -5456 0
-4377 -5457 0
-4378 -5458 0
-4379 -5459 0
-4380 -5460 0
-4376 -5781 0
-4377 -5782 0
-4378 -5783 0
-4379 -5784 0
-4380 -5785 0
-4376 -6116 0
-4377 -6117 0
-4378 -6118 0
-4379 -6119 0
-4380 -6120 0
-4376 -6126 0
-4377 -6127 0
-4378 -6128 0
-4379 -6129 0
-4380 -6130 0
-4381 -4816 0
-4382 -4817 0
-4383 -4818 0
-4384 -4819 0
-4385 -4820 0
-4381 -5461 0
-4382 -5462 0
-4383 -5463 0
-4384 -5464 0
-4385 -5465 0
-4381 -5786 0
-4382 -5787 0
-4383 -5788 0
-4384 -5789 0
-4385 -5790 0
-4381 -6121 0
-4382 -6122 0
-4383 -6123 0
-4384 -6124 0
-4385 -6125 0
-4381 -6131 0
-4382 -6132 0
-4383 -6133 0
-4384 -6134 0
-4385 -6135 0
-4386 -4396 0
-4387 -4397 0
-4388 -4398 0
-4389 -4399 0
-4390 -4400 0
-4386 -4721 0
-4387 -4722 0
-4388 -4723 0
-4389 -4724 0
-4390 -4725 0
-4386 -4851 0
-4387 -4852 0
-4388 -4853 0
-4389 -4854 0
-4390 -4855 0
-4386 -5481 0
-4387 -5482 0
-4388 -5483 0
-4389 -5484 0
-4390 -5485 0
-4386 -6141 0
-4387 -6142 0
-4388 -6143 0
-4389 -6144 0
-4390 -6145 0
-4391 -4396 0
-4392 -4397 0
-4393 -4398 0
-4394 -4399 0
-4395 -4400 0
-4391 -5236 0
-4392 -5237 0
-4393 -5238 0
-4394 -5239 0
-4395 -5240 0
-4391 -5796 0
-4392 -5797 0
-4393 -5798 0
-4394 -5799 0
-4395 -5800 0
-4391 -6136 0
-4392 -6137 0
-4393 -6138 0
-4394 -6139 0
-4395 -6140 0
-4391 -6146 0
-4392 -6147 0
-4393 -6148 0
-4394 -6149 0
-4395 -6150 0
-4391 -6416 0
-4392 -6417 0
-4393 -6418 0
-4394 -6419 0
-4395 -6420 0
-4396 -4506 0
-4397 -4507 0
-4398 -4508 0
-4399 -4509 0
-4400 -4510 0
-4396 -4856 0
-4397 -4857 0
-4398 -4858 0
-4399 -4859 0
-4400 -4860 0
-4396 -5486 0
-4397 -5487 0
-4398 -5488 0
-4399 -5489 0
-4400 -5490 0
-4396 -5801 0
-4397 -5802 0
-4398 -5803 0
-4399 -5804 0
-4400 -5805 0
-4396 -6141 0
-4397 -6142 0
-4398 -6143 0
-4399 -6144 0
-4400 -6145 0
-4396 -6151 0
-4397 -6152 0
-4398 -6153 0
-4399 -6154 0
-4400 -6155 0
-4401 -4406 0
-4402 -4407 0
-4403 -4408 0
-4404 -4409 0
-4405 -4410 0
-4401 -4751 0
-4402 -4752 0
-4403 -4753 0
-4404 -4754 0
-4405 -4755 0
-4401 -5831 0
-4402 -5832 0
-4403 -5833 0
-4404 -5834 0
-4405 -5835 0
-4401 -6156 0
-4402 -6157 0
-4403 -6158 0
-4404 -6159 0
-4405 -6160 0
-4406 -4411 0
-4407 -4412 0
-4408 -4413 0
-4409 -4414 0
-4410 -4415 0
-4406 -4531 0
-4407 -4532 0
-4408 -4533 0
-4409 -4534 0
-4410 -4535 0
-4406 -5846 0
-4407 -5847 0
-4408 -5848 0
-4409 -5849 0
-4410 -5850 0
-4406 -6156 0
-4407 -6157 0
-4408 -6158 0
-4409 -6159 0
-4410 -6160 0
-4406 -6166 0
-4407 -6167 0
-4408 -6168 0
-4409 -6169 0
-4410 -6170 0
-4411 -4641 0
-4412 -4642 0
-4413 -4643 0
-4414 -4644 0
-4415 -4645 0
-4411 -4666 0
-4412 -4667 0
-4413 -4668 0
-4414 -4669 0
-4415 -4670 0
-4411 -4796 0
-4412 -4797 0
-4413 -4798 0
-4414 -4799 0
-4415 -4800 0
-4411 -5506 0
-4412 -5507 0
-4413 -5508 0
-4414 -5509 0
-4415 -5510 0
-4411 -6161 0
-4412 -6162 0
-4413 -6163 0
-4414 -6164 0
-4415 -6165 0
-4411 -6171 0
-4412 -6172 0
-4413 -6173 0
-4414 -6174 0
-4415 -6175 0
-4416 -4421 0
-4417 -4422 0
-4418 -4423 0
-4419 -4424 0
-4420 -4425 0
-4416 -4426 0
-4417 -4427 0
-4418 -4428 0
-4419 -4429 0
-4420 -4430 0
-4416 -4746 0
-4417 -4747 0
-4418 -4748 0
-4419 -4749 0
-4420 -4750 0
-4416 -5526 0
-4417 -5527 0
-4418 -5528 0
-4419 -5529 0
-4420 -5530 0
-4416 -5866 0
-4417 -5867 0
-4418 -5868 0
-4419 -5869 0
-4420 -5870 0
-4416 -5991 0
-4417 -5992 0
-4418 -5993 0
-4419 -5994 0
-4420 -5995 0
-4416 -6026 0
-4417 -6027 0
-4418 -6028 0
-4419 -6029 0
-4420 -6030 0
-4416 -6436 0
-4417 -6437 0
-4418 -6438 0
-4419 -6439 0
-4420 -6440 0
-4421 -4431 0
-4422 -4432 0
-4423 -4433 0
-4424 -4434 0
-4425 -4435 0
-4421 -5321 0
-4422 -5322 0
-4423 -5323 0
-4424 -5324 0
-4425 -5325 0
-4421 -5346 0
-4422 -5347 0
-4423 -5348 0
-4424 -5349 0
-4425 -5350 0
-4421 -5996 0
-4422 -5997 0
-4423 -5998 0
-4424 -5999 0
-4425 -6000 0
-4421 -6071 0
-4422 -6072 0
-4423 -6073 0
-4424 -6074 0
-4425 -6075 0
-4426 -4431 0
-4427 -4432 0
-4428 -4433 0
-4429 -4434 0
-4430 -4435 0
-4426 -4556 0
-4427 -4557 0
-4428 -4558 0
-4429 -4559 0
-4430 -4560 0
-4426 -4846 0
-4427 -4847 0
-4428 -4848 0
-4429 -4849 0
-4430 -4850 0
-4426 -5071 0
-4427 -5072 0
-4428 -5073 0
-4429 -5074 0
-4430 -5075 0
-4426 -5326 0
-4427 -5327 0
-4428 -5328 0
-4429 -5329 0
-4430 -5330 0
-4426 -5551 0
-4427 -5552 0
-4428 -5553 0
-4429 -5554 0
-4430 -5555 0
-4426 -5871 0
-4427 -5872 0
-4428 -5873 0
-4429 -5874 0
-4430 -5875 0
-4426 -6026 0
-4427 -6027 0
-4428 -6028 0
-4429 -6029 0
-4430 -6030 0
-4426 -6096 0
-4427 -6097 0
-4428 -6098 0
-4429 -6099 0
-4430 -6100 0
-4426 -6176 0
-4427 -6177 0
-4428 -6178 0
-4429 -6179 0
-4430 -6180 0
-4431 -4691 0
-4432 -4692 0
-4433 -4693 0
-4434 -4694 0
-4435 -4695 0
-4431 -5086 0
-4432 -5087 0
-4433 -5088 0
-4434 -5089 0
-4435 -5090 0
-4431 -5331 0
-4432 -5332 0
-4433 -5333 0
-4434 -5334 0
-4435 -5335 0
-4431 -5876 0
-4432 -5877 0
-4433 -5878 0
-4434 -5879 0
-4435 -5880 0
-4431 -6071 0
-4432 -6072 0
-4433 -6073 0
-4434 -6074 0
-4435 -6075 0
-4431 -6101 0
-4432 -6102 0
-4433 -6103 0
-4434 -6104 0
-4435 -6105 0
-4431 -6176 0
-4432 -6177 0
-4433 -6178 0
-4434 -6179 0
-4435 -6180 0
-4436 -4446 0
-4437 -4447 0
-4438 -4448 0
-4439 -4449 0
-4440 -4450 0
-4436 -5351 0
-4437 -5352 0
-4438 -5353 0
-4439 -5354 0
-4440 -5355 0
-4436 -5586 0
-4437 -5587 0
-4438 -5588 0
-4439 -5589 0
-4440 -5590 0
-4436 -6206 0
-4437 -6207 0
-4438 -6208 0
-4439 -6209 0
-4440 -6210 0
-4441 -4446 0
-4442 -4447 0
-4443 -4448 0
-4444 -4449 0
-4445 -4450 0
-4441 -4586 0
-4442 -4587 0
-4443 -4588 0
-4444 -4589 0
-4445 -4590 0
-4441 -5591 0
-4442 -5592 0
-4443 -5593 0
-4444 -5594 0
-4445 -5595 0
-4441 -6201 0
-4442 -6202 0
-4443 -6203 0
-4444 -6204 0
-4445 -6205 0
-4441 -6211 0
-4442 -6212 0
-4443 -6213 0
-4444 -6214 0
-4445 -6215 0
-4446 -4731 0
-4447 -4732 0
-4448 -4733 0
-4449 -4734 0
-4450 -4735 0
-4446 -5596 0
-4447 -5597 0
-4448 -5598 0
-4449 -5599 0
-4450 -5600 0
-4446 -6206 0
-4447 -6207 0
-4448 -6208 0
-4449 -6209 0
-4450 -6210 0
-4446 -6216 0
-4447 -6217 0
-4448 -6218 0
-4449 -6219 0
-4450 -6220 0
-4451 -4456 0
-4452 -4457 0
-4453 -4458 0
-4454 -4459 0
-4455 -4460 0
-4451 -4466 0
-4452 -4467 0
-4453 -4468 0
-4454 -4469 0
-4455 -4470 0
-4451 -4486 0
-4452 -4487 0
-4453 -4488 0
-4454 -4489 0
-4455 -4490 0
-4451 -4501 0
-4452 -4502 0
-4453 -4503 0
-4454 -4504 0
-4455 -4505 0
-4451 -4526 0
-4452 -4527 0
-4453 -4528 0
-4454 -4529 0
-4455 -4530 0
-4451 -4536 0
-4452 -4537 0
-4453 -4538 0
-4454 -4539 0
-4455 -4540 0
-4451 -4746 0
-4452 -4747 0
-4453 -4748 0
-4454 -4749 0
-4455 -4750 0
-4451 -5361 0
-4452 -5362 0
-4453 -5363 0
-4454 -5364 0
-4455 -5365 0
-4451 -5926 0
-4452 -5927 0
-4453 -5928 0
-4454 -5929 0
-4455 -5930 0
-4451 -6251 0
-4452 -6252 0
-4453 -6253 0
-4454 -6254 0
-4455 -6255 0
-4456 -4461 0
-4457 -4462 0
-4458 -4463 0
-4459 -4464 0
-4460 -4465 0
-4456 -4471 0
-4457 -4472 0
-4458 -4473 0
-4459 -4474 0
-4460 -4475 0
-4456 -4476 0
-4457 -4477 0
-4458 -4478 0
-4459 -4479 0
-4460 -4480 0
-4456 -4486 0
-4457 -4487 0
-4458 -4488 0
-4459 -4489 0
-4460 -4490 0
-4456 -4506 0
-4457 -4507 0
-4458 -4508 0
-4459 -4509 0
-4460 -4510 0
-4456 -4531 0
-4457 -4532 0
-4458 -4533 0
-4459 -4534 0
-4460 -4535 0
-4456 -4586 0
-4457 -4587 0
-4458 -4588 0
-4459 -4589 0
-4460 -4590 0
-4456 -4706 0
-4457 -4707 0
-4458 -4708 0
-4459 -4709 0
-4460 -4710 0
-4456 -5096 0
-4457 -5097 0
-4458 -5098 0
-4459 -5099 0
-4460 -5100 0
-4456 -5211 0
-4457 -5212 0
-4458 -5213 0
-4459 -5214 0
-4460 -5215 0
-4456 -5411 0
-4457 -5412 0
-4458 -5413 0
-4459 -5414 0
-4460 -5415 0
-4456 -6256 0
-4457 -6257 0
-4458 -6258 0
-4459 -6259 0
-4460 -6260 0
-4456 -6496 0
-4457 -6497 0
-4458 -6498 0
-4459 -6499 0
-4460 -6500 0
-4461 -4491 0
-4462 -4492 0
-4463 -4493 0
-4464 -4494 0
-4465 -4495 0
-4461 -4506 0
-4462 -4507 0
-4463 -4508 0
-4464 -4509 0
-4465 -4510 0
-4461 -4711 0
-4462 -4712 0
-4463 -4713 0
-4464 -4714 0
-4465 -4715 0
-4461 -4926 0
-4462 -4927 0
-4463 -4928 0
-4464 -4929 0
-4465 -4930 0
-4461 -5101 0
-4462 -5102 0
-4463 -5103 0
-4464 -5104 0
-4465 -5105 0
-4461 -5416 0
-4462 -5417 0
-4463 -5418 0
-4464 -5419 0
-4465 -5420 0
-4461 -5451 0
-4462 -5452 0
-4463 -5453 0
-4464 -5454 0
-4465 -5455 0
-4461 -6261 0
-4462 -6262 0
-4463 -6263 0
-4464 -6264 0
-4465 -6265 0
-4461 -6331 0
-4462 -6332 0
-4463 -6333 0
-4464 -6334 0
-4465 -6335 0
-4466 -4471 0
-4467 -4472 0
-4468 -4473 0
-4469 -4474 0
-4470 -4475 0
-4466 -4541 0
-4467 -4542 0
-4468 -4543 0
-4469 -4544 0
-4470 -4545 0
-4466 -5366 0
-4467 -5367 0
-4468 -5368 0
-4469 -5369 0
-4470 -5370 0
-4466 -5476 0
-4467 -5477 0
-4468 -5478 0
-4469 -5479 0
-4470 -5480 0
-4466 -5936 0
-4467 -5937 0
-4468 -5938 0
-4469 -5939 0
-4470 -5940 0
-4466 -6251 0
-4467 -6252 0
-4468 -6253 0
-4469 -6254 0
-4470 -6255 0
-4471 -4546 0
-4472 -4547 0
-4473 -4548 0
-4474 -4549 0
-4475 -4550 0
-4471 -5216 0
-4472 -5217 0
-4473 -5218 0
-4474 -5219 0
-4475 -5220 0
-4471 -6256 0
-4472 -6257 0
-4473 -6258 0
-4474 -6259 0
-4475 -6260 0
-4476 -4596 0
-4477 -4597 0
-4478 -4598 0
-4479 -4599 0
-4480 -4600 0
-4476 -4786 0
-4477 -4787 0
-4478 -4788 0
-4479 -4789 0
-4480 -4790 0
-4476 -5121 0
-4477 -5122 0
-4478 -5123 0
-4479 -5124 0
-4480 -5125 0
-4476 -5251 0
-4477 -5252 0
-4478 -5253 0
-4479 -5254 0
-4480 -5255 0
-4476 -6271 0
-4477 -6272 0
-4478 -6273 0
-4479 -6274 0
-4480 -6275 0
-4481 -4491 0
-4482 -4492 0
-4483 -4493 0
-4484 -4494 0
-4485 -4495 0
-4481 -4516 0
-4482 -4517 0
-4483 -4518 0
-4484 -4519 0
-4485 -4520 0
-4481 -5441 0
-4482 -5442 0
-4483 -5443 0
-4484 -5444 0
-4485 -5445 0
-4481 -5631 0
-4482 -5632 0
-4483 -5633 0
-4484 -5634 0
-4485 -5635 0
-4481 -6276 0
-4482 -6277 0
-4483 -6278 0
-4484 -6279 0
-4485 -6280 0
-4481 -6356 0
-4482 -6357 0
-4483 -6358 0
-4484 -6359 0
-4485 -6360 0
-4486 -4491 0
-4487 -4492 0
-4488 -4493 0
-4489 -4494 0
-4490 -4495 0
-4486 -4521 0
-4487 -4522 0
-4488 -4523 0
-4489 -4524 0
-4490 -4525 0
-4486 -4656 0
-4487 -4657 0
-4488 -4658 0
-4489 -4659 0
-4490 -4660 0
-4486 -5131 0
-4487 -5132 0
-4488 -5133 0
-4489 -5134 0
-4490 -5135 0
-4486 -5376 0
-4487 -5377 0
-4488 -5378 0
-4489 -5379 0
-4490 -5380 0
-4486 -5456 0
-4487 -5457 0
-4488 -5458 0
-4489 -5459 0
-4490 -5460 0
-4486 -5941 0
-4487 -5942 0
-4488 -5943 0
-4489 -5944 0
-4490 -5945 0
-4486 -6281 0
-4487 -6282 0
-4488 -6283 0
-4489 -6284 0
-4490 -6285 0
-4491 -4496 0
-4492 -4497 0
-4493 -4498 0
-4494 -4499 0
-4495 -4500 0
-4491 -4521 0
-4492 -4522 0
-4493 -4523 0
-4494 -4524 0
-4495 -4525 0
-4491 -4731 0
-4492 -4732 0
-4493 -4733 0
-4494 -4734 0
-4495 -4735 0
-4491 -4981 0
-4492 -4982 0
-4493 -4983 0
-4494 -4984 0
-4495 -4985 0
-4491 -5466 0
-4492 -5467 0
-4493 -5468 0
-4494 -5469 0
-4495 -5470 0
-4491 -5636 0
-4492 -5637 0
-4493 -5638 0
-4494 -5639 0
-4495 -5640 0
-4491 -5946 0
-4492 -5947 0
-4493 -5948 0
-4494 -5949 0
-4495 -5950 0
-4491 -6276 0
-4492 -6277 0
-4493 -6278 0
-4494 -6279 0
-4495 -6280 0
-4491 -6286 0
-4492 -6287 0
-4493 -6288 0
-4494 -6289 0
-4495 -6290 0
-4491 -6366 0
-4492 -6367 0
-4493 -6368 0
-4494 -6369 0
-4495 -6370 0
-4496 -4821 0
-4497 -4822 0
-4498 -4823 0
-4499 -4824 0
-4500 -4825 0
-4496 -5661 0
-4497 -5662 0
-4498 -5663 0
-4499 -5664 0
-4500 -5665 0
-4496 -6366 0
-4497 -6367 0
-4498 -6368 0
-4499 -6369 0
-4500 -6370 0
-4501 -4506 0
-4502 -4507 0
-4503 -4508 0
-4504 -4509 0
-4505 -4510 0
-4501 -4521 0
-4502 -4522 0
-4503 -4523 0
-4504 -4524 0
-4505 -4525 0
-4501 -4551 0
-4502 -4552 0
-4503 -4553 0
-4504 -4554 0
-4505 -4555 0
-4501 -4556 0
-4502 -4557 0
-4503 -4558 0
-4504 -4559 0
-4505 -4560 0
-4501 -4841 0
-4502 -4842 0
-4503 -4843 0
-4504 -4844 0
-4505 -4845 0
-4501 -5136 0
-4502 -5137 0
-4503 -5138 0
-4504 -5139 0
-4505 -5140 0
-4501 -5406 0
-4502 -5407 0
-4503 -5408 0
-4504 -5409 0
-4505 -5410 0
-4501 -5661 0
-4502 -5662 0
-4503 -5663 0
-4504 -5664 0
-4505 -5665 0
-4501 -5961 0
-4502 -5962 0
-4503 -5963 0
-4504 -5964 0
-4505 -5965 0
-4501 -6291 0
-4502 -6292 0
-4503 -6293 0
-4504 -6294 0
-4505 -6295 0
-4506 -4521 0
-4507 -4522 0
-4508 -4523 0
-4509 -4524 0
-4510 -4525 0
-4506 -5011 0
-4507 -5012 0
-4508 -5013 0
-4509 -5014 0
-4510 -5015 0
-4506 -5141 0
-4507 -5142 0
-4508 -5143 0
-4509 -5144 0
-4510 -5145 0
-4506 -5666 0
-4507 -5667 0
-4508 -5668 0
-4509 -5669 0
-4510 -5670 0
-4506 -5966 0
-4507 -5967 0
-4508 -5968 0
-4509 -5969 0
-4510 -5970 0
-4506 -6296 0
-4507 -6297 0
-4508 -6298 0
-4509 -6299 0
-4510 -6300 0
-4506 -6546 0
-4507 -6547 0
-4508 -6548 0
-4509 -6549 0
-4510 -6550 0
-4511 -4521 0
-4512 -4522 0
-4513 -4523 0
-4514 -4524 0
-4515 -4525 0
-4511 -4566 0
-4512 -4567 0
-4513 -4568 0
-4514 -4569 0
-4515 -4570 0
-4511 -4886 0
-4512 -4887 0
-4513 -4888 0
-4514 -4889 0
-4515 -4890 0
-4511 -5156 0
-4512 -5157 0
-4513 -5158 0
-4514 -5159 0
-4515 -5160 0
-4511 -5421 0
-4512 -5422 0
-4513 -5423 0
-4514 -5424 0
-4515 -5425 0
-4511 -5991 0
-4512 -5992 0
-4513 -5993 0
-4514 -5994 0
-4515 -5995 0
-4511 -6221 0
-4512 -6222 0
-4513 -6223 0
-4514 -6224 0
-4515 -6225 0
-4511 -6371 0
-4512 -6372 0
-4513 -6373 0
-4514 -6374 0
-4515 -6375 0
-4511 -6396 0
-4512 -6397 0
-4513 -6398 0
-4514 -6399 0
-4515 -6400 0
-4511 -6551 0
-4512 -6552 0
-4513 -6553 0
-4514 -6554 0
-4515 -6555 0
-4516 -4521 0
-4517 -4522 0
-4518 -4523 0
-4519 -4524 0
-4520 -4525 0
-4516 -6001 0
-4517 -6002 0
-4518 -6003 0
-4519 -6004 0
-4520 -6005 0
-4516 -6301 0
-4517 -6302 0
-4518 -6303 0
-4519 -6304 0
-4520 -6305 0
-4516 -6411 0
-4517 -6412 0
-4518 -6413 0
-4519 -6414 0
-4520 -6415 0
-4521 -4571 0
-4522 -4572 0
-4523 -4573 0
-4524 -4574 0
-4525 -4575 0
-4521 -4861 0
-4522 -4862 0
-4523 -4863 0
-4524 -4864 0
-4525 -4865 0
-4521 -5021 0
-4522 -5022 0
-4523 -5023 0
-4524 -5024 0
-4525 -5025 0
-4521 -5446 0
-4522 -5447 0
-4523 -5448 0
-4524 -5449 0
-4525 -5450 0
-4521 -5671 0
-4522 -5672 0
-4523 -5673 0
-4524 -5674 0
-4525 -5675 0
-4521 -6026 0
-4522 -6027 0
-4523 -6028 0
-4524 -6029 0
-4525 -6030 0
-4521 -6221 0
-4522 -6222 0
-4523 -6223 0
-4524 -6224 0
-4525 -6225 0
-4521 -6301 0
-4522 -6302 0
-4523 -6303 0
-4524 -6304 0
-4525 -6305 0
-4521 -6306 0
-4522 -6307 0
-4523 -6308 0
-4524 -6309 0
-4525 -6310 0
-4521 -6381 0
-4522 -6382 0
-4523 -6383 0
-4524 -6384 0
-4525 -6385 0
-4521 -6416 0
-4522 -6417 0
-4523 -6418 0
-4524 -6419 0
-4525 -6420 0
-4526 -4531 0
-4527 -4532 0
-4528 -4533 0
-4529 -4534 0
-4530 -4535 0
-4526 -4536 0
-4527 -4537 0
-4528 -4538 0
-4529 -4539 0
-4530 -4540 0
-4526 -4541 0
-4527 -4542 0
-4528 -4543 0
-4529 -4544 0
-4530 -4545 0
-4526 -4551 0
-4527 -4552 0
-4528 -4553 0
-4529 -4554 0
-4530 -4555 0
-4526 -4611 0
-4527 -4612 0
-4528 -4613 0
-4529 -4614 0
-4530 -4615 0
-4526 -4621 0
-4527 -4622 0
-4528 -4623 0
-4529 -4624 0
-4530 -4625 0
-4526 -4921 0
-4527 -4922 0
-4528 -4923 0
-4529 -4924 0
-4530 -4925 0
-4526 -5181 0
-4527 -5182 0
-4528 -5183 0
-4529 -5184 0
-4530 -5185 0
-4526 -5536 0
-4527 -5537 0
-4528 -5538 0
-4529 -5539 0
-4530 -5540 0
-4526 -6026 0
-4527 -6027 0
-4528 -6028 0
-4529 -6029 0
-4530 -6030 0
-4526 -6226 0
-4527 -6227 0
-4528 -6228 0
-4529 -6229 0
-4530 -6230 0
-4526 -6236 0
-4527 -6237 0
-4528 -6238 0
-4529 -6239 0
-4530 -6240 0
-4526 -6311 0
-4527 -6312 0
-4528 -6313 0
-4529 -6314 0
-4530 -6315 0
-4531 -4546 0
-4532 -4547 0
-4533 -4548 0
-4534 -4549 0
-4535 -4550 0
-4531 -4616 0
-4532 -4617 0
-4533 -4618 0
-4534 -4619 0
-4535 -4620 0
-4531 -5186 0
-4532 -5187 0
-4533 -5188 0
-4534 -5189 0
-4535 -5190 0
-4531 -5326 0
-4532 -5327 0
-4533 -5328 0
-4534 -5329 0
-4535 -5330 0
-4531 -6031 0
-4532 -6032 0
-4533 -6033 0
-4534 -6034 0
-4535 -6035 0
-4531 -6316 0
-4532 -6317 0
-4533 -6318 0
-4534 -6319 0
-4535 -6320 0
-4531 -6561 0
-4532 -6562 0
-4533 -6563 0
-4534 -6564 0
-4535 -6565 0
-4536 -4556 0
-4537 -4557 0
-4538 -4558 0
-4539 -4559 0
-4540 -4560 0
-4536 -4756 0
-4537 -4757 0
-4538 -4758 0
-4539 -4759 0
-4540 -4760 0
-4536 -4926 0
-4537 -4927 0
-4538 -4928 0
-4539 -4929 0
-4540 -4930 0
-4536 -5501 0
-4537 -5502 0
-4538 -5503 0
-4539 -5504 0
-4540 -5505 0
-4536 -6041 0
-4537 -6042 0
-4538 -6043 0
-4539 -6044 0
-4540 -6045 0
-4536 -6321 0
-4537 -6322 0
-4538 -6323 0
-4539 -6324 0
-4540 -6325 0
-4541 -4546 0
-4542 -4547 0
-4543 -4548 0
-4544 -4549 0
-4545 -4550 0
-4541 -4561 0
-4542 -4562 0
-4543 -4563 0
-4544 -4564 0
-4545 -4565 0
-4541 -4626 0
-4542 -4627 0
-4543 -4628 0
-4544 -4629 0
-4545 -4630 0
-4541 -4636 0
-4542 -4637 0
-4543 -4638 0
-4544 -4639 0
-4545 -4640 0
-4541 -4776 0
-4542 -4777 0
-4543 -4778 0
-4544 -4779 0
-4545 -4780 0
-4541 -5541 0
-4542 -5542 0
-4543 -5543 0
-4544 -5544 0
-4545 -5545 0
-4541 -6071 0
-4542 -6072 0
-4543 -6073 0
-4544 -6074 0
-4545 -6075 0
-4541 -6231 0
-4542 -6232 0
-4543 -6233 0
-4544 -6234 0
-4545 -6235 0
-4541 -6241 0
-4542 -6242 0
-4543 -6243 0
-4544 -6244 0
-4545 -6245 0
-4541 -6311 0
-4542 -6312 0
-4543 -6313 0
-4544 -6314 0
-4545 -6315 0
-4546 -4631 0
-4547 -4632 0
-4548 -4633 0
-4549 -4634 0
-4550 -4635 0
-4546 -5331 0
-4547 -5332 0
-4548 -5333 0
-4549 -5334 0
-4550 -5335 0
-4546 -6076 0
-4547 -6077 0
-4548 -6078 0
-4549 -6079 0
-4550 -6080 0
-4546 -6316 0
-4547 -6317 0
-4548 -6318 0
-4549 -6319 0
-4550 -6320 0
-4551 -4556 0
-4552 -4557 0
-4553 -4558 0
-4554 -4559 0
-4555 -4560 0
-4551 -4561 0
-4552 -4562 0
-4553 -4563 0
-4554 -4564 0
-4555 -4565 0
-4551 -4681 0
-4552 -4682 0
-4553 -4683 0
-4554 -4684 0
-4555 -4685 0
-4551 -4931 0
-4552 -4932 0
-4553 -4933 0
-4554 -4934 0
-4555 -4935 0
-4551 -5231 0
-4552 -5232 0
-4553 -5233 0
-4554 -5234 0
-4555 -5235 0
-4551 -5696 0
-4552 -5697 0
-4553 -5698 0
-4554 -5699 0
-4555 -5700 0
-4551 -6141 0
-4552 -6142 0
-4553 -6143 0
-4554 -6144 0
-4555 -6145 0
-4551 -6326 0
-4552 -6327 0
-4553 -6328 0
-4554 -6329 0
-4555 -6330 0
-4556 -4571 0
-4557 -4572 0
-4558 -4573 0
-4559 -4574 0
-4560 -4575 0
-4556 -4851 0
-4557 -4852 0
-4558 -4853 0
-4559 -4854 0
-4560 -4855 0
-4556 -5241 0
-4557 -5242 0
-4558 -5243 0
-4559 -5244 0
-4560 -5245 0
-4556 -5701 0
-4557 -5702 0
-4558 -5703 0
-4559 -5704 0
-4560 -5705 0
-4561 -4686 0
-4562 -4687 0
-4563 -4688 0
-4564 -4689 0
-4565 -4690 0
-4561 -5256 0
-4562 -5257 0
-4563 -5258 0
-4564 -5259 0
-4565 -5260 0
-4561 -6151 0
-4562 -6152 0
-4563 -6153 0
-4564 -6154 0
-4565 -6155 0
-4561 -6326 0
-4562 -6327 0
-4563 -6328 0
-4564 -6329 0
-4565 -6330 0
-4566 -4571 0
-4567 -4572 0
-4568 -4573 0
-4569 -4574 0
-4570 -4575 0
-4566 -4966 0
-4567 -4967 0
-4568 -4968 0
-4569 -4969 0
-4570 -4970 0
-4566 -5276 0
-4567 -5277 0
-4568 -5278 0
-4569 -5279 0
-4570 -5280 0
-4566 -5566 0
-4567 -5567 0
-4568 -5568 0
-4569 -5569 0
-4570 -5570 0
-4566 -5706 0
-4567 -5707 0
-4568 -5708 0
-4569 -5709 0
-4570 -5710 0
-4566 -6431 0
-4567 -6432 0
-4568 -6433 0
-4569 -6434 0
-4570 -6435 0
-4566 -6446 0
-4567 -6447 0
-4568 -6448 0
-4569 -6449 0
-4570 -6450 0
-4566 -6611 0
-4567 -6612 0
-4568 -6613 0
-4569 -6614 0
-4570 -6615 0
-4571 -4866 0
-4572 -4867 0
-4573 -4868 0
-4574 -4869 0
-4575 -4870 0
-4571 -5036 0
-4572 -5037 0
-4573 -5038 0
-4574 -5039 0
-4575 -5040 0
-4571 -5296 0
-4572 -5297 0
-4573 -5298 0
-4574 -5299 0
-4575 -5300 0
-4571 -5716 0
-4572 -5717 0
-4573 -5718 0
-4574 -5719 0
-4575 -5720 0
-4571 -6161 0
-4572 -6162 0
-4573 -6163 0
-4574 -6164 0
-4575 -6165 0
-4576 -4591 0
-4577 -4592 0
-4578 -4593 0
-4579 -4594 0
-4580 -4595 0
-4576 -5581 0
-4577 -5582 0
-4578 -5583 0
-4579 -5584 0
-4580 -5585 0
-4576 -5726 0
-4577 -5727 0
-4578 -5728 0
-4579 -5729 0
-4580 -5730 0
-4576 -6336 0
-4577 -6337 0
-4578 -6338 0
-4579 -6339 0
-4580 -6340 0
-4576 -6341 0
-4577 -6342 0
-4578 -6343 0
-4579 -6344 0
-4580 -6345 0
-4581 -4586 0
-4582 -4587 0
-4583 -4588 0
-4584 -4589 0
-4585 -4590 0
-4581 -4591 0
-4582 -4592 0
-4583 -4593 0
-4584 -4594 0
-4585 -4595 0
-4581 -4616 0
-4582 -4617 0
-4583 -4618 0
-4584 -4619 0
-4585 -4620 0
-4581 -4701 0
-4582 -4702 0
-4583 -4703 0
-4584 -4704 0
-4585 -4705 0
-4581 -5236 0
-4582 -5237 0
-4583 -5238 0
-4584 -5239 0
-4585 -5240 0
-4581 -6371 0
-4582 -6372 0
-4583 -6373 0
-4584 -6374 0
-4585 -6375 0
-4586 -4596 0
-4587 -4597 0
-4588 -4598 0
-4589 -4599 0
-4590 -4600 0
-4586 -4616 0
-4587 -4617 0
-4588 -4618 0
-4589 -4619 0
-4590 -4620 0
-4586 -4881 0
-4587 -4882 0
-4588 -4883 0
-4589 -4884 0
-4590 -4885 0
-4586 -5591 0
-4587 -5592 0
-4588 -5593 0
-4589 -5594 0
-4590 -5595 0
-4586 -5736 0
-4587 -5737 0
-4588 -5738 0
-4589 -5739 0
-4590 -5740 0
-4586 -6376 0
-4587 -6377 0
-4588 -6378 0
-4589 -6379 0
-4590 -6380 0
-4591 -4596 0
-4592 -4597 0
-4593 -4598 0
-4594 -4599 0
-4595 -4600 0
-4591 -4601 0
-4592 -4602 0
-4593 -4603 0
-4594 -4604 0
-4595 -4605 0
-4591 -4641 0
-4592 -4642 0
-4593 -4643 0
-4594 -4644 0
-4595 -4645 0
-4591 -4706 0
-4592 -4707 0
-4593 -4708 0
-4594 -4709 0
-4595 -4710 0
-4591 -5351 0
-4592 -5352 0
-4593 -5353 0
-4594 -5354 0
-4595 -5355 0
-4591 -6386 0
-4592 -6387 0
-4593 -6388 0
-4594 -6389 0
-4595 -6390 0
-4591 -6396 0
-4592 -6397 0
-4593 -6398 0
-4594 -6399 0
-4595 -6400 0
-4596 -4641 0
-4597 -4642 0
-4598 -4643 0
-4599 -4644 0
-4600 -4645 0
-4596 -4891 0
-4597 -4892 0
-4598 -4893 0
-4599 -4894 0
-4600 -4895 0
-4596 -5276 0
-4597 -5277 0
-4598 -5278 0
-4599 -5279 0
-4600 -5280 0
-4596 -6391 0
-4597 -6392 0
-4598 -6393 0
-4599 -6394 0
-4600 -6395 0
-4596 -6406 0
-4597 -6407 0
-4598 -6408 0
-4599 -6409 0
-4600 -6410 0
-4601 -5291 0
-4602 -5292 0
-4603 -5293 0
-4604 -5294 0
-4605 -5295 0
-4601 -6191 0
-4602 -6192 0
-4603 -6193 0
-4604 -6194 0
-4605 -6195 0
-4601 -6411 0
-4602 -6412 0
-4603 -6413 0
-4604 -6414 0
-4605 -6415 0
-4601 -6416 0
-4602 -6417 0
-4603 -6418 0
-4604 -6419 0
-4605 -6420 0
-4606 -4611 0
-4607 -4612 0
-4608 -4613 0
-4609 -4614 0
-4610 -4615 0
-4606 -4616 0
-4607 -4617 0
-4608 -4618 0
-4609 -4619 0
-4610 -4620 0
-4606 -5766 0
-4607 -5767 0
-4608 -5768 0
-4609 -5769 0
-4610 -5770 0
-4606 -6421 0
-4607 -6422 0
-4608 -6423 0
-4609 -6424 0
-4610 -6425 0
-4611 -4616 0
-4612 -4617 0
-4613 -4618 0
-4614 -4619 0
-4615 -4620 0
-4611 -4621 0
-4612 -4622 0
-4613 -4623 0
-4614 -4624 0
-4615 -4625 0
-4611 -4626 0
-4612 -4627 0
-4613 -4628 0
-4614 -4629 0
-4615 -4630 0
-4611 -4741 0
-4612 -4742 0
-4613 -4743 0
-4614 -4744 0
-4615 -4745 0
-4611 -5061 0
-4612 -5062 0
-4613 -5063 0
-4614 -5064 0
-4615 -5065 0
-4611 -5781 0
-4612 -5782 0
-4613 -5783 0
-4614 -5784 0
-4615 -5785 0
-4611 -6201 0
-4612 -6202 0
-4613 -6203 0
-4614 -6204 0
-4615 -6205 0
-4611 -6346 0
-4612 -6347 0
-4613 -6348 0
-4614 -6349 0
-4615 -6350 0
-4611 -6426 0
-4612 -6427 0
-4613 -6428 0
-4614 -6429 0
-4615 -6430 0
-4616 -4631 0
-4617 -4632 0
-4618 -4633 0
-4619 -4634 0
-4620 -4635 0
-4616 -4641 0
-4617 -4642 0
-4618 -4643 0
-4619 -4644 0
-4620 -4645 0
-4616 -4941 0
-4617 -4942 0
-4618 -4943 0
-4619 -4944 0
-4620 -4945 0
-4616 -5786 0
-4617 -5787 0
-4618 -5788 0
-4619 -5789 0
-4620 -5790 0
-4616 -5791 0
-4617 -5792 0
-4618 -5793 0
-4619 -5794 0
-4620 -5795 0
-4616 -6351 0
-4617 -6352 0
-4618 -6353 0
-4619 -6354 0
-4620 -6355 0
-4616 -6431 0
-4617 -6432 0
-4618 -6433 0
-4619 -6434 0
-4620 -6435 0
-4616 -6636 0
-4617 -6637 0
-4618 -6638 0
-4619 -6639 0
-4620 -6640 0
-4621 -4636 0
-4622 -4637 0
-4623 -4638 0
-4624 -4639 0
-4625 -4640 0
-4621 -4766 0
-4622 -4767 0
-4623 -4768 0
-4624 -4769 0
-4625 -4770 0
-4621 -5336 0
-4622 -5337 0
-4623 -5338 0
-4624 -5339 0
-4625 -5340 0
-4621 -6206 0
-4622 -6207 0
-4623 -6208 0
-4624 -6209 0
-4625 -6210 0
-4621 -6336 0
-4622 -6337 0
-4623 -6338 0
-4624 -6339 0
-4625 -6340 0
-4621 -6356 0
-4622 -6357 0
-4623 -6358 0
-4624 -6359 0
-4625 -6360 0
-4621 -6436 0
-4622 -6437 0
-4623 -6438 0
-4624 -6439 0
-4625 -6440 0
-4626 -4631 0
-4627 -4632 0
-4628 -4633 0
-4629 -4634 0
-4630 -4635 0
-4626 -4636 0
-4627 -4637 0
-4628 -4638 0
-4629 -4639 0
-4630 -4640 0
-4626 -4746 0
-4627 -4747 0
-4628 -4748 0
-4629 -4749 0
-4630 -4750 0
-4626 -5066 0
-4627 -5067 0
-4628 -5068 0
-4629 -5069 0
-4630 -5070 0
-4626 -6211 0
-4627 -6212 0
-4628 -6213 0
-4629 -6214 0
-4630 -6215 0
-4626 -6361 0
-4627 -6362 0
-4628 -6363 0
-4629 -6364 0
-4630 -6365 0
-4626 -6426 0
-4627 -6427 0
-4628 -6428 0
-4629 -6429 0
-4630 -6430 0
-4631 -4961 0
-4632 -4962 0
-4633 -4963 0
-4634 -4964 0
-4635 -4965 0
-4631 -6431 0
-4632 -6432 0
-4633 -6433 0
-4634 -6434 0
-4635 -6435 0
-4631 -6641 0
-4632 -6642 0
-4633 -6643 0
-4634 -6644 0
-4635 -6645 0
-4636 -4791 0
-4637 -4792 0
-4638 -4793 0
-4639 -4794 0
-4640 -4795 0
-4636 -4971 0
-4637 -4972 0
-4638 -4973 0
-4639 -4974 0
-4640 -4975 0
-4636 -5341 0
-4637 -5342 0
-4638 -5343 0
-4639 -5344 0
-4640 -5345 0
-4636 -5626 0
-4637 -5627 0
-4638 -5628 0
-4639 -5629 0
-4640 -5630 0
-4636 -6216 0
-4637 -6217 0
-4638 -6218 0
-4639 -6219 0
-4640 -6220 0
-4636 -6341 0
-4637 -6342 0
-4638 -6343 0
-4639 -6344 0
-4640 -6345 0
-4636 -6366 0
-4637 -6367 0
-4638 -6368 0
-4639 -6369 0
-4640 -6370 0
-4636 -6436 0
-4637 -6437 0
-4638 -6438 0
-4639 -6439 0
-4640 -6440 0
-4641 -4761 0
-4642 -4762 0
-4643 -4763 0
-4644 -4764 0
-4645 -4765 0
-4641 -4996 0
-4642 -4997 0
-4643 -4998 0
-4644 -4999 0
-4645 -5000 0
-4641 -5796 0
-4642 -5797 0
-4643 -5798 0
-4644 -5799 0
-4645 -5800 0
-4641 -6441 0
-4642 -6442 0
-4643 -6443 0
-4644 -6444 0
-4645 -6445 0
-4641 -6446 0
-4642 -6447 0
-4643 -6448 0
-4644 -6449 0
-4645 -6450 0
-4646 -4651 0
-4647 -4652 0
-4648 -4653 0
-4649 -4654 0
-4650 -4655 0
-4646 -4701 0
-4647 -4702 0
-4648 -4703 0
-4649 -4704 0
-4650 -4705 0
-4646 -4711 0
-4647 -4712 0
-4648 -4713 0
-4649 -4714 0
-4650 -4715 0
-4646 -4916 0
-4647 -4917 0
-4648 -4918 0
-4649 -4919 0
-4650 -4920 0
-4646 -5406 0
-4647 -5407 0
-4648 -5408 0
-4649 -5409 0
-4650 -5410 0
-4646 -5641 0
-4647 -5642 0
-4648 -5643 0
-4649 -5644 0
-4650 -5645 0
-4646 -6451 0
-4647 -6452 0
-4648 -6453 0
-4649 -6454 0
-4650 -6455 0
-4646 -6656 0
-4647 -6657 0
-4648 -6658 0
-4649 -6659 0
-4650 -6660 0
-4651 -4656 0
-4652 -4657 0
-4653 -4658 0
-4654 -4659 0
-4655 -4660 0
-4651 -4661 0
-4652 -4662 0
-4653 -4663 0
-4654 -4664 0
-4655 -4665 0
-4651 -4666 0
-4652 -4667 0
-4653 -4668 0
-4654 -4669 0
-4655 -4670 0
-4651 -4731 0
-4652 -4732 0
-4653 -4733 0
-4654 -4734 0
-4655 -4735 0
-4651 -4961 0
-4652 -4962 0
-4653 -4963 0
-4654 -4964 0
-4655 -4965 0
-4651 -5116 0
-4652 -5117 0
-4653 -5118 0
-4654 -5119 0
-4655 -5120 0
-4651 -5441 0
-4652 -5442 0
-4653 -5443 0
-4654 -5444 0
-4655 -5445 0
-4651 -6221 0
-4652 -6222 0
-4653 -6223 0
-4654 -6224 0
-4655 -6225 0
-4651 -6226 0
-4652 -6227 0
-4653 -6228 0
-4654 -6229 0
-4655 -6230 0
-4651 -6456 0
-4652 -6457 0
-4653 -6458 0
-4654 -6459 0
-4655 -6460 0
-4651 -6486 0
-4652 -6487 0
-4653 -6488 0
-4654 -6489 0
-4655 -6490 0
-4651 -6506 0
-4652 -6507 0
-4653 -6508 0
-4654 -6509 0
-4655 -6510 0
-4656 -4666 0
-4657 -4667 0
-4658 -4668 0
-4659 -4669 0
-4660 -4670 0
-4656 -4891 0
-4657 -4892 0
-4658 -4893 0
-4659 -4894 0
-4660 -4895 0
-4656 -4966 0
-4657 -4967 0
-4658 -4968 0
-4659 -4969 0
-4660 -4970 0
-4656 -5131 0
-4657 -5132 0
-4658 -5133 0
-4659 -5134 0
-4660 -5135 0
-4656 -6466 0
-4657 -6467 0
-4658 -6468 0
-4659 -6469 0
-4660 -6470 0
-4656 -6491 0
-4657 -6492 0
-4658 -6493 0
-4659 -6494 0
-4660 -6495 0
-4656 -6511 0
-4657 -6512 0
-4658 -6513 0
-4659 -6514 0
-4660 -6515 0
-4661 -4676 0
-4662 -4677 0
-4663 -4678 0
-4664 -4679 0
-4665 -4680 0
-4661 -4736 0
-4662 -4737 0
-4663 -4738 0
-4664 -4739 0
-4665 -4740 0
-4661 -5466 0
-4662 -5467 0
-4663 -5468 0
-4664 -5469 0
-4665 -5470 0
-4661 -6231 0
-4662 -6232 0
-4663 -6233 0
-4664 -6234 0
-4665 -6235 0
-4661 -6456 0
-4662 -6457 0
-4663 -6458 0
-4664 -6459 0
-4665 -6460 0
-4666 -4671 0
-4667 -4672 0
-4668 -4673 0
-4669 -4674 0
-4670 -4675 0
-4666 -4676 0
-4667 -4677 0
-4668 -4678 0
-4669 -4679 0
-4670 -4680 0
-4666 -4811 0
-4667 -4812 0
-4668 -4813 0
-4669 -4814 0
-4670 -4815 0
-4666 -4996 0
-4667 -4997 0
-4668 -4998 0
-4669 -4999 0
-4670 -5000 0
-4666 -5126 0
-4667 -5127 0
-4668 -5128 0
-4669 -5129 0
-4670 -5130 0
-4666 -5386 0
-4667 -5387 0
-4668 -5388 0
-4669 -5389 0
-4670 -5390 0
-4666 -5881 0
-4667 -5882 0
-4668 -5883 0
-4669 -5884 0
-4670 -5885 0
-4666 -6471 0
-4667 -6472 0
-4668 -6473 0
-4669 -6474 0
-4670 -6475 0
-4666 -6556 0
-4667 -6557 0
-4668 -6558 0
-4669 -6559 0
-4670 -6560 0
-4671 -4811 0
-4672 -4812 0
-4673 -4813 0
-4674 -4814 0
-4675 -4815 0
-4671 -5051 0
-4672 -5052 0
-4673 -5053 0
-4674 -5054 0
-4675 -5055 0
-4671 -5391 0
-4672 -5392 0
-4673 -5393 0
-4674 -5394 0
-4675 -5395 0
-4671 -5696 0
-4672 -5697 0
-4673 -5698 0
-4674 -5699 0
-4675 -5700 0
-4671 -5886 0
-4672 -5887 0
-4673 -5888 0
-4674 -5889 0
-4675 -5890 0
-4671 -6561 0
-4672 -6562 0
-4673 -6563 0
-4674 -6564 0
-4675 -6565 0
-4676 -4821 0
-4677 -4822 0
-4678 -4823 0
-4679 -4824 0
-4680 -4825 0
-4676 -4876 0
-4677 -4877 0
-4678 -4878 0
-4679 -4879 0
-4680 -4880 0
-4676 -5001 0
-4677 -5002 0
-4678 -5003 0
-4679 -5004 0
-4680 -5005 0
-4676 -5546 0
-4677 -5547 0
-4678 -5548 0
-4679 -5549 0
-4680 -5550 0
-4676 -5891 0
-4677 -5892 0
-4678 -5893 0
-4679 -5894 0
-4680 -5895 0
-4676 -6471 0
-4677 -6472 0
-4678 -6473 0
-4679 -6474 0
-4680 -6475 0
-4681 -4686 0
-4682 -4687 0
-4683 -4688 0
-4684 -4689 0
-4685 -4690 0
-4681 -4826 0
-4682 -4827 0
-4683 -4828 0
-4684 -4829 0
-4685 -4830 0
-4681 -4831 0
-4682 -4832 0
-4683 -4833 0
-4684 -4834 0
-4685 -4835 0
-4681 -5401 0
-4682 -5402 0
-4683 -5403 0
-4684 -5404 0
-4685 -5405 0
-4681 -5886 0
-4682 -5887 0
-4683 -5888 0
-4684 -5889 0
-4685 -5890 0
-4686 -4691 0
-4687 -4692 0
-4688 -4693 0
-4689 -4694 0
-4690 -4695 0
-4686 -4841 0
-4687 -4842 0
-4688 -4843 0
-4689 -4844 0
-4690 -4845 0
-4686 -4846 0
-4687 -4847 0
-4688 -4848 0
-4689 -4849 0
-4690 -4850 0
-4686 -5006 0
-4687 -5007 0
-4688 -5008 0
-4689 -5009 0
-4690 -5010 0
-4686 -5411 0
-4687 -5412 0
-4688 -5413 0
-4689 -5414 0
-4690 -5415 0
-4686 -5716 0
-4687 -5717 0
-4688 -5718 0
-4689 -5719 0
-4690 -5720 0
-4686 -5896 0
-4687 -5897 0
-4688 -5898 0
-4689 -5899 0
-4690 -5900 0
-4686 -6296 0
-4687 -6297 0
-4688 -6298 0
-4689 -6299 0
-4690 -6300 0
-4686 -6451 0
-4687 -6452 0
-4688 -6453 0
-4689 -6454 0
-4690 -6455 0
-4686 -6711 0
-4687 -6712 0
-4688 -6713 0
-4689 -6714 0
-4690 -6715 0
-4691 -5456 0
-4692 -5457 0
-4693 -5458 0
-4694 -5459 0
-4695 -5460 0
-4691 -5681 0
-4692 -5682 0
-4693 -5683 0
-4694 -5684 0
-4695 -5685 0
-4691 -6306 0
-4692 -6307 0
-4693 -6308 0
-4694 -6309 0
-4695 -6310 0
-4691 -6311 0
-4692 -6312 0
-4693 -6313 0
-4694 -6314 0
-4695 -6315 0
-4691 -6456 0
-4692 -6457 0
-4693 -6458 0
-4694 -6459 0
-4695 -6460 0
-4696 -4721 0
-4697 -4722 0
-4698 -4723 0
-4699 -4724 0
-4700 -4725 0
-4696 -6481 0
-4697 -6482 0
-4698 -6483 0
-4699 -6484 0
-4700 -6485 0
-4696 -6491 0
-4697 -6492 0
-4698 -6493 0
-4699 -6494 0
-4700 -6495 0
-4701 -4711 0
-4702 -4712 0
-4703 -4713 0
-4704 -4714 0
-4705 -4715 0
-4701 -4721 0
-4702 -4722 0
-4703 -4723 0
-4704 -4724 0
-4705 -4725 0
-4701 -5236 0
-4702 -5237 0
-4703 -5238 0
-4704 -5239 0
-4705 -5240 0
-4701 -5906 0
-4702 -5907 0
-4703 -5908 0
-4704 -5909 0
-4705 -5910 0
-4701 -6521 0
-4702 -6522 0
-4703 -6523 0
-4704 -6524 0
-4705 -6525 0
-4701 -6756 0
-4702 -6757 0
-4703 -6758 0
-4704 -6759 0
-4705 -6760 0
-4706 -4711 0
-4707 -4712 0
-4708 -4713 0
-4709 -4714 0
-4710 -4715 0
-4706 -4761 0
-4707 -4762 0
-4708 -4763 0
-4709 -4764 0
-4710 -4765 0
-4706 -5586 0
-4707 -5587 0
-4708 -5588 0
-4709 -5589 0
-4710 -5590 0
-4706 -6526 0
-4707 -6527 0
-4708 -6528 0
-4709 -6529 0
-4710 -6530 0
-4711 -4716 0
-4712 -4717 0
-4713 -4718 0
-4714 -4719 0
-4715 -4720 0
-4711 -4726 0
-4712 -4727 0
-4713 -4728 0
-4714 -4729 0
-4715 -4730 0
-4711 -4731 0
-4712 -4732 0
-4713 -4733 0
-4714 -4734 0
-4715 -4735 0
-4711 -4751 0
-4712 -4752 0
-4713 -4753 0
-4714 -4754 0
-4715 -4755 0
-4711 -4771 0
-4712 -4772 0
-4713 -4773 0
-4714 -4774 0
-4715 -4775 0
-4711 -5221 0
-4712 -5222 0
-4713 -5223 0
-4714 -5224 0
-4715 -5225 0
-4711 -5421 0
-4712 -5422 0
-4713 -5423 0
-4714 -5424 0
-4715 -5425 0
-4711 -5746 0
-4712 -5747 0
-4713 -5748 0
-4714 -5749 0
-4715 -5750 0
-4711 -6531 0
-4712 -6532 0
-4713 -6533 0
-4714 -6534 0
-4715 -6535 0
-4716 -4736 0
-4717 -4737 0
-4718 -4738 0
-4719 -4739 0
-4720 -4740 0
-4716 -4796 0
-4717 -4797 0
-4718 -4798 0
-4719 -4799 0
-4720 -4800 0
-4716 -5226 0
-4717 -5227 0
-4718 -5228 0
-4719 -5229 0
-4720 -5230 0
-4716 -5761 0
-4717 -5762 0
-4718 -5763 0
-4719 -5764 0
-4720 -5765 0
-4716 -6531 0
-4717 -6532 0
-4718 -6533 0
-4719 -6534 0
-4720 -6535 0
-4721 -4726 0
-4722 -4727 0
-4723 -4728 0
-4724 -4729 0
-4725 -4730 0
-4721 -5241 0
-4722 -5242 0
-4723 -5243 0
-4724 -5244 0
-4725 -5245 0
-4721 -5916 0
-4722 -5917 0
-4723 -5918 0
-4724 -5919 0
-4725 -5920 0
-4721 -6541 0
-4722 -6542 0
-4723 -6543 0
-4724 -6544 0
-4725 -6545 0
-4726 -5081 0
-4727 -5082 0
-4728 -5083 0
-4729 -5084 0
-4730 -5085 0
-4726 -5251 0
-4727 -5252 0
-4728 -5253 0
-4729 -5254 0
-4730 -5255 0
-4726 -5446 0
-4727 -5447 0
-4728 -5448 0
-4729 -5449 0
-4730 -5450 0
-4726 -6546 0
-4727 -6547 0
-4728 -6548 0
-4729 -6549 0
-4730 -6550 0
-4731 -4736 0
-4732 -4737 0
-4733 -4738 0
-4734 -4739 0
-4735 -4740 0
-4731 -4811 0
-4732 -4812 0
-4733 -4813 0
-4734 -4814 0
-4735 -4815 0
-4731 -5281 0
-4732 -5282 0
-4733 -5283 0
-4734 -5284 0
-4735 -5285 0
-4731 -5481 0
-4732 -5482 0
-4733 -5483 0
-4734 -5484 0
-4735 -5485 0
-4731 -5921 0
-4732 -5922 0
-4733 -5923 0
-4734 -5924 0
-4735 -5925 0
-4731 -6336 0
-4732 -6337 0
-4733 -6338 0
-4734 -6339 0
-4735 -6340 0
-4731 -6551 0
-4732 -6552 0
-4733 -6553 0
-4734 -6554 0
-4735 -6555 0
-4736 -4821 0
-4737 -4822 0
-4738 -4823 0
-4739 -4824 0
-4740 -4825 0
-4736 -5486 0
-4737 -5487 0
-4738 -5488 0
-4739 -5489 0
-4740 -5490 0
-4736 -5931 0
-4737 -5932 0
-4738 -5933 0
-4739 -5934 0
-4740 -5935 0
-4736 -6341 0
-4737 -6342 0
-4738 -6343 0
-4739 -6344 0
-4740 -6345 0
-4736 -6551 0
-4737 -6552 0
-4738 -6553 0
-4739 -6554 0
-4740 -6555 0
-4741 -4746 0
-4742 -4747 0
-4743 -4748 0
-4744 -4749 0
-4745 -4750 0
-4741 -4756 0
-4742 -4757 0
-4743 -4758 0
-4744 -4759 0
-4745 -4760 0
-4741 -4826 0
-4742 -4827 0
-4743 -4828 0
-4744 -4829 0
-4745 -4830 0
-4741 -5496 0
-4742 -5497 0
-4743 -5498 0
-4744 -5499 0
-4745 -5500 0
-4741 -5941 0
-4742 -5942 0
-4743 -5943 0
-4744 -5944 0
-4745 -5945 0
-4741 -6481 0
-4742 -6482 0
-4743 -6483 0
-4744 -6484 0
-4745 -6485 0
-4741 -6566 0
-4742 -6567 0
-4743 -6568 0
-4744 -6569 0
-4745 -6570 0
-4746 -4781 0
-4747 -4782 0
-4748 -4783 0
-4749 -4784 0
-4750 -4785 0
-4746 -4836 0
-4747 -4837 0
-4748 -4838 0
-4749 -4839 0
-4750 -4840 0
-4746 -4841 0
-4747 -4842 0
-4748 -4843 0
-4749 -4844 0
-4750 -4845 0
-4746 -5506 0
-4747 -5507 0
-4748 -5508 0
-4749 -5509 0
-4750 -5510 0
-4746 -5951 0
-4747 -5952 0
-4748 -5953 0
-4749 -5954 0
-4750 -5955 0
-4746 -6376 0
-4747 -6377 0
-4748 -6378 0
-4749 -6379 0
-4750 -6380 0
-4746 -6476 0
-4747 -6477 0
-4748 -6478 0
-4749 -6479 0
-4750 -6480 0
-4746 -6491 0
-4747 -6492 0
-4748 -6493 0
-4749 -6494 0
-4750 -6495 0
-4746 -6566 0
-4747 -6567 0
-4748 -6568 0
-4749 -6569 0
-4750 -6570 0
-4746 -6571 0
-4747 -6572 0
-4748 -6573 0
-4749 -6574 0
-4750 -6575 0
-4751 -4771 0
-4752 -4772 0
-4753 -4773 0
-4754 -4774 0
-4755 -4775 0
-4751 -5196 0
-4752 -5197 0
-4753 -5198 0
-4754 -5199 0
-4755 -5200 0
-4751 -5831 0
-4752 -5832 0
-4753 -5833 0
-4754 -5834 0
-4755 -5835 0
-4751 -6576 0
-4752 -6577 0
-4753 -6578 0
-4754 -6579 0
-4755 -6580 0
-4756 -4761 0
-4757 -4762 0
-4758 -4763 0
-4759 -4764 0
-4760 -4765 0
-4756 -4766 0
-4757 -4767 0
-4758 -4768 0
-4759 -4769 0
-4760 -4770 0
-4756 -4781 0
-4757 -4782 0
-4758 -4783 0
-4759 -4784 0
-4760 -4785 0
-4756 -4806 0
-4757 -4807 0
-4758 -4808 0
-4759 -4809 0
-4760 -4810 0
-4756 -4851 0
-4757 -4852 0
-4758 -4853 0
-4759 -4854 0
-4760 -4855 0
-4756 -5221 0
-4757 -5222 0
-4758 -5223 0
-4759 -5224 0
-4760 -5225 0
-4756 -6391 0
-4757 -6392 0
-4758 -6393 0
-4759 -6394 0
-4760 -6395 0
-4756 -6501 0
-4757 -6502 0
-4758 -6503 0
-4759 -6504 0
-4760 -6505 0
-4756 -6581 0
-4757 -6582 0
-4758 -6583 0
-4759 -6584 0
-4760 -6585 0
-4761 -4771 0
-4762 -4772 0
-4763 -4773 0
-4764 -4774 0
-4765 -4775 0
-4761 -4786 0
-4762 -4787 0
-4763 -4788 0
-4764 -4789 0
-4765 -4790 0
-4761 -4806 0
-4762 -4807 0
-4763 -4808 0
-4764 -4809 0
-4765 -4810 0
-4761 -5106 0
-4762 -5107 0
-4763 -5108 0
-4764 -5109 0
-4765 -5110 0
-4761 -5601 0
-4762 -5602 0
-4763 -5603 0
-4764 -5604 0
-4765 -5605 0
-4761 -5796 0
-4762 -5797 0
-4763 -5798 0
-4764 -5799 0
-4765 -5800 0
-4761 -6586 0
-4762 -6587 0
-4763 -6588 0
-4764 -6589 0
-4765 -6590 0
-4766 -4771 0
-4767 -4772 0
-4768 -4773 0
-4769 -4774 0
-4770 -4775 0
-4766 -4791 0
-4767 -4792 0
-4768 -4793 0
-4769 -4794 0
-4770 -4795 0
-4766 -4811 0
-4767 -4812 0
-4768 -4813 0
-4769 -4814 0
-4770 -4815 0
-4766 -4851 0
-4767 -4852 0
-4768 -4853 0
-4769 -4854 0
-4770 -4855 0
-4766 -5336 0
-4767 -5337 0
-4768 -5338 0
-4769 -5339 0
-4770 -5340 0
-4766 -5961 0
-4767 -5962 0
-4768 -5963 0
-4769 -5964 0
-4770 -5965 0
-4766 -6591 0
-4767 -6592 0
-4768 -6593 0
-4769 -6594 0
-4770 -6595 0
-4771 -4796 0
-4772 -4797 0
-4773 -4798 0
-4774 -4799 0
-4775 -4800 0
-4771 -4811 0
-4772 -4812 0
-4773 -4813 0
-4774 -4814 0
-4775 -4815 0
-4771 -5111 0
-4772 -5112 0
-4773 -5113 0
-4774 -5114 0
-4775 -5115 0
-4771 -5801 0
-4772 -5802 0
-4773 -5803 0
-4774 -5804 0
-4775 -5805 0
-4771 -5966 0
-4772 -5967 0
-4773 -5968 0
-4774 -5969 0
-4775 -5970 0
-4771 -6596 0
-4772 -6597 0
-4773 -6598 0
-4774 -6599 0
-4775 -6600 0
-4776 -4781 0
-4777 -4782 0
-4778 -4783 0
-4779 -4784 0
-4780 -4785 0
-4776 -5836 0
-4777 -5837 0
-4778 -5838 0
-4779 -5839 0
-4780 -5840 0
-4776 -6396 0
-4777 -6397 0
-4778 -6398 0
-4779 -6399 0
-4780 -6400 0
-4776 -6506 0
-4777 -6507 0
-4778 -6508 0
-4779 -6509 0
-4780 -6510 0
-4781 -4786 0
-4782 -4787 0
-4783 -4788 0
-4784 -4789 0
-4785 -4790 0
-4781 -4791 0
-4782 -4792 0
-4783 -4793 0
-4784 -4794 0
-4785 -4795 0
-4781 -4801 0
-4782 -4802 0
-4783 -4803 0
-4784 -4804 0
-4785 -4805 0
-4781 -4816 0
-4782 -4817 0
-4783 -4818 0
-4784 -4819 0
-4785 -4820 0
-4781 -4856 0
-4782 -4857 0
-4783 -4858 0
-4784 -4859 0
-4785 -4860 0
-4781 -5116 0
-4782 -5117 0
-4783 -5118 0
-4784 -5119 0
-4785 -5120 0
-4781 -5226 0
-4782 -5227 0
-4783 -5228 0
-4784 -5229 0
-4785 -5230 0
-4781 -5521 0
-4782 -5522 0
-4783 -5523 0
-4784 -5524 0
-4785 -5525 0
-4781 -5611 0
-4782 -5612 0
-4783 -5613 0
-4784 -5614 0
-4785 -5615 0
-4781 -5766 0
-4782 -5767 0
-4783 -5768 0
-4784 -5769 0
-4785 -5770 0
-4781 -6406 0
-4782 -6407 0
-4783 -6408 0
-4784 -6409 0
-4785 -6410 0
-4781 -6511 0
-4782 -6512 0
-4783 -6513 0
-4784 -6514 0
-4785 -6515 0
-4781 -6581 0
-4782 -6582 0
-4783 -6583 0
-4784 -6584 0
-4785 -6585 0
-4781 -6601 0
-4782 -6602 0
-4783 -6603 0
-4784 -6604 0
-4785 -6605 0
-4786 -4796 0
-4787 -4797 0
-4788 -4798 0
-4789 -4799 0
-4790 -4800 0
-4786 -4816 0
-4787 -4817 0
-4788 -4818 0
-4789 -4819 0
-4790 -4820 0
-4786 -5121 0
-4787 -5122 0
-4788 -5123 0
-4789 -5124 0
-4790 -5125 0
-4786 -5616 0
-4787 -5617 0
-4788 -5618 0
-4789 -5619 0
-4790 -5620 0
-4786 -5806 0
-4787 -5807 0
-4788 -5808 0
-4789 -5809 0
-4790 -5810 0
-4786 -6586 0
-4787 -6587 0
-4788 -6588 0
-4789 -6589 0
-4790 -6590 0
-4786 -6796 0
-4787 -6797 0
-4788 -6798 0
-4789 -6799 0
-4790 -6800 0
-4791 -4796 0
-4792 -4797 0
-4793 -4798 0
-4794 -4799 0
-4795 -4800 0
-4791 -4821 0
-4792 -4822 0
-4793 -4823 0
-4794 -4824 0
-4795 -4825 0
-4791 -4856 0
-4792 -4857 0
-4793 -4858 0
-4794 -4859 0
-4795 -4860 0
-4791 -4926 0
-4792 -4927 0
-4793 -4928 0
-4794 -4929 0
-4795 -4930 0
-4791 -5341 0
-4792 -5342 0
-4793 -5343 0
-4794 -5344 0
-4795 -5345 0
-4791 -5851 0
-4792 -5852 0
-4793 -5853 0
-4794 -5854 0
-4795 -5855 0
-4791 -5971 0
-4792 -5972 0
-4793 -5973 0
-4794 -5974 0
-4795 -5975 0
-4791 -6591 0
-4792 -6592 0
-4793 -6593 0
-4794 -6594 0
-4795 -6595 0
-4796 -4821 0
-4797 -4822 0
-4798 -4823 0
-4799 -4824 0
-4800 -4825 0
-4796 -5126 0
-4797 -5127 0
-4798 -5128 0
-4799 -5129 0
-4800 -5130 0
-4796 -5811 0
-4797 -5812 0
-4798 -5813 0
-4799 -5814 0
-4800 -5815 0
-4796 -5976 0
-4797 -5977 0
-4798 -5978 0
-4799 -5979 0
-4800 -5980 0
-4796 -6596 0
-4797 -6597 0
-4798 -6598 0
-4799 -6599 0
-4800 -6600 0
-4801 -5271 0
-4802 -5272 0
-4803 -5273 0
-4804 -5274 0
-4805 -5275 0
-4801 -5541 0
-4802 -5542 0
-4803 -5543 0
-4804 -5544 0
-4805 -5545 0
-4801 -5776 0
-4802 -5777 0
-4803 -5778 0
-4804 -5779 0
-4805 -5780 0
-4801 -6511 0
-4802 -6512 0
-4803 -6513 0
-4804 -6514 0
-4805 -6515 0
-4806 -4811 0
-4807 -4812 0
-4808 -4813 0
-4809 -4814 0
-4810 -4815 0
-4806 -4816 0
-4807 -4817 0
-4808 -4818 0
-4809 -4819 0
-4810 -4820 0
-4806 -4866 0
-4807 -4867 0
-4808 -4868 0
-4809 -4869 0
-4810 -4870 0
-4806 -5286 0
-4807 -5287 0
-4808 -5288 0
-4809 -5289 0
-4810 -5290 0
-4806 -5836 0
-4807 -5837 0
-4808 -5838 0
-4809 -5839 0
-4810 -5840 0
-4806 -6016 0
-4807 -6017 0
-4808 -6018 0
-4809 -6019 0
-4810 -6020 0
-4806 -6606 0
-4807 -6607 0
-4808 -6608 0
-4809 -6609 0
-4810 -6610 0
-4811 -4821 0
-4812 -4822 0
-4813 -4823 0
-4814 -4824 0
-4815 -4825 0
-4811 -4866 0
-4812 -4867 0
-4813 -4868 0
-4814 -4869 0
-4815 -4870 0
-4811 -4956 0
-4812 -4957 0
-4813 -4958 0
-4814 -4959 0
-4815 -4960 0
-4811 -5206 0
-4812 -5207 0
-4813 -5208 0
-4814 -5209 0
-4815 -5210 0
-4811 -5581 0
-4812 -5582 0
-4813 -5583 0
-4814 -5584 0
-4815 -5585 0
-4811 -5841 0
-4812 -5842 0
-4813 -5843 0
-4814 -5844 0
-4815 -5845 0
-4811 -6026 0
-4812 -6027 0
-4813 -6028 0
-4814 -6029 0
-4815 -6030 0
-4811 -6611 0
-4812 -6612 0
-4813 -6613 0
-4814 -6614 0
-4815 -6615 0
-4811 -6636 0
-4812 -6637 0
-4813 -6638 0
-4814 -6639 0
-4815 -6640 0
-4816 -4821 0
-4817 -4822 0
-4818 -4823 0
-4819 -4824 0
-4820 -4825 0
-4816 -4871 0
-4817 -4872 0
-4818 -4873 0
-4819 -4874 0
-4820 -4875 0
-4816 -5626 0
-4817 -5627 0
-4818 -5628 0
-4819 -5629 0
-4820 -5630 0
-4816 -5786 0
-4817 -5787 0
-4818 -5788 0
-4819 -5789 0
-4820 -5790 0
-4816 -6061 0
-4817 -6062 0
-4818 -6063 0
-4819 -6064 0
-4820 -6065 0
-4816 -6606 0
-4817 -6607 0
-4818 -6608 0
-4819 -6609 0
-4820 -6610 0
-4821 -4871 0
-4822 -4872 0
-4823 -4873 0
-4824 -4874 0
-4825 -4875 0
-4821 -4986 0
-4822 -4987 0
-4823 -4988 0
-4824 -4989 0
-4825 -4990 0
-4821 -6071 0
-4822 -6072 0
-4823 -6073 0
-4824 -6074 0
-4825 -6075 0
-4821 -6611 0
-4822 -6612 0
-4823 -6613 0
-4824 -6614 0
-4825 -6615 0
-4821 -6641 0
-4822 -6642 0
-4823 -6643 0
-4824 -6644 0
-4825 -6645 0
-4826 -4831 0
-4827 -4832 0
-4828 -4833 0
-4829 -4834 0
-4830 -4835 0
-4826 -4841 0
-4827 -4842 0
-4828 -4843 0
-4829 -4844 0
-4830 -4845 0
-4826 -4851 0
-4827 -4852 0
-4828 -4853 0
-4829 -4854 0
-4830 -4855 0
-4826 -6026 0
-4827 -6027 0
-4828 -6028 0
-4829 -6029 0
-4830 -6030 0
-4826 -6616 0
-4827 -6617 0
-4828 -6618 0
-4829 -6619 0
-4830 -6620 0
-4831 -4846 0
-4832 -4847 0
-4833 -4848 0
-4834 -4849 0
-4835 -4850 0
-4831 -5211 0
-4832 -5212 0
-4833 -5213 0
-4834 -5214 0
-4835 -5215 0
-4831 -5586 0
-4832 -5587 0
-4833 -5588 0
-4834 -5589 0
-4835 -5590 0
-4831 -6046 0
-4832 -6047 0
-4833 -6048 0
-4834 -6049 0
-4835 -6050 0
-4836 -4841 0
-4837 -4842 0
-4838 -4843 0
-4839 -4844 0
-4840 -4845 0
-4836 -5791 0
-4837 -5792 0
-4838 -5793 0
-4839 -5794 0
-4840 -5795 0
-4836 -6061 0
-4837 -6062 0
-4838 -6063 0
-4839 -6064 0
-4840 -6065 0
-4836 -6516 0
-4837 -6517 0
-4838 -6518 0
-4839 -6519 0
-4840 -6520 0
-4836 -6536 0
-4837 -6537 0
-4838 -6538 0
-4839 -6539 0
-4840 -6540 0
-4836 -6806 0
-4837 -6807 0
-4838 -6808 0
-4839 -6809 0
-4840 -6810 0
-4841 -4846 0
-4842 -4847 0
-4843 -4848 0
-4844 -4849 0
-4845 -4850 0
-4841 -4856 0
-4842 -4857 0
-4843 -4858 0
-4844 -4859 0
-4845 -4860 0
-4841 -4861 0
-4842 -4862 0
-4843 -4863 0
-4844 -4864 0
-4845 -4865 0
-4841 -5136 0
-4842 -5137 0
-4843 -5138 0
-4844 -5139 0
-4845 -5140 0
-4841 -5591 0
-4842 -5592 0
-4843 -5593 0
-4844 -5594 0
-4845 -5595 0
-4841 -6071 0
-4842 -6072 0
-4843 -6073 0
-4844 -6074 0
-4845 -6075 0
-4841 -6421 0
-4842 -6422 0
-4843 -6423 0
-4844 -6424 0
-4845 -6425 0
-4841 -6521 0
-4842 -6522 0
-4843 -6523 0
-4844 -6524 0
-4845 -6525 0
-4841 -6541 0
-4842 -6542 0
-4843 -6543 0
-4844 -6544 0
-4845 -6545 0
-4841 -6616 0
-4842 -6617 0
-4843 -6618 0
-4844 -6619 0
-4845 -6620 0
-4841 -6621 0
-4842 -6622 0
-4843 -6623 0
-4844 -6624 0
-4845 -6625 0
-4841 -6646 0
-4842 -6647 0
-4843 -6648 0
-4844 -6649 0
-4845 -6650 0
-4841 -6811 0
-4842 -6812 0
-4843 -6813 0
-4844 -6814 0
-4845 -6815 0
-4846 -5146 0
-4847 -5147 0
-4848 -5148 0
-4849 -5149 0
-4850 -5150 0
-4846 -5216 0
-4847 -5217 0
-4848 -5218 0
-4849 -5219 0
-4850 -5220 0
-4846 -5556 0
-4847 -5557 0
-4848 -5558 0
-4849 -5559 0
-4850 -5560 0
-4846 -5596 0
-4847 -5597 0
-4848 -5598 0
-4849 -5599 0
-4850 -5600 0
-4846 -5871 0
-4847 -5872 0
-4848 -5873 0
-4849 -5874 0
-4850 -5875 0
-4846 -6091 0
-4847 -6092 0
-4848 -6093 0
-4849 -6094 0
-4850 -6095 0
-4846 -6531 0
-4847 -6532 0
-4848 -6533 0
-4849 -6534 0
-4850 -6535 0
-4846 -6546 0
-4847 -6547 0
-4848 -6548 0
-4849 -6549 0
-4850 -6550 0
-4851 -4856 0
-4852 -4857 0
-4853 -4858 0
-4854 -4859 0
-4855 -4860 0
-4851 -4866 0
-4852 -4867 0
-4853 -4868 0
-4854 -4869 0
-4855 -4870 0
-4851 -5241 0
-4852 -5242 0
-4853 -5243 0
-4854 -5244 0
-4855 -5245 0
-4851 -6106 0
-4852 -6107 0
-4853 -6108 0
-4854 -6109 0
-4855 -6110 0
-4851 -6626 0
-4852 -6627 0
-4853 -6628 0
-4854 -6629 0
-4855 -6630 0
-4856 -4871 0
-4857 -4872 0
-4858 -4873 0
-4859 -4874 0
-4860 -4875 0
-4856 -5011 0
-4857 -5012 0
-4858 -5013 0
-4859 -5014 0
-4860 -5015 0
-4856 -5261 0
-4857 -5262 0
-4858 -5263 0
-4859 -5264 0
-4860 -5265 0
-4856 -5566 0
-4857 -5567 0
-4858 -5568 0
-4859 -5569 0
-4860 -5570 0
-4856 -5801 0
-4857 -5802 0
-4858 -5803 0
-4859 -5804 0
-4860 -5805 0
-4856 -6111 0
-4857 -6112 0
-4858 -6113 0
-4859 -6114 0
-4860 -6115 0
-4856 -6626 0
-4857 -6627 0
-4858 -6628 0
-4859 -6629 0
-4860 -6630 0
-4856 -6646 0
-4857 -6647 0
-4858 -6648 0
-4859 -6649 0
-4860 -6650 0
-4856 -6821 0
-4857 -6822 0
-4858 -6823 0
-4859 -6824 0
-4860 -6825 0
-4861 -4871 0
-4862 -4872 0
-4863 -4873 0
-4864 -4874 0
-4865 -4875 0
-4861 -5346 0
-4862 -5347 0
-4863 -5348 0
-4864 -5349 0
-4865 -5350 0
-4861 -6131 0
-4862 -6132 0
-4863 -6133 0
-4864 -6134 0
-4865 -6135 0
-4861 -6431 0
-4862 -6432 0
-4863 -6433 0
-4864 -6434 0
-4865 -6435 0
-4866 -4871 0
-4867 -4872 0
-4868 -4873 0
-4869 -4874 0
-4870 -4875 0
-4866 -5016 0
-4867 -5017 0
-4868 -5018 0
-4869 -5019 0
-4870 -5020 0
-4866 -5296 0
-4867 -5297 0
-4868 -5298 0
-4869 -5299 0
-4870 -5300 0
-4866 -5831 0
-4867 -5832 0
-4868 -5833 0
-4869 -5834 0
-4870 -5835 0
-4866 -6136 0
-4867 -6137 0
-4868 -6138 0
-4869 -6139 0
-4870 -6140 0
-4866 -6441 0
-4867 -6442 0
-4868 -6443 0
-4869 -6444 0
-4870 -6445 0
-4866 -6631 0
-4867 -6632 0
-4868 -6633 0
-4869 -6634 0
-4870 -6635 0
-4871 -5026 0
-4872 -5027 0
-4873 -5028 0
-4874 -5029 0
-4875 -5030 0
-4871 -5311 0
-4872 -5312 0
-4873 -5313 0
-4874 -5314 0
-4875 -5315 0
-4871 -5846 0
-4872 -5847 0
-4873 -5848 0
-4874 -5849 0
-4875 -5850 0
-4871 -6146 0
-4872 -6147 0
-4873 -6148 0
-4874 -6149 0
-4875 -6150 0
-4871 -6446 0
-4872 -6447 0
-4873 -6448 0
-4874 -6449 0
-4875 -6450 0
-4871 -6631 0
-4872 -6632 0
-4873 -6633 0
-4874 -6634 0
-4875 -6635 0
-4876 -4966 0
-4877 -4967 0
-4878 -4968 0
-4879 -4969 0
-4880 -4970 0
-4876 -4986 0
-4877 -4987 0
-4878 -4988 0
-4879 -4989 0
-4880 -4990 0
-4876 -5121 0
-4877 -5122 0
-4878 -5123 0
-4879 -5124 0
-4880 -5125 0
-4876 -5691 0
-4877 -5692 0
-4878 -5693 0
-4879 -5694 0
-4880 -5695 0
-4876 -5891 0
-4877 -5892 0
-4878 -5893 0
-4879 -5894 0
-4880 -5895 0
-4881 -4886 0
-4882 -4887 0
-4883 -4888 0
-4884 -4889 0
-4885 -4890 0
-4881 -4891 0
-4882 -4892 0
-4883 -4893 0
-4884 -4894 0
-4885 -4895 0
-4881 -4941 0
-4882 -4942 0
-4883 -4943 0
-4884 -4944 0
-4885 -4945 0
-4881 -4946 0
-4882 -4947 0
-4883 -4948 0
-4884 -4949 0
-4885 -4950 0
-4881 -5436 0
-4882 -5437 0
-4883 -5438 0
-4884 -5439 0
-4885 -5440 0
-4881 -5641 0
-4882 -5642 0
-4883 -5643 0
-4884 -5644 0
-4885 -5645 0
-4881 -6671 0
-4882 -6672 0
-4883 -6673 0
-4884 -6674 0
-4885 -6675 0
-4881 -6751 0
-4882 -6752 0
-4883 -6753 0
-4884 -6754 0
-4885 -6755 0
-4886 -4896 0
-4887 -4897 0
-4888 -4898 0
-4889 -4899 0
-4890 -4900 0
-4886 -4961 0
-4887 -4962 0
-4888 -4963 0
-4889 -4964 0
-4890 -4965 0
-4886 -4966 0
-4887 -4967 0
-4888 -4968 0
-4889 -4969 0
-4890 -4970 0
-4886 -5461 0
-4887 -5462 0
-4888 -5463 0
-4889 -5464 0
-4890 -5465 0
-4886 -5656 0
-4887 -5657 0
-4888 -5658 0
-4889 -5659 0
-4890 -5660 0
-4886 -6476 0
-4887 -6477 0
-4888 -6478 0
-4889 -6479 0
-4890 -6480 0
-4886 -6671 0
-4887 -6672 0
-4888 -6673 0
-4889 -6674 0
-4890 -6675 0
-4886 -6761 0
-4887 -6762 0
-4888 -6763 0
-4889 -6764 0
-4890 -6765 0
-4891 -4896 0
-4892 -4897 0
-4893 -4898 0
-4894 -4899 0
-4895 -4900 0
-4891 -4901 0
-4892 -4902 0
-4893 -4903 0
-4894 -4904 0
-4895 -4905 0
-4891 -4996 0
-4892 -4997 0
-4893 -4998 0
-4894 -4999 0
-4895 -5000 0
-4891 -5276 0
-4892 -5277 0
-4893 -5278 0
-4894 -5279 0
-4895 -5280 0
-4891 -5741 0
-4892 -5742 0
-4893 -5743 0
-4894 -5744 0
-4895 -5745 0
-4891 -6676 0
-4892 -6677 0
-4893 -6678 0
-4894 -6679 0
-4895 -6680 0
-4891 -6751 0
-4892 -6752 0
-4893 -6753 0
-4894 -6754 0
-4895 -6755 0
-4896 -5001 0
-4897 -5002 0
-4898 -5003 0
-4899 -5004 0
-4900 -5005 0
-4896 -5756 0
-4897 -5757 0
-4898 -5758 0
-4899 -5759 0
-4900 -5760 0
-4896 -5906 0
-4897 -5907 0
-4898 -5908 0
-4899 -5909 0
-4900 -5910 0
-4896 -6676 0
-4897 -6677 0
-4898 -6678 0
-4899 -6679 0
-4900 -6680 0
-4896 -6761 0
-4897 -6762 0
-4898 -6763 0
-4899 -6764 0
-4900 -6765 0
-4901 -5296 0
-4902 -5297 0
-4903 -5298 0
-4904 -5299 0
-4905 -5300 0
-4901 -5911 0
-4902 -5912 0
-4903 -5913 0
-4904 -5914 0
-4905 -5915 0
-4901 -6501 0
-4902 -6502 0
-4903 -6503 0
-4904 -6504 0
-4905 -6505 0
-4901 -6681 0
-4902 -6682 0
-4903 -6683 0
-4904 -6684 0
-4905 -6685 0
-4906 -4921 0
-4907 -4922 0
-4908 -4923 0
-4909 -4924 0
-4910 -4925 0
-4906 -4951 0
-4907 -4952 0
-4908 -4953 0
-4909 -4954 0
-4910 -4955 0
-4906 -5361 0
-4907 -5362 0
-4908 -5363 0
-4909 -5364 0
-4910 -5365 0
-4906 -6001 0
-4907 -6002 0
-4908 -6003 0
-4909 -6004 0
-4910 -6005 0
-4906 -6691 0
-4907 -6692 0
-4908 -6693 0
-4909 -6694 0
-4910 -6695 0
-4911 -4916 0
-4912 -4917 0
-4913 -4918 0
-4914 -4919 0
-4915 -4920 0
-4911 -4921 0
-4912 -4922 0
-4913 -4923 0
-4914 -4924 0
-4915 -4925 0
-4911 -4931 0
-4912 -4932 0
-4913 -4933 0
-4914 -4934 0
-4915 -4935 0
-4911 -4961 0
-4912 -4962 0
-4913 -4963 0
-4914 -4964 0
-4915 -4965 0
-4911 -5061 0
-4912 -5062 0
-4913 -5063 0
-4914 -5064 0
-4915 -5065 0
-4911 -6006 0
-4912 -6007 0
-4913 -6008 0
-4914 -6009 0
-4915 -6010 0
-4911 -6231 0
-4912 -6232 0
-4913 -6233 0
-4914 -6234 0
-4915 -6235 0
-4911 -6521 0
-4912 -6522 0
-4913 -6523 0
-4914 -6524 0
-4915 -6525 0
-4911 -6686 0
-4912 -6687 0
-4913 -6688 0
-4914 -6689 0
-4915 -6690 0
-4911 -6696 0
-4912 -6697 0
-4913 -6698 0
-4914 -6699 0
-4915 -6700 0
-4911 -6876 0
-4912 -6877 0
-4913 -6878 0
-4914 -6879 0
-4915 -6880 0
-4916 -4961 0
-4917 -4962 0
-4918 -4963 0
-4919 -4964 0
-4920 -4965 0
-4916 -6881 0
-4917 -6882 0
-4918 -6883 0
-4919 -6884 0
-4920 -6885 0
-4921 -4926 0
-4922 -4927 0
-4923 -4928 0
-4924 -4929 0
-4925 -4930 0
-4921 -4936 0
-4922 -4937 0
-4923 -4938 0
-4924 -4939 0
-4925 -4940 0
-4921 -4971 0
-4922 -4972 0
-4923 -4973 0
-4924 -4974 0
-4925 -4975 0
-4921 -4976 0
-4922 -4977 0
-4923 -4978 0
-4924 -4979 0
-4925 -4980 0
-4921 -5006 0
-4922 -5007 0
-4923 -5008 0
-4924 -5009 0
-4925 -5010 0
-4921 -5041 0
-4922 -5042 0
-4923 -5043 0
-4924 -5044 0
-4925 -5045 0
-4921 -5061 0
-4922 -5062 0
-4923 -5063 0
-4924 -5064 0
-4925 -5065 0
-4921 -5321 0
-4922 -5322 0
-4923 -5323 0
-4924 -5324 0
-4925 -5325 0
-4921 -5366 0
-4922 -5367 0
-4923 -5368 0
-4924 -5369 0
-4925 -5370 0
-4921 -5726 0
-4922 -5727 0
-4923 -5728 0
-4924 -5729 0
-4925 -5730 0
-4921 -6026 0
-4922 -6027 0
-4923 -6028 0
-4924 -6029 0
-4925 -6030 0
-4921 -6531 0
-4922 -6532 0
-4923 -6533 0
-4924 -6534 0
-4925 -6535 0
-4921 -6656 0
-4922 -6657 0
-4923 -6658 0
-4924 -6659 0
-4925 -6660 0
-4921 -6691 0
-4922 -6692 0
-4923 -6693 0
-4924 -6694 0
-4925 -6695 0
-4921 -6701 0
-4922 -6702 0
-4923 -6703 0
-4924 -6704 0
-4925 -6705 0
-4926 -4981 0
-4927 -4982 0
-4928 -4983 0
-4929 -4984 0
-4930 -4985 0
-4926 -4986 0
-4927 -4987 0
-4928 -4988 0
-4929 -4989 0
-4930 -4990 0
-4926 -5011 0
-4927 -5012 0
-4928 -5013 0
-4929 -5014 0
-4930 -5015 0
-4926 -5041 0
-4927 -5042 0
-4928 -5043 0
-4929 -5044 0
-4930 -5045 0
-4926 -5221 0
-4927 -5222 0
-4928 -5223 0
-4929 -5224 0
-4930 -5225 0
-4926 -5516 0
-4927 -5517 0
-4928 -5518 0
-4929 -5519 0
-4930 -5520 0
-4926 -5676 0
-4927 -5677 0
-4928 -5678 0
-4929 -5679 0
-4930 -5680 0
-4926 -5971 0
-4927 -5972 0
-4928 -5973 0
-4929 -5974 0
-4930 -5975 0
-4926 -6041 0
-4927 -6042 0
-4928 -6043 0
-4929 -6044 0
-4930 -6045 0
-4931 -4936 0
-4932 -4937 0
-4933 -4938 0
-4934 -4939 0
-4935 -4940 0
-4931 -4991 0
-4932 -4992 0
-4933 -4993 0
-4934 -4994 0
-4935 -4995 0
-4931 -5076 0
-4932 -5077 0
-4933 -5078 0
-4934 -5079 0
-4935 -5080 0
-4931 -5231 0
-4932 -5232 0
-4933 -5233 0
-4934 -5234 0
-4935 -5235 0
-4931 -5416 0
-4932 -5417 0
-4933 -5418 0
-4934 -5419 0
-4935 -5420 0
-4931 -5501 0
-4932 -5502 0
-4933 -5503 0
-4934 -5504 0
-4935 -5505 0
-4931 -6241 0
-4932 -6242 0
-4933 -6243 0
-4934 -6244 0
-4935 -6245 0
-4931 -6541 0
-4932 -6542 0
-4933 -6543 0
-4934 -6544 0
-4935 -6545 0
-4931 -6706 0
-4932 -6707 0
-4933 -6708 0
-4934 -6709 0
-4935 -6710 0
-4936 -5076 0
-4937 -5077 0
-4938 -5078 0
-4939 -5079 0
-4940 -5080 0
-4936 -5246 0
-4937 -5247 0
-4938 -5248 0
-4939 -5249 0
-4940 -5250 0
-4936 -5331 0
-4937 -5332 0
-4938 -5333 0
-4939 -5334 0
-4940 -5335 0
-4936 -5511 0
-4937 -5512 0
-4938 -5513 0
-4939 -5514 0
-4940 -5515 0
-4936 -5681 0
-4937 -5682 0
-4938 -5683 0
-4939 -5684 0
-4940 -5685 0
-4936 -5731 0
-4937 -5732 0
-4938 -5733 0
-4939 -5734 0
-4940 -5735 0
-4936 -6096 0
-4937 -6097 0
-4938 -6098 0
-4939 -6099 0
-4940 -6100 0
-4936 -6546 0
-4937 -6547 0
-4938 -6548 0
-4939 -6549 0
-4940 -6550 0
-4936 -6656 0
-4937 -6657 0
-4938 -6658 0
-4939 -6659 0
-4940 -6660 0
-4936 -6711 0
-4937 -6712 0
-4938 -6713 0
-4939 -6714 0
-4940 -6715 0
-4941 -4946 0
-4942 -4947 0
-4943 -4948 0
-4944 -4949 0
-4945 -4950 0
-4941 -4951 0
-4942 -4952 0
-4943 -4953 0
-4944 -4954 0
-4945 -4955 0
-4941 -4961 0
-4942 -4962 0
-4943 -4963 0
-4944 -4964 0
-4945 -4965 0
-4941 -4996 0
-4942 -4997 0
-4943 -4998 0
-4944 -4999 0
-4945 -5000 0
-4941 -5421 0
-4942 -5422 0
-4943 -5423 0
-4944 -5424 0
-4945 -5425 0
-4941 -6716 0
-4942 -6717 0
-4943 -6718 0
-4944 -6719 0
-4945 -6720 0
-4941 -6776 0
-4942 -6777 0
-4943 -6778 0
-4944 -6779 0
-4945 -6780 0
-4941 -6886 0
-4942 -6887 0
-4943 -6888 0
-4944 -6889 0
-4945 -6890 0
-4946 -4956 0
-4947 -4957 0
-4948 -4958 0
-4949 -4959 0
-4950 -4960 0
-4946 -4966 0
-4947 -4967 0
-4948 -4968 0
-4949 -4969 0
-4950 -4970 0
-4946 -5426 0
-4947 -5427 0
-4948 -5428 0
-4949 -5429 0
-4950 -5430 0
-4946 -6006 0
-4947 -6007 0
-4948 -6008 0
-4949 -6009 0
-4950 -6010 0
-4946 -6721 0
-4947 -6722 0
-4948 -6723 0
-4949 -6724 0
-4950 -6725 0
-4946 -6781 0
-4947 -6782 0
-4948 -6783 0
-4949 -6784 0
-4950 -6785 0
-4951 -4956 0
-4952 -4957 0
-4953 -4958 0
-4954 -4959 0
-4955 -4960 0
-4951 -4976 0
-4952 -4977 0
-4953 -4978 0
-4954 -4979 0
-4955 -4980 0
-4951 -5111 0
-4952 -5112 0
-4953 -5113 0
-4954 -5114 0
-4955 -5115 0
-4951 -5376 0
-4952 -5377 0
-4953 -5378 0
-4954 -5379 0
-4955 -5380 0
-4951 -6011 0
-4952 -6012 0
-4953 -6013 0
-4954 -6014 0
-4955 -6015 0
-4951 -6726 0
-4952 -6727 0
-4953 -6728 0
-4954 -6729 0
-4955 -6730 0
-4956 -4986 0
-4957 -4987 0
-4958 -4988 0
-4959 -4989 0
-4960 -4990 0
-4956 -5016 0
-4957 -5017 0
-4958 -5018 0
-4959 -5019 0
-4960 -5020 0
-4956 -6026 0
-4957 -6027 0
-4958 -6028 0
-4959 -6029 0
-4960 -6030 0
-4956 -6731 0
-4957 -6732 0
-4958 -6733 0
-4959 -6734 0
-4960 -6735 0
-4961 -4966 0
-4962 -4967 0
-4963 -4968 0
-4964 -4969 0
-4965 -4970 0
-4961 -4976 0
-4962 -4977 0
-4963 -4978 0
-4964 -4979 0
-4965 -4980 0
-4961 -4991 0
-4962 -4992 0
-4963 -4993 0
-4964 -4994 0
-4965 -4995 0
-4961 -5001 0
-4962 -5002 0
-4963 -5003 0
-4964 -5004 0
-4965 -5005 0
-4961 -5096 0
-4962 -5097 0
-4963 -5098 0
-4964 -5099 0
-4965 -5100 0
-4961 -5521 0
-4962 -5522 0
-4963 -5523 0
-4964 -5524 0
-4965 -5525 0
-4961 -5816 0
-4962 -5817 0
-4963 -5818 0
-4964 -5819 0
-4965 -5820 0
-4961 -6716 0
-4962 -6717 0
-4963 -6718 0
-4964 -6719 0
-4965 -6720 0
-4961 -6736 0
-4962 -6737 0
-4963 -6738 0
-4964 -6739 0
-4965 -6740 0
-4961 -6786 0
-4962 -6787 0
-4963 -6788 0
-4964 -6789 0
-4965 -6790 0
-4961 -6891 0
-4962 -6892 0
-4963 -6893 0
-4964 -6894 0
-4965 -6895 0
-4966 -4986 0
-4967 -4987 0
-4968 -4988 0
-4969 -4989 0
-4970 -4990 0
-4966 -5276 0
-4967 -5277 0
-4968 -5278 0
-4969 -5279 0
-4970 -5280 0
-4966 -6051 0
-4967 -6052 0
-4968 -6053 0
-4969 -6054 0
-4970 -6055 0
-4966 -6246 0
-4967 -6247 0
-4968 -6248 0
-4969 -6249 0
-4970 -6250 0
-4966 -6721 0
-4967 -6722 0
-4968 -6723 0
-4969 -6724 0
-4970 -6725 0
-4966 -6791 0
-4967 -6792 0
-4968 -6793 0
-4969 -6794 0
-4970 -6795 0
-4966 -6896 0
-4967 -6897 0
-4968 -6898 0
-4969 -6899 0
-4970 -6900 0
-4971 -4976 0
-4972 -4977 0
-4973 -4978 0
-4974 -4979 0
-4975 -4980 0
-4971 -4981 0
-4972 -4982 0
-4973 -4983 0
-4974 -4984 0
-4975 -4985 0
-4971 -5046 0
-4972 -5047 0
-4973 -5048 0
-4974 -5049 0
-4975 -5050 0
-4971 -5696 0
-4972 -5697 0
-4973 -5698 0
-4974 -5699 0
-4975 -5700 0
-4971 -6116 0
-4972 -6117 0
-4973 -6118 0
-4974 -6119 0
-4975 -6120 0
-4971 -6551 0
-4972 -6552 0
-4973 -6553 0
-4974 -6554 0
-4975 -6555 0
-4976 -4986 0
-4977 -4987 0
-4978 -4988 0
-4979 -4989 0
-4980 -4990 0
-4976 -5051 0
-4977 -5052 0
-4978 -5053 0
-4979 -5054 0
-4980 -5055 0
-4976 -5126 0
-4977 -5127 0
-4978 -5128 0
-4979 -5129 0
-4980 -5130 0
-4976 -5381 0
-4977 -5382 0
-4978 -5383 0
-4979 -5384 0
-4980 -5385 0
-4976 -5526 0
-4977 -5527 0
-4978 -5528 0
-4979 -5529 0
-4980 -5530 0
-4976 -6056 0
-4977 -6057 0
-4978 -6058 0
-4979 -6059 0
-4980 -6060 0
-4976 -6121 0
-4977 -6122 0
-4978 -6123 0
-4979 -6124 0
-4980 -6125 0
-4976 -6726 0
-4977 -6727 0
-4978 -6728 0
-4979 -6729 0
-4980 -6730 0
-4976 -6741 0
-4977 -6742 0
-4978 -6743 0
-4979 -6744 0
-4980 -6745 0
-4981 -4986 0
-4982 -4987 0
-4983 -4988 0
-4984 -4989 0
-4985 -4990 0
-4981 -5021 0
-4982 -5022 0
-4983 -5023 0
-4984 -5024 0
-4985 -5025 0
-4981 -5031 0
-4982 -5032 0
-4983 -5033 0
-4984 -5034 0
-4985 -5035 0
-4981 -5046 0
-4982 -5047 0
-4983 -5048 0
-4984 -5049 0
-4985 -5050 0
-4981 -5281 0
-4982 -5282 0
-4983 -5283 0
-4984 -5284 0
-4985 -5285 0
-4981 -5551 0
-4982 -5552 0
-4983 -5553 0
-4984 -5554 0
-4985 -5555 0
-4981 -5701 0
-4982 -5702 0
-4983 -5703 0
-4984 -5704 0
-4985 -5705 0
-4981 -5946 0
-4982 -5947 0
-4983 -5948 0
-4984 -5949 0
-4985 -5950 0
-4981 -6066 0
-4982 -6067 0
-4983 -6068 0
-4984 -6069 0
-4985 -6070 0
-4981 -6251 0
-4982 -6252 0
-4983 -6253 0
-4984 -6254 0
-4985 -6255 0
-4986 -5026 0
-4987 -5027 0
-4988 -5028 0
-4989 -5029 0
-4990 -5030 0
-4986 -5036 0
-4987 -5037 0
-4988 -5038 0
-4989 -5039 0
-4990 -5040 0
-4986 -5051 0
-4987 -5052 0
-4988 -5053 0
-4989 -5054 0
-4990 -5055 0
-4986 -5286 0
-4987 -5287 0
-4988 -5288 0
-4989 -5289 0
-4990 -5290 0
-4986 -5356 0
-4987 -5357 0
-4988 -5358 0
-4989 -5359 0
-4990 -5360 0
-4986 -5736 0
-4987 -5737 0
-4988 -5738 0
-4989 -5739 0
-4990 -5740 0
-4986 -5821 0
-4987 -5822 0
-4988 -5823 0
-4989 -5824 0
-4990 -5825 0
-4986 -6071 0
-4987 -6072 0
-4988 -6073 0
-4989 -6074 0
-4990 -6075 0
-4986 -6256 0
-4987 -6257 0
-4988 -6258 0
-4989 -6259 0
-4990 -6260 0
-4986 -6731 0
-4987 -6732 0
-4988 -6733 0
-4989 -6734 0
-4990 -6735 0
-4986 -6796 0
-4987 -6797 0
-4988 -6798 0
-4989 -6799 0
-4990 -6800 0
-4991 -5291 0
-4992 -5292 0
-4993 -5293 0
-4994 -5294 0
-4995 -5295 0
-4991 -5471 0
-4992 -5472 0
-4993 -5473 0
-4994 -5474 0
-4995 -5475 0
-4991 -5541 0
-4992 -5542 0
-4993 -5543 0
-4994 -5544 0
-4995 -5545 0
-4991 -6556 0
-4992 -6557 0
-4993 -6558 0
-4994 -6559 0
-4995 -6560 0
-4996 -5001 0
-4997 -5002 0
-4998 -5003 0
-4999 -5004 0
-5000 -5005 0
-4996 -5106 0
-4997 -5107 0
-4998 -5108 0
-4999 -5109 0
-5000 -5110 0
-4996 -5386 0
-4997 -5387 0
-4998 -5388 0
-4999 -5389 0
-5000 -5390 0
-4996 -5826 0
-4997 -5827 0
-4998 -5828 0
-4999 -5829 0
-5000 -5830 0
-4996 -6746 0
-4997 -6747 0
-4998 -6748 0
-4999 -6749 0
-5000 -6750 0
-4996 -6776 0
-4997 -6777 0
-4998 -6778 0
-4999 -6779 0
-5000 -6780 0
-5001 -5121 0
-5002 -5122 0
-5003 -5123 0
-5004 -5124 0
-5005 -5125 0
-5001 -5841 0
-5002 -5842 0
-5003 -5843 0
-5004 -5844 0
-5005 -5845 0
-5001 -6266 0
-5002 -6267 0
-5003 -6268 0
-5004 -6269 0
-5005 -6270 0
-5001 -6746 0
-5002 -6747 0
-5003 -6748 0
-5004 -6749 0
-5005 -6750 0
-5001 -6786 0
-5002 -6787 0
-5003 -6788 0
-5004 -6789 0
-5005 -6790 0
-5006 -5011 0
-5007 -5012 0
-5008 -5013 0
-5009 -5014 0
-5010 -5015 0
-5006 -5411 0
-5007 -5412 0
-5008 -5413 0
-5009 -5414 0
-5010 -5415 0
-5006 -6136 0
-5007 -6137 0
-5008 -6138 0
-5009 -6139 0
-5010 -6140 0
-5006 -6666 0
-5007 -6667 0
-5008 -6668 0
-5009 -6669 0
-5010 -6670 0
-5006 -6926 0
-5007 -6927 0
-5008 -6928 0
-5009 -6929 0
-5010 -6930 0
-5011 -5021 0
-5012 -5022 0
-5013 -5023 0
-5014 -5024 0
-5015 -5025 0
-5011 -5026 0
-5012 -5027 0
-5013 -5028 0
-5014 -5029 0
-5015 -5030 0
-5011 -5706 0
-5012 -5707 0
-5013 -5708 0
-5014 -5709 0
-5015 -5710 0
-5011 -5966 0
-5012 -5967 0
-5013 -5968 0
-5014 -5969 0
-5015 -5970 0
-5011 -6271 0
-5012 -6272 0
-5013 -6273 0
-5014 -6274 0
-5015 -6275 0
-5011 -6931 0
-5012 -6932 0
-5013 -6933 0
-5014 -6934 0
-5015 -6935 0
-5016 -5026 0
-5017 -5027 0
-5018 -5028 0
-5019 -5029 0
-5020 -5030 0
-5016 -6136 0
-5017 -6137 0
-5018 -6138 0
-5019 -6139 0
-5020 -6140 0
-5021 -5026 0
-5022 -5027 0
-5023 -5028 0
-5024 -5029 0
-5025 -5030 0
-5021 -5031 0
-5022 -5032 0
-5023 -5033 0
-5024 -5034 0
-5025 -5035 0
-5021 -5056 0
-5022 -5057 0
-5023 -5058 0
-5024 -5059 0
-5025 -5060 0
-5021 -5346 0
-5022 -5347 0
-5023 -5348 0
-5024 -5349 0
-5025 -5350 0
-5021 -5476 0
-5022 -5477 0
-5023 -5478 0
-5024 -5479 0
-5025 -5480 0
-5021 -5491 0
-5022 -5492 0
-5023 -5493 0
-5024 -5494 0
-5025 -5495 0
-5021 -5721 0
-5022 -5722 0
-5023 -5723 0
-5024 -5724 0
-5025 -5725 0
-5021 -6026 0
-5022 -6027 0
-5023 -6028 0
-5024 -6029 0
-5025 -6030 0
-5021 -6581 0
-5022 -6582 0
-5023 -6583 0
-5024 -6584 0
-5025 -6585 0
-5021 -6676 0
-5022 -6677 0
-5023 -6678 0
-5024 -6679 0
-5025 -6680 0
-5021 -6681 0
-5022 -6682 0
-5023 -6683 0
-5024 -6684 0
-5025 -6685 0
-5021 -6806 0
-5022 -6807 0
-5023 -6808 0
-5024 -6809 0
-5025 -6810 0
-5021 -6956 0
-5022 -6957 0
-5023 -6958 0
-5024 -6959 0
-5025 -6960 0
-5026 -5036 0
-5027 -5037 0
-5028 -5038 0
-5029 -5039 0
-5030 -5040 0
-5026 -5871 0
-5027 -5872 0
-5028 -5873 0
-5029 -5874 0
-5030 -5875 0
-5026 -6031 0
-5027 -6032 0
-5028 -6033 0
-5029 -6034 0
-5030 -6035 0
-5026 -6146 0
-5027 -6147 0
-5028 -6148 0
-5029 -6149 0
-5030 -6150 0
-5026 -6586 0
-5027 -6587 0
-5028 -6588 0
-5029 -6589 0
-5030 -6590 0
-5026 -6961 0
-5027 -6962 0
-5028 -6963 0
-5029 -6964 0
-5030 -6965 0
-5031 -5036 0
-5032 -5037 0
-5033 -5038 0
-5034 -5039 0
-5035 -5040 0
-5031 -5151 0
-5032 -5152 0
-5033 -5153 0
-5034 -5154 0
-5035 -5155 0
-5031 -5756 0
-5032 -5757 0
-5033 -5758 0
-5034 -5759 0
-5035 -5760 0
-5031 -6036 0
-5032 -6037 0
-5033 -6038 0
-5034 -6039 0
-5035 -6040 0
-5031 -6291 0
-5032 -6292 0
-5033 -6293 0
-5034 -6294 0
-5035 -6295 0
-5031 -6591 0
-5032 -6592 0
-5033 -6593 0
-5034 -6594 0
-5035 -6595 0
-5031 -6811 0
-5032 -6812 0
-5033 -6813 0
-5034 -6814 0
-5035 -6815 0
-5031 -6821 0
-5032 -6822 0
-5033 -6823 0
-5034 -6824 0
-5035 -6825 0
-5036 -5576 0
-5037 -5577 0
-5038 -5578 0
-5039 -5579 0
-5040 -5580 0
-5036 -5761 0
-5037 -5762 0
-5038 -5763 0
-5039 -5764 0
-5040 -5765 0
-5036 -6151 0
-5037 -6152 0
-5038 -6153 0
-5039 -6154 0
-5040 -6155 0
-5036 -6296 0
-5037 -6297 0
-5038 -6298 0
-5039 -6299 0
-5040 -6300 0
-5036 -6596 0
-5037 -6597 0
-5038 -6598 0
-5039 -6599 0
-5040 -6600 0
-5036 -6816 0
-5037 -6817 0
-5038 -6818 0
-5039 -6819 0
-5040 -6820 0
-5041 -5046 0
-5042 -5047 0
-5043 -5048 0
-5044 -5049 0
-5045 -5050 0
-5041 -5051 0
-5042 -5052 0
-5043 -5053 0
-5044 -5054 0
-5045 -5055 0
-5041 -5766 0
-5042 -5767 0
-5043 -5768 0
-5044 -5769 0
-5045 -5770 0
-5041 -6161 0
-5042 -6162 0
-5043 -6163 0
-5044 -6164 0
-5045 -6165 0
-5041 -6596 0
-5042 -6597 0
-5043 -6598 0
-5044 -6599 0
-5045 -6600 0
-5046 -5051 0
-5047 -5052 0
-5048 -5053 0
-5049 -5054 0
-5050 -5055 0
-5046 -5056 0
-5047 -5057 0
-5048 -5058 0
-5049 -5059 0
-5050 -5060 0
-5046 -5531 0
-5047 -5532 0
-5048 -5533 0
-5049 -5534 0
-5050 -5535 0
-5046 -5781 0
-5047 -5782 0
-5048 -5783 0
-5049 -5784 0
-5050 -5785 0
-5046 -6311 0
-5047 -6312 0
-5048 -6313 0
-5049 -6314 0
-5050 -6315 0
-5046 -6611 0
-5047 -6612 0
-5048 -6613 0
-5049 -6614 0
-5050 -6615 0
-5051 -5786 0
-5052 -5787 0
-5053 -5788 0
-5054 -5789 0
-5055 -5790 0
-5051 -6166 0
-5052 -6167 0
-5053 -6168 0
-5054 -6169 0
-5055 -6170 0
-5051 -6316 0
-5052 -6317 0
-5053 -6318 0
-5054 -6319 0
-5055 -6320 0
-5056 -5161 0
-5057 -5162 0
-5058 -5163 0
-5059 -5164 0
-5060 -5165 0
-5056 -5541 0
-5057 -5542 0
-5058 -5543 0
-5059 -5544 0
-5060 -5545 0
-5056 -5571 0
-5057 -5572 0
-5058 -5573 0
-5059 -5574 0
-5060 -5575 0
-5056 -5836 0
-5057 -5837 0
-5058 -5838 0
-5059 -5839 0
-5060 -5840 0
-5056 -6156 0
-5057 -6157 0
-5058 -6158 0
-5059 -6159 0
-5060 -6160 0
-5056 -6631 0
-5057 -6632 0
-5058 -6633 0
-5059 -6634 0
-5060 -6635 0
-5056 -6746 0
-5057 -6747 0
-5058 -6748 0
-5059 -6749 0
-5060 -6750 0
-5061 -5066 0
-5062 -5067 0
-5063 -5068 0
-5064 -5069 0
-5065 -5070 0
-5061 -5076 0
-5062 -5077 0
-5063 -5078 0
-5064 -5079 0
-5065 -5080 0
-5061 -5606 0
-5062 -5607 0
-5063 -5608 0
-5064 -5609 0
-5065 -5610 0
-5061 -5801 0
-5062 -5802 0
-5063 -5803 0
-5064 -5804 0
-5065 -5805 0
-5061 -6201 0
-5062 -6202 0
-5063 -6203 0
-5064 -6204 0
-5065 -6205 0
-5061 -6341 0
-5062 -6342 0
-5063 -6343 0
-5064 -6344 0
-5065 -6345 0
-5061 -6756 0
-5062 -6757 0
-5063 -6758 0
-5064 -6759 0
-5065 -6760 0
-5061 -6801 0
-5062 -6802 0
-5063 -6803 0
-5064 -6804 0
-5065 -6805 0
-5066 -5091 0
-5067 -5092 0
-5068 -5093 0
-5069 -5094 0
-5070 -5095 0
-5066 -5621 0
-5067 -5622 0
-5068 -5623 0
-5069 -5624 0
-5070 -5625 0
-5066 -5811 0
-5067 -5812 0
-5068 -5813 0
-5069 -5814 0
-5070 -5815 0
-5066 -6211 0
-5067 -6212 0
-5068 -6213 0
-5069 -6214 0
-5070 -6215 0
-5066 -6766 0
-5067 -6767 0
-5068 -6768 0
-5069 -6769 0
-5070 -6770 0
-5066 -6801 0
-5067 -6802 0
-5068 -6803 0
-5069 -6804 0
-5070 -6805 0
-5071 -5076 0
-5072 -5077 0
-5073 -5078 0
-5074 -5079 0
-5075 -5080 0
-5071 -5086 0
-5072 -5087 0
-5073 -5088 0
-5074 -5089 0
-5075 -5090 0
-5071 -5241 0
-5072 -5242 0
-5073 -5243 0
-5074 -5244 0
-5075 -5245 0
-5071 -5431 0
-5072 -5432 0
-5073 -5433 0
-5074 -5434 0
-5075 -5435 0
-5071 -5596 0
-5072 -5597 0
-5073 -5598 0
-5074 -5599 0
-5075 -5600 0
-5071 -6181 0
-5072 -6182 0
-5073 -6183 0
-5074 -6184 0
-5075 -6185 0
-5071 -6751 0
-5072 -6752 0
-5073 -6753 0
-5074 -6754 0
-5075 -6755 0
-5071 -6806 0
-5072 -6807 0
-5073 -6808 0
-5074 -6809 0
-5075 -6810 0
-5076 -5081 0
-5077 -5082 0
-5078 -5083 0
-5079 -5084 0
-5080 -5085 0
-5076 -5091 0
-5077 -5092 0
-5078 -5093 0
-5079 -5094 0
-5080 -5095 0
-5076 -5211 0
-5077 -5212 0
-5078 -5213 0
-5079 -5214 0
-5080 -5215 0
-5076 -5351 0
-5077 -5352 0
-5078 -5353 0
-5079 -5354 0
-5080 -5355 0
-5076 -5441 0
-5077 -5442 0
-5078 -5443 0
-5079 -5444 0
-5080 -5445 0
-5076 -5611 0
-5077 -5612 0
-5078 -5613 0
-5079 -5614 0
-5080 -5615 0
-5076 -5816 0
-5077 -5817 0
-5078 -5818 0
-5079 -5819 0
-5080 -5820 0
-5076 -6366 0
-5077 -6367 0
-5078 -6368 0
-5079 -6369 0
-5080 -6370 0
-5076 -6756 0
-5077 -6757 0
-5078 -6758 0
-5079 -6759 0
-5080 -6760 0
-5076 -6811 0
-5077 -6812 0
-5078 -6813 0
-5079 -6814 0
-5080 -6815 0
-5081 -5446 0
-5082 -5447 0
-5083 -5448 0
-5084 -5449 0
-5085 -5450 0
-5081 -5616 0
-5082 -5617 0
-5083 -5618 0
-5084 -5619 0
-5085 -5620 0
-5081 -6816 0
-5082 -6817 0
-5083 -6818 0
-5084 -6819 0
-5085 -6820 0
-5086 -5091 0
-5087 -5092 0
-5088 -5093 0
-5089 -5094 0
-5090 -5095 0
-5086 -5261 0
-5087 -5262 0
-5088 -5263 0
-5089 -5264 0
-5090 -5265 0
-5086 -5456 0
-5087 -5457 0
-5088 -5458 0
-5089 -5459 0
-5090 -5460 0
-5086 -6186 0
-5087 -6187 0
-5088 -6188 0
-5089 -6189 0
-5090 -6190 0
-5086 -6761 0
-5087 -6762 0
-5088 -6763 0
-5089 -6764 0
-5090 -6765 0
-5086 -6806 0
-5087 -6807 0
-5088 -6808 0
-5089 -6809 0
-5090 -6810 0
-5091 -5216 0
-5092 -5217 0
-5093 -5218 0
-5094 -5219 0
-5095 -5220 0
-5091 -5466 0
-5092 -5467 0
-5093 -5468 0
-5094 -5469 0
-5095 -5470 0
-5091 -6766 0
-5092 -6767 0
-5093 -6768 0
-5094 -6769 0
-5095 -6770 0
-5091 -6811 0
-5092 -6812 0
-5093 -6813 0
-5094 -6814 0
-5095 -6815 0
-5096 -5101 0
-5097 -5102 0
-5098 -5103 0
-5099 -5104 0
-5100 -5105 0
-5096 -5121 0
-5097 -5122 0
-5098 -5123 0
-5099 -5124 0
-5100 -5125 0
-5096 -5141 0
-5097 -5142 0
-5098 -5143 0
-5099 -5144 0
-5100 -5145 0
-5096 -5981 0
-5097 -5982 0
-5098 -5983 0
-5099 -5984 0
-5100 -5985 0
-5096 -6871 0
-5097 -6872 0
-5098 -6873 0
-5099 -6874 0
-5100 -6875 0
-5096 -6991 0
-5097 -6992 0
-5098 -6993 0
-5099 -6994 0
-5100 -6995 0
-5101 -5126 0
-5102 -5127 0
-5103 -5128 0
-5104 -5129 0
-5105 -5130 0
-5101 -5141 0
-5102 -5142 0
-5103 -5143 0
-5104 -5144 0
-5105 -5145 0
-5101 -5421 0
-5102 -5422 0
-5103 -5423 0
-5104 -5424 0
-5105 -5425 0
-5101 -5676 0
-5102 -5677 0
-5103 -5678 0
-5104 -5679 0
-5105 -5680 0
-5101 -6881 0
-5102 -6882 0
-5103 -6883 0
-5104 -6884 0
-5105 -6885 0
-5106 -5111 0
-5107 -5112 0
-5108 -5113 0
-5109 -5114 0
-5110 -5115 0
-5106 -5121 0
-5107 -5122 0
-5108 -5123 0
-5109 -5124 0
-5110 -5125 0
-5106 -6001 0
-5107 -6002 0
-5108 -6003 0
-5109 -6004 0
-5110 -6005 0
-5106 -6826 0
-5107 -6827 0
-5108 -6828 0
-5109 -6829 0
-5110 -6830 0
-5111 -5126 0
-5112 -5127 0
-5113 -5128 0
-5114 -5129 0
-5115 -5130 0
-5111 -6831 0
-5112 -6832 0
-5113 -6833 0
-5114 -6834 0
-5115 -6835 0
-5111 -6861 0
-5112 -6862 0
-5113 -6863 0
-5114 -6864 0
-5115 -6865 0
-5116 -5121 0
-5117 -5122 0
-5118 -5123 0
-5119 -5124 0
-5120 -5125 0
-5116 -5281 0
-5117 -5282 0
-5118 -5283 0
-5119 -5284 0
-5120 -5285 0
-5116 -5521 0
-5117 -5522 0
-5118 -5523 0
-5119 -5524 0
-5120 -5525 0
-5116 -6021 0
-5117 -6022 0
-5118 -6023 0
-5119 -6024 0
-5120 -6025 0
-5116 -6226 0
-5117 -6227 0
-5118 -6228 0
-5119 -6229 0
-5120 -6230 0
-5116 -6676 0
-5117 -6677 0
-5118 -6678 0
-5119 -6679 0
-5120 -6680 0
-5116 -6866 0
-5117 -6867 0
-5118 -6868 0
-5119 -6869 0
-5120 -6870 0
-5121 -5126 0
-5122 -5127 0
-5123 -5128 0
-5124 -5129 0
-5125 -5130 0
-5121 -5131 0
-5122 -5132 0
-5123 -5133 0
-5124 -5134 0
-5125 -5135 0
-5121 -5156 0
-5122 -5157 0
-5123 -5158 0
-5124 -5159 0
-5125 -5160 0
-5121 -5276 0
-5122 -5277 0
-5123 -5278 0
-5124 -5279 0
-5125 -5280 0
-5121 -5286 0
-5122 -5287 0
-5123 -5288 0
-5124 -5289 0
-5125 -5290 0
-5121 -6026 0
-5122 -6027 0
-5123 -6028 0
-5124 -6029 0
-5125 -6030 0
-5121 -6266 0
-5122 -6267 0
-5123 -6268 0
-5124 -6269 0
-5125 -6270 0
-5121 -6826 0
-5122 -6827 0
-5123 -6828 0
-5124 -6829 0
-5125 -6830 0
-5121 -6836 0
-5122 -6837 0
-5123 -6838 0
-5124 -6839 0
-5125 -6840 0
-5121 -6871 0
-5122 -6872 0
-5123 -6873 0
-5124 -6874 0
-5125 -6875 0
-5121 -7006 0
-5122 -7007 0
-5123 -7008 0
-5124 -7009 0
-5125 -7010 0
-5126 -5156 0
-5127 -5157 0
-5128 -5158 0
-5129 -5159 0
-5130 -5160 0
-5126 -5906 0
-5127 -5907 0
-5128 -5908 0
-5129 -5909 0
-5130 -5910 0
-5126 -6036 0
-5127 -6037 0
-5128 -6038 0
-5129 -6039 0
-5130 -6040 0
-5126 -6451 0
-5127 -6452 0
-5128 -6453 0
-5129 -6454 0
-5130 -6455 0
-5126 -6831 0
-5127 -6832 0
-5128 -6833 0
-5129 -6834 0
-5130 -6835 0
-5126 -6881 0
-5127 -6882 0
-5128 -6883 0
-5129 -6884 0
-5130 -6885 0
-5131 -5296 0
-5132 -5297 0
-5133 -5298 0
-5134 -5299 0
-5135 -5300 0
-5131 -5306 0
-5132 -5307 0
-5133 -5308 0
-5134 -5309 0
-5135 -5310 0
-5131 -5666 0
-5132 -5667 0
-5133 -5668 0
-5134 -5669 0
-5135 -5670 0
-5131 -6096 0
-5132 -6097 0
-5133 -6098 0
-5134 -6099 0
-5135 -6100 0
-5131 -6841 0
-5132 -6842 0
-5133 -6843 0
-5134 -6844 0
-5135 -6845 0
-5136 -5141 0
-5137 -5142 0
-5138 -5143 0
-5139 -5144 0
-5140 -5145 0
-5136 -5146 0
-5137 -5147 0
-5138 -5148 0
-5139 -5149 0
-5140 -5150 0
-5136 -6456 0
-5137 -6457 0
-5138 -6458 0
-5139 -6459 0
-5140 -6460 0
-5136 -6686 0
-5137 -6687 0
-5138 -6688 0
-5139 -6689 0
-5140 -6690 0
-5136 -6911 0
-5137 -6912 0
-5138 -6913 0
-5139 -6914 0
-5140 -6915 0
-5136 -7041 0
-5137 -7042 0
-5138 -7043 0
-5139 -7044 0
-5140 -7045 0
-5141 -5156 0
-5142 -5157 0
-5143 -5158 0
-5144 -5159 0
-5145 -5160 0
-5141 -5706 0
-5142 -5707 0
-5143 -5708 0
-5144 -5709 0
-5145 -5710 0
-5141 -6461 0
-5142 -6462 0
-5143 -6463 0
-5144 -6464 0
-5145 -6465 0
-5141 -6916 0
-5142 -6917 0
-5143 -6918 0
-5144 -6919 0
-5145 -6920 0
-5141 -7046 0
-5142 -7047 0
-5143 -7048 0
-5144 -7049 0
-5145 -7050 0
-5146 -5151 0
-5147 -5152 0
-5148 -5153 0
-5149 -5154 0
-5150 -5155 0
-5146 -5166 0
-5147 -5167 0
-5148 -5168 0
-5149 -5169 0
-5150 -5170 0
-5146 -5556 0
-5147 -5557 0
-5148 -5558 0
-5149 -5559 0
-5150 -5560 0
-5146 -5636 0
-5147 -5637 0
-5148 -5638 0
-5149 -5639 0
-5150 -5640 0
-5146 -5921 0
-5147 -5922 0
-5148 -5923 0
-5149 -5924 0
-5150 -5925 0
-5146 -6301 0
-5147 -6302 0
-5148 -6303 0
-5149 -6304 0
-5150 -6305 0
-5146 -6691 0
-5147 -6692 0
-5148 -6693 0
-5149 -6694 0
-5150 -6695 0
-5146 -6926 0
-5147 -6927 0
-5148 -6928 0
-5149 -6929 0
-5150 -6930 0
-5151 -5166 0
-5152 -5167 0
-5153 -5168 0
-5154 -5169 0
-5155 -5170 0
-5151 -5561 0
-5152 -5562 0
-5153 -5563 0
-5154 -5564 0
-5155 -5565 0
-5151 -5926 0
-5152 -5927 0
-5153 -5928 0
-5154 -5929 0
-5155 -5930 0
-5151 -6291 0
-5152 -6292 0
-5153 -6293 0
-5154 -6294 0
-5155 -6295 0
-5151 -6901 0
-5152 -6902 0
-5153 -6903 0
-5154 -6904 0
-5155 -6905 0
-5151 -6931 0
-5152 -6932 0
-5153 -6933 0
-5154 -6934 0
-5155 -6935 0
-5156 -5656 0
-5157 -5657 0
-5158 -5658 0
-5159 -5659 0
-5160 -5660 0
-5156 -6141 0
-5157 -6142 0
-5158 -6143 0
-5159 -6144 0
-5160 -6145 0
-5156 -6916 0
-5157 -6917 0
-5158 -6918 0
-5159 -6919 0
-5160 -6920 0
-5156 -7056 0
-5157 -7057 0
-5158 -7058 0
-5159 -7059 0
-5160 -7060 0
-5161 -5166 0
-5162 -5167 0
-5163 -5168 0
-5164 -5169 0
-5165 -5170 0
-5161 -5171 0
-5162 -5172 0
-5163 -5173 0
-5164 -5174 0
-5165 -5175 0
-5161 -5686 0
-5162 -5687 0
-5163 -5688 0
-5164 -5689 0
-5165 -5690 0
-5161 -5711 0
-5162 -5712 0
-5163 -5713 0
-5164 -5714 0
-5165 -5715 0
-5161 -6016 0
-5162 -6017 0
-5163 -6018 0
-5164 -6019 0
-5165 -6020 0
-5161 -6826 0
-5162 -6827 0
-5163 -6828 0
-5164 -6829 0
-5165 -6830 0
-5166 -5176 0
-5167 -5177 0
-5168 -5178 0
-5169 -5179 0
-5170 -5180 0
-5166 -5691 0
-5167 -5692 0
-5168 -5693 0
-5169 -5694 0
-5170 -5695 0
-5166 -6026 0
-5167 -6027 0
-5168 -6028 0
-5169 -6029 0
-5170 -6030 0
-5166 -6326 0
-5167 -6327 0
-5168 -6328 0
-5169 -6329 0
-5170 -6330 0
-5166 -6831 0
-5167 -6832 0
-5168 -6833 0
-5169 -6834 0
-5170 -6835 0
-5166 -6966 0
-5167 -6967 0
-5168 -6968 0
-5169 -6969 0
-5170 -6970 0
-5166 -6971 0
-5167 -6972 0
-5168 -6973 0
-5169 -6974 0
-5170 -6975 0
-5171 -5176 0
-5172 -5177 0
-5173 -5178 0
-5174 -5179 0
-5175 -5180 0
-5171 -5346 0
-5172 -5347 0
-5173 -5348 0
-5174 -5349 0
-5175 -5350 0
-5171 -6061 0
-5172 -6062 0
-5173 -6063 0
-5174 -6064 0
-5175 -6065 0
-5171 -6176 0
-5172 -6177 0
-5173 -6178 0
-5174 -6179 0
-5175 -6180 0
-5171 -6316 0
-5172 -6317 0
-5173 -6318 0
-5174 -6319 0
-5175 -6320 0
-5171 -6836 0
-5172 -6837 0
-5173 -6838 0
-5174 -6839 0
-5175 -6840 0
-5171 -6841 0
-5172 -6842 0
-5173 -6843 0
-5174 -6844 0
-5175 -6845 0
-5176 -5571 0
-5177 -5572 0
-5178 -5573 0
-5179 -5574 0
-5180 -5575 0
-5176 -6071 0
-5177 -6072 0
-5178 -6073 0
-5179 -6074 0
-5180 -6075 0
-5181 -5186 0
-5182 -5187 0
-5183 -5188 0
-5184 -5189 0
-5185 -5190 0
-5181 -5191 0
-5182 -5192 0
-5183 -5193 0
-5184 -5194 0
-5185 -5195 0
-5181 -5231 0
-5182 -5232 0
-5183 -5233 0
-5184 -5234 0
-5185 -5235 0
-5181 -5726 0
-5182 -5727 0
-5183 -5728 0
-5184 -5729 0
-5185 -5730 0
-5181 -6751 0
-5182 -6752 0
-5183 -6753 0
-5184 -6754 0
-5185 -6755 0
-5181 -6866 0
-5182 -6867 0
-5183 -6868 0
-5184 -6869 0
-5185 -6870 0
-5186 -5196 0
-5187 -5197 0
-5188 -5198 0
-5189 -5199 0
-5190 -5200 0
-5186 -5236 0
-5187 -5237 0
-5188 -5238 0
-5189 -5239 0
-5190 -5240 0
-5186 -6181 0
-5187 -6182 0
-5188 -6183 0
-5189 -6184 0
-5190 -6185 0
-5186 -6871 0
-5187 -6872 0
-5188 -6873 0
-5189 -6874 0
-5190 -6875 0
-5191 -5196 0
-5192 -5197 0
-5193 -5198 0
-5194 -5199 0
-5195 -5200 0
-5191 -5201 0
-5192 -5202 0
-5193 -5203 0
-5194 -5204 0
-5195 -5205 0
-5191 -5231 0
-5192 -5232 0
-5193 -5233 0
-5194 -5234 0
-5195 -5235 0
-5191 -5361 0
-5192 -5362 0
-5193 -5363 0
-5194 -5364 0
-5195 -5365 0
-5191 -6346 0
-5192 -6347 0
-5193 -6348 0
-5194 -6349 0
-5195 -6350 0
-5191 -6756 0
-5192 -6757 0
-5193 -6758 0
-5194 -6759 0
-5195 -6760 0
-5191 -6856 0
-5192 -6857 0
-5193 -6858 0
-5194 -6859 0
-5195 -6860 0
-5191 -6876 0
-5192 -6877 0
-5193 -6878 0
-5194 -6879 0
-5195 -6880 0
-5196 -5201 0
-5197 -5202 0
-5198 -5203 0
-5199 -5204 0
-5200 -5205 0
-5196 -5236 0
-5197 -5237 0
-5198 -5238 0
-5199 -5239 0
-5200 -5240 0
-5196 -5766 0
-5197 -5767 0
-5198 -5768 0
-5199 -5769 0
-5200 -5770 0
-5196 -6351 0
-5197 -6352 0
-5198 -6353 0
-5199 -6354 0
-5200 -6355 0
-5196 -6861 0
-5197 -6862 0
-5198 -6863 0
-5199 -6864 0
-5200 -6865 0
-5196 -6881 0
-5197 -6882 0
-5198 -6883 0
-5199 -6884 0
-5200 -6885 0
-5201 -5206 0
-5202 -5207 0
-5203 -5208 0
-5204 -5209 0
-5205 -5210 0
-5201 -5291 0
-5202 -5292 0
-5203 -5293 0
-5204 -5294 0
-5205 -5295 0
-5201 -5376 0
-5202 -5377 0
-5203 -5378 0
-5204 -5379 0
-5205 -5380 0
-5201 -5781 0
-5202 -5782 0
-5203 -5783 0
-5204 -5784 0
-5205 -5785 0
-5201 -6486 0
-5202 -6487 0
-5203 -6488 0
-5204 -6489 0
-5205 -6490 0
-5201 -6886 0
-5202 -6887 0
-5203 -6888 0
-5204 -6889 0
-5205 -6890 0
-5201 -6891 0
-5202 -6892 0
-5203 -6893 0
-5204 -6894 0
-5205 -6895 0
-5206 -5296 0
-5207 -5297 0
-5208 -5298 0
-5209 -5299 0
-5210 -5300 0
-5206 -5581 0
-5207 -5582 0
-5208 -5583 0
-5209 -5584 0
-5210 -5585 0
-5206 -6361 0
-5207 -6362 0
-5208 -6363 0
-5209 -6364 0
-5210 -6365 0
-5206 -6491 0
-5207 -6492 0
-5208 -6493 0
-5209 -6494 0
-5210 -6495 0
-5206 -6896 0
-5207 -6897 0
-5208 -6898 0
-5209 -6899 0
-5210 -6900 0
-5211 -5216 0
-5212 -5217 0
-5213 -5218 0
-5214 -5219 0
-5215 -5220 0
-5211 -5251 0
-5212 -5252 0
-5213 -5253 0
-5214 -5254 0
-5215 -5255 0
-5211 -5326 0
-5212 -5327 0
-5213 -5328 0
-5214 -5329 0
-5215 -5330 0
-5211 -5586 0
-5212 -5587 0
-5213 -5588 0
-5214 -5589 0
-5215 -5590 0
-5211 -5631 0
-5212 -5632 0
-5213 -5633 0
-5214 -5634 0
-5215 -5635 0
-5211 -5981 0
-5212 -5982 0
-5213 -5983 0
-5214 -5984 0
-5215 -5985 0
-5211 -6496 0
-5212 -6497 0
-5213 -6498 0
-5214 -6499 0
-5215 -6500 0
-5211 -6901 0
-5212 -6902 0
-5213 -6903 0
-5214 -6904 0
-5215 -6905 0
-5216 -5271 0
-5217 -5272 0
-5218 -5273 0
-5219 -5274 0
-5220 -5275 0
-5216 -5331 0
-5217 -5332 0
-5218 -5333 0
-5219 -5334 0
-5220 -5335 0
-5216 -5596 0
-5217 -5597 0
-5218 -5598 0
-5219 -5599 0
-5220 -5600 0
-5216 -5636 0
-5217 -5637 0
-5218 -5638 0
-5219 -5639 0
-5220 -5640 0
-5216 -5986 0
-5217 -5987 0
-5218 -5988 0
-5219 -5989 0
-5220 -5990 0
-5216 -6846 0
-5217 -6847 0
-5218 -6848 0
-5219 -6849 0
-5220 -6850 0
-5216 -6901 0
-5217 -6902 0
-5218 -6903 0
-5219 -6904 0
-5220 -6905 0
-5221 -5226 0
-5222 -5227 0
-5223 -5228 0
-5224 -5229 0
-5225 -5230 0
-5221 -5251 0
-5222 -5252 0
-5223 -5253 0
-5224 -5254 0
-5225 -5255 0
-5221 -5281 0
-5222 -5282 0
-5223 -5283 0
-5224 -5284 0
-5225 -5285 0
-5221 -5286 0
-5222 -5287 0
-5223 -5288 0
-5224 -5289 0
-5225 -5290 0
-5221 -5991 0
-5222 -5992 0
-5223 -5993 0
-5224 -5994 0
-5225 -5995 0
-5221 -6391 0
-5222 -6392 0
-5223 -6393 0
-5224 -6394 0
-5225 -6395 0
-5221 -6906 0
-5222 -6907 0
-5223 -6908 0
-5224 -6909 0
-5225 -6910 0
-5226 -5271 0
-5227 -5272 0
-5228 -5273 0
-5229 -5274 0
-5230 -5275 0
-5226 -5996 0
-5227 -5997 0
-5228 -5998 0
-5229 -5999 0
-5230 -6000 0
-5226 -6406 0
-5227 -6407 0
-5228 -6408 0
-5229 -6409 0
-5230 -6410 0
-5226 -6906 0
-5227 -6907 0
-5228 -6908 0
-5229 -6909 0
-5230 -6910 0
-5231 -5236 0
-5232 -5237 0
-5233 -5238 0
-5234 -5239 0
-5235 -5240 0
-5231 -5241 0
-5232 -5242 0
-5233 -5243 0
-5234 -5244 0
-5235 -5245 0
-5231 -5246 0
-5232 -5247 0
-5233 -5248 0
-5234 -5249 0
-5235 -5250 0
-5231 -5256 0
-5232 -5257 0
-5233 -5258 0
-5234 -5259 0
-5235 -5260 0
-5231 -5291 0
-5232 -5292 0
-5233 -5293 0
-5234 -5294 0
-5235 -5295 0
-5231 -5351 0
-5232 -5352 0
-5233 -5353 0
-5234 -5354 0
-5235 -5355 0
-5231 -5401 0
-5232 -5402 0
-5233 -5403 0
-5234 -5404 0
-5235 -5405 0
-5231 -6506 0
-5232 -6507 0
-5233 -6508 0
-5234 -6509 0
-5235 -6510 0
-5231 -6771 0
-5232 -6772 0
-5233 -6773 0
-5234 -6774 0
-5235 -6775 0
-5231 -6911 0
-5232 -6912 0
-5233 -6913 0
-5234 -6914 0
-5235 -6915 0
-5236 -5291 0
-5237 -5292 0
-5238 -5293 0
-5239 -5294 0
-5240 -5295 0
-5236 -5796 0
-5237 -5797 0
-5238 -5798 0
-5239 -5799 0
-5240 -5800 0
-5236 -6916 0
-5237 -6917 0
-5238 -6918 0
-5239 -6919 0
-5240 -6920 0
-5241 -5251 0
-5242 -5252 0
-5243 -5253 0
-5244 -5254 0
-5245 -5255 0
-5241 -5261 0
-5242 -5262 0
-5243 -5263 0
-5244 -5264 0
-5245 -5265 0
-5241 -5296 0
-5242 -5297 0
-5243 -5298 0
-5244 -5299 0
-5245 -5300 0
-5241 -6006 0
-5242 -6007 0
-5243 -6008 0
-5244 -6009 0
-5245 -6010 0
-5241 -6511 0
-5242 -6512 0
-5243 -6513 0
-5244 -6514 0
-5245 -6515 0
-5241 -6921 0
-5242 -6922 0
-5243 -6923 0
-5244 -6924 0
-5245 -6925 0
-5246 -5251 0
-5247 -5252 0
-5248 -5253 0
-5249 -5254 0
-5250 -5255 0
-5246 -5266 0
-5247 -5267 0
-5248 -5268 0
-5249 -5269 0
-5250 -5270 0
-5246 -5336 0
-5247 -5337 0
-5248 -5338 0
-5249 -5339 0
-5250 -5340 0
-5246 -5351 0
-5247 -5352 0
-5248 -5353 0
-5249 -5354 0
-5250 -5355 0
-5246 -5606 0
-5247 -5607 0
-5248 -5608 0
-5249 -5609 0
-5250 -5610 0
-5246 -5731 0
-5247 -5732 0
-5248 -5733 0
-5249 -5734 0
-5250 -5735 0
-5246 -6011 0
-5247 -6012 0
-5248 -6013 0
-5249 -6014 0
-5250 -6015 0
-5246 -6411 0
-5247 -6412 0
-5248 -6413 0
-5249 -6414 0
-5250 -6415 0
-5246 -6926 0
-5247 -6927 0
-5248 -6928 0
-5249 -6929 0
-5250 -6930 0
-5251 -5271 0
-5252 -5272 0
-5253 -5273 0
-5254 -5274 0
-5255 -5275 0
-5251 -5301 0
-5252 -5302 0
-5253 -5303 0
-5254 -5304 0
-5255 -5305 0
-5251 -5306 0
-5252 -5307 0
-5253 -5308 0
-5254 -5309 0
-5255 -5310 0
-5251 -5336 0
-5252 -5337 0
-5253 -5338 0
-5254 -5339 0
-5255 -5340 0
-5251 -5616 0
-5252 -5617 0
-5253 -5618 0
-5254 -5619 0
-5255 -5620 0
-5251 -5646 0
-5252 -5647 0
-5253 -5648 0
-5254 -5649 0
-5255 -5650 0
-5251 -6026 0
-5252 -6027 0
-5253 -6028 0
-5254 -6029 0
-5255 -6030 0
-5251 -6931 0
-5252 -6932 0
-5253 -6933 0
-5254 -6934 0
-5255 -6935 0
-5256 -5261 0
-5257 -5262 0
-5258 -5263 0
-5259 -5264 0
-5260 -5265 0
-5256 -5266 0
-5257 -5267 0
-5258 -5268 0
-5259 -5269 0
-5260 -5270 0
-5256 -5411 0
-5257 -5412 0
-5258 -5413 0
-5259 -5414 0
-5260 -5415 0
-5256 -6911 0
-5257 -6912 0
-5258 -6913 0
-5259 -6914 0
-5260 -6915 0
-5261 -5271 0
-5262 -5272 0
-5263 -5273 0
-5264 -5274 0
-5265 -5275 0
-5261 -5311 0
-5262 -5312 0
-5263 -5313 0
-5264 -5314 0
-5265 -5315 0
-5261 -6051 0
-5262 -6052 0
-5263 -6053 0
-5264 -6054 0
-5265 -6055 0
-5261 -6921 0
-5262 -6922 0
-5263 -6923 0
-5264 -6924 0
-5265 -6925 0
-5266 -5271 0
-5267 -5272 0
-5268 -5273 0
-5269 -5274 0
-5270 -5275 0
-5266 -5341 0
-5267 -5342 0
-5268 -5343 0
-5269 -5344 0
-5270 -5345 0
-5266 -5621 0
-5267 -5622 0
-5268 -5623 0
-5269 -5624 0
-5270 -5625 0
-5266 -6056 0
-5267 -6057 0
-5268 -6058 0
-5269 -6059 0
-5270 -6060 0
-5266 -6416 0
-5267 -6417 0
-5268 -6418 0
-5269 -6419 0
-5270 -6420 0
-5266 -6926 0
-5267 -6927 0
-5268 -6928 0
-5269 -6929 0
-5270 -6930 0
-5271 -5316 0
-5272 -5317 0
-5273 -5318 0
-5274 -5319 0
-5275 -5320 0
-5271 -5341 0
-5272 -5342 0
-5273 -5343 0
-5274 -5344 0
-5275 -5345 0
-5271 -5661 0
-5272 -5662 0
-5273 -5663 0
-5274 -5664 0
-5275 -5665 0
-5271 -6071 0
-5272 -6072 0
-5273 -6073 0
-5274 -6074 0
-5275 -6075 0
-5271 -6331 0
-5272 -6332 0
-5273 -6333 0
-5274 -6334 0
-5275 -6335 0
-5271 -6931 0
-5272 -6932 0
-5273 -6933 0
-5274 -6934 0
-5275 -6935 0
-5276 -5286 0
-5277 -5287 0
-5278 -5288 0
-5279 -5289 0
-5280 -5290 0
-5276 -5296 0
-5277 -5297 0
-5278 -5298 0
-5279 -5299 0
-5280 -5300 0
-5276 -6201 0
-5277 -6202 0
-5278 -6203 0
-5279 -6204 0
-5280 -6205 0
-5276 -6516 0
-5277 -6517 0
-5278 -6518 0
-5279 -6519 0
-5280 -6520 0
-5276 -6936 0
-5277 -6937 0
-5278 -6938 0
-5279 -6939 0
-5280 -6940 0
-5276 -7086 0
-5277 -7087 0
-5278 -7088 0
-5279 -7089 0
-5280 -7090 0
-5281 -5286 0
-5282 -5287 0
-5283 -5288 0
-5284 -5289 0
-5285 -5290 0
-5281 -5301 0
-5282 -5302 0
-5283 -5303 0
-5284 -5304 0
-5285 -5305 0
-5281 -6106 0
-5282 -6107 0
-5283 -6108 0
-5284 -6109 0
-5285 -6110 0
-5281 -6336 0
-5282 -6337 0
-5283 -6338 0
-5284 -6339 0
-5285 -6340 0
-5286 -5306 0
-5287 -5307 0
-5288 -5308 0
-5289 -5309 0
-5290 -5310 0
-5286 -5736 0
-5287 -5737 0
-5288 -5738 0
-5289 -5739 0
-5290 -5740 0
-5286 -6206 0
-5287 -6207 0
-5288 -6208 0
-5289 -6209 0
-5290 -6210 0
-5286 -6396 0
-5287 -6397 0
-5288 -6398 0
-5289 -6399 0
-5290 -6400 0
-5286 -6526 0
-5287 -6527 0
-5288 -6528 0
-5289 -6529 0
-5290 -6530 0
-5286 -6941 0
-5287 -6942 0
-5288 -6943 0
-5289 -6944 0
-5290 -6945 0
-5291 -5296 0
-5292 -5297 0
-5293 -5298 0
-5294 -5299 0
-5295 -5300 0
-5291 -5436 0
-5292 -5437 0
-5293 -5438 0
-5294 -5439 0
-5295 -5440 0
-5291 -5751 0
-5292 -5752 0
-5293 -5753 0
-5294 -5754 0
-5295 -5755 0
-5291 -5836 0
-5292 -5837 0
-5293 -5838 0
-5294 -5839 0
-5295 -5840 0
-5291 -6776 0
-5292 -6777 0
-5293 -6778 0
-5294 -6779 0
-5295 -6780 0
-5291 -6946 0
-5292 -6947 0
-5293 -6948 0
-5294 -6949 0
-5295 -6950 0
-5296 -5306 0
-5297 -5307 0
-5298 -5308 0
-5299 -5309 0
-5300 -5310 0
-5296 -5311 0
-5297 -5312 0
-5298 -5313 0
-5299 -5314 0
-5300 -5315 0
-5296 -5761 0
-5297 -5762 0
-5298 -5763 0
-5299 -5764 0
-5300 -5765 0
-5296 -6351 0
-5297 -6352 0
-5298 -6353 0
-5299 -6354 0
-5300 -6355 0
-5296 -6536 0
-5297 -6537 0
-5298 -6538 0
-5299 -6539 0
-5300 -6540 0
-5296 -6781 0
-5297 -6782 0
-5298 -6783 0
-5299 -6784 0
-5300 -6785 0
-5296 -6951 0
-5297 -6952 0
-5298 -6953 0
-5299 -6954 0
-5300 -6955 0
-5301 -5306 0
-5302 -5307 0
-5303 -5308 0
-5304 -5309 0
-5305 -5310 0
-5301 -5626 0
-5302 -5627 0
-5303 -5628 0
-5304 -5629 0
-5305 -5630 0
-5301 -6116 0
-5302 -6117 0
-5303 -6118 0
-5304 -6119 0
-5305 -6120 0
-5301 -6356 0
-5302 -6357 0
-5303 -6358 0
-5304 -6359 0
-5305 -6360 0
-5301 -6956 0
-5302 -6957 0
-5303 -6958 0
-5304 -6959 0
-5305 -6960 0
-5306 -5316 0
-5307 -5317 0
-5308 -5318 0
-5309 -5319 0
-5310 -5320 0
-5306 -6121 0
-5307 -6122 0
-5308 -6123 0
-5309 -6124 0
-5310 -6125 0
-5306 -6416 0
-5307 -6417 0
-5308 -6418 0
-5309 -6419 0
-5310 -6420 0
-5306 -6961 0
-5307 -6962 0
-5308 -6963 0
-5309 -6964 0
-5310 -6965 0
-5311 -5316 0
-5312 -5317 0
-5313 -5318 0
-5314 -5319 0
-5315 -5320 0
-5311 -6791 0
-5312 -6792 0
-5313 -6793 0
-5314 -6794 0
-5315 -6795 0
-5311 -6951 0
-5312 -6952 0
-5313 -6953 0
-5314 -6954 0
-5315 -6955 0
-5316 -5671 0
-5317 -5672 0
-5318 -5673 0
-5319 -5674 0
-5320 -5675 0
-5316 -6131 0
-5317 -6132 0
-5318 -6133 0
-5319 -6134 0
-5320 -6135 0
-5316 -6796 0
-5317 -6797 0
-5318 -6798 0
-5319 -6799 0
-5320 -6800 0
-5316 -6961 0
-5317 -6962 0
-5318 -6963 0
-5319 -6964 0
-5320 -6965 0
-5321 -5331 0
-5322 -5332 0
-5323 -5333 0
-5324 -5334 0
-5325 -5335 0
-5321 -6431 0
-5322 -6432 0
-5323 -6433 0
-5324 -6434 0
-5325 -6435 0
-5321 -6881 0
-5322 -6882 0
-5323 -6883 0
-5324 -6884 0
-5325 -6885 0
-5326 -5331 0
-5327 -5332 0
-5328 -5333 0
-5329 -5334 0
-5330 -5335 0
-5326 -5336 0
-5327 -5337 0
-5328 -5338 0
-5329 -5339 0
-5330 -5340 0
-5326 -6181 0
-5327 -6182 0
-5328 -6183 0
-5329 -6184 0
-5330 -6185 0
-5326 -6561 0
-5327 -6562 0
-5328 -6563 0
-5329 -6564 0
-5330 -6565 0
-5326 -6861 0
-5327 -6862 0
-5328 -6863 0
-5329 -6864 0
-5330 -6865 0
-5326 -6966 0
-5327 -6967 0
-5328 -6968 0
-5329 -6969 0
-5330 -6970 0
-5331 -5341 0
-5332 -5342 0
-5333 -5343 0
-5334 -5344 0
-5335 -5345 0
-5331 -5606 0
-5332 -5607 0
-5333 -5608 0
-5334 -5609 0
-5335 -5610 0
-5331 -5681 0
-5332 -5682 0
-5333 -5683 0
-5334 -5684 0
-5335 -5685 0
-5331 -5876 0
-5332 -5877 0
-5333 -5878 0
-5334 -5879 0
-5335 -5880 0
-5331 -6186 0
-5332 -6187 0
-5333 -6188 0
-5334 -6189 0
-5335 -6190 0
-5331 -6816 0
-5332 -6817 0
-5333 -6818 0
-5334 -6819 0
-5335 -6820 0
-5331 -6881 0
-5332 -6882 0
-5333 -6883 0
-5334 -6884 0
-5335 -6885 0
-5331 -6966 0
-5332 -6967 0
-5333 -6968 0
-5334 -6969 0
-5335 -6970 0
-5336 -5341 0
-5337 -5342 0
-5338 -5343 0
-5339 -5344 0
-5340 -5345 0
-5336 -5776 0
-5337 -5777 0
-5338 -5778 0
-5339 -5779 0
-5340 -5780 0
-5336 -6156 0
-5337 -6157 0
-5338 -6158 0
-5339 -6159 0
-5340 -6160 0
-5336 -6191 0
-5337 -6192 0
-5338 -6193 0
-5339 -6194 0
-5340 -6195 0
-5336 -6971 0
-5337 -6972 0
-5338 -6973 0
-5339 -6974 0
-5340 -6975 0
-5341 -5516 0
-5342 -5517 0
-5343 -5518 0
-5344 -5519 0
-5345 -5520 0
-5341 -5696 0
-5342 -5697 0
-5343 -5698 0
-5344 -5699 0
-5345 -5700 0
-5341 -6166 0
-5342 -6167 0
-5343 -6168 0
-5344 -6169 0
-5345 -6170 0
-5341 -6196 0
-5342 -6197 0
-5343 -6198 0
-5344 -6199 0
-5345 -6200 0
-5341 -6971 0
-5342 -6972 0
-5343 -6973 0
-5344 -6974 0
-5345 -6975 0
-5346 -5721 0
-5347 -5722 0
-5348 -5723 0
-5349 -5724 0
-5350 -5725 0
-5346 -6431 0
-5347 -6432 0
-5348 -6433 0
-5349 -6434 0
-5350 -6435 0
-5346 -6936 0
-5347 -6937 0
-5348 -6938 0
-5349 -6939 0
-5350 -6940 0
-5346 -6951 0
-5347 -6952 0
-5348 -6953 0
-5349 -6954 0
-5350 -6955 0
-5351 -5586 0
-5352 -5587 0
-5353 -5588 0
-5354 -5589 0
-5355 -5590 0
-5351 -6976 0
-5352 -6977 0
-5353 -6978 0
-5354 -6979 0
-5355 -6980 0
-5356 -6276 0
-5357 -6277 0
-5358 -6278 0
-5359 -6279 0
-5360 -6280 0
-5356 -6456 0
-5357 -6457 0
-5358 -6458 0
-5359 -6459 0
-5360 -6460 0
-5356 -6991 0
-5357 -6992 0
-5358 -6993 0
-5359 -6994 0
-5360 -6995 0
-5356 -7006 0
-5357 -7007 0
-5358 -7008 0
-5359 -7009 0
-5360 -7010 0
-5361 -5366 0
-5362 -5367 0
-5363 -5368 0
-5364 -5369 0
-5365 -5370 0
-5361 -5371 0
-5362 -5372 0
-5363 -5373 0
-5364 -5374 0
-5365 -5375 0
-5361 -5376 0
-5362 -5377 0
-5363 -5378 0
-5364 -5379 0
-5365 -5380 0
-5361 -5401 0
-5362 -5402 0
-5363 -5403 0
-5364 -5404 0
-5365 -5405 0
-5361 -5406 0
-5362 -5407 0
-5363 -5408 0
-5364 -5409 0
-5365 -5410 0
-5361 -6481 0
-5362 -6482 0
-5363 -6483 0
-5364 -6484 0
-5365 -6485 0
-5361 -6981 0
-5362 -6982 0
-5363 -6983 0
-5364 -6984 0
-5365 -6985 0
-5366 -5381 0
-5367 -5382 0
-5368 -5383 0
-5369 -5384 0
-5370 -5385 0
-5366 -5411 0
-5367 -5412 0
-5368 -5413 0
-5369 -5414 0
-5370 -5415 0
-5366 -5416 0
-5367 -5417 0
-5368 -5418 0
-5369 -5419 0
-5370 -5420 0
-5366 -5726 0
-5367 -5727 0
-5368 -5728 0
-5369 -5729 0
-5370 -5730 0
-5366 -6491 0
-5367 -6492 0
-5368 -6493 0
-5369 -6494 0
-5370 -6495 0
-5366 -6846 0
-5367 -6847 0
-5368 -6848 0
-5369 -6849 0
-5370 -6850 0
-5366 -6981 0
-5367 -6982 0
-5368 -6983 0
-5369 -6984 0
-5370 -6985 0
-5371 -5391 0
-5372 -5392 0
-5373 -5393 0
-5374 -5394 0
-5375 -5395 0
-5371 -5766 0
-5372 -5767 0
-5373 -5768 0
-5374 -5769 0
-5375 -5770 0
-5371 -6226 0
-5372 -6227 0
-5373 -6228 0
-5374 -6229 0
-5375 -6230 0
-5371 -6501 0
-5372 -6502 0
-5373 -6503 0
-5374 -6504 0
-5375 -6505 0
-5371 -6986 0
-5372 -6987 0
-5373 -6988 0
-5374 -6989 0
-5375 -6990 0
-5376 -5381 0
-5377 -5382 0
-5378 -5383 0
-5379 -5384 0
-5380 -5385 0
-5376 -5391 0
-5377 -5392 0
-5378 -5393 0
-5379 -5394 0
-5380 -5395 0
-5376 -5436 0
-5377 -5437 0
-5378 -5438 0
-5379 -5439 0
-5380 -5440 0
-5376 -5446 0
-5377 -5447 0
-5378 -5448 0
-5379 -5449 0
-5380 -5450 0
-5376 -5941 0
-5377 -5942 0
-5378 -5943 0
-5379 -5944 0
-5380 -5945 0
-5376 -6486 0
-5377 -6487 0
-5378 -6488 0
-5379 -6489 0
-5380 -6490 0
-5376 -6991 0
-5377 -6992 0
-5378 -6993 0
-5379 -6994 0
-5380 -6995 0
-5381 -5396 0
-5382 -5397 0
-5383 -5398 0
-5384 -5399 0
-5385 -5400 0
-5381 -5461 0
-5382 -5462 0
-5383 -5463 0
-5384 -5464 0
-5385 -5465 0
-5381 -5471 0
-5382 -5472 0
-5383 -5473 0
-5384 -5474 0
-5385 -5475 0
-5381 -5951 0
-5382 -5952 0
-5383 -5953 0
-5384 -5954 0
-5385 -5955 0
-5381 -6991 0
-5382 -6992 0
-5383 -6993 0
-5384 -6994 0
-5385 -6995 0
-5386 -5391 0
-5387 -5392 0
-5388 -5393 0
-5389 -5394 0
-5390 -5395 0
-5386 -5581 0
-5387 -5582 0
-5388 -5583 0
-5389 -5584 0
-5390 -5585 0
-5386 -5906 0
-5387 -5907 0
-5388 -5908 0
-5389 -5909 0
-5390 -5910 0
-5386 -6346 0
-5387 -6347 0
-5388 -6348 0
-5389 -6349 0
-5390 -6350 0
-5386 -6996 0
-5387 -6997 0
-5388 -6998 0
-5389 -6999 0
-5390 -7000 0
-5386 -7001 0
-5387 -7002 0
-5388 -7003 0
-5389 -7004 0
-5390 -7005 0
-5391 -5396 0
-5392 -5397 0
-5393 -5398 0
-5394 -5399 0
-5395 -5400 0
-5391 -5481 0
-5392 -5482 0
-5393 -5483 0
-5394 -5484 0
-5395 -5485 0
-5391 -5581 0
-5392 -5582 0
-5393 -5583 0
-5394 -5584 0
-5395 -5585 0
-5391 -5786 0
-5392 -5787 0
-5393 -5788 0
-5394 -5789 0
-5395 -5790 0
-5391 -6356 0
-5392 -6357 0
-5393 -6358 0
-5394 -6359 0
-5395 -6360 0
-5391 -6506 0
-5392 -6507 0
-5393 -6508 0
-5394 -6509 0
-5395 -6510 0
-5391 -6651 0
-5392 -6652 0
-5393 -6653 0
-5394 -6654 0
-5395 -6655 0
-5391 -7006 0
-5392 -7007 0
-5393 -7008 0
-5394 -7009 0
-5395 -7010 0
-5396 -5486 0
-5397 -5487 0
-5398 -5488 0
-5399 -5489 0
-5400 -5490 0
-5396 -6366 0
-5397 -6367 0
-5398 -6368 0
-5399 -6369 0
-5400 -6370 0
-5396 -6661 0
-5397 -6662 0
-5398 -6663 0
-5399 -6664 0
-5400 -6665 0
-5396 -7006 0
-5397 -7007 0
-5398 -7008 0
-5399 -7009 0
-5400 -7010 0
-5401 -5406 0
-5402 -5407 0
-5403 -5408 0
-5404 -5409 0
-5405 -5410 0
-5401 -5411 0
-5402 -5412 0
-5403 -5413 0
-5404 -5414 0
-5405 -5415 0
-5401 -5431 0
-5402 -5432 0
-5403 -5433 0
-5404 -5434 0
-5405 -5435 0
-5401 -5436 0
-5402 -5437 0
-5403 -5438 0
-5404 -5439 0
-5405 -5440 0
-5401 -5496 0
-5402 -5497 0
-5403 -5498 0
-5404 -5499 0
-5405 -5500 0
-5401 -5586 0
-5402 -5587 0
-5403 -5588 0
-5404 -5589 0
-5405 -5590 0
-5401 -5791 0
-5402 -5792 0
-5403 -5793 0
-5404 -5794 0
-5405 -5795 0
-5401 -6651 0
-5402 -6652 0
-5403 -6653 0
-5404 -6654 0
-5405 -6655 0
-5401 -7011 0
-5402 -7012 0
-5403 -7013 0
-5404 -7014 0
-5405 -7015 0
-5401 -7136 0
-5402 -7137 0
-5403 -7138 0
-5404 -7139 0
-5405 -7140 0
-5406 -5416 0
-5407 -5417 0
-5408 -5418 0
-5409 -5419 0
-5410 -5420 0
-5406 -5441 0
-5407 -5442 0
-5408 -5443 0
-5409 -5444 0
-5410 -5445 0
-5406 -5446 0
-5407 -5447 0
-5408 -5448 0
-5409 -5449 0
-5410 -5450 0
-5406 -5961 0
-5407 -5962 0
-5408 -5963 0
-5409 -5964 0
-5410 -5965 0
-5406 -6656 0
-5407 -6657 0
-5408 -6658 0
-5409 -6659 0
-5410 -6660 0
-5406 -7016 0
-5407 -7017 0
-5408 -7018 0
-5409 -7019 0
-5410 -7020 0
-5411 -5416 0
-5412 -5417 0
-5413 -5418 0
-5414 -5419 0
-5415 -5420 0
-5411 -5456 0
-5412 -5457 0
-5413 -5458 0
-5414 -5459 0
-5415 -5460 0
-5411 -5461 0
-5412 -5462 0
-5413 -5463 0
-5414 -5464 0
-5415 -5465 0
-5411 -5506 0
-5412 -5507 0
-5413 -5508 0
-5414 -5509 0
-5415 -5510 0
-5411 -5591 0
-5412 -5592 0
-5413 -5593 0
-5414 -5594 0
-5415 -5595 0
-5411 -5596 0
-5412 -5597 0
-5413 -5598 0
-5414 -5599 0
-5415 -5600 0
-5411 -6536 0
-5412 -6537 0
-5413 -6538 0
-5414 -6539 0
-5415 -6540 0
-5411 -6661 0
-5412 -6662 0
-5413 -6663 0
-5414 -6664 0
-5415 -6665 0
-5411 -7011 0
-5412 -7012 0
-5413 -7013 0
-5414 -7014 0
-5415 -7015 0
-5411 -7021 0
-5412 -7022 0
-5413 -7023 0
-5414 -7024 0
-5415 -7025 0
-5411 -7141 0
-5412 -7142 0
-5413 -7143 0
-5414 -7144 0
-5415 -7145 0
-5416 -5466 0
-5417 -5467 0
-5418 -5468 0
-5419 -5469 0
-5420 -5470 0
-5416 -5471 0
-5417 -5472 0
-5418 -5473 0
-5419 -5474 0
-5420 -5475 0
-5416 -5971 0
-5417 -5972 0
-5418 -5973 0
-5419 -5974 0
-5420 -5975 0
-5416 -6541 0
-5417 -6542 0
-5418 -6543 0
-5419 -6544 0
-5420 -6545 0
-5416 -7016 0
-5417 -7017 0
-5418 -7018 0
-5419 -7019 0
-5420 -7020 0
-5421 -5426 0
-5422 -5427 0
-5423 -5428 0
-5424 -5429 0
-5425 -5430 0
-5421 -5446 0
-5422 -5447 0
-5423 -5448 0
-5424 -5449 0
-5425 -5450 0
-5421 -5991 0
-5422 -5992 0
-5423 -5993 0
-5424 -5994 0
-5425 -5995 0
-5421 -7026 0
-5422 -7027 0
-5423 -7028 0
-5424 -7029 0
-5425 -7030 0
-5426 -5451 0
-5427 -5452 0
-5428 -5453 0
-5429 -5454 0
-5430 -5455 0
-5426 -6031 0
-5427 -6032 0
-5428 -6033 0
-5429 -6034 0
-5430 -6035 0
-5426 -6521 0
-5427 -6522 0
-5428 -6523 0
-5429 -6524 0
-5430 -6525 0
-5426 -7081 0
-5427 -7082 0
-5428 -7083 0
-5429 -7084 0
-5430 -7085 0
-5431 -5436 0
-5432 -5437 0
-5433 -5438 0
-5434 -5439 0
-5435 -5440 0
-5431 -5441 0
-5432 -5442 0
-5433 -5443 0
-5434 -5444 0
-5435 -5445 0
-5431 -5456 0
-5432 -5457 0
-5433 -5458 0
-5434 -5459 0
-5435 -5460 0
-5431 -5536 0
-5432 -5537 0
-5433 -5538 0
-5434 -5539 0
-5435 -5540 0
-5431 -5921 0
-5432 -5922 0
-5433 -5923 0
-5434 -5924 0
-5435 -5925 0
-5431 -7031 0
-5432 -7032 0
-5433 -7033 0
-5434 -7034 0
-5435 -7035 0
-5436 -5446 0
-5437 -5447 0
-5438 -5448 0
-5439 -5449 0
-5440 -5450 0
-5436 -5461 0
-5437 -5462 0
-5438 -5463 0
-5439 -5464 0
-5440 -5465 0
-5436 -5641 0
-5437 -5642 0
-5438 -5643 0
-5439 -5644 0
-5440 -5645 0
-5436 -6016 0
-5437 -6017 0
-5438 -6018 0
-5439 -6019 0
-5440 -6020 0
-5436 -7036 0
-5437 -7037 0
-5438 -7038 0
-5439 -7039 0
-5440 -7040 0
-5441 -5446 0
-5442 -5447 0
-5443 -5448 0
-5444 -5449 0
-5445 -5450 0
-5441 -5466 0
-5442 -5467 0
-5443 -5468 0
-5444 -5469 0
-5445 -5470 0
-5441 -5631 0
-5442 -5632 0
-5443 -5633 0
-5444 -5634 0
-5445 -5635 0
-5441 -5816 0
-5442 -5817 0
-5443 -5818 0
-5444 -5819 0
-5445 -5820 0
-5441 -6021 0
-5442 -6022 0
-5443 -6023 0
-5444 -6024 0
-5445 -6025 0
-5441 -6856 0
-5442 -6857 0
-5443 -6858 0
-5444 -6859 0
-5445 -6860 0
-5441 -7041 0
-5442 -7042 0
-5443 -7043 0
-5444 -7044 0
-5445 -7045 0
-5446 -5451 0
-5447 -5452 0
-5448 -5453 0
-5449 -5454 0
-5450 -5455 0
-5446 -5471 0
-5447 -5472 0
-5448 -5473 0
-5449 -5474 0
-5450 -5475 0
-5446 -5481 0
-5447 -5482 0
-5448 -5483 0
-5449 -5484 0
-5450 -5485 0
-5446 -6026 0
-5447 -6027 0
-5448 -6028 0
-5449 -6029 0
-5450 -6030 0
-5446 -6861 0
-5447 -6862 0
-5448 -6863 0
-5449 -6864 0
-5450 -6865 0
-5446 -7046 0
-5447 -7047 0
-5448 -7048 0
-5449 -7049 0
-5450 -7050 0
-5451 -5746 0
-5452 -5747 0
-5453 -5748 0
-5454 -5749 0
-5455 -5750 0
-5451 -6041 0
-5452 -6042 0
-5453 -6043 0
-5454 -6044 0
-5455 -6045 0
-5451 -6541 0
-5452 -6542 0
-5453 -6543 0
-5454 -6544 0
-5455 -6545 0
-5451 -7051 0
-5452 -7052 0
-5453 -7053 0
-5454 -7054 0
-5455 -7055 0
-5456 -5461 0
-5457 -5462 0
-5458 -5463 0
-5459 -5464 0
-5460 -5465 0
-5456 -5466 0
-5457 -5467 0
-5458 -5468 0
-5459 -5469 0
-5460 -5470 0
-5456 -5476 0
-5457 -5477 0
-5458 -5478 0
-5459 -5479 0
-5460 -5480 0
-5456 -5541 0
-5457 -5542 0
-5458 -5543 0
-5459 -5544 0
-5460 -5545 0
-5456 -5931 0
-5457 -5932 0
-5458 -5933 0
-5459 -5934 0
-5460 -5935 0
-5456 -6486 0
-5457 -6487 0
-5458 -6488 0
-5459 -6489 0
-5460 -6490 0
-5456 -6851 0
-5457 -6852 0
-5458 -6853 0
-5459 -6854 0
-5460 -6855 0
-5456 -6866 0
-5457 -6867 0
-5458 -6868 0
-5459 -6869 0
-5460 -6870 0
-5456 -7031 0
-5457 -7032 0
-5458 -7033 0
-5459 -7034 0
-5460 -7035 0
-5461 -5471 0
-5462 -5472 0
-5463 -5473 0
-5464 -5474 0
-5465 -5475 0
-5461 -5656 0
-5462 -5657 0
-5463 -5658 0
-5464 -5659 0
-5465 -5660 0
-5461 -6061 0
-5462 -6062 0
-5463 -6063 0
-5464 -6064 0
-5465 -6065 0
-5461 -6381 0
-5462 -6382 0
-5463 -6383 0
-5464 -6384 0
-5465 -6385 0
-5461 -6871 0
-5462 -6872 0
-5463 -6873 0
-5464 -6874 0
-5465 -6875 0
-5461 -7036 0
-5462 -7037 0
-5463 -7038 0
-5464 -7039 0
-5465 -7040 0
-5466 -5471 0
-5467 -5472 0
-5468 -5473 0
-5469 -5474 0
-5470 -5475 0
-5466 -5546 0
-5467 -5547 0
-5468 -5548 0
-5469 -5549 0
-5470 -5550 0
-5466 -5636 0
-5467 -5637 0
-5468 -5638 0
-5469 -5639 0
-5470 -5640 0
-5466 -6066 0
-5467 -6067 0
-5468 -6068 0
-5469 -6069 0
-5470 -6070 0
-5466 -6876 0
-5467 -6877 0
-5468 -6878 0
-5469 -6879 0
-5470 -6880 0
-5466 -7041 0
-5467 -7042 0
-5468 -7043 0
-5469 -7044 0
-5470 -7045 0
-5471 -5486 0
-5472 -5487 0
-5473 -5488 0
-5474 -5489 0
-5475 -5490 0
-5471 -5751 0
-5472 -5752 0
-5473 -5753 0
-5474 -5754 0
-5475 -5755 0
-5471 -6071 0
-5472 -6072 0
-5473 -6073 0
-5474 -6074 0
-5475 -6075 0
-5471 -6881 0
-5472 -6882 0
-5473 -6883 0
-5474 -6884 0
-5475 -6885 0
-5471 -7046 0
-5472 -7047 0
-5473 -7048 0
-5474 -7049 0
-5475 -7050 0
-5476 -5541 0
-5477 -5542 0
-5478 -5543 0
-5479 -5544 0
-5480 -5545 0
-5476 -5936 0
-5477 -5937 0
-5478 -5938 0
-5479 -5939 0
-5480 -5940 0
-5476 -6491 0
-5477 -6492 0
-5478 -6493 0
-5479 -6494 0
-5480 -6495 0
-5481 -5486 0
-5482 -5487 0
-5483 -5488 0
-5484 -5489 0
-5485 -5490 0
-5481 -5651 0
-5482 -5652 0
-5483 -5653 0
-5484 -5654 0
-5485 -5655 0
-5481 -5846 0
-5482 -5847 0
-5483 -5848 0
-5484 -5849 0
-5485 -5850 0
-5481 -5916 0
-5482 -5917 0
-5483 -5918 0
-5484 -5919 0
-5485 -5920 0
-5481 -6106 0
-5482 -6107 0
-5483 -6108 0
-5484 -6109 0
-5485 -6110 0
-5481 -6666 0
-5482 -6667 0
-5483 -6668 0
-5484 -6669 0
-5485 -6670 0
-5481 -7056 0
-5482 -7057 0
-5483 -7058 0
-5484 -7059 0
-5485 -7060 0
-5486 -5666 0
-5487 -5667 0
-5488 -5668 0
-5489 -5669 0
-5490 -5670 0
-5486 -6111 0
-5487 -6112 0
-5488 -6113 0
-5489 -6114 0
-5490 -6115 0
-5486 -7056 0
-5487 -7057 0
-5488 -7058 0
-5489 -7059 0
-5490 -7060 0
-5491 -5571 0
-5492 -5572 0
-5493 -5573 0
-5494 -5574 0
-5495 -5575 0
-5491 -5576 0
-5492 -5577 0
-5493 -5578 0
-5494 -5579 0
-5495 -5580 0
-5491 -5936 0
-5492 -5937 0
-5493 -5938 0
-5494 -5939 0
-5495 -5940 0
-5491 -6531 0
-5492 -6532 0
-5493 -6533 0
-5494 -6534 0
-5495 -6535 0
-5491 -6906 0
-5492 -6907 0
-5493 -6908 0
-5494 -6909 0
-5495 -6910 0
-5491 -7096 0
-5492 -7097 0
-5493 -7098 0
-5494 -7099 0
-5495 -7100 0
-5496 -5506 0
-5497 -5507 0
-5498 -5508 0
-5499 -5509 0
-5500 -5510 0
-5496 -5536 0
-5497 -5537 0
-5498 -5538 0
-5499 -5539 0
-5500 -5540 0
-5496 -5601 0
-5497 -5602 0
-5498 -5603 0
-5499 -5604 0
-5500 -5605 0
-5496 -5966 0
-5497 -5967 0
-5498 -5968 0
-5499 -5969 0
-5500 -5970 0
-5496 -7061 0
-5497 -7062 0
-5498 -7063 0
-5499 -7064 0
-5500 -7065 0
-5501 -5506 0
-5502 -5507 0
-5503 -5508 0
-5504 -5509 0
-5505 -5510 0
-5501 -5511 0
-5502 -5512 0
-5503 -5513 0
-5504 -5514 0
-5505 -5515 0
-5501 -5541 0
-5502 -5542 0
-5503 -5543 0
-5504 -5544 0
-5505 -5545 0
-5501 -5611 0
-5502 -5612 0
-5503 -5613 0
-5504 -5614 0
-5505 -5615 0
-5501 -5971 0
-5502 -5972 0
-5503 -5973 0
-5504 -5974 0
-5505 -5975 0
-5501 -6921 0
-5502 -6922 0
-5503 -6923 0
-5504 -6924 0
-5505 -6925 0
-5506 -5516 0
-5507 -5517 0
-5508 -5518 0
-5509 -5519 0
-5510 -5520 0
-5506 -5541 0
-5507 -5542 0
-5508 -5543 0
-5509 -5544 0
-5510 -5545 0
-5506 -5616 0
-5507 -5617 0
-5508 -5618 0
-5509 -5619 0
-5510 -5620 0
-5506 -5796 0
-5507 -5797 0
-5508 -5798 0
-5509 -5799 0
-5510 -5800 0
-5506 -5881 0
-5507 -5882 0
-5508 -5883 0
-5509 -5884 0
-5510 -5885 0
-5506 -5976 0
-5507 -5977 0
-5508 -5978 0
-5509 -5979 0
-5510 -5980 0
-5506 -7061 0
-5507 -7062 0
-5508 -7063 0
-5509 -7064 0
-5510 -7065 0
-5506 -7066 0
-5507 -7067 0
-5508 -7068 0
-5509 -7069 0
-5510 -7070 0
-5506 -7171 0
-5507 -7172 0
-5508 -7173 0
-5509 -7174 0
-5510 -7175 0
-5511 -5516 0
-5512 -5517 0
-5513 -5518 0
-5514 -5519 0
-5515 -5520 0
-5511 -5551 0
-5512 -5552 0
-5513 -5553 0
-5514 -5554 0
-5515 -5555 0
-5511 -5611 0
-5512 -5612 0
-5513 -5613 0
-5514 -5614 0
-5515 -5615 0
-5511 -5876 0
-5512 -5877 0
-5513 -5878 0
-5514 -5879 0
-5515 -5880 0
-5511 -6311 0
-5512 -6312 0
-5513 -6313 0
-5514 -6314 0
-5515 -6315 0
-5511 -6931 0
-5512 -6932 0
-5513 -6933 0
-5514 -6934 0
-5515 -6935 0
-5511 -6986 0
-5512 -6987 0
-5513 -6988 0
-5514 -6989 0
-5515 -6990 0
-5516 -5551 0
-5517 -5552 0
-5518 -5553 0
-5519 -5554 0
-5520 -5555 0
-5516 -5616 0
-5517 -5617 0
-5518 -5618 0
-5519 -5619 0
-5520 -5620 0
-5516 -5886 0
-5517 -5887 0
-5518 -5888 0
-5519 -5889 0
-5520 -5890 0
-5516 -6316 0
-5517 -6317 0
-5518 -6318 0
-5519 -6319 0
-5520 -6320 0
-5521 -5526 0
-5522 -5527 0
-5523 -5528 0
-5524 -5529 0
-5525 -5530 0
-5521 -5541 0
-5522 -5542 0
-5523 -5543 0
-5524 -5544 0
-5525 -5545 0
-5521 -5566 0
-5522 -5567 0
-5523 -5568 0
-5524 -5569 0
-5525 -5570 0
-5521 -5996 0
-5522 -5997 0
-5523 -5998 0
-5524 -5999 0
-5525 -6000 0
-5521 -6426 0
-5522 -6427 0
-5523 -6428 0
-5524 -6429 0
-5525 -6430 0
-5521 -6936 0
-5522 -6937 0
-5523 -6938 0
-5524 -6939 0
-5525 -6940 0
-5521 -7001 0
-5522 -7002 0
-5523 -7003 0
-5524 -7004 0
-5525 -7005 0
-5521 -7176 0
-5522 -7177 0
-5523 -7178 0
-5524 -7179 0
-5525 -7180 0
-5526 -5531 0
-5527 -5532 0
-5528 -5533 0
-5529 -5534 0
-5530 -5535 0
-5526 -5551 0
-5527 -5552 0
-5528 -5553 0
-5529 -5554 0
-5530 -5555 0
-5526 -5571 0
-5527 -5572 0
-5528 -5573 0
-5529 -5574 0
-5530 -5575 0
-5526 -5951 0
-5527 -5952 0
-5528 -5953 0
-5529 -5954 0
-5530 -5955 0
-5526 -6436 0
-5527 -6437 0
-5528 -6438 0
-5529 -6439 0
-5530 -6440 0
-5526 -6606 0
-5527 -6607 0
-5528 -6608 0
-5529 -6609 0
-5530 -6610 0
-5526 -6941 0
-5527 -6942 0
-5528 -6943 0
-5529 -6944 0
-5530 -6945 0
-5526 -7006 0
-5527 -7007 0
-5528 -7008 0
-5529 -7009 0
-5530 -7010 0
-5531 -5571 0
-5532 -5572 0
-5533 -5573 0
-5534 -5574 0
-5535 -5575 0
-5531 -5956 0
-5532 -5957 0
-5533 -5958 0
-5534 -5959 0
-5535 -5960 0
-5531 -6341 0
-5532 -6342 0
-5533 -6343 0
-5534 -6344 0
-5535 -6345 0
-5531 -6611 0
-5532 -6612 0
-5533 -6613 0
-5534 -6614 0
-5535 -6615 0
-5531 -6701 0
-5532 -6702 0
-5533 -6703 0
-5534 -6704 0
-5535 -6705 0
-5536 -5541 0
-5537 -5542 0
-5538 -5543 0
-5539 -5544 0
-5540 -5545 0
-5536 -6026 0
-5537 -6027 0
-5538 -6028 0
-5539 -6029 0
-5540 -6030 0
-5536 -6996 0
-5537 -6997 0
-5538 -6998 0
-5539 -6999 0
-5540 -7000 0
-5536 -7071 0
-5537 -7072 0
-5538 -7073 0
-5539 -7074 0
-5540 -7075 0
-5541 -5546 0
-5542 -5547 0
-5543 -5548 0
-5544 -5549 0
-5545 -5550 0
-5541 -5551 0
-5542 -5552 0
-5543 -5553 0
-5544 -5554 0
-5545 -5555 0
-5541 -5626 0
-5542 -5627 0
-5543 -5628 0
-5544 -5629 0
-5545 -5630 0
-5541 -5686 0
-5542 -5687 0
-5543 -5688 0
-5544 -5689 0
-5545 -5690 0
-5541 -5836 0
-5542 -5837 0
-5543 -5838 0
-5544 -5839 0
-5545 -5840 0
-5541 -6071 0
-5542 -6072 0
-5543 -6073 0
-5544 -6074 0
-5545 -6075 0
-5541 -6556 0
-5542 -6557 0
-5543 -6558 0
-5544 -6559 0
-5545 -6560 0
-5541 -6951 0
-5542 -6952 0
-5543 -6953 0
-5544 -6954 0
-5545 -6955 0
-5541 -7001 0
-5542 -7002 0
-5543 -7003 0
-5544 -7004 0
-5545 -7005 0
-5541 -7071 0
-5542 -7072 0
-5543 -7073 0
-5544 -7074 0
-5545 -7075 0
-5541 -7076 0
-5542 -7077 0
-5543 -7078 0
-5544 -7079 0
-5545 -7080 0
-5546 -5691 0
-5547 -5692 0
-5548 -5693 0
-5549 -5694 0
-5550 -5695 0
-5546 -5841 0
-5547 -5842 0
-5548 -5843 0
-5549 -5844 0
-5550 -5845 0
-5546 -6081 0
-5547 -6082 0
-5548 -6083 0
-5549 -6084 0
-5550 -6085 0
-5546 -6361 0
-5547 -6362 0
-5548 -6363 0
-5549 -6364 0
-5550 -6365 0
-5546 -6706 0
-5547 -6707 0
-5548 -6708 0
-5549 -6709 0
-5550 -6710 0
-5551 -5626 0
-5552 -5627 0
-5553 -5628 0
-5554 -5629 0
-5555 -5630 0
-5551 -5701 0
-5552 -5702 0
-5553 -5703 0
-5554 -5704 0
-5555 -5705 0
-5551 -6091 0
-5552 -6092 0
-5553 -6093 0
-5554 -6094 0
-5555 -6095 0
-5551 -6561 0
-5552 -6562 0
-5553 -6563 0
-5554 -6564 0
-5555 -6565 0
-5551 -6961 0
-5552 -6962 0
-5553 -6963 0
-5554 -6964 0
-5555 -6965 0
-5551 -7006 0
-5552 -7007 0
-5553 -7008 0
-5554 -7009 0
-5555 -7010 0
-5556 -5561 0
-5557 -5562 0
-5558 -5563 0
-5559 -5564 0
-5560 -5565 0
-5556 -5571 0
-5557 -5572 0
-5558 -5573 0
-5559 -5574 0
-5560 -5575 0
-5556 -5986 0
-5557 -5987 0
-5558 -5988 0
-5559 -5989 0
-5560 -5990 0
-5556 -6371 0
-5557 -6372 0
-5558 -6373 0
-5559 -6374 0
-5560 -6375 0
-5556 -6741 0
-5557 -6742 0
-5558 -6743 0
-5559 -6744 0
-5560 -6745 0
-5556 -7026 0
-5557 -7027 0
-5558 -7028 0
-5559 -7029 0
-5560 -7030 0
-5556 -7046 0
-5557 -7047 0
-5558 -7048 0
-5559 -7049 0
-5560 -7050 0
-5556 -7106 0
-5557 -7107 0
-5558 -7108 0
-5559 -7109 0
-5560 -7110 0
-5561 -5576 0
-5562 -5577 0
-5563 -5578 0
-5564 -5579 0
-5565 -5580 0
-5561 -5866 0
-5562 -5867 0
-5563 -5868 0
-5564 -5869 0
-5565 -5870 0
-5561 -6376 0
-5562 -6377 0
-5563 -6378 0
-5564 -6379 0
-5565 -6380 0
-5561 -6621 0
-5562 -6622 0
-5563 -6623 0
-5564 -6624 0
-5565 -6625 0
-5561 -7051 0
-5562 -7052 0
-5563 -7053 0
-5564 -7054 0
-5565 -7055 0
-5561 -7111 0
-5562 -7112 0
-5563 -7113 0
-5564 -7114 0
-5565 -7115 0
-5566 -5571 0
-5567 -5572 0
-5568 -5573 0
-5569 -5574 0
-5570 -5575 0
-5566 -5706 0
-5567 -5707 0
-5568 -5708 0
-5569 -5709 0
-5570 -5710 0
-5566 -6051 0
-5567 -6052 0
-5568 -6053 0
-5569 -6054 0
-5570 -6055 0
-5566 -7216 0
-5567 -7217 0
-5568 -7218 0
-5569 -7219 0
-5570 -7220 0
-5571 -5576 0
-5572 -5577 0
-5573 -5578 0
-5574 -5579 0
-5575 -5580 0
-5571 -5711 0
-5572 -5712 0
-5573 -5713 0
-5574 -5714 0
-5575 -5715 0
-5571 -6071 0
-5572 -6072 0
-5573 -6073 0
-5574 -6074 0
-5575 -6075 0
-5571 -6396 0
-5572 -6397 0
-5573 -6398 0
-5574 -6399 0
-5575 -6400 0
-5571 -6576 0
-5572 -6577 0
-5573 -6578 0
-5574 -6579 0
-5575 -6580 0
-5571 -6631 0
-5572 -6632 0
-5573 -6633 0
-5574 -6634 0
-5575 -6635 0
-5571 -7056 0
-5572 -7057 0
-5573 -7058 0
-5574 -7059 0
-5575 -7060 0
-5571 -7106 0
-5572 -7107 0
-5573 -7108 0
-5574 -7109 0
-5575 -7110 0
-5576 -5901 0
-5577 -5902 0
-5578 -5903 0
-5579 -5904 0
-5580 -5905 0
-5576 -6086 0
-5577 -6087 0
-5578 -6088 0
-5579 -6089 0
-5580 -6090 0
-5576 -6406 0
-5577 -6407 0
-5578 -6408 0
-5579 -6409 0
-5580 -6410 0
-5576 -6596 0
-5577 -6597 0
-5578 -6598 0
-5579 -6599 0
-5580 -6600 0
-5576 -7111 0
-5577 -7112 0
-5578 -7113 0
-5579 -7114 0
-5580 -7115 0
-5581 -6751 0
-5582 -6752 0
-5583 -6753 0
-5584 -6754 0
-5585 -6755 0
-5581 -7086 0
-5582 -7087 0
-5583 -7088 0
-5584 -7089 0
-5585 -7090 0
-5586 -5596 0
-5587 -5597 0
-5588 -5598 0
-5589 -5599 0
-5590 -5600 0
-5586 -5601 0
-5587 -5602 0
-5588 -5603 0
-5589 -5604 0
-5590 -5605 0
-5586 -7091 0
-5587 -7092 0
-5588 -7093 0
-5589 -7094 0
-5590 -7095 0
-5591 -5596 0
-5592 -5597 0
-5593 -5598 0
-5594 -5599 0
-5595 -5600 0
-5591 -6761 0
-5592 -6762 0
-5593 -6763 0
-5594 -6764 0
-5595 -6765 0
-5596 -5606 0
-5597 -5607 0
-5598 -5608 0
-5599 -5609 0
-5600 -5610 0
-5596 -5616 0
-5597 -5617 0
-5598 -5618 0
-5599 -5619 0
-5600 -5620 0
-5596 -5921 0
-5597 -5922 0
-5598 -5923 0
-5599 -5924 0
-5600 -5925 0
-5596 -6371 0
-5597 -6372 0
-5598 -6373 0
-5599 -6374 0
-5600 -6375 0
-5596 -7091 0
-5597 -7092 0
-5598 -7093 0
-5599 -7094 0
-5600 -7095 0
-5596 -7096 0
-5597 -7097 0
-5598 -7098 0
-5599 -7099 0
-5600 -7100 0
-5601 -5616 0
-5602 -5617 0
-5603 -5618 0
-5604 -5619 0
-5605 -5620 0
-5601 -6001 0
-5602 -6002 0
-5603 -6003 0
-5604 -6004 0
-5605 -6005 0
-5601 -7101 0
-5602 -7102 0
-5603 -7103 0
-5604 -7104 0
-5605 -7105 0
-5606 -5616 0
-5607 -5617 0
-5608 -5618 0
-5609 -5619 0
-5610 -5620 0
-5606 -5621 0
-5607 -5622 0
-5608 -5623 0
-5609 -5624 0
-5610 -5625 0
-5606 -5801 0
-5607 -5802 0
-5608 -5803 0
-5609 -5804 0
-5610 -5805 0
-5606 -6011 0
-5607 -6012 0
-5608 -6013 0
-5609 -6014 0
-5610 -6015 0
-5606 -6186 0
-5607 -6187 0
-5608 -6188 0
-5609 -6189 0
-5610 -6190 0
-5606 -7106 0
-5607 -7107 0
-5608 -7108 0
-5609 -7109 0
-5610 -7110 0
-5611 -5616 0
-5612 -5617 0
-5613 -5618 0
-5614 -5619 0
-5615 -5620 0
-5611 -5626 0
-5612 -5627 0
-5613 -5628 0
-5614 -5629 0
-5615 -5630 0
-5611 -6021 0
-5612 -6022 0
-5613 -6023 0
-5614 -6024 0
-5615 -6025 0
-5611 -6426 0
-5612 -6427 0
-5613 -6428 0
-5614 -6429 0
-5615 -6430 0
-5616 -5626 0
-5617 -5627 0
-5618 -5628 0
-5619 -5629 0
-5620 -5630 0
-5616 -6026 0
-5617 -6027 0
-5618 -6028 0
-5619 -6029 0
-5620 -6030 0
-5616 -6431 0
-5617 -6432 0
-5618 -6433 0
-5619 -6434 0
-5620 -6435 0
-5616 -6646 0
-5617 -6647 0
-5618 -6648 0
-5619 -6649 0
-5620 -6650 0
-5616 -6796 0
-5617 -6797 0
-5618 -6798 0
-5619 -6799 0
-5620 -6800 0
-5616 -7081 0
-5617 -7082 0
-5618 -7083 0
-5619 -7084 0
-5620 -7085 0
-5616 -7101 0
-5617 -7102 0
-5618 -7103 0
-5619 -7104 0
-5620 -7105 0
-5616 -7111 0
-5617 -7112 0
-5618 -7113 0
-5619 -7114 0
-5620 -7115 0
-5621 -5811 0
-5622 -5812 0
-5623 -5813 0
-5624 -5814 0
-5625 -5815 0
-5621 -6056 0
-5622 -6057 0
-5623 -6058 0
-5624 -6059 0
-5625 -6060 0
-5621 -7106 0
-5622 -7107 0
-5623 -7108 0
-5624 -7109 0
-5625 -7110 0
-5626 -5851 0
-5627 -5852 0
-5628 -5853 0
-5629 -5854 0
-5630 -5855 0
-5626 -6116 0
-5627 -6117 0
-5628 -6118 0
-5629 -6119 0
-5630 -6120 0
-5626 -6216 0
-5627 -6217 0
-5628 -6218 0
-5629 -6219 0
-5630 -6220 0
-5626 -6636 0
-5627 -6637 0
-5628 -6638 0
-5629 -6639 0
-5630 -6640 0
-5626 -6806 0
-5627 -6807 0
-5628 -6808 0
-5629 -6809 0
-5630 -6810 0
-5626 -7086 0
-5627 -7087 0
-5628 -7088 0
-5629 -7089 0
-5630 -7090 0
-5631 -5636 0
-5632 -5637 0
-5633 -5638 0
-5634 -5639 0
-5635 -5640 0
-5631 -5646 0
-5632 -5647 0
-5633 -5648 0
-5634 -5649 0
-5635 -5650 0
-5631 -5981 0
-5632 -5982 0
-5633 -5983 0
-5634 -5984 0
-5635 -5985 0
-5631 -7136 0
-5632 -7137 0
-5633 -7138 0
-5634 -7139 0
-5635 -7140 0
-5636 -5661 0
-5637 -5662 0
-5638 -5663 0
-5639 -5664 0
-5640 -5665 0
-5636 -5681 0
-5637 -5682 0
-5638 -5683 0
-5639 -5684 0
-5640 -5685 0
-5636 -5691 0
-5637 -5692 0
-5638 -5693 0
-5639 -5694 0
-5640 -5695 0
-5636 -5921 0
-5637 -5922 0
-5638 -5923 0
-5639 -5924 0
-5640 -5925 0
-5636 -5986 0
-5637 -5987 0
-5638 -5988 0
-5639 -5989 0
-5640 -5990 0
-5636 -6251 0
-5637 -6252 0
-5638 -6253 0
-5639 -6254 0
-5640 -6255 0
-5636 -6981 0
-5637 -6982 0
-5638 -6983 0
-5639 -6984 0
-5640 -6985 0
-5636 -7141 0
-5637 -7142 0
-5638 -7143 0
-5639 -7144 0
-5640 -7145 0
-5641 -5651 0
-5642 -5652 0
-5643 -5653 0
-5644 -5654 0
-5645 -5655 0
-5641 -5656 0
-5642 -5657 0
-5643 -5658 0
-5644 -5659 0
-5645 -5660 0
-5641 -5746 0
-5642 -5747 0
-5643 -5748 0
-5644 -5749 0
-5645 -5750 0
-5641 -7116 0
-5642 -7117 0
-5643 -7118 0
-5644 -7119 0
-5645 -7120 0
-5641 -7241 0
-5642 -7242 0
-5643 -7243 0
-5644 -7244 0
-5645 -7245 0
-5646 -5651 0
-5647 -5652 0
-5648 -5653 0
-5649 -5654 0
-5650 -5655 0
-5646 -5661 0
-5647 -5662 0
-5648 -5663 0
-5649 -5664 0
-5650 -5665 0
-5646 -5741 0
-5647 -5742 0
-5648 -5743 0
-5649 -5744 0
-5650 -5745 0
-5646 -6026 0
-5647 -6027 0
-5648 -6028 0
-5649 -6029 0
-5650 -6030 0
-5646 -7121 0
-5647 -7122 0
-5648 -7123 0
-5649 -7124 0
-5650 -7125 0
-5646 -7136 0
-5647 -7137 0
-5648 -7138 0
-5649 -7139 0
-5650 -7140 0
-5651 -5666 0
-5652 -5667 0
-5653 -5668 0
-5654 -5669 0
-5655 -5670 0
-5651 -5746 0
-5652 -5747 0
-5653 -5748 0
-5654 -5749 0
-5655 -5750 0
-5651 -6031 0
-5652 -6032 0
-5653 -6033 0
-5654 -6034 0
-5655 -6035 0
-5651 -6666 0
-5652 -6667 0
-5653 -6668 0
-5654 -6669 0
-5655 -6670 0
-5651 -7126 0
-5652 -7127 0
-5653 -7128 0
-5654 -7129 0
-5655 -7130 0
-5656 -5666 0
-5657 -5667 0
-5658 -5668 0
-5659 -5669 0
-5660 -5670 0
-5656 -5761 0
-5657 -5762 0
-5658 -5763 0
-5659 -5764 0
-5660 -5765 0
-5656 -6541 0
-5657 -6542 0
-5658 -6543 0
-5659 -6544 0
-5660 -6545 0
-5656 -7116 0
-5657 -7117 0
-5658 -7118 0
-5659 -7119 0
-5660 -7120 0
-5656 -7246 0
-5657 -7247 0
-5658 -7248 0
-5659 -7249 0
-5660 -7250 0
-5661 -5666 0
-5662 -5667 0
-5663 -5668 0
-5664 -5669 0
-5665 -5670 0
-5661 -5671 0
-5662 -5672 0
-5663 -5673 0
-5664 -5674 0
-5665 -5675 0
-5661 -5696 0
-5662 -5697 0
-5663 -5698 0
-5664 -5699 0
-5665 -5700 0
-5661 -5701 0
-5662 -5702 0
-5663 -5703 0
-5664 -5704 0
-5665 -5705 0
-5661 -5756 0
-5662 -5757 0
-5663 -5758 0
-5664 -5759 0
-5665 -5760 0
-5661 -6071 0
-5662 -6072 0
-5663 -6073 0
-5664 -6074 0
-5665 -6075 0
-5661 -6456 0
-5662 -6457 0
-5663 -6458 0
-5664 -6459 0
-5665 -6460 0
-5661 -6656 0
-5662 -6657 0
-5663 -6658 0
-5664 -6659 0
-5665 -6660 0
-5661 -6681 0
-5662 -6682 0
-5663 -6683 0
-5664 -6684 0
-5665 -6685 0
-5661 -6986 0
-5662 -6987 0
-5663 -6988 0
-5664 -6989 0
-5665 -6990 0
-5661 -7121 0
-5662 -7122 0
-5663 -7123 0
-5664 -7124 0
-5665 -7125 0
-5661 -7141 0
-5662 -7142 0
-5663 -7143 0
-5664 -7144 0
-5665 -7145 0
-5666 -5671 0
-5667 -5672 0
-5668 -5673 0
-5669 -5674 0
-5670 -5675 0
-5666 -5761 0
-5667 -5762 0
-5668 -5763 0
-5669 -5764 0
-5670 -5765 0
-5666 -6076 0
-5667 -6077 0
-5668 -6078 0
-5669 -6079 0
-5670 -6080 0
-5666 -6271 0
-5667 -6272 0
-5668 -6273 0
-5669 -6274 0
-5670 -6275 0
-5666 -6461 0
-5667 -6462 0
-5668 -6463 0
-5669 -6464 0
-5670 -6465 0
-5666 -6546 0
-5667 -6547 0
-5668 -6548 0
-5669 -6549 0
-5670 -6550 0
-5666 -7126 0
-5667 -7127 0
-5668 -7128 0
-5669 -7129 0
-5670 -7130 0
-5671 -6131 0
-5672 -6132 0
-5673 -6133 0
-5674 -6134 0
-5675 -6135 0
-5671 -7006 0
-5672 -7007 0
-5673 -7008 0
-5674 -7009 0
-5675 -7010 0
-5676 -5691 0
-5677 -5692 0
-5678 -5693 0
-5679 -5694 0
-5680 -5695 0
-5676 -5706 0
-5677 -5707 0
-5678 -5708 0
-5679 -5709 0
-5680 -5710 0
-5676 -5991 0
-5677 -5992 0
-5678 -5993 0
-5679 -5994 0
-5680 -5995 0
-5676 -6316 0
-5677 -6317 0
-5678 -6318 0
-5679 -6319 0
-5680 -6320 0
-5676 -6476 0
-5677 -6477 0
-5678 -6478 0
-5679 -6479 0
-5680 -6480 0
-5676 -6696 0
-5677 -6697 0
-5678 -6698 0
-5679 -6699 0
-5680 -6700 0
-5676 -6721 0
-5677 -6722 0
-5678 -6723 0
-5679 -6724 0
-5680 -6725 0
-5676 -7166 0
-5677 -7167 0
-5678 -7168 0
-5679 -7169 0
-5680 -7170 0
-5676 -7261 0
-5677 -7262 0
-5678 -7263 0
-5679 -7264 0
-5680 -7265 0
-5681 -5691 0
-5682 -5692 0
-5683 -5693 0
-5684 -5694 0
-5685 -5695 0
-5681 -5696 0
-5682 -5697 0
-5683 -5698 0
-5684 -5699 0
-5685 -5700 0
-5681 -5816 0
-5682 -5817 0
-5683 -5818 0
-5684 -5819 0
-5685 -5820 0
-5681 -6011 0
-5682 -6012 0
-5683 -6013 0
-5684 -6014 0
-5685 -6015 0
-5681 -6311 0
-5682 -6312 0
-5683 -6313 0
-5684 -6314 0
-5685 -6315 0
-5681 -6486 0
-5682 -6487 0
-5683 -6488 0
-5684 -6489 0
-5685 -6490 0
-5681 -7046 0
-5682 -7047 0
-5683 -7048 0
-5684 -7049 0
-5685 -7050 0
-5686 -5691 0
-5687 -5692 0
-5688 -5693 0
-5689 -5694 0
-5690 -5695 0
-5686 -5716 0
-5687 -5717 0
-5688 -5718 0
-5689 -5719 0
-5690 -5720 0
-5686 -6016 0
-5687 -6017 0
-5688 -6018 0
-5689 -6019 0
-5690 -6020 0
-5686 -6256 0
-5687 -6257 0
-5688 -6258 0
-5689 -6259 0
-5690 -6260 0
-5691 -5701 0
-5692 -5702 0
-5693 -5703 0
-5694 -5704 0
-5695 -5705 0
-5691 -5716 0
-5692 -5717 0
-5693 -5718 0
-5694 -5719 0
-5695 -5720 0
-5691 -5821 0
-5692 -5822 0
-5693 -5823 0
-5694 -5824 0
-5695 -5825 0
-5691 -6026 0
-5692 -6027 0
-5693 -6028 0
-5694 -6029 0
-5695 -6030 0
-5691 -6261 0
-5692 -6262 0
-5693 -6263 0
-5694 -6264 0
-5695 -6265 0
-5691 -6321 0
-5692 -6322 0
-5693 -6323 0
-5694 -6324 0
-5695 -6325 0
-5691 -6491 0
-5692 -6492 0
-5693 -6493 0
-5694 -6494 0
-5695 -6495 0
-5691 -6706 0
-5692 -6707 0
-5693 -6708 0
-5694 -6709 0
-5695 -6710 0
-5691 -7051 0
-5692 -7052 0
-5693 -7053 0
-5694 -7054 0
-5695 -7055 0
-5691 -7171 0
-5692 -7172 0
-5693 -7173 0
-5694 -7174 0
-5695 -7175 0
-5696 -5701 0
-5697 -5702 0
-5698 -5703 0
-5699 -5704 0
-5700 -5705 0
-5696 -5841 0
-5697 -5842 0
-5698 -5843 0
-5699 -5844 0
-5700 -5845 0
-5696 -5856 0
-5697 -5857 0
-5698 -5858 0
-5699 -5859 0
-5700 -5860 0
-5696 -5886 0
-5697 -5887 0
-5698 -5888 0
-5699 -5889 0
-5700 -5890 0
-5696 -6166 0
-5697 -6167 0
-5698 -6168 0
-5699 -6169 0
-5700 -6170 0
-5696 -6241 0
-5697 -6242 0
-5698 -6243 0
-5699 -6244 0
-5700 -6245 0
-5696 -6506 0
-5697 -6507 0
-5698 -6508 0
-5699 -6509 0
-5700 -6510 0
-5696 -7056 0
-5697 -7057 0
-5698 -7058 0
-5699 -7059 0
-5700 -7060 0
-5701 -5851 0
-5702 -5852 0
-5703 -5853 0
-5704 -5854 0
-5705 -5855 0
-5701 -5861 0
-5702 -5862 0
-5703 -5863 0
-5704 -5864 0
-5705 -5865 0
-5701 -6106 0
-5702 -6107 0
-5703 -6108 0
-5704 -6109 0
-5705 -6110 0
-5701 -6171 0
-5702 -6172 0
-5703 -6173 0
-5704 -6174 0
-5705 -6175 0
-5701 -6471 0
-5702 -6472 0
-5703 -6473 0
-5704 -6474 0
-5705 -6475 0
-5701 -6511 0
-5702 -6512 0
-5703 -6513 0
-5704 -6514 0
-5705 -6515 0
-5701 -7171 0
-5702 -7172 0
-5703 -7173 0
-5704 -7174 0
-5705 -7175 0
-5706 -5711 0
-5707 -5712 0
-5708 -5713 0
-5709 -5714 0
-5710 -5715 0
-5706 -5716 0
-5707 -5717 0
-5708 -5718 0
-5709 -5719 0
-5710 -5720 0
-5706 -5721 0
-5707 -5722 0
-5708 -5723 0
-5709 -5724 0
-5710 -5725 0
-5706 -5866 0
-5707 -5867 0
-5708 -5868 0
-5709 -5869 0
-5710 -5870 0
-5706 -6246 0
-5707 -6247 0
-5708 -6248 0
-5709 -6249 0
-5710 -6250 0
-5706 -6516 0
-5707 -6517 0
-5708 -6518 0
-5709 -6519 0
-5710 -6520 0
-5706 -6616 0
-5707 -6617 0
-5708 -6618 0
-5709 -6619 0
-5710 -6620 0
-5706 -6836 0
-5707 -6837 0
-5708 -6838 0
-5709 -6839 0
-5710 -6840 0
-5706 -7116 0
-5707 -7117 0
-5708 -7118 0
-5709 -7119 0
-5710 -7120 0
-5706 -7186 0
-5707 -7187 0
-5708 -7188 0
-5709 -7189 0
-5710 -7190 0
-5706 -7191 0
-5707 -7192 0
-5708 -7193 0
-5709 -7194 0
-5710 -7195 0
-5706 -7291 0
-5707 -7292 0
-5708 -7293 0
-5709 -7294 0
-5710 -7295 0
-5711 -5866 0
-5712 -5867 0
-5713 -5868 0
-5714 -5869 0
-5715 -5870 0
-5711 -6256 0
-5712 -6257 0
-5713 -6258 0
-5714 -6259 0
-5715 -6260 0
-5711 -6526 0
-5712 -6527 0
-5713 -6528 0
-5714 -6529 0
-5715 -6530 0
-5711 -7126 0
-5712 -7127 0
-5713 -7128 0
-5714 -7129 0
-5715 -7130 0
-5716 -5871 0
-5717 -5872 0
-5718 -5873 0
-5719 -5874 0
-5720 -5875 0
-5716 -6136 0
-5717 -6137 0
-5718 -6138 0
-5719 -6139 0
-5720 -6140 0
-5716 -6296 0
-5717 -6297 0
-5718 -6298 0
-5719 -6299 0
-5720 -6300 0
-5716 -6536 0
-5717 -6537 0
-5718 -6538 0
-5719 -6539 0
-5720 -6540 0
-5716 -6841 0
-5717 -6842 0
-5718 -6843 0
-5719 -6844 0
-5720 -6845 0
-5716 -7061 0
-5717 -7062 0
-5718 -7063 0
-5719 -7064 0
-5720 -7065 0
-5716 -7116 0
-5717 -7117 0
-5718 -7118 0
-5719 -7119 0
-5720 -7120 0
-5716 -7306 0
-5717 -7307 0
-5718 -7308 0
-5719 -7309 0
-5720 -7310 0
-5721 -6716 0
-5722 -6717 0
-5723 -6718 0
-5724 -6719 0
-5725 -6720 0
-5721 -7211 0
-5722 -7212 0
-5723 -7213 0
-5724 -7214 0
-5725 -7215 0
-5721 -7316 0
-5722 -7317 0
-5723 -7318 0
-5724 -7319 0
-5725 -7320 0
-5726 -5731 0
-5727 -5732 0
-5728 -5733 0
-5729 -5734 0
-5730 -5735 0
-5726 -5766 0
-5727 -5767 0
-5728 -5768 0
-5729 -5769 0
-5730 -5770 0
-5726 -6751 0
-5727 -6752 0
-5728 -6753 0
-5729 -6754 0
-5730 -6755 0
-5726 -7131 0
-5727 -7132 0
-5728 -7133 0
-5729 -7134 0
-5730 -7135 0
-5731 -5776 0
-5732 -5777 0
-5733 -5778 0
-5734 -5779 0
-5735 -5780 0
-5731 -6186 0
-5732 -6187 0
-5733 -6188 0
-5734 -6189 0
-5735 -6190 0
-5731 -6486 0
-5732 -6487 0
-5733 -6488 0
-5734 -6489 0
-5735 -6490 0
-5731 -7136 0
-5732 -7137 0
-5733 -7138 0
-5734 -7139 0
-5735 -7140 0
-5731 -7141 0
-5732 -7142 0
-5733 -7143 0
-5734 -7144 0
-5735 -7145 0
-5736 -5761 0
-5737 -5762 0
-5738 -5763 0
-5739 -5764 0
-5740 -5765 0
-5736 -5786 0
-5737 -5787 0
-5738 -5788 0
-5739 -5789 0
-5740 -5790 0
-5736 -6761 0
-5737 -6762 0
-5738 -6763 0
-5739 -6764 0
-5740 -6765 0
-5741 -5746 0
-5742 -5747 0
-5743 -5748 0
-5744 -5749 0
-5745 -5750 0
-5741 -5756 0
-5742 -5757 0
-5743 -5758 0
-5744 -5759 0
-5745 -5760 0
-5741 -5826 0
-5742 -5827 0
-5743 -5828 0
-5744 -5829 0
-5745 -5830 0
-5741 -6201 0
-5742 -6202 0
-5743 -6203 0
-5744 -6204 0
-5745 -6205 0
-5741 -6411 0
-5742 -6412 0
-5743 -6413 0
-5744 -6414 0
-5745 -6415 0
-5741 -7146 0
-5742 -7147 0
-5743 -7148 0
-5744 -7149 0
-5745 -7150 0
-5746 -5761 0
-5747 -5762 0
-5748 -5763 0
-5749 -5764 0
-5750 -5765 0
-5746 -5831 0
-5747 -5832 0
-5748 -5833 0
-5749 -5834 0
-5750 -5835 0
-5746 -6391 0
-5747 -6392 0
-5748 -6393 0
-5749 -6394 0
-5750 -6395 0
-5746 -6771 0
-5747 -6772 0
-5748 -6773 0
-5749 -6774 0
-5750 -6775 0
-5746 -7151 0
-5747 -7152 0
-5748 -7153 0
-5749 -7154 0
-5750 -7155 0
-5751 -5761 0
-5752 -5762 0
-5753 -5763 0
-5754 -5764 0
-5755 -5765 0
-5751 -5846 0
-5752 -5847 0
-5753 -5848 0
-5754 -5849 0
-5755 -5850 0
-5751 -6396 0
-5752 -6397 0
-5753 -6398 0
-5754 -6399 0
-5755 -6400 0
-5756 -5761 0
-5757 -5762 0
-5758 -5763 0
-5759 -5764 0
-5760 -5765 0
-5756 -5841 0
-5757 -5842 0
-5758 -5843 0
-5759 -5844 0
-5760 -5845 0
-5756 -5851 0
-5757 -5852 0
-5758 -5853 0
-5759 -5854 0
-5760 -5855 0
-5756 -5926 0
-5757 -5927 0
-5758 -5928 0
-5759 -5929 0
-5760 -5930 0
-5756 -6211 0
-5757 -6212 0
-5758 -6213 0
-5759 -6214 0
-5760 -6215 0
-5756 -6416 0
-5757 -6417 0
-5758 -6418 0
-5759 -6419 0
-5760 -6420 0
-5756 -6756 0
-5757 -6757 0
-5758 -6758 0
-5759 -6759 0
-5760 -6760 0
-5756 -7146 0
-5757 -7147 0
-5758 -7148 0
-5759 -7149 0
-5760 -7150 0
-5756 -7156 0
-5757 -7157 0
-5758 -7158 0
-5759 -7159 0
-5760 -7160 0
-5761 -5846 0
-5762 -5847 0
-5763 -5848 0
-5764 -5849 0
-5765 -5850 0
-5761 -6221 0
-5762 -6222 0
-5763 -6223 0
-5764 -6224 0
-5765 -6225 0
-5761 -6406 0
-5762 -6407 0
-5763 -6408 0
-5764 -6409 0
-5765 -6410 0
-5761 -7081 0
-5762 -7082 0
-5763 -7083 0
-5764 -7084 0
-5765 -7085 0
-5761 -7151 0
-5762 -7152 0
-5763 -7153 0
-5764 -7154 0
-5765 -7155 0
-5761 -7161 0
-5762 -7162 0
-5763 -7163 0
-5764 -7164 0
-5765 -7165 0
-5766 -5771 0
-5767 -5772 0
-5768 -5773 0
-5769 -5774 0
-5770 -5775 0
-5766 -5776 0
-5767 -5777 0
-5768 -5778 0
-5769 -5779 0
-5770 -5780 0
-5766 -5781 0
-5767 -5782 0
-5768 -5783 0
-5769 -5784 0
-5770 -5785 0
-5766 -5786 0
-5767 -5787 0
-5768 -5788 0
-5769 -5789 0
-5770 -5790 0
-5766 -5796 0
-5767 -5797 0
-5768 -5798 0
-5769 -5799 0
-5770 -5800 0
-5766 -5801 0
-5767 -5802 0
-5768 -5803 0
-5769 -5804 0
-5770 -5805 0
-5766 -6226 0
-5767 -6227 0
-5768 -6228 0
-5769 -6229 0
-5770 -6230 0
-5766 -6781 0
-5767 -6782 0
-5768 -6783 0
-5769 -6784 0
-5770 -6785 0
-5766 -7081 0
-5767 -7082 0
-5768 -7083 0
-5769 -7084 0
-5770 -7085 0
-5766 -7166 0
-5767 -7167 0
-5768 -7168 0
-5769 -7169 0
-5770 -7170 0
-5771 -5806 0
-5772 -5807 0
-5773 -5808 0
-5774 -5809 0
-5775 -5810 0
-5771 -5811 0
-5772 -5812 0
-5773 -5813 0
-5774 -5814 0
-5775 -5815 0
-5771 -6231 0
-5772 -6232 0
-5773 -6233 0
-5774 -6234 0
-5775 -6235 0
-5771 -6791 0
-5772 -6792 0
-5773 -6793 0
-5774 -6794 0
-5775 -6795 0
-5771 -7166 0
-5772 -7167 0
-5773 -7168 0
-5774 -7169 0
-5775 -7170 0
-5776 -6191 0
-5777 -6192 0
-5778 -6193 0
-5779 -6194 0
-5780 -6195 0
-5776 -6236 0
-5777 -6237 0
-5778 -6238 0
-5779 -6239 0
-5780 -6240 0
-5776 -6331 0
-5777 -6332 0
-5778 -6333 0
-5779 -6334 0
-5780 -6335 0
-5776 -6556 0
-5777 -6557 0
-5778 -6558 0
-5779 -6559 0
-5780 -6560 0
-5776 -7171 0
-5777 -7172 0
-5778 -7173 0
-5779 -7174 0
-5780 -7175 0
-5781 -5786 0
-5782 -5787 0
-5783 -5788 0
-5784 -5789 0
-5785 -5790 0
-5781 -5836 0
-5782 -5837 0
-5783 -5838 0
-5784 -5839 0
-5785 -5840 0
-5781 -5841 0
-5782 -5842 0
-5783 -5843 0
-5784 -5844 0
-5785 -5845 0
-5781 -5941 0
-5782 -5942 0
-5783 -5943 0
-5784 -5944 0
-5785 -5945 0
-5781 -6341 0
-5782 -6342 0
-5783 -6343 0
-5784 -6344 0
-5785 -6345 0
-5781 -6866 0
-5782 -6867 0
-5783 -6868 0
-5784 -6869 0
-5785 -6870 0
-5781 -7086 0
-5782 -7087 0
-5783 -7088 0
-5784 -7089 0
-5785 -7090 0
-5781 -7176 0
-5782 -7177 0
-5783 -7178 0
-5784 -7179 0
-5785 -7180 0
-5786 -5846 0
-5787 -5847 0
-5788 -5848 0
-5789 -5849 0
-5790 -5850 0
-5786 -6636 0
-5787 -6637 0
-5788 -6638 0
-5789 -6639 0
-5790 -6640 0
-5786 -6786 0
-5787 -6787 0
-5788 -6788 0
-5789 -6789 0
-5790 -6790 0
-5786 -6871 0
-5787 -6872 0
-5788 -6873 0
-5789 -6874 0
-5790 -6875 0
-5786 -7181 0
-5787 -7182 0
-5788 -7183 0
-5789 -7184 0
-5790 -7185 0
-5791 -5796 0
-5792 -5797 0
-5793 -5798 0
-5794 -5799 0
-5795 -5800 0
-5791 -6871 0
-5792 -6872 0
-5793 -6873 0
-5794 -6874 0
-5795 -6875 0
-5791 -7186 0
-5792 -7187 0
-5793 -7188 0
-5794 -7189 0
-5795 -7190 0
-5791 -7326 0
-5792 -7327 0
-5793 -7328 0
-5794 -7329 0
-5795 -7330 0
-5796 -5801 0
-5797 -5802 0
-5798 -5803 0
-5799 -5804 0
-5800 -5805 0
-5796 -5806 0
-5797 -5807 0
-5798 -5808 0
-5799 -5809 0
-5800 -5810 0
-5796 -5836 0
-5797 -5837 0
-5798 -5838 0
-5799 -5839 0
-5800 -5840 0
-5796 -7191 0
-5797 -7192 0
-5798 -7193 0
-5799 -7194 0
-5800 -7195 0
-5796 -7336 0
-5797 -7337 0
-5798 -7338 0
-5799 -7339 0
-5800 -7340 0
-5801 -5811 0
-5802 -5812 0
-5803 -5813 0
-5804 -5814 0
-5805 -5815 0
-5801 -5841 0
-5802 -5842 0
-5803 -5843 0
-5804 -5844 0
-5805 -5845 0
-5801 -5846 0
-5802 -5847 0
-5803 -5848 0
-5804 -5849 0
-5805 -5850 0
-5801 -5966 0
-5802 -5967 0
-5803 -5968 0
-5804 -5969 0
-5805 -5970 0
-5801 -7196 0
-5802 -7197 0
-5803 -7198 0
-5804 -7199 0
-5805 -7200 0
-5806 -5811 0
-5807 -5812 0
-5808 -5813 0
-5809 -5814 0
-5810 -5815 0
-5806 -6266 0
-5807 -6267 0
-5808 -6268 0
-5809 -6269 0
-5810 -6270 0
-5806 -6646 0
-5807 -6647 0
-5808 -6648 0
-5809 -6649 0
-5810 -6650 0
-5806 -7191 0
-5807 -7192 0
-5808 -7193 0
-5809 -7194 0
-5810 -7195 0
-5806 -7341 0
-5807 -7342 0
-5808 -7343 0
-5809 -7344 0
-5810 -7345 0
-5811 -5976 0
-5812 -5977 0
-5813 -5978 0
-5814 -5979 0
-5815 -5980 0
-5811 -7196 0
-5812 -7197 0
-5813 -7198 0
-5814 -7199 0
-5815 -7200 0
-5816 -5841 0
-5817 -5842 0
-5818 -5843 0
-5819 -5844 0
-5820 -5845 0
-5816 -5981 0
-5817 -5982 0
-5818 -5983 0
-5819 -5984 0
-5820 -5985 0
-5816 -6426 0
-5817 -6427 0
-5818 -6428 0
-5819 -6429 0
-5820 -6430 0
-5816 -6891 0
-5817 -6892 0
-5818 -6893 0
-5819 -6894 0
-5820 -6895 0
-5821 -5861 0
-5822 -5862 0
-5823 -5863 0
-5824 -5864 0
-5825 -5865 0
-5821 -5871 0
-5822 -5872 0
-5823 -5873 0
-5824 -5874 0
-5825 -5875 0
-5821 -6206 0
-5822 -6207 0
-5823 -6208 0
-5824 -6209 0
-5825 -6210 0
-5821 -6276 0
-5822 -6277 0
-5823 -6278 0
-5824 -6279 0
-5825 -6280 0
-5821 -6811 0
-5822 -6812 0
-5823 -6813 0
-5824 -6814 0
-5825 -6815 0
-5821 -6901 0
-5822 -6902 0
-5823 -6903 0
-5824 -6904 0
-5825 -6905 0
-5826 -5831 0
-5827 -5832 0
-5828 -5833 0
-5829 -5834 0
-5830 -5835 0
-5826 -5841 0
-5827 -5842 0
-5828 -5843 0
-5829 -5844 0
-5830 -5845 0
-5826 -6001 0
-5827 -6002 0
-5828 -6003 0
-5829 -6004 0
-5830 -6005 0
-5826 -6346 0
-5827 -6347 0
-5828 -6348 0
-5829 -6349 0
-5830 -6350 0
-5826 -7201 0
-5827 -7202 0
-5828 -7203 0
-5829 -7204 0
-5830 -7205 0
-5831 -5846 0
-5832 -5847 0
-5833 -5848 0
-5834 -5849 0
-5835 -5850 0
-5831 -6351 0
-5832 -6352 0
-5833 -6353 0
-5834 -6354 0
-5835 -6355 0
-5831 -6441 0
-5832 -6442 0
-5833 -6443 0
-5834 -6444 0
-5835 -6445 0
-5831 -7206 0
-5832 -7207 0
-5833 -7208 0
-5834 -7209 0
-5835 -7210 0
-5836 -5841 0
-5837 -5842 0
-5838 -5843 0
-5839 -5844 0
-5840 -5845 0
-5836 -6016 0
-5837 -6017 0
-5838 -6018 0
-5839 -6019 0
-5840 -6020 0
-5836 -6396 0
-5837 -6397 0
-5838 -6398 0
-5839 -6399 0
-5840 -6400 0
-5836 -6776 0
-5837 -6777 0
-5838 -6778 0
-5839 -6779 0
-5840 -6780 0
-5836 -7211 0
-5837 -7212 0
-5838 -7213 0
-5839 -7214 0
-5840 -7215 0
-5841 -5846 0
-5842 -5847 0
-5843 -5848 0
-5844 -5849 0
-5845 -5850 0
-5841 -5851 0
-5842 -5852 0
-5843 -5853 0
-5844 -5854 0
-5845 -5855 0
-5841 -5856 0
-5842 -5857 0
-5843 -5858 0
-5844 -5859 0
-5845 -5860 0
-5841 -6026 0
-5842 -6027 0
-5843 -6028 0
-5844 -6029 0
-5845 -6030 0
-5841 -6361 0
-5842 -6362 0
-5843 -6363 0
-5844 -6364 0
-5845 -6365 0
-5841 -6401 0
-5842 -6402 0
-5843 -6403 0
-5844 -6404 0
-5845 -6405 0
-5841 -6911 0
-5842 -6912 0
-5843 -6913 0
-5844 -6914 0
-5845 -6915 0
-5841 -7201 0
-5842 -7202 0
-5843 -7203 0
-5844 -7204 0
-5845 -7205 0
-5841 -7216 0
-5842 -7217 0
-5843 -7218 0
-5844 -7219 0
-5845 -7220 0
-5846 -6031 0
-5847 -6032 0
-5848 -6033 0
-5849 -6034 0
-5850 -6035 0
-5846 -6446 0
-5847 -6447 0
-5848 -6448 0
-5849 -6449 0
-5850 -6450 0
-5846 -6916 0
-5847 -6917 0
-5848 -6918 0
-5849 -6919 0
-5850 -6920 0
-5846 -7206 0
-5847 -7207 0
-5848 -7208 0
-5849 -7209 0
-5850 -7210 0
-5846 -7221 0
-5847 -7222 0
-5848 -7223 0
-5849 -7224 0
-5850 -7225 0
-5851 -5861 0
-5852 -5862 0
-5853 -5863 0
-5854 -5864 0
-5855 -5865 0
-5851 -6041 0
-5852 -6042 0
-5853 -6043 0
-5854 -6044 0
-5855 -6045 0
-5851 -6921 0
-5852 -6922 0
-5853 -6923 0
-5854 -6924 0
-5855 -6925 0
-5856 -5861 0
-5857 -5862 0
-5858 -5863 0
-5859 -5864 0
-5860 -5865 0
-5856 -6046 0
-5857 -6047 0
-5858 -6048 0
-5859 -6049 0
-5860 -6050 0
-5856 -6366 0
-5857 -6367 0
-5858 -6368 0
-5859 -6369 0
-5860 -6370 0
-5856 -6926 0
-5857 -6927 0
-5858 -6928 0
-5859 -6929 0
-5860 -6930 0
-5861 -6611 0
-5862 -6612 0
-5863 -6613 0
-5864 -6614 0
-5865 -6615 0
-5861 -6821 0
-5862 -6822 0
-5863 -6823 0
-5864 -6824 0
-5865 -6825 0
-5861 -6931 0
-5862 -6932 0
-5863 -6933 0
-5864 -6934 0
-5865 -6935 0
-5866 -5871 0
-5867 -5872 0
-5868 -5873 0
-5869 -5874 0
-5870 -5875 0
-5866 -6376 0
-5867 -6377 0
-5868 -6378 0
-5869 -6379 0
-5870 -6380 0
-5866 -6941 0
-5867 -6942 0
-5868 -6943 0
-5869 -6944 0
-5870 -6945 0
-5866 -7151 0
-5867 -7152 0
-5868 -7153 0
-5869 -7154 0
-5870 -7155 0
-5871 -6301 0
-5872 -6302 0
-5873 -6303 0
-5874 -6304 0
-5875 -6305 0
-5871 -6961 0
-5872 -6962 0
-5873 -6963 0
-5874 -6964 0
-5875 -6965 0
-5871 -7101 0
-5872 -7102 0
-5873 -7103 0
-5874 -7104 0
-5875 -7105 0
-5871 -7151 0
-5872 -7152 0
-5873 -7153 0
-5874 -7154 0
-5875 -7155 0
-5876 -6311 0
-5877 -6312 0
-5878 -6313 0
-5879 -6314 0
-5880 -6315 0
-5876 -7111 0
-5877 -7112 0
-5878 -7113 0
-5879 -7114 0
-5880 -7115 0
-5876 -7166 0
-5877 -7167 0
-5878 -7168 0
-5879 -7169 0
-5880 -7170 0
-5876 -7171 0
-5877 -7172 0
-5878 -7173 0
-5879 -7174 0
-5880 -7175 0
-5881 -5886 0
-5882 -5887 0
-5883 -5888 0
-5884 -5889 0
-5885 -5890 0
-5881 -5891 0
-5882 -5892 0
-5883 -5893 0
-5884 -5894 0
-5885 -5895 0
-5881 -6006 0
-5882 -6007 0
-5883 -6008 0
-5884 -6009 0
-5885 -6010 0
-5881 -6026 0
-5882 -6027 0
-5883 -6028 0
-5884 -6029 0
-5885 -6030 0
-5881 -6451 0
-5882 -6452 0
-5883 -6453 0
-5884 -6454 0
-5885 -6455 0
-5881 -7116 0
-5882 -7117 0
-5883 -7118 0
-5884 -7119 0
-5885 -7120 0
-5881 -7356 0
-5882 -7357 0
-5883 -7358 0
-5884 -7359 0
-5885 -7360 0
-5886 -5896 0
-5887 -5897 0
-5888 -5898 0
-5889 -5899 0
-5890 -5900 0
-5886 -6026 0
-5887 -6027 0
-5888 -6028 0
-5889 -6029 0
-5890 -6030 0
-5886 -6046 0
-5887 -6047 0
-5888 -6048 0
-5889 -6049 0
-5890 -6050 0
-5886 -6316 0
-5887 -6317 0
-5888 -6318 0
-5889 -6319 0
-5890 -6320 0
-5886 -6651 0
-5887 -6652 0
-5888 -6653 0
-5889 -6654 0
-5890 -6655 0
-5886 -7126 0
-5887 -7127 0
-5888 -7128 0
-5889 -7129 0
-5890 -7130 0
-5886 -7226 0
-5887 -7227 0
-5888 -7228 0
-5889 -7229 0
-5890 -7230 0
-5891 -5896 0
-5892 -5897 0
-5893 -5898 0
-5894 -5899 0
-5895 -5900 0
-5891 -6051 0
-5892 -6052 0
-5893 -6053 0
-5894 -6054 0
-5895 -6055 0
-5891 -6071 0
-5892 -6072 0
-5893 -6073 0
-5894 -6074 0
-5895 -6075 0
-5891 -6266 0
-5892 -6267 0
-5893 -6268 0
-5894 -6269 0
-5895 -6270 0
-5891 -6706 0
-5892 -6707 0
-5893 -6708 0
-5894 -6709 0
-5895 -6710 0
-5896 -6071 0
-5897 -6072 0
-5898 -6073 0
-5899 -6074 0
-5900 -6075 0
-5896 -6091 0
-5897 -6092 0
-5898 -6093 0
-5899 -6094 0
-5900 -6095 0
-5896 -6661 0
-5897 -6662 0
-5898 -6663 0
-5899 -6664 0
-5900 -6665 0
-5896 -6711 0
-5897 -6712 0
-5898 -6713 0
-5899 -6714 0
-5900 -6715 0
-5896 -6841 0
-5897 -6842 0
-5898 -6843 0
-5899 -6844 0
-5900 -6845 0
-5896 -7226 0
-5897 -7227 0
-5898 -7228 0
-5899 -7229 0
-5900 -7230 0
-5901 -6466 0
-5902 -6467 0
-5903 -6468 0
-5904 -6469 0
-5905 -6470 0
-5901 -6676 0
-5902 -6677 0
-5903 -6678 0
-5904 -6679 0
-5905 -6680 0
-5901 -6831 0
-5902 -6832 0
-5903 -6833 0
-5904 -6834 0
-5905 -6835 0
-5901 -7291 0
-5902 -7292 0
-5903 -7293 0
-5904 -7294 0
-5905 -7295 0
-5901 -7311 0
-5902 -7312 0
-5903 -7313 0
-5904 -7314 0
-5905 -7315 0
-5906 -5916 0
-5907 -5917 0
-5908 -5918 0
-5909 -5919 0
-5910 -5920 0
-5906 -6756 0
-5907 -6757 0
-5908 -6758 0
-5909 -6759 0
-5910 -6760 0
-5906 -7231 0
-5907 -7232 0
-5908 -7233 0
-5909 -7234 0
-5910 -7235 0
-5906 -7236 0
-5907 -7237 0
-5908 -7238 0
-5909 -7239 0
-5910 -7240 0
-5911 -5916 0
-5912 -5917 0
-5913 -5918 0
-5914 -5919 0
-5915 -5920 0
-5911 -6351 0
-5912 -6352 0
-5913 -6353 0
-5914 -6354 0
-5915 -6355 0
-5911 -6501 0
-5912 -6502 0
-5913 -6503 0
-5914 -6504 0
-5915 -6505 0
-5911 -7241 0
-5912 -7242 0
-5913 -7243 0
-5914 -7244 0
-5915 -7245 0
-5916 -6511 0
-5917 -6512 0
-5918 -6513 0
-5919 -6514 0
-5920 -6515 0
-5916 -7241 0
-5917 -7242 0
-5918 -7243 0
-5919 -7244 0
-5920 -7245 0
-5916 -7246 0
-5917 -7247 0
-5918 -7248 0
-5919 -7249 0
-5920 -7250 0
-5921 -5926 0
-5922 -5927 0
-5923 -5928 0
-5924 -5929 0
-5925 -5930 0
-5921 -5931 0
-5922 -5932 0
-5923 -5933 0
-5924 -5934 0
-5925 -5935 0
-5921 -6011 0
-5922 -6012 0
-5923 -6013 0
-5924 -6014 0
-5925 -6015 0
-5921 -6026 0
-5922 -6027 0
-5923 -6028 0
-5924 -6029 0
-5925 -6030 0
-5921 -6371 0
-5922 -6372 0
-5923 -6373 0
-5924 -6374 0
-5925 -6375 0
-5921 -6666 0
-5922 -6667 0
-5923 -6668 0
-5924 -6669 0
-5925 -6670 0
-5921 -7251 0
-5922 -7252 0
-5923 -7253 0
-5924 -7254 0
-5925 -7255 0
-5926 -5936 0
-5927 -5937 0
-5928 -5938 0
-5929 -5939 0
-5930 -5940 0
-5926 -6026 0
-5927 -6027 0
-5928 -6028 0
-5929 -6029 0
-5930 -6030 0
-5926 -6041 0
-5927 -6042 0
-5928 -6043 0
-5929 -6044 0
-5930 -6045 0
-5926 -6376 0
-5927 -6377 0
-5928 -6378 0
-5929 -6379 0
-5930 -6380 0
-5926 -6671 0
-5927 -6672 0
-5928 -6673 0
-5929 -6674 0
-5930 -6675 0
-5931 -5936 0
-5932 -5937 0
-5933 -5938 0
-5934 -5939 0
-5935 -5940 0
-5931 -6056 0
-5932 -6057 0
-5933 -6058 0
-5934 -6059 0
-5935 -6060 0
-5931 -6071 0
-5932 -6072 0
-5933 -6073 0
-5934 -6074 0
-5935 -6075 0
-5931 -6851 0
-5932 -6852 0
-5933 -6853 0
-5934 -6854 0
-5935 -6855 0
-5931 -7131 0
-5932 -7132 0
-5933 -7133 0
-5934 -7134 0
-5935 -7135 0
-5931 -7251 0
-5932 -7252 0
-5933 -7253 0
-5934 -7254 0
-5935 -7255 0
-5936 -6071 0
-5937 -6072 0
-5938 -6073 0
-5939 -6074 0
-5940 -6075 0
-5936 -6086 0
-5937 -6087 0
-5938 -6088 0
-5939 -6089 0
-5940 -6090 0
-5936 -6846 0
-5937 -6847 0
-5938 -6848 0
-5939 -6849 0
-5940 -6850 0
-5941 -5946 0
-5942 -5947 0
-5943 -5948 0
-5944 -5949 0
-5945 -5950 0
-5941 -5951 0
-5942 -5952 0
-5943 -5953 0
-5944 -5954 0
-5945 -5955 0
-5941 -6016 0
-5942 -6017 0
-5943 -6018 0
-5944 -6019 0
-5945 -6020 0
-5941 -6026 0
-5942 -6027 0
-5943 -6028 0
-5944 -6029 0
-5945 -6030 0
-5941 -6866 0
-5942 -6867 0
-5943 -6868 0
-5944 -6869 0
-5945 -6870 0
-5941 -7256 0
-5942 -7257 0
-5943 -7258 0
-5944 -7259 0
-5945 -7260 0
-5946 -5956 0
-5947 -5957 0
-5948 -5958 0
-5949 -5959 0
-5950 -5960 0
-5946 -6026 0
-5947 -6027 0
-5948 -6028 0
-5949 -6029 0
-5950 -6030 0
-5946 -6036 0
-5947 -6037 0
-5948 -6038 0
-5949 -6039 0
-5950 -6040 0
-5946 -6336 0
-5947 -6337 0
-5948 -6338 0
-5949 -6339 0
-5950 -6340 0
-5946 -6561 0
-5947 -6562 0
-5948 -6563 0
-5949 -6564 0
-5950 -6565 0
-5946 -6876 0
-5947 -6877 0
-5948 -6878 0
-5949 -6879 0
-5950 -6880 0
-5946 -6981 0
-5947 -6982 0
-5948 -6983 0
-5949 -6984 0
-5950 -6985 0
-5946 -7261 0
-5947 -7262 0
-5948 -7263 0
-5949 -7264 0
-5950 -7265 0
-5951 -5956 0
-5952 -5957 0
-5953 -5958 0
-5954 -5959 0
-5955 -5960 0
-5951 -6061 0
-5952 -6062 0
-5953 -6063 0
-5954 -6064 0
-5955 -6065 0
-5951 -6071 0
-5952 -6072 0
-5953 -6073 0
-5954 -6074 0
-5955 -6075 0
-5951 -7256 0
-5952 -7257 0
-5953 -7258 0
-5954 -7259 0
-5955 -7260 0
-5956 -6071 0
-5957 -6072 0
-5958 -6073 0
-5959 -6074 0
-5960 -6075 0
-5956 -6081 0
-5957 -6082 0
-5958 -6083 0
-5959 -6084 0
-5960 -6085 0
-5956 -6341 0
-5957 -6342 0
-5958 -6343 0
-5959 -6344 0
-5960 -6345 0
-5956 -6896 0
-5957 -6897 0
-5958 -6898 0
-5959 -6899 0
-5960 -6900 0
-5956 -7261 0
-5957 -7262 0
-5958 -7263 0
-5959 -7264 0
-5960 -7265 0
-5961 -5966 0
-5962 -5967 0
-5963 -5968 0
-5964 -5969 0
-5965 -5970 0
-5961 -5971 0
-5962 -5972 0
-5963 -5973 0
-5964 -5974 0
-5965 -5975 0
-5961 -6021 0
-5962 -6022 0
-5963 -6023 0
-5964 -6024 0
-5965 -6025 0
-5961 -6026 0
-5962 -6027 0
-5963 -6028 0
-5964 -6029 0
-5965 -6030 0
-5961 -6421 0
-5962 -6422 0
-5963 -6423 0
-5964 -6424 0
-5965 -6425 0
-5961 -6686 0
-5962 -6687 0
-5963 -6688 0
-5964 -6689 0
-5965 -6690 0
-5961 -6986 0
-5962 -6987 0
-5963 -6988 0
-5964 -6989 0
-5965 -6990 0
-5966 -5976 0
-5967 -5977 0
-5968 -5978 0
-5969 -5979 0
-5970 -5980 0
-5966 -6026 0
-5967 -6027 0
-5968 -6028 0
-5969 -6029 0
-5970 -6030 0
-5966 -6031 0
-5967 -6032 0
-5968 -6033 0
-5969 -6034 0
-5970 -6035 0
-5966 -7266 0
-5967 -7267 0
-5968 -7268 0
-5969 -7269 0
-5970 -7270 0
-5971 -5976 0
-5972 -5977 0
-5973 -5978 0
-5974 -5979 0
-5975 -5980 0
-5971 -6066 0
-5972 -6067 0
-5973 -6068 0
-5974 -6069 0
-5975 -6070 0
-5971 -6071 0
-5972 -6072 0
-5973 -6073 0
-5974 -6074 0
-5975 -6075 0
-5971 -6696 0
-5972 -6697 0
-5973 -6698 0
-5974 -6699 0
-5975 -6700 0
-5971 -6921 0
-5972 -6922 0
-5973 -6923 0
-5974 -6924 0
-5975 -6925 0
-5976 -6071 0
-5977 -6072 0
-5978 -6073 0
-5979 -6074 0
-5980 -6075 0
-5976 -6076 0
-5977 -6077 0
-5978 -6078 0
-5979 -6079 0
-5980 -6080 0
-5976 -6451 0
-5977 -6452 0
-5978 -6453 0
-5979 -6454 0
-5980 -6455 0
-5976 -7266 0
-5977 -7267 0
-5978 -7268 0
-5979 -7269 0
-5980 -7270 0
-5981 -5986 0
-5982 -5987 0
-5983 -5988 0
-5984 -5989 0
-5985 -5990 0
-5981 -6026 0
-5982 -6027 0
-5983 -6028 0
-5984 -6029 0
-5985 -6030 0
-5981 -6566 0
-5982 -6567 0
-5983 -6568 0
-5984 -6569 0
-5985 -6570 0
-5981 -6991 0
-5982 -6992 0
-5983 -6993 0
-5984 -6994 0
-5985 -6995 0
-5981 -7326 0
-5982 -7327 0
-5983 -7328 0
-5984 -7329 0
-5985 -7330 0
-5986 -6071 0
-5987 -6072 0
-5988 -6073 0
-5989 -6074 0
-5990 -6075 0
-5986 -6371 0
-5987 -6372 0
-5988 -6373 0
-5989 -6374 0
-5990 -6375 0
-5986 -6571 0
-5987 -6572 0
-5988 -6573 0
-5989 -6574 0
-5990 -6575 0
-5986 -7331 0
-5987 -7332 0
-5988 -7333 0
-5989 -7334 0
-5990 -7335 0
-5991 -5996 0
-5992 -5997 0
-5993 -5998 0
-5994 -5999 0
-5995 -6000 0
-5991 -6026 0
-5992 -6027 0
-5993 -6028 0
-5994 -6029 0
-5995 -6030 0
-5991 -6476 0
-5992 -6477 0
-5993 -6478 0
-5994 -6479 0
-5995 -6480 0
-5991 -7231 0
-5992 -7232 0
-5993 -7233 0
-5994 -7234 0
-5995 -7235 0
-5991 -7271 0
-5992 -7272 0
-5993 -7273 0
-5994 -7274 0
-5995 -7275 0
-5991 -7371 0
-5992 -7372 0
-5993 -7373 0
-5994 -7374 0
-5995 -7375 0
-5996 -6071 0
-5997 -6072 0
-5998 -6073 0
-5999 -6074 0
-6000 -6075 0
-5996 -6801 0
-5997 -6802 0
-5998 -6803 0
-5999 -6804 0
-6000 -6805 0
-5996 -6936 0
-5997 -6937 0
-5998 -6938 0
-5999 -6939 0
-6000 -6940 0
-5996 -7236 0
-5997 -7237 0
-5998 -7238 0
-5999 -7239 0
-6000 -7240 0
-5996 -7271 0
-5997 -7272 0
-5998 -7273 0
-5999 -7274 0
-6000 -7275 0
-6001 -6026 0
-6002 -6027 0
-6003 -6028 0
-6004 -6029 0
-6005 -6030 0
-6001 -6481 0
-6002 -6482 0
-6003 -6483 0
-6004 -6484 0
-6005 -6485 0
-6001 -7276 0
-6002 -7277 0
-6003 -7278 0
-6004 -7279 0
-6005 -7280 0
-6006 -6026 0
-6007 -6027 0
-6008 -6028 0
-6009 -6029 0
-6010 -6030 0
-6006 -6051 0
-6007 -6052 0
-6008 -6053 0
-6009 -6054 0
-6010 -6055 0
-6006 -6201 0
-6007 -6202 0
-6008 -6203 0
-6009 -6204 0
-6010 -6205 0
-6006 -6521 0
-6007 -6522 0
-6008 -6523 0
-6009 -6524 0
-6010 -6525 0
-6006 -7001 0
-6007 -7002 0
-6008 -7003 0
-6009 -7004 0
-6010 -7005 0
-6006 -7281 0
-6007 -7282 0
-6008 -7283 0
-6009 -7284 0
-6010 -7285 0
-6006 -7376 0
-6007 -7377 0
-6008 -7378 0
-6009 -7379 0
-6010 -7380 0
-6011 -6026 0
-6012 -6027 0
-6013 -6028 0
-6014 -6029 0
-6015 -6030 0
-6011 -6056 0
-6012 -6057 0
-6013 -6058 0
-6014 -6059 0
-6015 -6060 0
-6011 -6156 0
-6012 -6157 0
-6013 -6158 0
-6014 -6159 0
-6015 -6160 0
-6011 -6486 0
-6012 -6487 0
-6013 -6488 0
-6014 -6489 0
-6015 -6490 0
-6011 -7286 0
-6012 -7287 0
-6013 -7288 0
-6014 -7289 0
-6015 -7290 0
-6016 -6026 0
-6017 -6027 0
-6018 -6028 0
-6019 -6029 0
-6020 -6030 0
-6016 -6061 0
-6017 -6062 0
-6018 -6063 0
-6019 -6064 0
-6020 -6065 0
-6016 -6136 0
-6017 -6137 0
-6018 -6138 0
-6019 -6139 0
-6020 -6140 0
-6016 -6526 0
-6017 -6527 0
-6018 -6528 0
-6019 -6529 0
-6020 -6530 0
-6021 -6026 0
-6022 -6027 0
-6023 -6028 0
-6024 -6029 0
-6025 -6030 0
-6021 -6066 0
-6022 -6067 0
-6023 -6068 0
-6024 -6069 0
-6025 -6070 0
-6021 -6116 0
-6022 -6117 0
-6023 -6118 0
-6024 -6119 0
-6025 -6120 0
-6021 -6426 0
-6022 -6427 0
-6023 -6428 0
-6024 -6429 0
-6025 -6430 0
-6021 -6856 0
-6022 -6857 0
-6023 -6858 0
-6024 -6859 0
-6025 -6860 0
-6021 -7146 0
-6022 -7147 0
-6023 -7148 0
-6024 -7149 0
-6025 -7150 0
-6026 -6031 0
-6027 -6032 0
-6028 -6033 0
-6029 -6034 0
-6030 -6035 0
-6026 -6036 0
-6027 -6037 0
-6028 -6038 0
-6029 -6039 0
-6030 -6040 0
-6026 -6041 0
-6027 -6042 0
-6028 -6043 0
-6029 -6044 0
-6030 -6045 0
-6026 -6046 0
-6027 -6047 0
-6028 -6048 0
-6029 -6049 0
-6030 -6050 0
-6026 -6071 0
-6027 -6072 0
-6028 -6073 0
-6029 -6074 0
-6030 -6075 0
-6026 -6096 0
-6027 -6097 0
-6028 -6098 0
-6029 -6099 0
-6030 -6100 0
-6026 -6106 0
-6027 -6107 0
-6028 -6108 0
-6029 -6109 0
-6030 -6110 0
-6026 -6116 0
-6027 -6117 0
-6028 -6118 0
-6029 -6119 0
-6030 -6120 0
-6026 -6121 0
-6027 -6122 0
-6028 -6123 0
-6029 -6124 0
-6030 -6125 0
-6026 -6136 0
-6027 -6137 0
-6028 -6138 0
-6029 -6139 0
-6030 -6140 0
-6026 -6141 0
-6027 -6142 0
-6028 -6143 0
-6029 -6144 0
-6030 -6145 0
-6026 -6156 0
-6027 -6157 0
-6028 -6158 0
-6029 -6159 0
-6030 -6160 0
-6026 -6161 0
-6027 -6162 0
-6028 -6163 0
-6029 -6164 0
-6030 -6165 0
-6026 -6201 0
-6027 -6202 0
-6028 -6203 0
-6029 -6204 0
-6030 -6205 0
-6026 -6206 0
-6027 -6207 0
-6028 -6208 0
-6029 -6209 0
-6030 -6210 0
-6026 -6386 0
-6027 -6387 0
-6028 -6388 0
-6029 -6389 0
-6030 -6390 0
-6026 -6431 0
-6027 -6432 0
-6028 -6433 0
-6029 -6434 0
-6030 -6435 0
-6026 -6491 0
-6027 -6492 0
-6028 -6493 0
-6029 -6494 0
-6030 -6495 0
-6026 -6531 0
-6027 -6532 0
-6028 -6533 0
-6029 -6534 0
-6030 -6535 0
-6026 -6581 0
-6027 -6582 0
-6028 -6583 0
-6029 -6584 0
-6030 -6585 0
-6026 -6716 0
-6027 -6717 0
-6028 -6718 0
-6029 -6719 0
-6030 -6720 0
-6026 -6751 0
-6027 -6752 0
-6028 -6753 0
-6029 -6754 0
-6030 -6755 0
-6026 -6861 0
-6027 -6862 0
-6028 -6863 0
-6029 -6864 0
-6030 -6865 0
-6026 -6911 0
-6027 -6912 0
-6028 -6913 0
-6029 -6914 0
-6030 -6915 0
-6026 -7006 0
-6027 -7007 0
-6028 -7008 0
-6029 -7009 0
-6030 -7010 0
-6026 -7011 0
-6027 -7012 0
-6028 -7013 0
-6029 -7014 0
-6030 -7015 0
-6026 -7151 0
-6027 -7152 0
-6028 -7153 0
-6029 -7154 0
-6030 -7155 0
-6026 -7231 0
-6027 -7232 0
-6028 -7233 0
-6029 -7234 0
-6030 -7235 0
-6026 -7241 0
-6027 -7242 0
-6028 -7243 0
-6029 -7244 0
-6030 -7245 0
-6026 -7276 0
-6027 -7277 0
-6028 -7278 0
-6029 -7279 0
-6030 -7280 0
-6026 -7291 0
-6027 -7292 0
-6028 -7293 0
-6029 -7294 0
-6030 -7295 0
-6026 -7326 0
-6027 -7327 0
-6028 -7328 0
-6029 -7329 0
-6030 -7330 0
-6026 -7336 0
-6027 -7337 0
-6028 -7338 0
-6029 -7339 0
-6030 -7340 0
-6026 -7386 0
-6027 -7387 0
-6028 -7388 0
-6029 -7389 0
-6030 -7390 0
-6031 -6076 0
-6032 -6077 0
-6033 -6078 0
-6034 -6079 0
-6035 -6080 0
-6031 -6121 0
-6032 -6122 0
-6033 -6123 0
-6034 -6124 0
-6035 -6125 0
-6031 -6586 0
-6032 -6587 0
-6033 -6588 0
-6034 -6589 0
-6035 -6590 0
-6031 -6916 0
-6032 -6917 0
-6033 -6918 0
-6034 -6919 0
-6035 -6920 0
-6031 -7296 0
-6032 -7297 0
-6033 -7298 0
-6034 -7299 0
-6035 -7300 0
-6036 -6081 0
-6037 -6082 0
-6038 -6083 0
-6039 -6084 0
-6040 -6085 0
-6036 -6141 0
-6037 -6142 0
-6038 -6143 0
-6039 -6144 0
-6040 -6145 0
-6036 -6591 0
-6037 -6592 0
-6038 -6593 0
-6039 -6594 0
-6040 -6595 0
-6036 -6756 0
-6037 -6757 0
-6038 -6758 0
-6039 -6759 0
-6040 -6760 0
-6036 -7016 0
-6037 -7017 0
-6038 -7018 0
-6039 -7019 0
-6040 -7020 0
-6041 -6086 0
-6042 -6087 0
-6043 -6088 0
-6044 -6089 0
-6045 -6090 0
-6041 -6161 0
-6042 -6162 0
-6043 -6163 0
-6044 -6164 0
-6045 -6165 0
-6041 -6391 0
-6042 -6392 0
-6043 -6393 0
-6044 -6394 0
-6045 -6395 0
-6041 -6721 0
-6042 -6722 0
-6043 -6723 0
-6044 -6724 0
-6045 -6725 0
-6041 -6921 0
-6042 -6922 0
-6043 -6923 0
-6044 -6924 0
-6045 -6925 0
-6041 -7301 0
-6042 -7302 0
-6043 -7303 0
-6044 -7304 0
-6045 -7305 0
-6046 -6091 0
-6047 -6092 0
-6048 -6093 0
-6049 -6094 0
-6050 -6095 0
-6046 -6206 0
-6047 -6207 0
-6048 -6208 0
-6049 -6209 0
-6050 -6210 0
-6046 -6496 0
-6047 -6497 0
-6048 -6498 0
-6049 -6499 0
-6050 -6500 0
-6046 -6726 0
-6047 -6727 0
-6048 -6728 0
-6049 -6729 0
-6050 -6730 0
-6046 -6926 0
-6047 -6927 0
-6048 -6928 0
-6049 -6929 0
-6050 -6930 0
-6051 -6071 0
-6052 -6072 0
-6053 -6073 0
-6054 -6074 0
-6055 -6075 0
-6051 -6211 0
-6052 -6212 0
-6053 -6213 0
-6054 -6214 0
-6055 -6215 0
-6051 -6246 0
-6052 -6247 0
-6053 -6248 0
-6054 -6249 0
-6055 -6250 0
-6051 -7281 0
-6052 -7282 0
-6053 -7283 0
-6054 -7284 0
-6055 -7285 0
-6056 -6071 0
-6057 -6072 0
-6058 -6073 0
-6059 -6074 0
-6060 -6075 0
-6056 -6166 0
-6057 -6167 0
-6058 -6168 0
-6059 -6169 0
-6060 -6170 0
-6056 -6946 0
-6057 -6947 0
-6058 -6948 0
-6059 -6949 0
-6060 -6950 0
-6056 -7286 0
-6057 -7287 0
-6058 -7288 0
-6059 -7289 0
-6060 -7290 0
-6061 -6071 0
-6062 -6072 0
-6063 -6073 0
-6064 -6074 0
-6065 -6075 0
-6061 -6146 0
-6062 -6147 0
-6063 -6148 0
-6064 -6149 0
-6065 -6150 0
-6061 -6806 0
-6062 -6807 0
-6063 -6808 0
-6064 -6809 0
-6065 -6810 0
-6061 -6871 0
-6062 -6872 0
-6063 -6873 0
-6064 -6874 0
-6065 -6875 0
-6066 -6071 0
-6067 -6072 0
-6068 -6073 0
-6069 -6074 0
-6070 -6075 0
-6066 -6126 0
-6067 -6127 0
-6068 -6128 0
-6069 -6129 0
-6070 -6130 0
-6066 -6251 0
-6067 -6252 0
-6068 -6253 0
-6069 -6254 0
-6070 -6255 0
-6066 -6876 0
-6067 -6877 0
-6068 -6878 0
-6069 -6879 0
-6070 -6880 0
-6066 -7156 0
-6067 -7157 0
-6068 -7158 0
-6069 -7159 0
-6070 -7160 0
-6071 -6076 0
-6072 -6077 0
-6073 -6078 0
-6074 -6079 0
-6075 -6080 0
-6071 -6081 0
-6072 -6082 0
-6073 -6083 0
-6074 -6084 0
-6075 -6085 0
-6071 -6086 0
-6072 -6087 0
-6073 -6088 0
-6074 -6089 0
-6075 -6090 0
-6071 -6091 0
-6072 -6092 0
-6073 -6093 0
-6074 -6094 0
-6075 -6095 0
-6071 -6101 0
-6072 -6102 0
-6073 -6103 0
-6074 -6104 0
-6075 -6105 0
-6071 -6111 0
-6072 -6112 0
-6073 -6113 0
-6074 -6114 0
-6075 -6115 0
-6071 -6126 0
-6072 -6127 0
-6073 -6128 0
-6074 -6129 0
-6075 -6130 0
-6071 -6131 0
-6072 -6132 0
-6073 -6133 0
-6074 -6134 0
-6075 -6135 0
-6071 -6146 0
-6072 -6147 0
-6073 -6148 0
-6074 -6149 0
-6075 -6150 0
-6071 -6151 0
-6072 -6152 0
-6073 -6153 0
-6074 -6154 0
-6075 -6155 0
-6071 -6166 0
-6072 -6167 0
-6073 -6168 0
-6074 -6169 0
-6075 -6170 0
-6071 -6171 0
-6072 -6172 0
-6073 -6173 0
-6074 -6174 0
-6075 -6175 0
-6071 -6211 0
-6072 -6212 0
-6073 -6213 0
-6074 -6214 0
-6075 -6215 0
-6071 -6216 0
-6072 -6217 0
-6073 -6218 0
-6074 -6219 0
-6075 -6220 0
-6071 -6256 0
-6072 -6257 0
-6073 -6258 0
-6074 -6259 0
-6075 -6260 0
-6071 -6396 0
-6072 -6397 0
-6073 -6398 0
-6074 -6399 0
-6075 -6400 0
-6071 -6456 0
-6072 -6457 0
-6073 -6458 0
-6074 -6459 0
-6075 -6460 0
-6071 -6601 0
-6072 -6602 0
-6073 -6603 0
-6074 -6604 0
-6075 -6605 0
-6071 -6736 0
-6072 -6737 0
-6073 -6738 0
-6074 -6739 0
-6075 -6740 0
-6071 -6761 0
-6072 -6762 0
-6073 -6763 0
-6074 -6764 0
-6075 -6765 0
-6071 -6811 0
-6072 -6812 0
-6073 -6813 0
-6074 -6814 0
-6075 -6815 0
-6071 -6881 0
-6072 -6882 0
-6073 -6883 0
-6074 -6884 0
-6075 -6885 0
-6071 -6951 0
-6072 -6952 0
-6073 -6953 0
-6074 -6954 0
-6075 -6955 0
-6071 -7021 0
-6072 -7022 0
-6073 -7023 0
-6074 -7024 0
-6075 -7025 0
-6071 -7161 0
-6072 -7162 0
-6073 -7163 0
-6074 -7164 0
-6075 -7165 0
-6071 -7166 0
-6072 -7167 0
-6073 -7168 0
-6074 -7169 0
-6075 -7170 0
-6071 -7236 0
-6072 -7237 0
-6073 -7238 0
-6074 -7239 0
-6075 -7240 0
-6071 -7246 0
-6072 -7247 0
-6073 -7248 0
-6074 -7249 0
-6075 -7250 0
-6071 -7291 0
-6072 -7292 0
-6073 -7293 0
-6074 -7294 0
-6075 -7295 0
-6071 -7331 0
-6072 -7332 0
-6073 -7333 0
-6074 -7334 0
-6075 -7335 0
-6071 -7341 0
-6072 -7342 0
-6073 -7343 0
-6074 -7344 0
-6075 -7345 0
-6071 -7391 0
-6072 -7392 0
-6073 -7393 0
-6074 -7394 0
-6075 -7395 0
-6076 -6131 0
-6077 -6132 0
-6078 -6133 0
-6079 -6134 0
-6080 -6135 0
-6076 -6461 0
-6077 -6462 0
-6078 -6463 0
-6079 -6464 0
-6080 -6465 0
-6076 -6816 0
-6077 -6817 0
-6078 -6818 0
-6079 -6819 0
-6080 -6820 0
-6076 -7296 0
-6077 -7297 0
-6078 -7298 0
-6079 -7299 0
-6080 -7300 0
-6081 -6151 0
-6082 -6152 0
-6083 -6153 0
-6084 -6154 0
-6085 -6155 0
-6081 -6261 0
-6082 -6262 0
-6083 -6263 0
-6084 -6264 0
-6085 -6265 0
-6081 -6401 0
-6082 -6402 0
-6083 -6403 0
-6084 -6404 0
-6085 -6405 0
-6081 -6766 0
-6082 -6767 0
-6083 -6768 0
-6084 -6769 0
-6085 -6770 0
-6086 -6171 0
-6087 -6172 0
-6088 -6173 0
-6089 -6174 0
-6090 -6175 0
-6086 -6406 0
-6087 -6407 0
-6088 -6408 0
-6089 -6409 0
-6090 -6410 0
-6086 -6466 0
-6087 -6467 0
-6088 -6468 0
-6089 -6469 0
-6090 -6470 0
-6086 -7301 0
-6087 -7302 0
-6088 -7303 0
-6089 -7304 0
-6090 -7305 0
-6091 -6216 0
-6092 -6217 0
-6093 -6218 0
-6094 -6219 0
-6095 -6220 0
-6091 -6741 0
-6092 -6742 0
-6093 -6743 0
-6094 -6744 0
-6095 -6745 0
-6091 -6961 0
-6092 -6962 0
-6093 -6963 0
-6094 -6964 0
-6095 -6965 0
-6096 -6101 0
-6097 -6102 0
-6098 -6103 0
-6099 -6104 0
-6100 -6105 0
-6096 -6411 0
-6097 -6412 0
-6098 -6413 0
-6099 -6414 0
-6100 -6415 0
-6096 -6546 0
-6097 -6547 0
-6098 -6548 0
-6099 -6549 0
-6100 -6550 0
-6096 -7241 0
-6097 -7242 0
-6098 -7243 0
-6099 -7244 0
-6100 -7245 0
-6096 -7306 0
-6097 -7307 0
-6098 -7308 0
-6099 -7309 0
-6100 -7310 0
-6101 -6416 0
-6102 -6417 0
-6103 -6418 0
-6104 -6419 0
-6105 -6420 0
-6101 -7171 0
-6102 -7172 0
-6103 -7173 0
-6104 -7174 0
-6105 -7175 0
-6101 -7246 0
-6102 -7247 0
-6103 -7248 0
-6104 -7249 0
-6105 -7250 0
-6101 -7306 0
-6102 -7307 0
-6103 -7308 0
-6104 -7309 0
-6105 -7310 0
-6106 -6111 0
-6107 -6112 0
-6108 -6113 0
-6109 -6114 0
-6110 -6115 0
-6106 -6446 0
-6107 -6447 0
-6108 -6448 0
-6109 -6449 0
-6110 -6450 0
-6106 -6511 0
-6107 -6512 0
-6108 -6513 0
-6109 -6514 0
-6110 -6515 0
-6106 -6746 0
-6107 -6747 0
-6108 -6748 0
-6109 -6749 0
-6110 -6750 0
-6106 -7311 0
-6107 -7312 0
-6108 -7313 0
-6109 -7314 0
-6110 -7315 0
-6106 -7336 0
-6107 -7337 0
-6108 -7338 0
-6109 -7339 0
-6110 -7340 0
-6111 -6271 0
-6112 -6272 0
-6113 -6273 0
-6114 -6274 0
-6115 -6275 0
-6111 -6821 0
-6112 -6822 0
-6113 -6823 0
-6114 -6824 0
-6115 -6825 0
-6111 -7311 0
-6112 -7312 0
-6113 -7313 0
-6114 -7314 0
-6115 -7315 0
-6111 -7341 0
-6112 -7342 0
-6113 -7343 0
-6114 -7344 0
-6115 -7345 0
-6116 -6121 0
-6117 -6122 0
-6118 -6123 0
-6119 -6124 0
-6120 -6125 0
-6116 -6126 0
-6117 -6127 0
-6118 -6128 0
-6119 -6129 0
-6120 -6130 0
-6116 -6551 0
-6117 -6552 0
-6118 -6553 0
-6119 -6554 0
-6120 -6555 0
-6116 -6886 0
-6117 -6887 0
-6118 -6888 0
-6119 -6889 0
-6120 -6890 0
-6116 -7031 0
-6117 -7032 0
-6118 -7033 0
-6119 -7034 0
-6120 -7035 0
-6116 -7316 0
-6117 -7317 0
-6118 -7318 0
-6119 -7319 0
-6120 -7320 0
-6121 -6131 0
-6122 -6132 0
-6123 -6133 0
-6124 -6134 0
-6125 -6135 0
-6121 -6606 0
-6122 -6607 0
-6123 -6608 0
-6124 -6609 0
-6125 -6610 0
-6121 -6946 0
-6122 -6947 0
-6123 -6948 0
-6124 -6949 0
-6125 -6950 0
-6121 -7036 0
-6122 -7037 0
-6123 -7038 0
-6124 -7039 0
-6125 -7040 0
-6126 -6131 0
-6127 -6132 0
-6128 -6133 0
-6129 -6134 0
-6130 -6135 0
-6126 -6281 0
-6127 -6282 0
-6128 -6283 0
-6129 -6284 0
-6130 -6285 0
-6126 -6891 0
-6127 -6892 0
-6128 -6893 0
-6129 -6894 0
-6130 -6895 0
-6126 -7176 0
-6127 -7177 0
-6128 -7178 0
-6129 -7179 0
-6130 -7180 0
-6126 -7316 0
-6127 -7317 0
-6128 -7318 0
-6129 -7319 0
-6130 -7320 0
-6131 -7181 0
-6132 -7182 0
-6133 -7183 0
-6134 -7184 0
-6135 -7185 0
-6136 -6141 0
-6137 -6142 0
-6138 -6143 0
-6139 -6144 0
-6140 -6145 0
-6136 -6146 0
-6137 -6147 0
-6138 -6148 0
-6139 -6149 0
-6140 -6150 0
-6136 -6536 0
-6137 -6537 0
-6138 -6538 0
-6139 -6539 0
-6140 -6540 0
-6136 -7406 0
-6137 -7407 0
-6138 -7408 0
-6139 -7409 0
-6140 -7410 0
-6141 -6151 0
-6142 -6152 0
-6143 -6153 0
-6144 -6154 0
-6145 -6155 0
-6141 -6541 0
-6142 -6542 0
-6143 -6543 0
-6144 -6544 0
-6145 -6545 0
-6141 -6626 0
-6142 -6627 0
-6143 -6628 0
-6144 -6629 0
-6145 -6630 0
-6141 -6771 0
-6142 -6772 0
-6143 -6773 0
-6144 -6774 0
-6145 -6775 0
-6141 -7056 0
-6142 -7057 0
-6143 -7058 0
-6144 -7059 0
-6145 -7060 0
-6141 -7321 0
-6142 -7322 0
-6143 -7323 0
-6144 -7324 0
-6145 -7325 0
-6146 -6151 0
-6147 -6152 0
-6148 -6153 0
-6149 -6154 0
-6150 -6155 0
-6146 -6916 0
-6147 -6917 0
-6148 -6918 0
-6149 -6919 0
-6150 -6920 0
-6146 -7191 0
-6147 -7192 0
-6148 -7193 0
-6149 -7194 0
-6150 -7195 0
-6146 -7411 0
-6147 -7412 0
-6148 -7413 0
-6149 -7414 0
-6150 -7415 0
-6151 -6296 0
-6152 -6297 0
-6153 -6298 0
-6154 -6299 0
-6155 -6300 0
-6151 -7196 0
-6152 -7197 0
-6153 -7198 0
-6154 -7199 0
-6155 -7200 0
-6151 -7321 0
-6152 -7322 0
-6153 -7323 0
-6154 -7324 0
-6155 -7325 0
-6156 -6161 0
-6157 -6162 0
-6158 -6163 0
-6159 -6164 0
-6160 -6165 0
-6156 -6166 0
-6157 -6167 0
-6158 -6168 0
-6159 -6169 0
-6160 -6170 0
-6156 -6556 0
-6157 -6557 0
-6158 -6558 0
-6159 -6559 0
-6160 -6560 0
-6156 -6576 0
-6157 -6577 0
-6158 -6578 0
-6159 -6579 0
-6160 -6580 0
-6156 -6776 0
-6157 -6777 0
-6158 -6778 0
-6159 -6779 0
-6160 -6780 0
-6156 -7206 0
-6157 -7207 0
-6158 -7208 0
-6159 -7209 0
-6160 -7210 0
-6161 -6171 0
-6162 -6172 0
-6163 -6173 0
-6164 -6174 0
-6165 -6175 0
-6161 -6441 0
-6162 -6442 0
-6163 -6443 0
-6164 -6444 0
-6165 -6445 0
-6161 -6596 0
-6162 -6597 0
-6163 -6598 0
-6164 -6599 0
-6165 -6600 0
-6161 -6781 0
-6162 -6782 0
-6163 -6783 0
-6164 -6784 0
-6165 -6785 0
-6161 -7061 0
-6162 -7062 0
-6163 -7063 0
-6164 -7064 0
-6165 -7065 0
-6166 -6171 0
-6167 -6172 0
-6168 -6173 0
-6169 -6174 0
-6170 -6175 0
-6166 -6316 0
-6167 -6317 0
-6168 -6318 0
-6169 -6319 0
-6170 -6320 0
-6166 -6786 0
-6167 -6787 0
-6168 -6788 0
-6169 -6789 0
-6170 -6790 0
-6166 -7221 0
-6167 -7222 0
-6168 -7223 0
-6169 -7224 0
-6170 -7225 0
-6171 -6446 0
-6172 -6447 0
-6173 -6448 0
-6174 -6449 0
-6175 -6450 0
-6171 -6471 0
-6172 -6472 0
-6173 -6473 0
-6174 -6474 0
-6175 -6475 0
-6171 -6791 0
-6172 -6792 0
-6173 -6793 0
-6174 -6794 0
-6175 -6795 0
-6171 -7066 0
-6172 -7067 0
-6173 -7068 0
-6174 -7069 0
-6175 -7070 0
-6176 -6806 0
-6177 -6807 0
-6178 -6808 0
-6179 -6809 0
-6180 -6810 0
-6176 -6966 0
-6177 -6967 0
-6178 -6968 0
-6179 -6969 0
-6180 -6970 0
-6176 -7291 0
-6177 -7292 0
-6178 -7293 0
-6179 -7294 0
-6180 -7295 0
-6176 -7306 0
-6177 -7307 0
-6178 -7308 0
-6179 -7309 0
-6180 -7310 0
-6181 -6186 0
-6182 -6187 0
-6183 -6188 0
-6184 -6189 0
-6185 -6190 0
-6181 -6191 0
-6182 -6192 0
-6183 -6193 0
-6184 -6194 0
-6185 -6195 0
-6181 -7326 0
-6182 -7327 0
-6183 -7328 0
-6184 -7329 0
-6185 -7330 0
-6186 -6196 0
-6187 -6197 0
-6188 -6198 0
-6189 -6199 0
-6190 -6200 0
-6186 -6486 0
-6187 -6487 0
-6188 -6488 0
-6189 -6489 0
-6190 -6490 0
-6186 -7326 0
-6187 -7327 0
-6188 -7328 0
-6189 -7329 0
-6190 -7330 0
-6186 -7331 0
-6187 -7332 0
-6188 -7333 0
-6189 -7334 0
-6190 -7335 0
-6191 -6196 0
-6192 -6197 0
-6193 -6198 0
-6194 -6199 0
-6195 -6200 0
-6191 -6776 0
-6192 -6777 0
-6193 -6778 0
-6194 -6779 0
-6195 -6780 0
-6191 -7336 0
-6192 -7337 0
-6193 -7338 0
-6194 -7339 0
-6195 -7340 0
-6196 -6506 0
-6197 -6507 0
-6198 -6508 0
-6199 -6509 0
-6200 -6510 0
-6196 -6786 0
-6197 -6787 0
-6198 -6788 0
-6199 -6789 0
-6200 -6790 0
-6196 -7336 0
-6197 -7337 0
-6198 -7338 0
-6199 -7339 0
-6200 -7340 0
-6196 -7341 0
-6197 -7342 0
-6198 -7343 0
-6199 -7344 0
-6200 -7345 0
-6201 -6206 0
-6202 -6207 0
-6203 -6208 0
-6204 -6209 0
-6205 -6210 0
-6201 -6211 0
-6202 -6212 0
-6203 -6213 0
-6204 -6214 0
-6205 -6215 0
-6201 -7086 0
-6202 -7087 0
-6203 -7088 0
-6204 -7089 0
-6205 -7090 0
-6201 -7346 0
-6202 -7347 0
-6203 -7348 0
-6204 -7349 0
-6205 -7350 0
-6206 -6216 0
-6207 -6217 0
-6208 -6218 0
-6209 -6219 0
-6210 -6220 0
-6206 -6976 0
-6207 -6977 0
-6208 -6978 0
-6209 -6979 0
-6210 -6980 0
-6206 -7091 0
-6207 -7092 0
-6208 -7093 0
-6209 -7094 0
-6210 -7095 0
-6211 -6216 0
-6212 -6217 0
-6213 -6218 0
-6214 -6219 0
-6215 -6220 0
-6211 -6376 0
-6212 -6377 0
-6213 -6378 0
-6214 -6379 0
-6215 -6380 0
-6211 -7346 0
-6212 -7347 0
-6213 -7348 0
-6214 -7349 0
-6215 -7350 0
-6216 -6551 0
-6217 -6552 0
-6218 -6553 0
-6219 -6554 0
-6220 -6555 0
-6216 -7096 0
-6217 -7097 0
-6218 -7098 0
-6219 -7099 0
-6220 -7100 0
-6221 -6676 0
-6222 -6677 0
-6223 -6678 0
-6224 -6679 0
-6225 -6680 0
-6221 -7231 0
-6222 -7232 0
-6223 -7233 0
-6224 -7234 0
-6225 -7235 0
-6221 -7361 0
-6222 -7362 0
-6223 -7363 0
-6224 -7364 0
-6225 -7365 0
-6221 -7366 0
-6222 -7367 0
-6223 -7368 0
-6224 -7369 0
-6225 -7370 0
-6226 -6231 0
-6227 -6232 0
-6228 -6233 0
-6229 -6234 0
-6230 -6235 0
-6226 -6236 0
-6227 -6237 0
-6228 -6238 0
-6229 -6239 0
-6230 -6240 0
-6226 -6336 0
-6227 -6337 0
-6228 -6338 0
-6229 -6339 0
-6230 -6340 0
-6226 -6856 0
-6227 -6857 0
-6228 -6858 0
-6229 -6859 0
-6230 -6860 0
-6226 -6996 0
-6227 -6997 0
-6228 -6998 0
-6229 -6999 0
-6230 -7000 0
-6226 -7231 0
-6227 -7232 0
-6228 -7233 0
-6229 -7234 0
-6230 -7235 0
-6226 -7351 0
-6227 -7352 0
-6228 -7353 0
-6229 -7354 0
-6230 -7355 0
-6231 -6241 0
-6232 -6242 0
-6233 -6243 0
-6234 -6244 0
-6235 -6245 0
-6231 -6266 0
-6232 -6267 0
-6233 -6268 0
-6234 -6269 0
-6235 -6270 0
-6231 -6341 0
-6232 -6342 0
-6233 -6343 0
-6234 -6344 0
-6235 -6345 0
-6231 -6876 0
-6232 -6877 0
-6233 -6878 0
-6234 -6879 0
-6235 -6880 0
-6231 -7001 0
-6232 -7002 0
-6233 -7003 0
-6234 -7004 0
-6235 -7005 0
-6231 -7236 0
-6232 -7237 0
-6233 -7238 0
-6234 -7239 0
-6235 -7240 0
-6231 -7351 0
-6232 -7352 0
-6233 -7353 0
-6234 -7354 0
-6235 -7355 0
-6236 -6241 0
-6237 -6242 0
-6238 -6243 0
-6239 -6244 0
-6240 -6245 0
-6236 -6346 0
-6237 -6347 0
-6238 -6348 0
-6239 -6349 0
-6240 -6350 0
-6236 -6356 0
-6237 -6357 0
-6238 -6358 0
-6239 -6359 0
-6240 -6360 0
-6236 -6556 0
-6237 -6557 0
-6238 -6558 0
-6239 -6559 0
-6240 -6560 0
-6236 -6656 0
-6237 -6657 0
-6238 -6658 0
-6239 -6659 0
-6240 -6660 0
-6236 -7241 0
-6237 -7242 0
-6238 -7243 0
-6239 -7244 0
-6240 -7245 0
-6236 -7356 0
-6237 -7357 0
-6238 -7358 0
-6239 -7359 0
-6240 -7360 0
-6241 -6361 0
-6242 -6362 0
-6243 -6363 0
-6244 -6364 0
-6245 -6365 0
-6241 -6366 0
-6242 -6367 0
-6243 -6368 0
-6244 -6369 0
-6245 -6370 0
-6241 -6506 0
-6242 -6507 0
-6243 -6508 0
-6244 -6509 0
-6245 -6510 0
-6241 -7246 0
-6242 -7247 0
-6243 -7248 0
-6244 -7249 0
-6245 -7250 0
-6241 -7356 0
-6242 -7357 0
-6243 -7358 0
-6244 -7359 0
-6245 -7360 0
-6246 -6256 0
-6247 -6257 0
-6248 -6258 0
-6249 -6259 0
-6250 -6260 0
-6246 -6376 0
-6247 -6377 0
-6248 -6378 0
-6249 -6379 0
-6250 -6380 0
-6246 -6516 0
-6247 -6517 0
-6248 -6518 0
-6249 -6519 0
-6250 -6520 0
-6246 -7426 0
-6247 -7427 0
-6248 -7428 0
-6249 -7429 0
-6250 -7430 0
-6251 -6256 0
-6252 -6257 0
-6253 -6258 0
-6254 -6259 0
-6255 -6260 0
-6251 -6281 0
-6252 -6282 0
-6253 -6283 0
-6254 -6284 0
-6255 -6285 0
-6251 -6291 0
-6252 -6292 0
-6253 -6293 0
-6254 -6294 0
-6255 -6295 0
-6251 -6311 0
-6252 -6312 0
-6253 -6313 0
-6254 -6314 0
-6255 -6315 0
-6251 -6321 0
-6252 -6322 0
-6253 -6323 0
-6254 -6324 0
-6255 -6325 0
-6251 -6571 0
-6252 -6572 0
-6253 -6573 0
-6254 -6574 0
-6255 -6575 0
-6251 -6981 0
-6252 -6982 0
-6253 -6983 0
-6254 -6984 0
-6255 -6985 0
-6256 -6261 0
-6257 -6262 0
-6258 -6263 0
-6259 -6264 0
-6260 -6265 0
-6256 -6271 0
-6257 -6272 0
-6258 -6273 0
-6259 -6274 0
-6260 -6275 0
-6256 -6281 0
-6257 -6282 0
-6258 -6283 0
-6259 -6284 0
-6260 -6285 0
-6256 -6296 0
-6257 -6297 0
-6258 -6298 0
-6259 -6299 0
-6260 -6300 0
-6256 -6316 0
-6257 -6317 0
-6258 -6318 0
-6259 -6319 0
-6260 -6320 0
-6256 -6376 0
-6257 -6377 0
-6258 -6378 0
-6259 -6379 0
-6260 -6380 0
-6256 -6526 0
-6257 -6527 0
-6258 -6528 0
-6259 -6529 0
-6260 -6530 0
-6256 -6901 0
-6257 -6902 0
-6258 -6903 0
-6259 -6904 0
-6260 -6905 0
-6256 -7021 0
-6257 -7022 0
-6258 -7023 0
-6259 -7024 0
-6260 -7025 0
-6261 -6286 0
-6262 -6287 0
-6263 -6288 0
-6264 -6289 0
-6265 -6290 0
-6261 -6296 0
-6262 -6297 0
-6263 -6298 0
-6264 -6299 0
-6265 -6300 0
-6261 -6531 0
-6262 -6532 0
-6263 -6533 0
-6264 -6534 0
-6265 -6535 0
-6261 -6846 0
-6262 -6847 0
-6263 -6848 0
-6264 -6849 0
-6265 -6850 0
-6261 -7051 0
-6262 -7052 0
-6263 -7053 0
-6264 -7054 0
-6265 -7055 0
-6266 -6396 0
-6267 -6397 0
-6268 -6398 0
-6269 -6399 0
-6270 -6400 0
-6266 -6911 0
-6267 -6912 0
-6268 -6913 0
-6269 -6914 0
-6270 -6915 0
-6266 -7436 0
-6267 -7437 0
-6268 -7438 0
-6269 -7439 0
-6270 -7440 0
-6271 -6406 0
-6272 -6407 0
-6273 -6408 0
-6274 -6409 0
-6275 -6410 0
-6271 -6836 0
-6272 -6837 0
-6273 -6838 0
-6274 -6839 0
-6275 -6840 0
-6271 -6931 0
-6272 -6932 0
-6273 -6933 0
-6274 -6934 0
-6275 -6935 0
-6276 -6286 0
-6277 -6287 0
-6278 -6288 0
-6279 -6289 0
-6280 -6290 0
-6276 -6301 0
-6277 -6302 0
-6278 -6303 0
-6279 -6304 0
-6280 -6305 0
-6276 -7041 0
-6277 -7042 0
-6278 -7043 0
-6279 -7044 0
-6280 -7045 0
-6276 -7386 0
-6277 -7387 0
-6278 -7388 0
-6279 -7389 0
-6280 -7390 0
-6281 -6286 0
-6282 -6287 0
-6283 -6288 0
-6284 -6289 0
-6285 -6290 0
-6281 -6306 0
-6282 -6307 0
-6283 -6308 0
-6284 -6309 0
-6285 -6310 0
-6281 -6466 0
-6282 -6467 0
-6283 -6468 0
-6284 -6469 0
-6285 -6470 0
-6281 -6841 0
-6282 -6842 0
-6283 -6843 0
-6284 -6844 0
-6285 -6845 0
-6281 -6991 0
-6282 -6992 0
-6283 -6993 0
-6284 -6994 0
-6285 -6995 0
-6281 -7256 0
-6282 -7257 0
-6283 -7258 0
-6284 -7259 0
-6285 -7260 0
-6286 -6306 0
-6287 -6307 0
-6288 -6308 0
-6289 -6309 0
-6290 -6310 0
-6286 -6551 0
-6287 -6552 0
-6288 -6553 0
-6289 -6554 0
-6290 -6555 0
-6286 -7261 0
-6287 -7262 0
-6288 -7263 0
-6289 -7264 0
-6290 -7265 0
-6286 -7391 0
-6287 -7392 0
-6288 -7393 0
-6289 -7394 0
-6290 -7395 0
-6291 -6296 0
-6292 -6297 0
-6293 -6298 0
-6294 -6299 0
-6295 -6300 0
-6291 -6306 0
-6292 -6307 0
-6293 -6308 0
-6294 -6309 0
-6295 -6310 0
-6291 -6326 0
-6292 -6327 0
-6293 -6328 0
-6294 -6329 0
-6295 -6330 0
-6291 -6621 0
-6292 -6622 0
-6293 -6623 0
-6294 -6624 0
-6295 -6625 0
-6291 -7016 0
-6292 -7017 0
-6293 -7018 0
-6294 -7019 0
-6295 -7020 0
-6296 -6306 0
-6297 -6307 0
-6298 -6308 0
-6299 -6309 0
-6300 -6310 0
-6296 -7266 0
-6297 -7267 0
-6298 -7268 0
-6299 -7269 0
-6300 -7270 0
-6301 -6306 0
-6302 -6307 0
-6303 -6308 0
-6304 -6309 0
-6305 -6310 0
-6301 -7276 0
-6302 -7277 0
-6303 -7278 0
-6304 -7279 0
-6305 -7280 0
-6301 -7406 0
-6302 -7407 0
-6303 -7408 0
-6304 -7409 0
-6305 -7410 0
-6306 -6851 0
-6307 -6852 0
-6308 -6853 0
-6309 -6854 0
-6310 -6855 0
-6306 -7046 0
-6307 -7047 0
-6308 -7048 0
-6309 -7049 0
-6310 -7050 0
-6306 -7291 0
-6307 -7292 0
-6308 -7293 0
-6309 -7294 0
-6310 -7295 0
-6306 -7411 0
-6307 -7412 0
-6308 -7413 0
-6309 -7414 0
-6310 -7415 0
-6311 -6316 0
-6312 -6317 0
-6313 -6318 0
-6314 -6319 0
-6315 -6320 0
-6311 -6321 0
-6312 -6322 0
-6313 -6323 0
-6314 -6324 0
-6315 -6325 0
-6311 -6326 0
-6312 -6327 0
-6313 -6328 0
-6314 -6329 0
-6315 -6330 0
-6311 -6426 0
-6312 -6427 0
-6313 -6428 0
-6314 -6429 0
-6315 -6430 0
-6311 -6436 0
-6312 -6437 0
-6313 -6438 0
-6314 -6439 0
-6315 -6440 0
-6311 -6701 0
-6312 -6702 0
-6313 -6703 0
-6314 -6704 0
-6315 -6705 0
-6311 -6866 0
-6312 -6867 0
-6313 -6868 0
-6314 -6869 0
-6315 -6870 0
-6311 -7071 0
-6312 -7072 0
-6313 -7073 0
-6314 -7074 0
-6315 -7075 0
-6311 -7291 0
-6312 -7292 0
-6313 -7293 0
-6314 -7294 0
-6315 -7295 0
-6311 -7351 0
-6312 -7352 0
-6313 -7353 0
-6314 -7354 0
-6315 -7355 0
-6311 -7356 0
-6312 -7357 0
-6313 -7358 0
-6314 -7359 0
-6315 -7360 0
-6316 -6431 0
-6317 -6432 0
-6318 -6433 0
-6319 -6434 0
-6320 -6435 0
-6316 -6871 0
-6317 -6872 0
-6318 -6873 0
-6319 -6874 0
-6320 -6875 0
-6316 -6966 0
-6317 -6967 0
-6318 -6968 0
-6319 -6969 0
-6320 -6970 0
-6316 -7296 0
-6317 -7297 0
-6318 -7298 0
-6319 -7299 0
-6320 -7300 0
-6321 -6581 0
-6322 -6582 0
-6323 -6583 0
-6324 -6584 0
-6325 -6585 0
-6321 -7301 0
-6322 -7302 0
-6323 -7303 0
-6324 -7304 0
-6325 -7305 0
-6326 -6706 0
-6327 -6707 0
-6328 -6708 0
-6329 -6709 0
-6330 -6710 0
-6326 -6911 0
-6327 -6912 0
-6328 -6913 0
-6329 -6914 0
-6330 -6915 0
-6326 -7321 0
-6327 -7322 0
-6328 -7323 0
-6329 -7324 0
-6330 -7325 0
-6331 -6366 0
-6332 -6367 0
-6333 -6368 0
-6334 -6369 0
-6335 -6370 0
-6331 -6656 0
-6332 -6657 0
-6333 -6658 0
-6334 -6659 0
-6335 -6660 0
-6331 -6881 0
-6332 -6882 0
-6333 -6883 0
-6334 -6884 0
-6335 -6885 0
-6336 -6341 0
-6337 -6342 0
-6338 -6343 0
-6339 -6344 0
-6340 -6345 0
-6336 -6356 0
-6337 -6357 0
-6338 -6358 0
-6339 -6359 0
-6340 -6360 0
-6336 -6386 0
-6337 -6387 0
-6338 -6388 0
-6339 -6389 0
-6340 -6390 0
-6336 -7371 0
-6337 -7372 0
-6338 -7373 0
-6339 -7374 0
-6340 -7375 0
-6341 -6366 0
-6342 -6367 0
-6343 -6368 0
-6344 -6369 0
-6345 -6370 0
-6341 -6396 0
-6342 -6397 0
-6343 -6398 0
-6344 -6399 0
-6345 -6400 0
-6341 -6401 0
-6342 -6402 0
-6343 -6403 0
-6344 -6404 0
-6345 -6405 0
-6341 -7086 0
-6342 -7087 0
-6343 -7088 0
-6344 -7089 0
-6345 -7090 0
-6341 -7131 0
-6342 -7132 0
-6343 -7133 0
-6344 -7134 0
-6345 -7135 0
-6341 -7371 0
-6342 -7372 0
-6343 -7373 0
-6344 -7374 0
-6345 -7375 0
-6346 -6351 0
-6347 -6352 0
-6348 -6353 0
-6349 -6354 0
-6350 -6355 0
-6346 -6356 0
-6347 -6357 0
-6348 -6358 0
-6349 -6359 0
-6350 -6360 0
-6346 -6361 0
-6347 -6362 0
-6348 -6363 0
-6349 -6364 0
-6350 -6365 0
-6346 -6481 0
-6347 -6482 0
-6348 -6483 0
-6349 -6484 0
-6350 -6485 0
-6346 -6756 0
-6347 -6757 0
-6348 -6758 0
-6349 -6759 0
-6350 -6760 0
-6346 -7376 0
-6347 -7377 0
-6348 -7378 0
-6349 -7379 0
-6350 -7380 0
-6351 -6781 0
-6352 -6782 0
-6353 -6783 0
-6354 -6784 0
-6355 -6785 0
-6351 -7381 0
-6352 -7382 0
-6353 -7383 0
-6354 -7384 0
-6355 -7385 0
-6356 -6366 0
-6357 -6367 0
-6358 -6368 0
-6359 -6369 0
-6360 -6370 0
-6356 -6411 0
-6357 -6412 0
-6358 -6413 0
-6359 -6414 0
-6360 -6415 0
-6356 -6636 0
-6357 -6637 0
-6358 -6638 0
-6359 -6639 0
-6360 -6640 0
-6356 -6886 0
-6357 -6887 0
-6358 -6888 0
-6359 -6889 0
-6360 -6890 0
-6356 -7136 0
-6357 -7137 0
-6358 -7138 0
-6359 -7139 0
-6360 -7140 0
-6356 -7386 0
-6357 -7387 0
-6358 -7388 0
-6359 -7389 0
-6360 -7390 0
-6361 -6366 0
-6362 -6367 0
-6363 -6368 0
-6364 -6369 0
-6365 -6370 0
-6361 -6491 0
-6362 -6492 0
-6363 -6493 0
-6364 -6494 0
-6365 -6495 0
-6361 -6766 0
-6362 -6767 0
-6363 -6768 0
-6364 -6769 0
-6365 -6770 0
-6361 -7376 0
-6362 -7377 0
-6363 -7378 0
-6364 -7379 0
-6365 -7380 0
-6366 -6416 0
-6367 -6417 0
-6368 -6418 0
-6369 -6419 0
-6370 -6420 0
-6366 -6496 0
-6367 -6497 0
-6368 -6498 0
-6369 -6499 0
-6370 -6500 0
-6366 -6641 0
-6367 -6642 0
-6368 -6643 0
-6369 -6644 0
-6370 -6645 0
-6366 -6891 0
-6367 -6892 0
-6368 -6893 0
-6369 -6894 0
-6370 -6895 0
-6366 -7141 0
-6367 -7142 0
-6368 -7143 0
-6369 -7144 0
-6370 -7145 0
-6366 -7386 0
-6367 -7387 0
-6368 -7388 0
-6369 -7389 0
-6370 -7390 0
-6366 -7391 0
-6367 -7392 0
-6368 -7393 0
-6369 -7394 0
-6370 -7395 0
-6371 -6376 0
-6372 -6377 0
-6373 -6378 0
-6374 -6379 0
-6375 -6380 0
-6371 -6381 0
-6372 -6382 0
-6373 -6383 0
-6374 -6384 0
-6375 -6385 0
-6371 -6396 0
-6372 -6397 0
-6373 -6398 0
-6374 -6399 0
-6375 -6400 0
-6371 -6431 0
-6372 -6432 0
-6373 -6433 0
-6374 -6434 0
-6375 -6435 0
-6371 -6521 0
-6372 -6522 0
-6373 -6523 0
-6374 -6524 0
-6375 -6525 0
-6371 -6916 0
-6372 -6917 0
-6373 -6918 0
-6374 -6919 0
-6375 -6920 0
-6371 -7361 0
-6372 -7362 0
-6373 -7363 0
-6374 -7364 0
-6375 -7365 0
-6376 -6406 0
-6377 -6407 0
-6378 -6408 0
-6379 -6409 0
-6380 -6410 0
-6376 -6431 0
-6377 -6432 0
-6378 -6433 0
-6379 -6434 0
-6380 -6435 0
-6376 -6671 0
-6377 -6672 0
-6378 -6673 0
-6379 -6674 0
-6380 -6675 0
-6381 -6416 0
-6382 -6417 0
-6383 -6418 0
-6384 -6419 0
-6385 -6420 0
-6381 -6541 0
-6382 -6542 0
-6383 -6543 0
-6384 -6544 0
-6385 -6545 0
-6381 -6806 0
-6382 -6807 0
-6383 -6808 0
-6384 -6809 0
-6385 -6810 0
-6381 -7326 0
-6382 -7327 0
-6383 -7328 0
-6384 -7329 0
-6385 -7330 0
-6381 -7361 0
-6382 -7362 0
-6383 -7363 0
-6384 -7364 0
-6385 -7365 0
-6386 -6391 0
-6387 -6392 0
-6388 -6393 0
-6389 -6394 0
-6390 -6395 0
-6386 -6396 0
-6387 -6397 0
-6388 -6398 0
-6389 -6399 0
-6390 -6400 0
-6386 -6411 0
-6387 -6412 0
-6388 -6413 0
-6389 -6414 0
-6390 -6415 0
-6386 -6441 0
-6387 -6442 0
-6388 -6443 0
-6389 -6444 0
-6390 -6445 0
-6386 -6751 0
-6387 -6752 0
-6388 -6753 0
-6389 -6754 0
-6390 -6755 0
-6386 -7396 0
-6387 -7397 0
-6388 -7398 0
-6389 -7399 0
-6390 -7400 0
-6391 -6406 0
-6392 -6407 0
-6393 -6408 0
-6394 -6409 0
-6395 -6410 0
-6391 -6441 0
-6392 -6442 0
-6393 -6443 0
-6394 -6444 0
-6395 -6445 0
-6396 -6401 0
-6397 -6402 0
-6398 -6403 0
-6399 -6404 0
-6400 -6405 0
-6396 -6406 0
-6397 -6407 0
-6398 -6408 0
-6399 -6409 0
-6400 -6410 0
-6396 -6416 0
-6397 -6417 0
-6398 -6418 0
-6399 -6419 0
-6400 -6420 0
-6396 -6446 0
-6397 -6447 0
-6398 -6448 0
-6399 -6449 0
-6400 -6450 0
-6396 -6526 0
-6397 -6527 0
-6398 -6528 0
-6399 -6529 0
-6400 -6530 0
-6396 -6761 0
-6397 -6762 0
-6398 -6763 0
-6399 -6764 0
-6400 -6765 0
-6396 -6976 0
-6397 -6977 0
-6398 -6978 0
-6399 -6979 0
-6400 -6980 0
-6396 -7366 0
-6397 -7367 0
-6398 -7368 0
-6399 -7369 0
-6400 -7370 0
-6396 -7396 0
-6397 -7397 0
-6398 -7398 0
-6399 -7399 0
-6400 -7400 0
-6396 -7401 0
-6397 -7402 0
-6398 -7403 0
-6399 -7404 0
-6400 -7405 0
-6401 -6531 0
-6402 -6532 0
-6403 -6533 0
-6404 -6534 0
-6405 -6535 0
-6401 -6766 0
-6402 -6767 0
-6403 -6768 0
-6404 -6769 0
-6405 -6770 0
-6406 -6446 0
-6407 -6447 0
-6408 -6448 0
-6409 -6449 0
-6410 -6450 0
-6406 -6676 0
-6407 -6677 0
-6408 -6678 0
-6409 -6679 0
-6410 -6680 0
-6406 -6936 0
-6407 -6937 0
-6408 -6938 0
-6409 -6939 0
-6410 -6940 0
-6406 -7081 0
-6407 -7082 0
-6408 -7083 0
-6409 -7084 0
-6410 -7085 0
-6411 -6416 0
-6412 -6417 0
-6413 -6418 0
-6414 -6419 0
-6415 -6420 0
-6411 -7406 0
-6412 -7407 0
-6413 -7408 0
-6414 -7409 0
-6415 -7410 0
-6416 -6946 0
-6417 -6947 0
-6418 -6948 0
-6419 -6949 0
-6420 -6950 0
-6416 -7336 0
-6417 -7337 0
-6418 -7338 0
-6419 -7339 0
-6420 -7340 0
-6416 -7366 0
-6417 -7367 0
-6418 -7368 0
-6419 -7369 0
-6420 -7370 0
-6416 -7406 0
-6417 -7407 0
-6418 -7408 0
-6419 -7409 0
-6420 -7410 0
-6416 -7411 0
-6417 -7412 0
-6418 -7413 0
-6419 -7414 0
-6420 -7415 0
-6421 -6426 0
-6422 -6427 0
-6423 -6428 0
-6424 -6429 0
-6425 -6430 0
-6421 -6431 0
-6422 -6432 0
-6423 -6433 0
-6424 -6434 0
-6425 -6435 0
-6421 -6686 0
-6422 -6687 0
-6423 -6688 0
-6424 -6689 0
-6425 -6690 0
-6421 -7166 0
-6422 -7167 0
-6423 -7168 0
-6424 -7169 0
-6425 -7170 0
-6426 -6431 0
-6427 -6432 0
-6428 -6433 0
-6429 -6434 0
-6430 -6435 0
-6426 -6436 0
-6427 -6437 0
-6428 -6438 0
-6429 -6439 0
-6430 -6440 0
-6426 -6566 0
-6427 -6567 0
-6428 -6568 0
-6429 -6569 0
-6430 -6570 0
-6426 -6801 0
-6427 -6802 0
-6428 -6803 0
-6429 -6804 0
-6430 -6805 0
-6426 -7176 0
-6427 -7177 0
-6428 -7178 0
-6429 -7179 0
-6430 -7180 0
-6426 -7346 0
-6427 -7347 0
-6428 -7348 0
-6429 -7349 0
-6430 -7350 0
-6426 -7376 0
-6427 -7377 0
-6428 -7378 0
-6429 -7379 0
-6430 -7380 0
-6431 -6446 0
-6432 -6447 0
-6433 -6448 0
-6434 -6449 0
-6435 -6450 0
-6431 -6716 0
-6432 -6717 0
-6433 -6718 0
-6434 -6719 0
-6435 -6720 0
-6431 -7181 0
-6432 -7182 0
-6433 -7183 0
-6434 -7184 0
-6435 -7185 0
-6431 -7186 0
-6432 -7187 0
-6433 -7188 0
-6434 -7189 0
-6435 -7190 0
-6431 -7381 0
-6432 -7382 0
-6433 -7383 0
-6434 -7384 0
-6435 -7385 0
-6431 -7451 0
-6432 -7452 0
-6433 -7453 0
-6434 -7454 0
-6435 -7455 0
-6436 -6591 0
-6437 -6592 0
-6438 -6593 0
-6439 -6594 0
-6440 -6595 0
-6436 -6971 0
-6437 -6972 0
-6438 -6973 0
-6439 -6974 0
-6440 -6975 0
-6436 -7371 0
-6437 -7372 0
-6438 -7373 0
-6439 -7374 0
-6440 -7375 0
-6436 -7386 0
-6437 -7387 0
-6438 -7388 0
-6439 -7389 0
-6440 -7390 0
-6441 -6446 0
-6442 -6447 0
-6443 -6448 0
-6444 -6449 0
-6445 -6450 0
-6441 -6781 0
-6442 -6782 0
-6443 -6783 0
-6444 -6784 0
-6445 -6785 0
-6446 -6586 0
-6447 -6587 0
-6448 -6588 0
-6449 -6589 0
-6450 -6590 0
-6446 -6746 0
-6447 -6747 0
-6448 -6748 0
-6449 -6749 0
-6450 -6750 0
-6446 -6791 0
-6447 -6792 0
-6448 -6793 0
-6449 -6794 0
-6450 -6795 0
-6446 -7191 0
-6447 -7192 0
-6448 -7193 0
-6449 -7194 0
-6450 -7195 0
-6451 -6456 0
-6452 -6457 0
-6453 -6458 0
-6454 -6459 0
-6455 -6460 0
-6451 -6461 0
-6452 -6462 0
-6453 -6463 0
-6454 -6464 0
-6455 -6465 0
-6451 -6521 0
-6452 -6522 0
-6453 -6523 0
-6454 -6524 0
-6455 -6525 0
-6451 -6531 0
-6452 -6532 0
-6453 -6533 0
-6454 -6534 0
-6455 -6535 0
-6451 -7016 0
-6452 -7017 0
-6453 -7018 0
-6454 -7019 0
-6455 -7020 0
-6451 -7116 0
-6452 -7117 0
-6453 -7118 0
-6454 -7119 0
-6455 -7120 0
-6451 -7461 0
-6452 -7462 0
-6453 -7463 0
-6454 -7464 0
-6455 -7465 0
-6456 -6461 0
-6457 -6462 0
-6458 -6463 0
-6459 -6464 0
-6460 -6465 0
-6456 -6466 0
-6457 -6467 0
-6458 -6468 0
-6459 -6469 0
-6460 -6470 0
-6456 -6471 0
-6457 -6472 0
-6458 -6473 0
-6459 -6474 0
-6460 -6475 0
-6456 -6551 0
-6457 -6552 0
-6458 -6553 0
-6459 -6554 0
-6460 -6555 0
-6456 -6736 0
-6457 -6737 0
-6458 -6738 0
-6459 -6739 0
-6460 -6740 0
-6456 -7041 0
-6457 -7042 0
-6458 -7043 0
-6459 -7044 0
-6460 -7045 0
-6456 -7351 0
-6457 -7352 0
-6458 -7353 0
-6459 -7354 0
-6460 -7355 0
-6456 -7421 0
-6457 -7422 0
-6458 -7423 0
-6459 -7424 0
-6460 -7425 0
-6456 -7436 0
-6457 -7437 0
-6458 -7438 0
-6459 -7439 0
-6460 -7440 0
-6461 -6836 0
-6462 -6837 0
-6463 -6838 0
-6464 -6839 0
-6465 -6840 0
-6461 -7046 0
-6462 -7047 0
-6463 -7048 0
-6464 -7049 0
-6465 -7050 0
-6466 -6471 0
-6467 -6472 0
-6468 -6473 0
-6469 -6474 0
-6470 -6475 0
-6466 -6676 0
-6467 -6677 0
-6468 -6678 0
-6469 -6679 0
-6470 -6680 0
-6466 -6841 0
-6467 -6842 0
-6468 -6843 0
-6469 -6844 0
-6470 -6845 0
-6466 -7426 0
-6467 -7427 0
-6468 -7428 0
-6469 -7429 0
-6470 -7430 0
-6466 -7441 0
-6467 -7442 0
-6468 -7443 0
-6469 -7444 0
-6470 -7445 0
-6471 -6611 0
-6472 -6612 0
-6473 -6613 0
-6474 -6614 0
-6475 -6615 0
-6471 -6746 0
-6472 -6747 0
-6473 -6748 0
-6474 -6749 0
-6475 -6750 0
-6471 -7001 0
-6472 -7002 0
-6473 -7003 0
-6474 -7004 0
-6475 -7005 0
-6471 -7446 0
-6472 -7447 0
-6473 -7448 0
-6474 -7449 0
-6475 -7450 0
-6476 -6491 0
-6477 -6492 0
-6478 -6493 0
-6479 -6494 0
-6480 -6495 0
-6476 -6516 0
-6477 -6517 0
-6478 -6518 0
-6479 -6519 0
-6480 -6520 0
-6476 -6521 0
-6477 -6522 0
-6478 -6523 0
-6479 -6524 0
-6480 -6525 0
-6476 -6871 0
-6477 -6872 0
-6478 -6873 0
-6479 -6874 0
-6480 -6875 0
-6481 -6491 0
-6482 -6492 0
-6483 -6493 0
-6484 -6494 0
-6485 -6495 0
-6481 -6501 0
-6482 -6502 0
-6483 -6503 0
-6484 -6504 0
-6485 -6505 0
-6481 -7416 0
-6482 -7417 0
-6483 -7418 0
-6484 -7419 0
-6485 -7420 0
-6486 -6491 0
-6487 -6492 0
-6488 -6493 0
-6489 -6494 0
-6490 -6495 0
-6486 -6506 0
-6487 -6507 0
-6488 -6508 0
-6489 -6509 0
-6490 -6510 0
-6486 -6556 0
-6487 -6557 0
-6488 -6558 0
-6489 -6559 0
-6490 -6560 0
-6486 -6866 0
-6487 -6867 0
-6488 -6868 0
-6489 -6869 0
-6490 -6870 0
-6486 -7361 0
-6487 -7362 0
-6488 -7363 0
-6489 -7364 0
-6490 -7365 0
-6486 -7421 0
-6487 -7422 0
-6488 -7423 0
-6489 -7424 0
-6490 -7425 0
-6491 -6496 0
-6492 -6497 0
-6493 -6498 0
-6494 -6499 0
-6495 -6500 0
-6491 -6511 0
-6492 -6512 0
-6493 -6513 0
-6494 -6514 0
-6495 -6515 0
-6491 -6536 0
-6492 -6537 0
-6493 -6538 0
-6494 -6539 0
-6495 -6540 0
-6491 -6541 0
-6492 -6542 0
-6493 -6543 0
-6494 -6544 0
-6495 -6545 0
-6491 -6556 0
-6492 -6557 0
-6493 -6558 0
-6494 -6559 0
-6495 -6560 0
-6491 -6751 0
-6492 -6752 0
-6493 -6753 0
-6494 -6754 0
-6495 -6755 0
-6491 -6846 0
-6492 -6847 0
-6493 -6848 0
-6494 -6849 0
-6495 -6850 0
-6491 -7416 0
-6492 -7417 0
-6493 -7418 0
-6494 -7419 0
-6495 -7420 0
-6491 -7426 0
-6492 -7427 0
-6493 -7428 0
-6494 -7429 0
-6495 -7430 0
-6496 -6546 0
-6497 -6547 0
-6498 -6548 0
-6499 -6549 0
-6500 -6550 0
-6496 -6561 0
-6497 -6562 0
-6498 -6563 0
-6499 -6564 0
-6500 -6565 0
-6496 -6991 0
-6497 -6992 0
-6498 -6993 0
-6499 -6994 0
-6500 -6995 0
-6496 -7141 0
-6497 -7142 0
-6498 -7143 0
-6499 -7144 0
-6500 -7145 0
-6501 -6511 0
-6502 -6512 0
-6503 -6513 0
-6504 -6514 0
-6505 -6515 0
-6501 -6781 0
-6502 -6782 0
-6503 -6783 0
-6504 -6784 0
-6505 -6785 0
-6501 -6996 0
-6502 -6997 0
-6503 -6998 0
-6504 -6999 0
-6505 -7000 0
-6501 -7431 0
-6502 -7432 0
-6503 -7433 0
-6504 -7434 0
-6505 -7435 0
-6506 -6511 0
-6507 -6512 0
-6508 -6513 0
-6509 -6514 0
-6510 -6515 0
-6506 -6651 0
-6507 -6652 0
-6508 -6653 0
-6509 -6654 0
-6510 -6655 0
-6506 -6786 0
-6507 -6787 0
-6508 -6788 0
-6509 -6789 0
-6510 -6790 0
-6506 -7366 0
-6507 -7367 0
-6508 -7368 0
-6509 -7369 0
-6510 -7370 0
-6506 -7436 0
-6507 -7437 0
-6508 -7438 0
-6509 -7439 0
-6510 -7440 0
-6511 -6791 0
-6512 -6792 0
-6513 -6793 0
-6514 -6794 0
-6515 -6795 0
-6511 -7001 0
-6512 -7002 0
-6513 -7003 0
-6514 -7004 0
-6515 -7005 0
-6511 -7431 0
-6512 -7432 0
-6513 -7433 0
-6514 -7434 0
-6515 -7435 0
-6511 -7441 0
-6512 -7442 0
-6513 -7443 0
-6514 -7444 0
-6515 -7445 0
-6516 -6521 0
-6517 -6522 0
-6518 -6523 0
-6519 -6524 0
-6520 -6525 0
-6516 -6526 0
-6517 -6527 0
-6518 -6528 0
-6519 -6529 0
-6520 -6530 0
-6516 -6536 0
-6517 -6537 0
-6518 -6538 0
-6519 -6539 0
-6520 -6540 0
-6516 -7466 0
-6517 -7467 0
-6518 -7468 0
-6519 -7469 0
-6520 -7470 0
-6521 -6531 0
-6522 -6532 0
-6523 -6533 0
-6524 -6534 0
-6525 -6535 0
-6521 -6541 0
-6522 -6542 0
-6523 -6543 0
-6524 -6544 0
-6525 -6545 0
-6521 -6916 0
-6522 -6917 0
-6523 -6918 0
-6524 -6919 0
-6525 -6920 0
-6521 -7236 0
-6522 -7237 0
-6523 -7238 0
-6524 -7239 0
-6525 -7240 0
-6521 -7471 0
-6522 -7472 0
-6523 -7473 0
-6524 -7474 0
-6525 -7475 0
-6526 -6531 0
-6527 -6532 0
-6528 -6533 0
-6529 -6534 0
-6530 -6535 0
-6526 -6586 0
-6527 -6587 0
-6528 -6588 0
-6529 -6589 0
-6530 -6590 0
-6526 -7091 0
-6527 -7092 0
-6528 -7093 0
-6529 -7094 0
-6530 -7095 0
-6531 -6546 0
-6532 -6547 0
-6533 -6548 0
-6534 -6549 0
-6535 -6550 0
-6531 -6551 0
-6532 -6552 0
-6533 -6553 0
-6534 -6554 0
-6535 -6555 0
-6531 -6576 0
-6532 -6577 0
-6533 -6578 0
-6534 -6579 0
-6535 -6580 0
-6531 -6596 0
-6532 -6597 0
-6533 -6598 0
-6534 -6599 0
-6535 -6600 0
-6531 -6846 0
-6532 -6847 0
-6533 -6848 0
-6534 -6849 0
-6535 -6850 0
-6531 -6906 0
-6532 -6907 0
-6533 -6908 0
-6534 -6909 0
-6535 -6910 0
-6531 -7026 0
-6532 -7027 0
-6533 -7028 0
-6534 -7029 0
-6535 -7030 0
-6531 -7151 0
-6532 -7152 0
-6533 -7153 0
-6534 -7154 0
-6535 -7155 0
-6536 -6541 0
-6537 -6542 0
-6538 -6543 0
-6539 -6544 0
-6540 -6545 0
-6541 -6546 0
-6542 -6547 0
-6543 -6548 0
-6544 -6549 0
-6545 -6550 0
-6541 -6771 0
-6542 -6772 0
-6543 -6773 0
-6544 -6774 0
-6545 -6775 0
-6541 -6921 0
-6542 -6922 0
-6543 -6923 0
-6544 -6924 0
-6545 -6925 0
-6541 -7246 0
-6542 -7247 0
-6543 -7248 0
-6544 -7249 0
-6545 -7250 0
-6546 -6816 0
-6547 -6817 0
-6548 -6818 0
-6549 -6819 0
-6550 -6820 0
-6546 -6931 0
-6547 -6932 0
-6548 -6933 0
-6549 -6934 0
-6550 -6935 0
-6546 -7046 0
-6547 -7047 0
-6548 -7048 0
-6549 -7049 0
-6550 -7050 0
-6551 -6611 0
-6552 -6612 0
-6553 -6613 0
-6554 -6614 0
-6555 -6615 0
-6551 -7056 0
-6552 -7057 0
-6553 -7058 0
-6554 -7059 0
-6555 -7060 0
-6551 -7251 0
-6552 -7252 0
-6553 -7253 0
-6554 -7254 0
-6555 -7255 0
-6551 -7371 0
-6552 -7372 0
-6553 -7373 0
-6554 -7374 0
-6555 -7375 0
-6556 -6561 0
-6557 -6562 0
-6558 -6563 0
-6559 -6564 0
-6560 -6565 0
-6556 -6636 0
-6557 -6637 0
-6558 -6638 0
-6559 -6639 0
-6560 -6640 0
-6556 -6776 0
-6557 -6777 0
-6558 -6778 0
-6559 -6779 0
-6560 -6780 0
-6556 -6881 0
-6557 -6882 0
-6558 -6883 0
-6559 -6884 0
-6560 -6885 0
-6556 -7381 0
-6557 -7382 0
-6558 -7383 0
-6559 -7384 0
-6560 -7385 0
-6556 -7446 0
-6557 -7447 0
-6558 -7448 0
-6559 -7449 0
-6560 -7450 0
-6561 -6636 0
-6562 -6637 0
-6563 -6638 0
-6564 -6639 0
-6565 -6640 0
-6566 -6571 0
-6567 -6572 0
-6568 -6573 0
-6569 -6574 0
-6570 -6575 0
-6566 -6581 0
-6567 -6582 0
-6568 -6583 0
-6569 -6584 0
-6570 -6585 0
-6566 -6616 0
-6567 -6617 0
-6568 -6618 0
-6569 -6619 0
-6570 -6620 0
-6566 -7061 0
-6567 -7062 0
-6568 -7063 0
-6569 -7064 0
-6570 -7065 0
-6566 -7256 0
-6567 -7257 0
-6568 -7258 0
-6569 -7259 0
-6570 -7260 0
-6566 -7416 0
-6567 -7417 0
-6568 -7418 0
-6569 -7419 0
-6570 -7420 0
-6571 -6601 0
-6572 -6602 0
-6573 -6603 0
-6574 -6604 0
-6575 -6605 0
-6571 -6621 0
-6572 -6622 0
-6573 -6623 0
-6574 -6624 0
-6575 -6625 0
-6571 -7066 0
-6572 -7067 0
-6573 -7068 0
-6574 -7069 0
-6575 -7070 0
-6571 -7426 0
-6572 -7427 0
-6573 -7428 0
-6574 -7429 0
-6575 -7430 0
-6576 -6596 0
-6577 -6597 0
-6578 -6598 0
-6579 -6599 0
-6580 -6600 0
-6576 -6881 0
-6577 -6882 0
-6578 -6883 0
-6579 -6884 0
-6580 -6885 0
-6576 -7206 0
-6577 -7207 0
-6578 -7208 0
-6579 -7209 0
-6580 -7210 0
-6581 -6586 0
-6582 -6587 0
-6583 -6588 0
-6584 -6589 0
-6585 -6590 0
-6581 -6591 0
-6582 -6592 0
-6583 -6593 0
-6584 -6594 0
-6585 -6595 0
-6581 -6601 0
-6582 -6602 0
-6583 -6603 0
-6584 -6604 0
-6585 -6605 0
-6581 -6606 0
-6582 -6607 0
-6583 -6608 0
-6584 -6609 0
-6585 -6610 0
-6581 -6626 0
-6582 -6627 0
-6583 -6628 0
-6584 -6629 0
-6585 -6630 0
-6581 -6906 0
-6582 -6907 0
-6583 -6908 0
-6584 -6909 0
-6585 -6910 0
-6581 -7431 0
-6582 -7432 0
-6583 -7433 0
-6584 -7434 0
-6585 -7435 0
-6586 -6596 0
-6587 -6597 0
-6588 -6598 0
-6589 -6599 0
-6590 -6600 0
-6586 -6606 0
-6587 -6607 0
-6588 -6608 0
-6589 -6609 0
-6590 -6610 0
-6586 -6826 0
-6587 -6827 0
-6588 -6828 0
-6589 -6829 0
-6590 -6830 0
-6586 -7101 0
-6587 -7102 0
-6588 -7103 0
-6589 -7104 0
-6590 -7105 0
-6586 -7191 0
-6587 -7192 0
-6588 -7193 0
-6589 -7194 0
-6590 -7195 0
-6591 -6596 0
-6592 -6597 0
-6593 -6598 0
-6594 -6599 0
-6595 -6600 0
-6591 -6611 0
-6592 -6612 0
-6593 -6613 0
-6594 -6614 0
-6595 -6615 0
-6591 -6626 0
-6592 -6627 0
-6593 -6628 0
-6594 -6629 0
-6595 -6630 0
-6591 -6971 0
-6592 -6972 0
-6593 -6973 0
-6594 -6974 0
-6595 -6975 0
-6596 -6611 0
-6597 -6612 0
-6598 -6613 0
-6599 -6614 0
-6600 -6615 0
-6596 -6831 0
-6597 -6832 0
-6598 -6833 0
-6599 -6834 0
-6600 -6835 0
-6596 -7081 0
-6597 -7082 0
-6598 -7083 0
-6599 -7084 0
-6600 -7085 0
-6596 -7196 0
-6597 -7197 0
-6598 -7198 0
-6599 -7199 0
-6600 -7200 0
-6596 -7266 0
-6597 -7267 0
-6598 -7268 0
-6599 -7269 0
-6600 -7270 0
-6601 -7166 0
-6602 -7167 0
-6603 -7168 0
-6604 -7169 0
-6605 -7170 0
-6601 -7441 0
-6602 -7442 0
-6603 -7443 0
-6604 -7444 0
-6605 -7445 0
-6606 -6611 0
-6607 -6612 0
-6608 -6613 0
-6609 -6614 0
-6610 -6615 0
-6606 -6631 0
-6607 -6632 0
-6608 -6633 0
-6609 -6634 0
-6610 -6635 0
-6606 -6941 0
-6607 -6942 0
-6608 -6943 0
-6609 -6944 0
-6610 -6945 0
-6606 -7211 0
-6607 -7212 0
-6608 -7213 0
-6609 -7214 0
-6610 -7215 0
-6611 -6631 0
-6612 -6632 0
-6613 -6633 0
-6614 -6634 0
-6615 -6635 0
-6611 -6731 0
-6612 -6732 0
-6613 -6733 0
-6614 -6734 0
-6615 -6735 0
-6611 -6896 0
-6612 -6897 0
-6613 -6898 0
-6614 -6899 0
-6615 -6900 0
-6611 -7086 0
-6612 -7087 0
-6613 -7088 0
-6614 -7089 0
-6615 -7090 0
-6611 -7216 0
-6612 -7217 0
-6613 -7218 0
-6614 -7219 0
-6615 -7220 0
-6611 -7291 0
-6612 -7292 0
-6613 -7293 0
-6614 -7294 0
-6615 -7295 0
-6611 -7451 0
-6612 -7452 0
-6613 -7453 0
-6614 -7454 0
-6615 -7455 0
-6616 -6621 0
-6617 -6622 0
-6618 -6623 0
-6619 -6624 0
-6620 -6625 0
-6616 -6626 0
-6617 -6627 0
-6618 -6628 0
-6619 -6629 0
-6620 -6630 0
-6616 -7291 0
-6617 -7292 0
-6618 -7293 0
-6619 -7294 0
-6620 -7295 0
-6626 -6631 0
-6627 -6632 0
-6628 -6633 0
-6629 -6634 0
-6630 -6635 0
-6626 -6921 0
-6627 -6922 0
-6628 -6923 0
-6629 -6924 0
-6630 -6925 0
-6626 -7311 0
-6627 -7312 0
-6628 -7313 0
-6629 -7314 0
-6630 -7315 0
-6631 -6951 0
-6632 -6952 0
-6633 -6953 0
-6634 -6954 0
-6635 -6955 0
-6631 -7206 0
-6632 -7207 0
-6633 -7208 0
-6634 -7209 0
-6635 -7210 0
-6636 -6641 0
-6637 -6642 0
-6638 -6643 0
-6639 -6644 0
-6640 -6645 0
-6636 -6886 0
-6637 -6887 0
-6638 -6888 0
-6639 -6889 0
-6640 -6890 0
-6636 -7326 0
-6637 -7327 0
-6638 -7328 0
-6639 -7329 0
-6640 -7330 0
-6636 -7451 0
-6637 -7452 0
-6638 -7453 0
-6639 -7454 0
-6640 -7455 0
-6641 -6891 0
-6642 -6892 0
-6643 -6893 0
-6644 -6894 0
-6645 -6895 0
-6641 -7331 0
-6642 -7332 0
-6643 -7333 0
-6644 -7334 0
-6645 -7335 0
-6641 -7451 0
-6642 -7452 0
-6643 -7453 0
-6644 -7454 0
-6645 -7455 0
-6646 -6911 0
-6647 -6912 0
-6648 -6913 0
-6649 -6914 0
-6650 -6915 0
-6646 -7341 0
-6647 -7342 0
-6648 -7343 0
-6649 -7344 0
-6650 -7345 0
-6651 -6656 0
-6652 -6657 0
-6653 -6658 0
-6654 -6659 0
-6655 -6660 0
-6651 -6661 0
-6652 -6662 0
-6653 -6663 0
-6654 -6664 0
-6655 -6665 0
-6651 -6666 0
-6652 -6667 0
-6653 -6668 0
-6654 -6669 0
-6655 -6670 0
-6651 -6751 0
-6652 -6752 0
-6653 -6753 0
-6654 -6754 0
-6655 -6755 0
-6651 -6871 0
-6652 -6872 0
-6653 -6873 0
-6654 -6874 0
-6655 -6875 0
-6651 -7136 0
-6652 -7137 0
-6653 -7138 0
-6654 -7139 0
-6655 -7140 0
-6651 -7456 0
-6652 -7457 0
-6653 -7458 0
-6654 -7459 0
-6655 -7460 0
-6656 -6666 0
-6657 -6667 0
-6658 -6668 0
-6659 -6669 0
-6660 -6670 0
-6656 -6756 0
-6657 -6757 0
-6658 -6758 0
-6659 -6759 0
-6660 -6760 0
-6656 -6881 0
-6657 -6882 0
-6658 -6883 0
-6659 -6884 0
-6660 -6885 0
-6656 -6986 0
-6657 -6987 0
-6658 -6988 0
-6659 -6989 0
-6660 -6990 0
-6656 -7241 0
-6657 -7242 0
-6658 -7243 0
-6659 -7244 0
-6660 -7245 0
-6656 -7461 0
-6657 -7462 0
-6658 -7463 0
-6659 -7464 0
-6660 -7465 0
-6661 -6761 0
-6662 -6762 0
-6663 -6763 0
-6664 -6764 0
-6665 -6765 0
-6661 -7141 0
-6662 -7142 0
-6663 -7143 0
-6664 -7144 0
-6665 -7145 0
-6661 -7456 0
-6662 -7457 0
-6663 -7458 0
-6664 -7459 0
-6665 -7460 0
-6666 -6771 0
-6667 -6772 0
-6668 -6773 0
-6669 -6774 0
-6670 -6775 0
-6666 -6916 0
-6667 -6917 0
-6668 -6918 0
-6669 -6919 0
-6670 -6920 0
-6671 -6676 0
-6672 -6677 0
-6673 -6678 0
-6674 -6679 0
-6675 -6680 0
-6671 -6716 0
-6672 -6717 0
-6673 -6718 0
-6674 -6719 0
-6675 -6720 0
-6671 -6721 0
-6672 -6722 0
-6673 -6723 0
-6674 -6724 0
-6675 -6725 0
-6671 -7036 0
-6672 -7037 0
-6673 -7038 0
-6674 -7039 0
-6675 -7040 0
-6671 -7116 0
-6672 -7117 0
-6673 -7118 0
-6674 -7119 0
-6675 -7120 0
-6671 -7466 0
-6672 -7467 0
-6673 -7468 0
-6674 -7469 0
-6675 -7470 0
-6676 -6681 0
-6677 -6682 0
-6678 -6683 0
-6679 -6684 0
-6680 -6685 0
-6676 -6746 0
-6677 -6747 0
-6678 -6748 0
-6679 -6749 0
-6680 -6750 0
-6676 -6936 0
-6677 -6937 0
-6678 -6938 0
-6679 -6939 0
-6680 -6940 0
-6676 -7146 0
-6677 -7147 0
-6678 -7148 0
-6679 -7149 0
-6680 -7150 0
-6676 -7231 0
-6677 -7232 0
-6678 -7233 0
-6679 -7234 0
-6680 -7235 0
-6676 -7466 0
-6677 -7467 0
-6678 -7468 0
-6679 -7469 0
-6680 -7470 0
-6681 -6951 0
-6682 -6952 0
-6683 -6953 0
-6684 -6954 0
-6685 -6955 0
-6681 -7241 0
-6682 -7242 0
-6683 -7243 0
-6684 -7244 0
-6685 -7245 0
-6681 -7431 0
-6682 -7432 0
-6683 -7433 0
-6684 -7434 0
-6685 -7435 0
-6686 -6691 0
-6687 -6692 0
-6688 -6693 0
-6689 -6694 0
-6690 -6695 0
-6686 -6696 0
-6687 -6697 0
-6688 -6698 0
-6689 -6699 0
-6690 -6700 0
-6686 -6716 0
-6687 -6717 0
-6688 -6718 0
-6689 -6719 0
-6690 -6720 0
-6686 -7351 0
-6687 -7352 0
-6688 -7353 0
-6689 -7354 0
-6690 -7355 0
-6691 -6701 0
-6692 -6702 0
-6693 -6703 0
-6694 -6704 0
-6695 -6705 0
-6691 -6726 0
-6692 -6727 0
-6693 -6728 0
-6694 -6729 0
-6695 -6730 0
-6691 -6981 0
-6692 -6982 0
-6693 -6983 0
-6694 -6984 0
-6695 -6985 0
-6691 -7276 0
-6692 -7277 0
-6693 -7278 0
-6694 -7279 0
-6695 -7280 0
-6696 -6701 0
-6697 -6702 0
-6698 -6703 0
-6699 -6704 0
-6700 -6705 0
-6696 -6706 0
-6697 -6707 0
-6698 -6708 0
-6699 -6709 0
-6700 -6710 0
-6696 -6736 0
-6697 -6737 0
-6698 -6738 0
-6699 -6739 0
-6700 -6740 0
-6696 -6801 0
-6697 -6802 0
-6698 -6803 0
-6699 -6804 0
-6700 -6805 0
-6696 -7281 0
-6697 -7282 0
-6698 -7283 0
-6699 -7284 0
-6700 -7285 0
-6701 -6711 0
-6702 -6712 0
-6703 -6713 0
-6704 -6714 0
-6705 -6715 0
-6701 -6741 0
-6702 -6742 0
-6703 -6743 0
-6704 -6744 0
-6705 -6745 0
-6701 -6801 0
-6702 -6802 0
-6703 -6803 0
-6704 -6804 0
-6705 -6805 0
-6701 -7131 0
-6702 -7132 0
-6703 -7133 0
-6704 -7134 0
-6705 -7135 0
-6701 -7291 0
-6702 -7292 0
-6703 -7293 0
-6704 -7294 0
-6705 -7295 0
-6701 -7461 0
-6702 -7462 0
-6703 -7463 0
-6704 -7464 0
-6705 -7465 0
-6706 -6711 0
-6707 -6712 0
-6708 -6713 0
-6709 -6714 0
-6710 -6715 0
-6706 -6811 0
-6707 -6812 0
-6708 -6813 0
-6709 -6814 0
-6710 -6815 0
-6706 -6911 0
-6707 -6912 0
-6708 -6913 0
-6709 -6914 0
-6710 -6915 0
-6711 -6811 0
-6712 -6812 0
-6713 -6813 0
-6714 -6814 0
-6715 -6815 0
-6711 -6926 0
-6712 -6927 0
-6713 -6928 0
-6714 -6929 0
-6715 -6930 0
-6711 -7141 0
-6712 -7142 0
-6713 -7143 0
-6714 -7144 0
-6715 -7145 0
-6711 -7306 0
-6712 -7307 0
-6713 -7308 0
-6714 -7309 0
-6715 -7310 0
-6711 -7461 0
-6712 -7462 0
-6713 -7463 0
-6714 -7464 0
-6715 -7465 0
-6716 -6721 0
-6717 -6722 0
-6718 -6723 0
-6719 -6724 0
-6720 -6725 0
-6716 -6726 0
-6717 -6727 0
-6718 -6728 0
-6719 -6729 0
-6720 -6730 0
-6716 -6736 0
-6717 -6737 0
-6718 -6738 0
-6719 -6739 0
-6720 -6740 0
-6716 -6746 0
-6717 -6747 0
-6718 -6748 0
-6719 -6749 0
-6720 -6750 0
-6716 -7026 0
-6717 -7027 0
-6718 -7028 0
-6719 -7029 0
-6720 -7030 0
-6716 -7481 0
-6717 -7482 0
-6718 -7483 0
-6719 -7484 0
-6720 -7485 0
-6721 -6731 0
-6722 -6732 0
-6723 -6733 0
-6724 -6734 0
-6725 -6735 0
-6721 -7281 0
-6722 -7282 0
-6723 -7283 0
-6724 -7284 0
-6725 -7285 0
-6721 -7486 0
-6722 -7487 0
-6723 -7488 0
-6724 -7489 0
-6725 -7490 0
-6726 -6731 0
-6727 -6732 0
-6728 -6733 0
-6729 -6734 0
-6730 -6735 0
-6726 -6741 0
-6727 -6742 0
-6728 -6743 0
-6729 -6744 0
-6730 -6745 0
-6726 -6831 0
-6727 -6832 0
-6728 -6833 0
-6729 -6834 0
-6730 -6835 0
-6726 -6991 0
-6727 -6992 0
-6728 -6993 0
-6729 -6994 0
-6730 -6995 0
-6726 -7286 0
-6727 -7287 0
-6728 -7288 0
-6729 -7289 0
-6730 -7290 0
-6731 -7291 0
-6732 -7292 0
-6733 -7293 0
-6734 -7294 0
-6735 -7295 0
-6736 -6741 0
-6737 -6742 0
-6738 -6743 0
-6739 -6744 0
-6740 -6745 0
-6746 -6826 0
-6747 -6827 0
-6748 -6828 0
-6749 -6829 0
-6750 -6830 0
-6746 -7001 0
-6747 -7002 0
-6748 -7003 0
-6749 -7004 0
-6750 -7005 0
-6746 -7201 0
-6747 -7202 0
-6748 -7203 0
-6749 -7204 0
-6750 -7205 0
-6746 -7481 0
-6747 -7482 0
-6748 -7483 0
-6749 -7484 0
-6750 -7485 0
-6751 -6756 0
-6752 -6757 0
-6753 -6758 0
-6754 -6759 0
-6755 -6760 0
-6751 -6761 0
-6752 -6762 0
-6753 -6763 0
-6754 -6764 0
-6755 -6765 0
-6751 -6771 0
-6752 -6772 0
-6753 -6773 0
-6754 -6774 0
-6755 -6775 0
-6751 -6776 0
-6752 -6777 0
-6753 -6778 0
-6754 -6779 0
-6755 -6780 0
-6751 -6781 0
-6752 -6782 0
-6753 -6783 0
-6754 -6784 0
-6755 -6785 0
-6751 -7466 0
-6752 -7467 0
-6753 -7468 0
-6754 -7469 0
-6755 -7470 0
-6756 -6766 0
-6757 -6767 0
-6758 -6768 0
-6759 -6769 0
-6760 -6770 0
-6756 -6771 0
-6757 -6772 0
-6758 -6773 0
-6759 -6774 0
-6760 -6775 0
-6756 -7471 0
-6757 -7472 0
-6758 -7473 0
-6759 -7474 0
-6760 -7475 0
-6761 -6766 0
-6762 -6767 0
-6763 -6768 0
-6764 -6769 0
-6765 -6770 0
-6761 -6786 0
-6762 -6787 0
-6763 -6788 0
-6764 -6789 0
-6765 -6790 0
-6761 -6791 0
-6762 -6792 0
-6763 -6793 0
-6764 -6794 0
-6765 -6795 0
-6761 -7466 0
-6762 -7467 0
-6763 -7468 0
-6764 -7469 0
-6765 -7470 0
-6766 -6846 0
-6767 -6847 0
-6768 -6848 0
-6769 -6849 0
-6770 -6850 0
-6766 -7471 0
-6767 -7472 0
-6768 -7473 0
-6769 -7474 0
-6770 -7475 0
-6771 -7366 0
-6772 -7367 0
-6773 -7368 0
-6774 -7369 0
-6775 -7370 0
-6771 -7476 0
-6772 -7477 0
-6773 -7478 0
-6774 -7479 0
-6775 -7480 0
-6776 -6781 0
-6777 -6782 0
-6778 -6783 0
-6779 -6784 0
-6780 -6785 0
-6776 -6786 0
-6777 -6787 0
-6778 -6788 0
-6779 -6789 0
-6780 -6790 0
-6776 -7481 0
-6777 -7482 0
-6778 -7483 0
-6779 -7484 0
-6780 -7485 0
-6781 -6791 0
-6782 -6792 0
-6783 -6793 0
-6784 -6794 0
-6785 -6795 0
-6781 -6996 0
-6782 -6997 0
-6783 -6998 0
-6784 -6999 0
-6785 -7000 0
-6781 -7081 0
-6782 -7082 0
-6783 -7083 0
-6784 -7084 0
-6785 -7085 0
-6781 -7486 0
-6782 -7487 0
-6783 -7488 0
-6784 -7489 0
-6785 -7490 0
-6786 -6791 0
-6787 -6792 0
-6788 -6793 0
-6789 -6794 0
-6790 -6795 0
-6786 -6871 0
-6787 -6872 0
-6788 -6873 0
-6789 -6874 0
-6790 -6875 0
-6786 -7481 0
-6787 -7482 0
-6788 -7483 0
-6789 -7484 0
-6790 -7485 0
-6791 -6796 0
-6792 -6797 0
-6793 -6798 0
-6794 -6799 0
-6795 -6800 0
-6791 -7001 0
-6792 -7002 0
-6793 -7003 0
-6794 -7004 0
-6795 -7005 0
-6791 -7486 0
-6792 -7487 0
-6793 -7488 0
-6794 -7489 0
-6795 -7490 0
-6796 -7006 0
-6797 -7007 0
-6798 -7008 0
-6799 -7009 0
-6800 -7010 0
-6796 -7181 0
-6797 -7182 0
-6798 -7183 0
-6799 -7184 0
-6800 -7185 0
-6796 -7341 0
-6797 -7342 0
-6798 -7343 0
-6799 -7344 0
-6800 -7345 0
-6801 -6811 0
-6802 -6812 0
-6803 -6813 0
-6804 -6814 0
-6805 -6815 0
-6801 -7106 0
-6802 -7107 0
-6803 -7108 0
-6804 -7109 0
-6805 -7110 0
-6801 -7196 0
-6802 -7197 0
-6803 -7198 0
-6804 -7199 0
-6805 -7200 0
-6801 -7346 0
-6802 -7347 0
-6803 -7348 0
-6804 -7349 0
-6805 -7350 0
-6801 -7471 0
-6802 -7472 0
-6803 -7473 0
-6804 -7474 0
-6805 -7475 0
-6806 -6811 0
-6807 -6812 0
-6808 -6813 0
-6809 -6814 0
-6810 -6815 0
-6806 -6921 0
-6807 -6922 0
-6808 -6923 0
-6809 -6924 0
-6810 -6925 0
-6806 -7031 0
-6807 -7032 0
-6808 -7033 0
-6809 -7034 0
-6810 -7035 0
-6806 -7096 0
-6807 -7097 0
-6808 -7098 0
-6809 -7099 0
-6810 -7100 0
-6806 -7326 0
-6807 -7327 0
-6808 -7328 0
-6809 -7329 0
-6810 -7330 0
-6806 -7466 0
-6807 -7467 0
-6808 -7468 0
-6809 -7469 0
-6810 -7470 0
-6811 -6816 0
-6812 -6817 0
-6813 -6818 0
-6814 -6819 0
-6815 -6820 0
-6811 -6821 0
-6812 -6822 0
-6813 -6823 0
-6814 -6824 0
-6815 -6825 0
-6811 -6901 0
-6812 -6902 0
-6813 -6903 0
-6814 -6904 0
-6815 -6905 0
-6811 -6976 0
-6812 -6977 0
-6813 -6978 0
-6814 -6979 0
-6815 -6980 0
-6811 -7041 0
-6812 -7042 0
-6813 -7043 0
-6814 -7044 0
-6815 -7045 0
-6811 -7391 0
-6812 -7392 0
-6813 -7393 0
-6814 -7394 0
-6815 -7395 0
-6811 -7471 0
-6812 -7472 0
-6813 -7473 0
-6814 -7474 0
-6815 -7475 0
-6816 -7046 0
-6817 -7047 0
-6818 -7048 0
-6819 -7049 0
-6820 -7050 0
-6816 -7111 0
-6817 -7112 0
-6818 -7113 0
-6819 -7114 0
-6820 -7115 0
-6821 -6931 0
-6822 -6932 0
-6823 -6933 0
-6824 -6934 0
-6825 -6935 0
-6821 -7216 0
-6822 -7217 0
-6823 -7218 0
-6824 -7219 0
-6825 -7220 0
-6826 -6831 0
-6827 -6832 0
-6828 -6833 0
-6829 -6834 0
-6830 -6835 0
-6826 -6836 0
-6827 -6837 0
-6828 -6838 0
-6829 -6839 0
-6830 -6840 0
-6826 -7276 0
-6827 -7277 0
-6828 -7278 0
-6829 -7279 0
-6830 -7280 0
-6831 -7231 0
-6832 -7232 0
-6833 -7233 0
-6834 -7234 0
-6835 -7235 0
-6831 -7491 0
-6832 -7492 0
-6833 -7493 0
-6834 -7494 0
-6835 -7495 0
-6836 -6841 0
-6837 -6842 0
-6838 -6843 0
-6839 -6844 0
-6840 -6845 0
-6836 -6936 0
-6837 -6937 0
-6838 -6938 0
-6839 -6939 0
-6840 -6940 0
-6836 -6941 0
-6837 -6942 0
-6838 -6943 0
-6839 -6944 0
-6840 -6945 0
-6836 -7291 0
-6837 -7292 0
-6838 -7293 0
-6839 -7294 0
-6840 -7295 0
-6841 -6951 0
-6842 -6952 0
-6843 -6953 0
-6844 -6954 0
-6845 -6955 0
-6841 -6961 0
-6842 -6962 0
-6843 -6963 0
-6844 -6964 0
-6845 -6965 0
-6841 -7306 0
-6842 -7307 0
-6843 -7308 0
-6844 -7309 0
-6845 -7310 0
-6846 -6881 0
-6847 -6882 0
-6848 -6883 0
-6849 -6884 0
-6850 -6885 0
-6851 -6946 0
-6852 -6947 0
-6853 -6948 0
-6854 -6949 0
-6855 -6950 0
-6851 -6951 0
-6852 -6952 0
-6853 -6953 0
-6854 -6954 0
-6855 -6955 0
-6851 -7361 0
-6852 -7362 0
-6853 -7363 0
-6854 -7364 0
-6855 -7365 0
-6851 -7466 0
-6852 -7467 0
-6853 -7468 0
-6854 -7469 0
-6855 -7470 0
-6856 -6861 0
-6857 -6862 0
-6858 -6863 0
-6859 -6864 0
-6860 -6865 0
-6856 -6876 0
-6857 -6877 0
-6858 -6878 0
-6859 -6879 0
-6860 -6880 0
-6856 -6886 0
-6857 -6887 0
-6858 -6888 0
-6859 -6889 0
-6860 -6890 0
-6861 -6881 0
-6862 -6882 0
-6863 -6883 0
-6864 -6884 0
-6865 -6885 0
-6861 -6886 0
-6862 -6887 0
-6863 -6888 0
-6864 -6889 0
-6865 -6890 0
-6861 -7491 0
-6862 -7492 0
-6863 -7493 0
-6864 -7494 0
-6865 -7495 0
-6866 -6871 0
-6867 -6872 0
-6868 -6873 0
-6869 -6874 0
-6870 -6875 0
-6866 -6876 0
-6867 -6877 0
-6868 -6878 0
-6869 -6879 0
-6870 -6880 0
-6866 -6911 0
-6867 -6912 0
-6868 -6913 0
-6869 -6914 0
-6870 -6915 0
-6866 -7131 0
-6867 -7132 0
-6868 -7133 0
-6869 -7134 0
-6870 -7135 0
-6866 -7466 0
-6867 -7467 0
-6868 -7468 0
-6869 -7469 0
-6870 -7470 0
-6871 -6881 0
-6872 -6882 0
-6873 -6883 0
-6874 -6884 0
-6875 -6885 0
-6871 -6916 0
-6872 -6917 0
-6873 -6918 0
-6874 -6919 0
-6875 -6920 0
-6871 -7326 0
-6872 -7327 0
-6873 -7328 0
-6874 -7329 0
-6875 -7330 0
-6876 -6881 0
-6877 -6882 0
-6878 -6883 0
-6879 -6884 0
-6880 -6885 0
-6876 -6891 0
-6877 -6892 0
-6878 -6893 0
-6879 -6894 0
-6880 -6895 0
-6876 -6911 0
-6877 -6912 0
-6878 -6913 0
-6879 -6914 0
-6880 -6915 0
-6876 -6981 0
-6877 -6982 0
-6878 -6983 0
-6879 -6984 0
-6880 -6985 0
-6876 -7376 0
-6877 -7377 0
-6878 -7378 0
-6879 -7379 0
-6880 -7380 0
-6876 -7471 0
-6877 -7472 0
-6878 -7473 0
-6879 -7474 0
-6880 -7475 0
-6881 -6891 0
-6882 -6892 0
-6883 -6893 0
-6884 -6894 0
-6885 -6895 0
-6881 -6916 0
-6882 -6917 0
-6883 -6918 0
-6884 -6919 0
-6885 -6920 0
-6881 -7166 0
-6882 -7167 0
-6883 -7168 0
-6884 -7169 0
-6885 -7170 0
-6881 -7381 0
-6882 -7382 0
-6883 -7383 0
-6884 -7384 0
-6885 -7385 0
-6881 -7491 0
-6882 -7492 0
-6883 -7493 0
-6884 -7494 0
-6885 -7495 0
-6881 -7496 0
-6882 -7497 0
-6883 -7498 0
-6884 -7499 0
-6885 -7500 0
-6886 -6891 0
-6887 -6892 0
-6888 -6893 0
-6889 -6894 0
-6890 -6895 0
-6891 -6896 0
-6892 -6897 0
-6893 -6898 0
-6894 -6899 0
-6895 -6900 0
-6891 -6946 0
-6892 -6947 0
-6893 -6948 0
-6894 -6949 0
-6895 -6950 0
-6891 -6991 0
-6892 -6992 0
-6893 -6993 0
-6894 -6994 0
-6895 -6995 0
-6891 -7176 0
-6892 -7177 0
-6893 -7178 0
-6894 -7179 0
-6895 -7180 0
-6891 -7421 0
-6892 -7422 0
-6893 -7423 0
-6894 -7424 0
-6895 -7425 0
-6896 -6951 0
-6897 -6952 0
-6898 -6953 0
-6899 -6954 0
-6900 -6955 0
-6896 -7086 0
-6897 -7087 0
-6898 -7088 0
-6899 -7089 0
-6900 -7090 0
-6896 -7426 0
-6897 -7427 0
-6898 -7428 0
-6899 -7429 0
-6900 -7430 0
-6901 -6931 0
-6902 -6932 0
-6903 -6933 0
-6904 -6934 0
-6905 -6935 0
-6901 -6966 0
-6902 -6967 0
-6903 -6968 0
-6904 -6969 0
-6905 -6970 0
-6901 -7091 0
-6902 -7092 0
-6903 -7093 0
-6904 -7094 0
-6905 -7095 0
-6906 -6931 0
-6907 -6932 0
-6908 -6933 0
-6909 -6934 0
-6910 -6935 0
-6906 -6941 0
-6907 -6942 0
-6908 -6943 0
-6909 -6944 0
-6910 -6945 0
-6906 -7271 0
-6907 -7272 0
-6908 -7273 0
-6909 -7274 0
-6910 -7275 0
-6911 -6916 0
-6912 -6917 0
-6913 -6918 0
-6914 -6919 0
-6915 -6920 0
-6911 -6921 0
-6912 -6922 0
-6913 -6923 0
-6914 -6924 0
-6915 -6925 0
-6911 -6926 0
-6912 -6927 0
-6913 -6928 0
-6914 -6929 0
-6915 -6930 0
-6911 -6946 0
-6912 -6947 0
-6913 -6948 0
-6914 -6949 0
-6915 -6950 0
-6911 -6976 0
-6912 -6977 0
-6913 -6978 0
-6914 -6979 0
-6915 -6980 0
-6911 -7011 0
-6912 -7012 0
-6913 -7013 0
-6914 -7014 0
-6915 -7015 0
-6911 -7436 0
-6912 -7437 0
-6913 -7438 0
-6914 -7439 0
-6915 -7440 0
-6911 -7476 0
-6912 -7477 0
-6913 -7478 0
-6914 -7479 0
-6915 -7480 0
-6916 -6946 0
-6917 -6947 0
-6918 -6948 0
-6919 -6949 0
-6920 -6950 0
-6916 -7191 0
-6917 -7192 0
-6918 -7193 0
-6919 -7194 0
-6920 -7195 0
-6921 -6931 0
-6922 -6932 0
-6923 -6933 0
-6924 -6934 0
-6925 -6935 0
-6921 -6951 0
-6922 -6952 0
-6923 -6953 0
-6924 -6954 0
-6925 -6955 0
-6921 -7281 0
-6922 -7282 0
-6923 -7283 0
-6924 -7284 0
-6925 -7285 0
-6921 -7441 0
-6922 -7442 0
-6923 -7443 0
-6924 -7444 0
-6925 -7445 0
-6926 -6931 0
-6927 -6932 0
-6928 -6933 0
-6929 -6934 0
-6930 -6935 0
-6926 -6971 0
-6927 -6972 0
-6928 -6973 0
-6929 -6974 0
-6930 -6975 0
-6926 -6976 0
-6927 -6977 0
-6928 -6978 0
-6929 -6979 0
-6930 -6980 0
-6926 -7106 0
-6927 -7107 0
-6928 -7108 0
-6929 -7109 0
-6930 -7110 0
-6926 -7141 0
-6927 -7142 0
-6928 -7143 0
-6929 -7144 0
-6930 -7145 0
-6926 -7286 0
-6927 -7287 0
-6928 -7288 0
-6929 -7289 0
-6930 -7290 0
-6926 -7406 0
-6927 -7407 0
-6928 -7408 0
-6929 -7409 0
-6930 -7410 0
-6931 -6956 0
-6932 -6957 0
-6933 -6958 0
-6934 -6959 0
-6935 -6960 0
-6931 -6961 0
-6932 -6962 0
-6933 -6963 0
-6934 -6964 0
-6935 -6965 0
-6931 -6971 0
-6932 -6972 0
-6933 -6973 0
-6934 -6974 0
-6935 -6975 0
-6931 -7111 0
-6932 -7112 0
-6933 -7113 0
-6934 -7114 0
-6935 -7115 0
-6931 -7121 0
-6932 -7122 0
-6933 -7123 0
-6934 -7124 0
-6935 -7125 0
-6931 -7291 0
-6932 -7292 0
-6933 -7293 0
-6934 -7294 0
-6935 -7295 0
-6936 -6941 0
-6937 -6942 0
-6938 -6943 0
-6939 -6944 0
-6940 -6945 0
-6936 -6951 0
-6937 -6952 0
-6938 -6953 0
-6939 -6954 0
-6940 -6955 0
-6936 -7346 0
-6937 -7347 0
-6938 -7348 0
-6939 -7349 0
-6940 -7350 0
-6941 -6961 0
-6942 -6962 0
-6943 -6963 0
-6944 -6964 0
-6945 -6965 0
-6941 -7401 0
-6942 -7402 0
-6943 -7403 0
-6944 -7404 0
-6945 -7405 0
-6946 -6951 0
-6947 -6952 0
-6948 -6953 0
-6949 -6954 0
-6950 -6955 0
-6946 -7036 0
-6947 -7037 0
-6948 -7038 0
-6949 -7039 0
-6950 -7040 0
-6946 -7211 0
-6947 -7212 0
-6948 -7213 0
-6949 -7214 0
-6950 -7215 0
-6946 -7481 0
-6947 -7482 0
-6948 -7483 0
-6949 -7484 0
-6950 -7485 0
-6951 -6961 0
-6952 -6962 0
-6953 -6963 0
-6954 -6964 0
-6955 -6965 0
-6951 -7161 0
-6952 -7162 0
-6953 -7163 0
-6954 -7164 0
-6955 -7165 0
-6951 -7381 0
-6952 -7382 0
-6953 -7383 0
-6954 -7384 0
-6955 -7385 0
-6951 -7486 0
-6952 -7487 0
-6953 -7488 0
-6954 -7489 0
-6955 -7490 0
-6956 -6961 0
-6957 -6962 0
-6958 -6963 0
-6959 -6964 0
-6960 -6965 0
-6956 -7316 0
-6957 -7317 0
-6958 -7318 0
-6959 -7319 0
-6960 -7320 0
-6956 -7386 0
-6957 -7387 0
-6958 -7388 0
-6959 -7389 0
-6960 -7390 0
-6961 -7411 0
-6962 -7412 0
-6963 -7413 0
-6964 -7414 0
-6965 -7415 0
-6966 -6971 0
-6967 -6972 0
-6968 -6973 0
-6969 -6974 0
-6970 -6975 0
-6966 -7326 0
-6967 -7327 0
-6968 -7328 0
-6969 -7329 0
-6970 -7330 0
-6966 -7491 0
-6967 -7492 0
-6968 -7493 0
-6969 -7494 0
-6970 -7495 0
-6971 -7171 0
-6972 -7172 0
-6973 -7173 0
-6974 -7174 0
-6975 -7175 0
-6971 -7336 0
-6972 -7337 0
-6973 -7338 0
-6974 -7339 0
-6975 -7340 0
-6976 -7091 0
-6977 -7092 0
-6978 -7093 0
-6979 -7094 0
-6980 -7095 0
-6981 -6986 0
-6982 -6987 0
-6983 -6988 0
-6984 -6989 0
-6985 -6990 0
-6981 -6991 0
-6982 -6992 0
-6983 -6993 0
-6984 -6994 0
-6985 -6995 0
-6981 -7011 0
-6982 -7012 0
-6983 -7013 0
-6984 -7014 0
-6985 -7015 0
-6981 -7016 0
-6982 -7017 0
-6983 -7018 0
-6984 -7019 0
-6985 -7020 0
-6981 -7416 0
-6982 -7417 0
-6983 -7418 0
-6984 -7419 0
-6985 -7420 0
-6986 -7006 0
-6987 -7007 0
-6988 -7008 0
-6989 -7009 0
-6990 -7010 0
-6986 -7166 0
-6987 -7167 0
-6988 -7168 0
-6989 -7169 0
-6990 -7170 0
-6986 -7351 0
-6987 -7352 0
-6988 -7353 0
-6989 -7354 0
-6990 -7355 0
-6986 -7431 0
-6987 -7432 0
-6988 -7433 0
-6989 -7434 0
-6990 -7435 0
-6991 -7006 0
-6992 -7007 0
-6993 -7008 0
-6994 -7009 0
-6995 -7010 0
-6991 -7036 0
-6992 -7037 0
-6993 -7038 0
-6994 -7039 0
-6995 -7040 0
-6991 -7046 0
-6992 -7047 0
-6993 -7048 0
-6994 -7049 0
-6995 -7050 0
-6991 -7256 0
-6992 -7257 0
-6993 -7258 0
-6994 -7259 0
-6995 -7260 0
-6991 -7421 0
-6992 -7422 0
-6993 -7423 0
-6994 -7424 0
-6995 -7425 0
-6996 -7001 0
-6997 -7002 0
-6998 -7003 0
-6999 -7004 0
-7000 -7005 0
-6996 -7231 0
-6997 -7232 0
-6998 -7233 0
-6999 -7234 0
-7000 -7235 0
-7001 -7006 0
-7002 -7007 0
-7003 -7008 0
-7004 -7009 0
-7005 -7010 0
-7001 -7086 0
-7002 -7087 0
-7003 -7088 0
-7004 -7089 0
-7005 -7090 0
-7001 -7236 0
-7002 -7237 0
-7003 -7238 0
-7004 -7239 0
-7005 -7240 0
-7001 -7376 0
-7002 -7377 0
-7003 -7378 0
-7004 -7379 0
-7005 -7380 0
-7006 -7056 0
-7007 -7057 0
-7008 -7058 0
-7009 -7059 0
-7010 -7060 0
-7006 -7086 0
-7007 -7087 0
-7008 -7088 0
-7009 -7089 0
-7010 -7090 0
-7006 -7181 0
-7007 -7182 0
-7008 -7183 0
-7009 -7184 0
-7010 -7185 0
-7006 -7386 0
-7007 -7387 0
-7008 -7388 0
-7009 -7389 0
-7010 -7390 0
-7006 -7436 0
-7007 -7437 0
-7008 -7438 0
-7009 -7439 0
-7010 -7440 0
-7006 -7456 0
-7007 -7457 0
-7008 -7458 0
-7009 -7459 0
-7010 -7460 0
-7011 -7016 0
-7012 -7017 0
-7013 -7018 0
-7014 -7019 0
-7015 -7020 0
-7011 -7021 0
-7012 -7022 0
-7013 -7023 0
-7014 -7024 0
-7015 -7025 0
-7011 -7031 0
-7012 -7032 0
-7013 -7033 0
-7014 -7034 0
-7015 -7035 0
-7011 -7036 0
-7012 -7037 0
-7013 -7038 0
-7014 -7039 0
-7015 -7040 0
-7011 -7061 0
-7012 -7062 0
-7013 -7063 0
-7014 -7064 0
-7015 -7065 0
-7011 -7091 0
-7012 -7092 0
-7013 -7093 0
-7014 -7094 0
-7015 -7095 0
-7011 -7186 0
-7012 -7187 0
-7013 -7188 0
-7014 -7189 0
-7015 -7190 0
-7011 -7456 0
-7012 -7457 0
-7013 -7458 0
-7014 -7459 0
-7015 -7460 0
-7016 -7041 0
-7017 -7042 0
-7018 -7043 0
-7019 -7044 0
-7020 -7045 0
-7016 -7046 0
-7017 -7047 0
-7018 -7048 0
-7019 -7049 0
-7020 -7050 0
-7016 -7461 0
-7017 -7462 0
-7018 -7463 0
-7019 -7464 0
-7020 -7465 0
-7021 -7066 0
-7022 -7067 0
-7023 -7068 0
-7024 -7069 0
-7025 -7070 0
-7021 -7096 0
-7022 -7097 0
-7023 -7098 0
-7024 -7099 0
-7025 -7100 0
-7026 -7046 0
-7027 -7047 0
-7028 -7048 0
-7029 -7049 0
-7030 -7050 0
-7026 -7271 0
-7027 -7272 0
-7028 -7273 0
-7029 -7274 0
-7030 -7275 0
-7031 -7036 0
-7032 -7037 0
-7033 -7038 0
-7034 -7039 0
-7035 -7040 0
-7031 -7041 0
-7032 -7042 0
-7033 -7043 0
-7034 -7044 0
-7035 -7045 0
-7031 -7071 0
-7032 -7072 0
-7033 -7073 0
-7034 -7074 0
-7035 -7075 0
-7031 -7251 0
-7032 -7252 0
-7033 -7253 0
-7034 -7254 0
-7035 -7255 0
-7036 -7046 0
-7037 -7047 0
-7038 -7048 0
-7039 -7049 0
-7040 -7050 0
-7036 -7116 0
-7037 -7117 0
-7038 -7118 0
-7039 -7119 0
-7040 -7120 0
-7041 -7046 0
-7042 -7047 0
-7043 -7048 0
-7044 -7049 0
-7045 -7050 0
-7046 -7051 0
-7047 -7052 0
-7048 -7053 0
-7049 -7054 0
-7050 -7055 0
-7046 -7056 0
-7047 -7057 0
-7048 -7058 0
-7049 -7059 0
-7050 -7060 0
-7046 -7291 0
-7047 -7292 0
-7048 -7293 0
-7049 -7294 0
-7050 -7295 0
-7046 -7361 0
-7047 -7362 0
-7048 -7363 0
-7049 -7364 0
-7050 -7365 0
-7046 -7491 0
-7047 -7492 0
-7048 -7493 0
-7049 -7494 0
-7050 -7495 0
-7051 -7151 0
-7052 -7152 0
-7053 -7153 0
-7054 -7154 0
-7055 -7155 0
-7051 -7301 0
-7052 -7302 0
-7053 -7303 0
-7054 -7304 0
-7055 -7305 0
-7056 -7126 0
-7057 -7127 0
-7058 -7128 0
-7059 -7129 0
-7060 -7130 0
-7056 -7221 0
-7057 -7222 0
-7058 -7223 0
-7059 -7224 0
-7060 -7225 0
-7056 -7246 0
-7057 -7247 0
-7058 -7248 0
-7059 -7249 0
-7060 -7250 0
-7056 -7311 0
-7057 -7312 0
-7058 -7313 0
-7059 -7314 0
-7060 -7315 0
-7056 -7366 0
-7057 -7367 0
-7058 -7368 0
-7059 -7369 0
-7060 -7370 0
-7061 -7066 0
-7062 -7067 0
-7063 -7068 0
-7064 -7069 0
-7065 -7070 0
-7061 -7071 0
-7062 -7072 0
-7063 -7073 0
-7064 -7074 0
-7065 -7075 0
-7061 -7101 0
-7062 -7102 0
-7063 -7103 0
-7064 -7104 0
-7065 -7105 0
-7061 -7266 0
-7062 -7267 0
-7063 -7268 0
-7064 -7269 0
-7065 -7270 0
-7066 -7076 0
-7067 -7077 0
-7068 -7078 0
-7069 -7079 0
-7070 -7080 0
-7066 -7111 0
-7067 -7112 0
-7068 -7113 0
-7069 -7114 0
-7070 -7115 0
-7066 -7191 0
-7067 -7192 0
-7068 -7193 0
-7069 -7194 0
-7070 -7195 0
-7071 -7076 0
-7072 -7077 0
-7073 -7078 0
-7074 -7079 0
-7075 -7080 0
-7071 -7291 0
-7072 -7292 0
-7073 -7293 0
-7074 -7294 0
-7075 -7295 0
-7076 -7211 0
-7077 -7212 0
-7078 -7213 0
-7079 -7214 0
-7080 -7215 0
-7076 -7446 0
-7077 -7447 0
-7078 -7448 0
-7079 -7449 0
-7080 -7450 0
-7081 -7086 0
-7082 -7087 0
-7083 -7088 0
-7084 -7089 0
-7085 -7090 0
-7081 -7231 0
-7082 -7232 0
-7083 -7233 0
-7084 -7234 0
-7085 -7235 0
-7086 -7466 0
-7087 -7467 0
-7088 -7468 0
-7089 -7469 0
-7090 -7470 0
-7091 -7096 0
-7092 -7097 0
-7093 -7098 0
-7094 -7099 0
-7095 -7100 0
-7091 -7101 0
-7092 -7102 0
-7093 -7103 0
-7094 -7104 0
-7095 -7105 0
-7096 -7106 0
-7097 -7107 0
-7098 -7108 0
-7099 -7109 0
-7100 -7110 0
-7096 -7111 0
-7097 -7112 0
-7098 -7113 0
-7099 -7114 0
-7100 -7115 0
-7096 -7251 0
-7097 -7252 0
-7098 -7253 0
-7099 -7254 0
-7100 -7255 0
-7101 -7111 0
-7102 -7112 0
-7103 -7113 0
-7104 -7114 0
-7105 -7115 0
-7101 -7276 0
-7102 -7277 0
-7103 -7278 0
-7104 -7279 0
-7105 -7280 0
-7106 -7111 0
-7107 -7112 0
-7108 -7113 0
-7109 -7114 0
-7110 -7115 0
-7106 -7196 0
-7107 -7197 0
-7108 -7198 0
-7109 -7199 0
-7110 -7200 0
-7106 -7286 0
-7107 -7287 0
-7108 -7288 0
-7109 -7289 0
-7110 -7290 0
-7106 -7331 0
-7107 -7332 0
-7108 -7333 0
-7109 -7334 0
-7110 -7335 0
-7111 -7291 0
-7112 -7292 0
-7113 -7293 0
-7114 -7294 0
-7115 -7295 0
-7116 -7126 0
-7117 -7127 0
-7118 -7128 0
-7119 -7129 0
-7120 -7130 0
-7116 -7151 0
-7117 -7152 0
-7118 -7153 0
-7119 -7154 0
-7120 -7155 0
-7121 -7126 0
-7122 -7127 0
-7123 -7128 0
-7124 -7129 0
-7125 -7130 0
-7121 -7146 0
-7122 -7147 0
-7123 -7148 0
-7124 -7149 0
-7125 -7150 0
-7121 -7291 0
-7122 -7292 0
-7123 -7293 0
-7124 -7294 0
-7125 -7295 0
-7126 -7151 0
-7127 -7152 0
-7128 -7153 0
-7129 -7154 0
-7130 -7155 0
-7126 -7296 0
-7127 -7297 0
-7128 -7298 0
-7129 -7299 0
-7130 -7300 0
-7131 -7141 0
-7132 -7142 0
-7133 -7143 0
-7134 -7144 0
-7135 -7145 0
-7131 -7166 0
-7132 -7167 0
-7133 -7168 0
-7134 -7169 0
-7135 -7170 0
-7131 -7466 0
-7132 -7467 0
-7133 -7468 0
-7134 -7469 0
-7135 -7470 0
-7136 -7141 0
-7137 -7142 0
-7138 -7143 0
-7139 -7144 0
-7140 -7145 0
-7136 -7326 0
-7137 -7327 0
-7138 -7328 0
-7139 -7329 0
-7140 -7330 0
-7141 -7171 0
-7142 -7172 0
-7143 -7173 0
-7144 -7174 0
-7145 -7175 0
-7141 -7331 0
-7142 -7332 0
-7143 -7333 0
-7144 -7334 0
-7145 -7335 0
-7141 -7421 0
-7142 -7422 0
-7143 -7423 0
-7144 -7424 0
-7145 -7425 0
-7146 -7151 0
-7147 -7152 0
-7148 -7153 0
-7149 -7154 0
-7150 -7155 0
-7146 -7156 0
-7147 -7157 0
-7148 -7158 0
-7149 -7159 0
-7150 -7160 0
-7146 -7201 0
-7147 -7202 0
-7148 -7203 0
-7149 -7204 0
-7150 -7205 0
-7146 -7346 0
-7147 -7347 0
-7148 -7348 0
-7149 -7349 0
-7150 -7350 0
-7146 -7406 0
-7147 -7407 0
-7148 -7408 0
-7149 -7409 0
-7150 -7410 0
-7151 -7161 0
-7152 -7162 0
-7153 -7163 0
-7154 -7164 0
-7155 -7165 0
-7151 -7206 0
-7152 -7207 0
-7153 -7208 0
-7154 -7209 0
-7155 -7210 0
-7151 -7476 0
-7152 -7477 0
-7153 -7478 0
-7154 -7479 0
-7155 -7480 0
-7156 -7161 0
-7157 -7162 0
-7158 -7163 0
-7159 -7164 0
-7160 -7165 0
-7156 -7216 0
-7157 -7217 0
-7158 -7218 0
-7159 -7219 0
-7160 -7220 0
-7156 -7411 0
-7157 -7412 0
-7158 -7413 0
-7159 -7414 0
-7160 -7415 0
-7156 -7471 0
-7157 -7472 0
-7158 -7473 0
-7159 -7474 0
-7160 -7475 0
-7161 -7221 0
-7162 -7222 0
-7163 -7223 0
-7164 -7224 0
-7165 -7225 0
-7166 -7171 0
-7167 -7172 0
-7168 -7173 0
-7169 -7174 0
-7170 -7175 0
-7166 -7176 0
-7167 -7177 0
-7168 -7178 0
-7169 -7179 0
-7170 -7180 0
-7166 -7181 0
-7167 -7182 0
-7168 -7183 0
-7169 -7184 0
-7170 -7185 0
-7166 -7191 0
-7167 -7192 0
-7168 -7193 0
-7169 -7194 0
-7170 -7195 0
-7166 -7196 0
-7167 -7197 0
-7168 -7198 0
-7169 -7199 0
-7170 -7200 0
-7166 -7351 0
-7167 -7352 0
-7168 -7353 0
-7169 -7354 0
-7170 -7355 0
-7166 -7486 0
-7167 -7487 0
-7168 -7488 0
-7169 -7489 0
-7170 -7490 0
-7171 -7336 0
-7172 -7337 0
-7173 -7338 0
-7174 -7339 0
-7175 -7340 0
-7171 -7356 0
-7172 -7357 0
-7173 -7358 0
-7174 -7359 0
-7175 -7360 0
-7171 -7446 0
-7172 -7447 0
-7173 -7448 0
-7174 -7449 0
-7175 -7450 0
-7176 -7181 0
-7177 -7182 0
-7178 -7183 0
-7179 -7184 0
-7180 -7185 0
-7176 -7211 0
-7177 -7212 0
-7178 -7213 0
-7179 -7214 0
-7180 -7215 0
-7176 -7216 0
-7177 -7217 0
-7178 -7218 0
-7179 -7219 0
-7180 -7220 0
-7176 -7256 0
-7177 -7257 0
-7178 -7258 0
-7179 -7259 0
-7180 -7260 0
-7181 -7221 0
-7182 -7222 0
-7183 -7223 0
-7184 -7224 0
-7185 -7225 0
-7181 -7451 0
-7182 -7452 0
-7183 -7453 0
-7184 -7454 0
-7185 -7455 0
-7186 -7191 0
-7187 -7192 0
-7188 -7193 0
-7189 -7194 0
-7190 -7195 0
-7186 -7501 0
-7187 -7502 0
-7188 -7503 0
-7189 -7504 0
-7190 -7505 0
-7191 -7196 0
-7192 -7197 0
-7193 -7198 0
-7194 -7199 0
-7195 -7200 0
-7191 -7211 0
-7192 -7212 0
-7193 -7213 0
-7194 -7214 0
-7195 -7215 0
-7196 -7216 0
-7197 -7217 0
-7198 -7218 0
-7199 -7219 0
-7200 -7220 0
-7196 -7221 0
-7197 -7222 0
-7198 -7223 0
-7199 -7224 0
-7200 -7225 0
-7196 -7266 0
-7197 -7267 0
-7198 -7268 0
-7199 -7269 0
-7200 -7270 0
-7201 -7206 0
-7202 -7207 0
-7203 -7208 0
-7204 -7209 0
-7205 -7210 0
-7201 -7216 0
-7202 -7217 0
-7203 -7218 0
-7204 -7219 0
-7205 -7220 0
-7201 -7276 0
-7202 -7277 0
-7203 -7278 0
-7204 -7279 0
-7205 -7280 0
-7201 -7376 0
-7202 -7377 0
-7203 -7378 0
-7204 -7379 0
-7205 -7380 0
-7206 -7221 0
-7207 -7222 0
-7208 -7223 0
-7209 -7224 0
-7210 -7225 0
-7206 -7381 0
-7207 -7382 0
-7208 -7383 0
-7209 -7384 0
-7210 -7385 0
-7211 -7216 0
-7212 -7217 0
-7213 -7218 0
-7214 -7219 0
-7215 -7220 0
-7211 -7401 0
-7212 -7402 0
-7213 -7403 0
-7214 -7404 0
-7215 -7405 0
-7211 -7481 0
-7212 -7482 0
-7213 -7483 0
-7214 -7484 0
-7215 -7485 0
-7216 -7221 0
-7217 -7222 0
-7218 -7223 0
-7219 -7224 0
-7220 -7225 0
-7216 -7291 0
-7217 -7292 0
-7218 -7293 0
-7219 -7294 0
-7220 -7295 0
-7221 -7296 0
-7222 -7297 0
-7223 -7298 0
-7224 -7299 0
-7225 -7300 0
-7226 -7291 0
-7227 -7292 0
-7228 -7293 0
-7229 -7294 0
-7230 -7295 0
-7226 -7456 0
-7227 -7457 0
-7228 -7458 0
-7229 -7459 0
-7230 -7460 0
-7231 -7236 0
-7232 -7237 0
-7233 -7238 0
-7234 -7239 0
-7235 -7240 0
-7231 -7241 0
-7232 -7242 0
-7233 -7243 0
-7234 -7244 0
-7235 -7245 0
-7236 -7246 0
-7237 -7247 0
-7238 -7248 0
-7239 -7249 0
-7240 -7250 0
-7236 -7471 0
-7237 -7472 0
-7238 -7473 0
-7239 -7474 0
-7240 -7475 0
-7241 -7246 0
-7242 -7247 0
-7243 -7248 0
-7244 -7249 0
-7245 -7250 0
-7241 -7381 0
-7242 -7382 0
-7243 -7383 0
-7244 -7384 0
-7245 -7385 0
-7241 -7431 0
-7242 -7432 0
-7243 -7433 0
-7244 -7434 0
-7245 -7435 0
-7246 -7366 0
-7247 -7367 0
-7248 -7368 0
-7249 -7369 0
-7250 -7370 0
-7246 -7441 0
-7247 -7442 0
-7248 -7443 0
-7249 -7444 0
-7250 -7445 0
-7251 -7286 0
-7252 -7287 0
-7253 -7288 0
-7254 -7289 0
-7255 -7290 0
-7251 -7291 0
-7252 -7292 0
-7253 -7293 0
-7254 -7294 0
-7255 -7295 0
-7256 -7261 0
-7257 -7262 0
-7258 -7263 0
-7259 -7264 0
-7260 -7265 0
-7256 -7291 0
-7257 -7292 0
-7258 -7293 0
-7259 -7294 0
-7260 -7295 0
-7261 -7291 0
-7262 -7292 0
-7263 -7293 0
-7264 -7294 0
-7265 -7295 0
-7261 -7371 0
-7262 -7372 0
-7263 -7373 0
-7264 -7374 0
-7265 -7375 0
-7266 -7291 0
-7267 -7292 0
-7268 -7293 0
-7269 -7294 0
-7270 -7295 0
-7266 -7296 0
-7267 -7297 0
-7268 -7298 0
-7269 -7299 0
-7270 -7300 0
-7271 -7291 0
-7272 -7292 0
-7273 -7293 0
-7274 -7294 0
-7275 -7295 0
-7276 -7291 0
-7277 -7292 0
-7278 -7293 0
-7279 -7294 0
-7280 -7295 0
-7276 -7416 0
-7277 -7417 0
-7278 -7418 0
-7279 -7419 0
-7280 -7420 0
-7281 -7291 0
-7282 -7292 0
-7283 -7293 0
-7284 -7294 0
-7285 -7295 0
-7281 -7346 0
-7282 -7347 0
-7283 -7348 0
-7284 -7349 0
-7285 -7350 0
-7286 -7291 0
-7287 -7292 0
-7288 -7293 0
-7289 -7294 0
-7290 -7295 0
-7286 -7421 0
-7287 -7422 0
-7288 -7423 0
-7289 -7424 0
-7290 -7425 0
-7291 -7296 0
-7292 -7297 0
-7293 -7298 0
-7294 -7299 0
-7295 -7300 0
-7291 -7301 0
-7292 -7302 0
-7293 -7303 0
-7294 -7304 0
-7295 -7305 0
-7291 -7306 0
-7292 -7307 0
-7293 -7308 0
-7294 -7309 0
-7295 -7310 0
-7291 -7311 0
-7292 -7312 0
-7293 -7313 0
-7294 -7314 0
-7295 -7315 0
-7291 -7316 0
-7292 -7317 0
-7293 -7318 0
-7294 -7319 0
-7295 -7320 0
-7291 -7321 0
-7292 -7322 0
-7293 -7323 0
-7294 -7324 0
-7295 -7325 0
-7291 -7346 0
-7292 -7347 0
-7293 -7348 0
-7294 -7349 0
-7295 -7350 0
-7291 -7396 0
-7292 -7397 0
-7293 -7398 0
-7294 -7399 0
-7295 -7400 0
-7291 -7426 0
-7292 -7427 0
-7293 -7428 0
-7294 -7429 0
-7295 -7430 0
-7291 -7466 0
-7292 -7467 0
-7293 -7468 0
-7294 -7469 0
-7295 -7470 0
-7291 -7491 0
-7292 -7492 0
-7293 -7493 0
-7294 -7494 0
-7295 -7495 0
-7291 -7501 0
-7292 -7502 0
-7293 -7503 0
-7294 -7504 0
-7295 -7505 0
-7306 -7406 0
-7307 -7407 0
-7308 -7408 0
-7309 -7409 0
-7310 -7410 0
-7311 -7441 0
-7312 -7442 0
-7313 -7443 0
-7314 -7444 0
-7315 -7445 0
-7321 -7476 0
-7322 -7477 0
-7323 -7478 0
-7324 -7479 0
-7325 -7480 0
-7326 -7331 0
-7327 -7332 0
-7328 -7333 0
-7329 -7334 0
-7330 -7335 0
-7326 -7336 0
-7327 -7337 0
-7328 -7338 0
-7329 -7339 0
-7330 -7340 0
-7326 -7501 0
-7327 -7502 0
-7328 -7503 0
-7329 -7504 0
-7330 -7505 0
-7331 -7341 0
-7332 -7342 0
-7333 -7343 0
-7334 -7344 0
-7335 -7345 0
-7331 -7421 0
-7332 -7422 0
-7333 -7423 0
-7334 -7424 0
-7335 -7425 0
-7331 -7501 0
-7332 -7502 0
-7333 -7503 0
-7334 -7504 0
-7335 -7505 0
-7336 -7341 0
-7337 -7342 0
-7338 -7343 0
-7339 -7344 0
-7340 -7345 0
-7336 -7481 0
-7337 -7482 0
-7338 -7483 0
-7339 -7484 0
-7340 -7485 0
-7341 -7436 0
-7342 -7437 0
-7343 -7438 0
-7344 -7439 0
-7345 -7440 0
-7351 -7356 0
-7352 -7357 0
-7353 -7358 0
-7354 -7359 0
-7355 -7360 0
-7351 -7371 0
-7352 -7372 0
-7353 -7373 0
-7354 -7374 0
-7355 -7375 0
-7356 -7376 0
-7357 -7377 0
-7358 -7378 0
-7359 -7379 0
-7360 -7380 0
-7356 -7386 0
-7357 -7387 0
-7358 -7388 0
-7359 -7389 0
-7360 -7390 0
-7356 -7446 0
-7357 -7447 0
-7358 -7448 0
-7359 -7449 0
-7360 -7450 0
-7356 -7461 0
-7357 -7462 0
-7358 -7463 0
-7359 -7464 0
-7360 -7465 0
-7361 -7366 0
-7362 -7367 0
-7363 -7368 0
-7364 -7369 0
-7365 -7370 0
-7361 -7381 0
-7362 -7382 0
-7363 -7383 0
-7364 -7384 0
-7365 -7385 0
-7361 -7466 0
-7362 -7467 0
-7363 -7468 0
-7364 -7469 0
-7365 -7470 0
-7371 -7386 0
-7372 -7387 0
-7373 -7388 0
-7374 -7389 0
-7375 -7390 0
-7371 -7396 0
-7372 -7397 0
-7373 -7398 0
-7374 -7399 0
-7375 -7400 0
-7376 -7381 0
-7377 -7382 0
-7378 -7383 0
-7379 -7384 0
-7380 -7385 0
-7376 -7386 0
-7377 -7387 0
-7378 -7388 0
-7379 -7389 0
-7380 -7390 0
-7376 -7416 0
-7377 -7417 0
-7378 -7418 0
-7379 -7419 0
-7380 -7420 0
-7376 -7471 0
-7377 -7472 0
-7378 -7473 0
-7379 -7474 0
-7380 -7475 0
-7381 -7486 0
-7382 -7487 0
-7383 -7488 0
-7384 -7489 0
-7385 -7490 0
-7386 -7391 0
-7387 -7392 0
-7388 -7393 0
-7389 -7394 0
-7390 -7395 0
-7386 -7406 0
-7387 -7407 0
-7388 -7408 0
-7389 -7409 0
-7390 -7410 0
-7386 -7451 0
-7387 -7452 0
-7388 -7453 0
-7389 -7454 0
-7390 -7455 0
-7391 -7411 0
-7392 -7412 0
-7393 -7413 0
-7394 -7414 0
-7395 -7415 0
-7396 -7401 0
-7397 -7402 0
-7398 -7403 0
-7399 -7404 0
-7400 -7405 0
-7396 -7406 0
-7397 -7407 0
-7398 -7408 0
-7399 -7409 0
-7400 -7410 0
-7396 -7466 0
-7397 -7467 0
-7398 -7468 0
-7399 -7469 0
-7400 -7470 0
-7401 -7411 0
-7402 -7412 0
-7403 -7413 0
-7404 -7414 0
-7405 -7415 0
-7406 -7411 0
-7407 -7412 0
-7408 -7413 0
-7409 -7414 0
-7410 -7415 0
-7416 -7426 0
-7417 -7427 0
-7418 -7428 0
-7419 -7429 0
-7420 -7430 0
-7416 -7431 0
-7417 -7432 0
-7418 -7433 0
-7419 -7434 0
-7420 -7435 0
-7421 -7426 0
-7422 -7427 0
-7423 -7428 0
-7424 -7429 0
-7425 -7430 0
-7421 -7436 0
-7422 -7437 0
-7423 -7438 0
-7424 -7439 0
-7425 -7440 0
-7421 -7446 0
-7422 -7447 0
-7423 -7448 0
-7424 -7449 0
-7425 -7450 0
-7426 -7441 0
-7427 -7442 0
-7428 -7443 0
-7429 -7444 0
-7430 -7445 0
-7426 -7446 0
-7427 -7447 0
-7428 -7448 0
-7429 -7449 0
-7430 -7450 0
-7426 -7466 0
-7427 -7467 0
-7428 -7468 0
-7429 -7469 0
-7430 -7470 0
-7431 -7441 0
-7432 -7442 0
-7433 -7443 0
-7434 -7444 0
-7435 -7445 0
-7431 -7486 0
-7432 -7487 0
-7433 -7488 0
-7434 -7489 0
-7435 -7490 0
-7436 -7441 0
-7437 -7442 0
-7438 -7443 0
-7439 -7444 0
-7440 -7445 0
-7436 -7456 0
-7437 -7457 0
-7438 -7458 0
-7439 -7459 0
-7440 -7460 0
-7446 -7451 0
-7447 -7452 0
-7448 -7453 0
-7449 -7454 0
-7450 -7455 0
-7446 -7481 0
-7447 -7482 0
-7448 -7483 0
-7449 -7484 0
-7450 -7485 0
-7446 -7496 0
-7447 -7497 0
-7448 -7498 0
-7449 -7499 0
-7450 -7500 0
-7451 -7501 0
-7452 -7502 0
-7453 -7503 0
-7454 -7504 0
-7455 -7505 0
-7456 -7461 0
-7457 -7462 0
-7458 -7463 0
-7459 -7464 0
-7460 -7465 0
-7456 -7466 0
-7457 -7467 0
-7458 -7468 0
-7459 -7469 0
-7460 -7470 0
-7461 -7471 0
-7462 -7472 0
-7463 -7473 0
-7464 -7474 0
-7465 -7475 0
-7461 -7496 0
-7462 -7497 0
-7463 -7498 0
-7464 -7499 0
-7465 -7500 0
-7466 -7471 0
-7467 -7472 0
-7468 -7473 0
-7469 -7474 0
-7470 -7475 0
-7466 -7476 0
-7467 -7477 0
-7468 -7478 0
-7469 -7479 0
-7470 -7480 0
-7466 -7481 0
-7467 -7482 0
-7468 -7483 0
-7469 -7484 0
-7470 -7485 0
-7466 -7486 0
-7467 -7487 0
-7468 -7488 0
-7469 -7489 0
-7470 -7490 0
-7471 -7476 0
-7472 -7477 0
-7473 -7478 0
-7474 -7479 0
-7475 -7480 0
-7481 -7486 0
-7482 -7487 0
-7483 -7488 0
-7484 -7489 0
-7485 -7490 0
-7491 -7496 0
-7492 -7497 0
-7493 -7498 0
-7494 -7499 0
-7495 -7500 0
1 0
7 0
463 0
