p cnf 6004 33872
1 2 3 4 0
5 6 7 8 0
9 10 11 12 0
13 14 15 16 0
17 18 19 20 0
21 22 23 24 0
25 26 27 28 0
29 30 31 32 0
33 34 35 36 0
37 38 39 40 0
41 42 43 44 0
45 46 47 48 0
49 50 51 52 0
53 54 55 56 0
57 58 59 60 0
61 62 63 64 0
65 66 67 68 0
69 70 71 72 0
73 74 75 76 0
77 78 79 80 0
81 82 83 84 0
85 86 87 88 0
89 90 91 92 0
93 94 95 96 0
97 98 99 100 0
101 102 103 104 0
105 106 107 108 0
109 110 111 112 0
113 114 115 116 0
117 118 119 120 0
121 122 123 124 0
125 126 127 128 0
129 130 131 132 0
133 134 135 136 0
137 138 139 140 0
141 142 143 144 0
145 146 147 148 0
149 150 151 152 0
153 154 155 156 0
157 158 159 160 0
161 162 163 164 0
165 166 167 168 0
169 170 171 172 0
173 174 175 176 0
177 178 179 180 0
181 182 183 184 0
185 186 187 188 0
189 190 191 192 0
193 194 195 196 0
197 198 199 200 0
201 202 203 204 0
205 206 207 208 0
209 210 211 212 0
213 214 215 216 0
217 218 219 220 0
221 222 223 224 0
225 226 227 228 0
229 230 231 232 0
233 234 235 236 0
237 238 239 240 0
241 242 243 244 0
245 246 247 248 0
249 250 251 252 0
253 254 255 256 0
257 258 259 260 0
261 262 263 264 0
265 266 267 268 0
269 270 271 272 0
273 274 275 276 0
277 278 279 280 0
281 282 283 284 0
285 286 287 288 0
289 290 291 292 0
293 294 295 296 0
297 298 299 300 0
301 302 303 304 0
305 306 307 308 0
309 310 311 312 0
313 314 315 316 0
317 318 319 320 0
321 322 323 324 0
325 326 327 328 0
329 330 331 332 0
333 334 335 336 0
337 338 339 340 0
341 342 343 344 0
345 346 347 348 0
349 350 351 352 0
353 354 355 356 0
357 358 359 360 0
361 362 363 364 0
365 366 367 368 0
369 370 371 372 0
373 374 375 376 0
377 378 379 380 0
381 382 383 384 0
385 386 387 388 0
389 390 391 392 0
393 394 395 396 0
397 398 399 400 0
401 402 403 404 0
405 406 407 408 0
409 410 411 412 0
413 414 415 416 0
417 418 419 420 0
421 422 423 424 0
425 426 427 428 0
429 430 431 432 0
433 434 435 436 0
437 438 439 440 0
441 442 443 444 0
445 446 447 448 0
449 450 451 452 0
453 454 455 456 0
457 458 459 460 0
461 462 463 464 0
465 466 467 468 0
469 470 471 472 0
473 474 475 476 0
477 478 479 480 0
481 482 483 484 0
485 486 487 488 0
489 490 491 492 0
493 494 495 496 0
497 498 499 500 0
501 502 503 504 0
505 506 507 508 0
509 510 511 512 0
513 514 515 516 0
517 518 519 520 0
521 522 523 524 0
525 526 527 528 0
529 530 531 532 0
533 534 535 536 0
537 538 539 540 0
541 542 543 544 0
545 546 547 548 0
549 550 551 552 0
553 554 555 556 0
557 558 559 560 0
561 562 563 564 0
565 566 567 568 0
569 570 571 572 0
573 574 575 576 0
577 578 579 580 0
581 582 583 584 0
585 586 587 588 0
589 590 591 592 0
593 594 595 596 0
597 598 599 600 0
601 602 603 604 0
605 606 607 608 0
609 610 611 612 0
613 614 615 616 0
617 618 619 620 0
621 622 623 624 0
625 626 627 628 0
629 630 631 632 0
633 634 635 636 0
637 638 639 640 0
641 642 643 644 0
645 646 647 648 0
649 650 651 652 0
653 654 655 656 0
657 658 659 660 0
661 662 663 664 0
665 666 667 668 0
669 670 671 672 0
673 674 675 676 0
677 678 679 680 0
681 682 683 684 0
685 686 687 688 0
689 690 691 692 0
693 694 695 696 0
697 698 699 700 0
701 702 703 704 0
705 706 707 708 0
709 710 711 712 0
713 714 715 716 0
717 718 719 720 0
721 722 723 724 0
725 726 727 728 0
729 730 731 732 0
733 734 735 736 0
737 738 739 740 0
741 742 743 744 0
745 746 747 748 0
749 750 751 752 0
753 754 755 756 0
757 758 759 760 0
761 762 763 764 0
765 766 767 768 0
769 770 771 772 0
773 774 775 776 0
777 778 779 780 0
781 782 783 784 0
785 786 787 788 0
789 790 791 792 0
793 794 795 796 0
797 798 799 800 0
801 802 803 804 0
805 806 807 808 0
809 810 811 812 0
813 814 815 816 0
817 818 819 820 0
821 822 823 824 0
825 826 827 828 0
829 830 831 832 0
833 834 835 836 0
837 838 839 840 0
841 842 843 844 0
845 846 847 848 0
849 850 851 852 0
853 854 855 856 0
857 858 859 860 0
861 862 863 864 0
865 866 867 868 0
869 870 871 872 0
873 874 875 876 0
877 878 879 880 0
881 882 883 884 0
885 886 887 888 0
889 890 891 892 0
893 894 895 896 0
897 898 899 900 0
901 902 903 904 0
905 906 907 908 0
909 910 911 912 0
913 914 915 916 0
917 918 919 920 0
921 922 923 924 0
925 926 927 928 0
929 930 931 932 0
933 934 935 936 0
937 938 939 940 0
941 942 943 944 0
945 946 947 948 0
949 950 951 952 0
953 954 955 956 0
957 958 959 960 0
961 962 963 964 0
965 966 967 968 0
969 970 971 972 0
973 974 975 976 0
977 978 979 980 0
981 982 983 984 0
985 986 987 988 0
989 990 991 992 0
993 994 995 996 0
997 998 999 1000 0
1001 1002 1003 1004 0
1005 1006 1007 1008 0
1009 1010 1011 1012 0
1013 1014 1015 1016 0
1017 1018 1019 1020 0
1021 1022 1023 1024 0
1025 1026 1027 1028 0
1029 1030 1031 1032 0
1033 1034 1035 1036 0
1037 1038 1039 1040 0
1041 1042 1043 1044 0
1045 1046 1047 1048 0
1049 1050 1051 1052 0
1053 1054 1055 1056 0
1057 1058 1059 1060 0
1061 1062 1063 1064 0
1065 1066 1067 1068 0
1069 1070 1071 1072 0
1073 1074 1075 1076 0
1077 1078 1079 1080 0
1081 1082 1083 1084 0
1085 1086 1087 1088 0
1089 1090 1091 1092 0
1093 1094 1095 1096 0
1097 1098 1099 1100 0
1101 1102 1103 1104 0
1105 1106 1107 1108 0
1109 1110 1111 1112 0
1113 1114 1115 1116 0
1117 1118 1119 1120 0
1121 1122 1123 1124 0
1125 1126 1127 1128 0
1129 1130 1131 1132 0
1133 1134 1135 1136 0
1137 1138 1139 1140 0
1141 1142 1143 1144 0
1145 1146 1147 1148 0
1149 1150 1151 1152 0
1153 1154 1155 1156 0
1157 1158 1159 1160 0
1161 1162 1163 1164 0
1165 1166 1167 1168 0
1169 1170 1171 1172 0
1173 1174 1175 1176 0
1177 1178 1179 1180 0
1181 1182 1183 1184 0
1185 1186 1187 1188 0
1189 1190 1191 1192 0
1193 1194 1195 1196 0
1197 1198 1199 1200 0
1201 1202 1203 1204 0
1205 1206 1207 1208 0
1209 1210 1211 1212 0
1213 1214 1215 1216 0
1217 1218 1219 1220 0
1221 1222 1223 1224 0
1225 1226 1227 1228 0
1229 1230 1231 1232 0
1233 1234 1235 1236 0
1237 1238 1239 1240 0
1241 1242 1243 1244 0
1245 1246 1247 1248 0
1249 1250 1251 1252 0
1253 1254 1255 1256 0
1257 1258 1259 1260 0
1261 1262 1263 1264 0
1265 1266 1267 1268 0
1269 1270 1271 1272 0
1273 1274 1275 1276 0
1277 1278 1279 1280 0
1281 1282 1283 1284 0
1285 1286 1287 1288 0
1289 1290 1291 1292 0
1293 1294 1295 1296 0
1297 1298 1299 1300 0
1301 1302 1303 1304 0
1305 1306 1307 1308 0
1309 1310 1311 1312 0
1313 1314 1315 1316 0
1317 1318 1319 1320 0
1321 1322 1323 1324 0
1325 1326 1327 1328 0
1329 1330 1331 1332 0
1333 1334 1335 1336 0
1337 1338 1339 1340 0
1341 1342 1343 1344 0
1345 1346 1347 1348 0
1349 1350 1351 1352 0
1353 1354 1355 1356 0
1357 1358 1359 1360 0
1361 1362 1363 1364 0
1365 1366 1367 1368 0
1369 1370 1371 1372 0
1373 1374 1375 1376 0
1377 1378 1379 1380 0
1381 1382 1383 1384 0
1385 1386 1387 1388 0
1389 1390 1391 1392 0
1393 1394 1395 1396 0
1397 1398 1399 1400 0
1401 1402 1403 1404 0
1405 1406 1407 1408 0
1409 1410 1411 1412 0
1413 1414 1415 1416 0
1417 1418 1419 1420 0
1421 1422 1423 1424 0
1425 1426 1427 1428 0
1429 1430 1431 1432 0
1433 1434 1435 1436 0
1437 1438 1439 1440 0
1441 1442 1443 1444 0
1445 1446 1447 1448 0
1449 1450 1451 1452 0
1453 1454 1455 1456 0
1457 1458 1459 1460 0
1461 1462 1463 1464 0
1465 1466 1467 1468 0
1469 1470 1471 1472 0
1473 1474 1475 1476 0
1477 1478 1479 1480 0
1481 1482 1483 1484 0
1485 1486 1487 1488 0
1489 1490 1491 1492 0
1493 1494 1495 1496 0
1497 1498 1499 1500 0
1501 1502 1503 1504 0
1505 1506 1507 1508 0
1509 1510 1511 1512 0
1513 1514 1515 1516 0
1517 1518 1519 1520 0
1521 1522 1523 1524 0
1525 1526 1527 1528 0
1529 1530 1531 1532 0
1533 1534 1535 1536 0
1537 1538 1539 1540 0
1541 1542 1543 1544 0
1545 1546 1547 1548 0
1549 1550 1551 1552 0
1553 1554 1555 1556 0
1557 1558 1559 1560 0
1561 1562 1563 1564 0
1565 1566 1567 1568 0
1569 1570 1571 1572 0
1573 1574 1575 1576 0
1577 1578 1579 1580 0
1581 1582 1583 1584 0
1585 1586 1587 1588 0
1589 1590 1591 1592 0
1593 1594 1595 1596 0
1597 1598 1599 1600 0
1601 1602 1603 1604 0
1605 1606 1607 1608 0
1609 1610 1611 1612 0
1613 1614 1615 1616 0
1617 1618 1619 1620 0
1621 1622 1623 1624 0
1625 1626 1627 1628 0
1629 1630 1631 1632 0
1633 1634 1635 1636 0
1637 1638 1639 1640 0
1641 1642 1643 1644 0
1645 1646 1647 1648 0
1649 1650 1651 1652 0
1653 1654 1655 1656 0
1657 1658 1659 1660 0
1661 1662 1663 1664 0
1665 1666 1667 1668 0
1669 1670 1671 1672 0
1673 1674 1675 1676 0
1677 1678 1679 1680 0
1681 1682 1683 1684 0
1685 1686 1687 1688 0
1689 1690 1691 1692 0
1693 1694 1695 1696 0
1697 1698 1699 1700 0
1701 1702 1703 1704 0
1705 1706 1707 1708 0
1709 1710 1711 1712 0
1713 1714 1715 1716 0
1717 1718 1719 1720 0
1721 1722 1723 1724 0
1725 1726 1727 1728 0
1729 1730 1731 1732 0
1733 1734 1735 1736 0
1737 1738 1739 1740 0
1741 1742 1743 1744 0
1745 1746 1747 1748 0
1749 1750 1751 1752 0
1753 1754 1755 1756 0
1757 1758 1759 1760 0
1761 1762 1763 1764 0
1765 1766 1767 1768 0
1769 1770 1771 1772 0
1773 1774 1775 1776 0
1777 1778 1779 1780 0
1781 1782 1783 1784 0
1785 1786 1787 1788 0
1789 1790 1791 1792 0
1793 1794 1795 1796 0
1797 1798 1799 1800 0
1801 1802 1803 1804 0
1805 1806 1807 1808 0
1809 1810 1811 1812 0
1813 1814 1815 1816 0
1817 1818 1819 1820 0
1821 1822 1823 1824 0
1825 1826 1827 1828 0
1829 1830 1831 1832 0
1833 1834 1835 1836 0
1837 1838 1839 1840 0
1841 1842 1843 1844 0
1845 1846 1847 1848 0
1849 1850 1851 1852 0
1853 1854 1855 1856 0
1857 1858 1859 1860 0
1861 1862 1863 1864 0
1865 1866 1867 1868 0
1869 1870 1871 1872 0
1873 1874 1875 1876 0
1877 1878 1879 1880 0
1881 1882 1883 1884 0
1885 1886 1887 1888 0
1889 1890 1891 1892 0
1893 1894 1895 1896 0
1897 1898 1899 1900 0
1901 1902 1903 1904 0
1905 1906 1907 1908 0
1909 1910 1911 1912 0
1913 1914 1915 1916 0
1917 1918 1919 1920 0
1921 1922 1923 1924 0
1925 1926 1927 1928 0
1929 1930 1931 1932 0
1933 1934 1935 1936 0
1937 1938 1939 1940 0
1941 1942 1943 1944 0
1945 1946 1947 1948 0
1949 1950 1951 1952 0
1953 1954 1955 1956 0
1957 1958 1959 1960 0
1961 1962 1963 1964 0
1965 1966 1967 1968 0
1969 1970 1971 1972 0
1973 1974 1975 1976 0
1977 1978 1979 1980 0
1981 1982 1983 1984 0
1985 1986 1987 1988 0
1989 1990 1991 1992 0
1993 1994 1995 1996 0
1997 1998 1999 2000 0
2001 2002 2003 2004 0
2005 2006 2007 2008 0
2009 2010 2011 2012 0
2013 2014 2015 2016 0
2017 2018 2019 2020 0
2021 2022 2023 2024 0
2025 2026 2027 2028 0
2029 2030 2031 2032 0
2033 2034 2035 2036 0
2037 2038 2039 2040 0
2041 2042 2043 2044 0
2045 2046 2047 2048 0
2049 2050 2051 2052 0
2053 2054 2055 2056 0
2057 2058 2059 2060 0
2061 2062 2063 2064 0
2065 2066 2067 2068 0
2069 2070 2071 2072 0
2073 2074 2075 2076 0
2077 2078 2079 2080 0
2081 2082 2083 2084 0
2085 2086 2087 2088 0
2089 2090 2091 2092 0
2093 2094 2095 2096 0
2097 2098 2099 2100 0
2101 2102 2103 2104 0
2105 2106 2107 2108 0
2109 2110 2111 2112 0
2113 2114 2115 2116 0
2117 2118 2119 2120 0
2121 2122 2123 2124 0
2125 2126 2127 2128 0
2129 2130 2131 2132 0
2133 2134 2135 2136 0
2137 2138 2139 2140 0
2141 2142 2143 2144 0
2145 2146 2147 2148 0
2149 2150 2151 2152 0
2153 2154 2155 2156 0
2157 2158 2159 2160 0
2161 2162 2163 2164 0
2165 2166 2167 2168 0
2169 2170 2171 2172 0
2173 2174 2175 2176 0
2177 2178 2179 2180 0
2181 2182 2183 2184 0
2185 2186 2187 2188 0
2189 2190 2191 2192 0
2193 2194 2195 2196 0
2197 2198 2199 2200 0
2201 2202 2203 2204 0
2205 2206 2207 2208 0
2209 2210 2211 2212 0
2213 2214 2215 2216 0
2217 2218 2219 2220 0
2221 2222 2223 2224 0
2225 2226 2227 2228 0
2229 2230 2231 2232 0
2233 2234 2235 2236 0
2237 2238 2239 2240 0
2241 2242 2243 2244 0
2245 2246 2247 2248 0
2249 2250 2251 2252 0
2253 2254 2255 2256 0
2257 2258 2259 2260 0
2261 2262 2263 2264 0
2265 2266 2267 2268 0
2269 2270 2271 2272 0
2273 2274 2275 2276 0
2277 2278 2279 2280 0
2281 2282 2283 2284 0
2285 2286 2287 2288 0
2289 2290 2291 2292 0
2293 2294 2295 2296 0
2297 2298 2299 2300 0
2301 2302 2303 2304 0
2305 2306 2307 2308 0
2309 2310 2311 2312 0
2313 2314 2315 2316 0
2317 2318 2319 2320 0
2321 2322 2323 2324 0
2325 2326 2327 2328 0
2329 2330 2331 2332 0
2333 2334 2335 2336 0
2337 2338 2339 2340 0
2341 2342 2343 2344 0
2345 2346 2347 2348 0
2349 2350 2351 2352 0
2353 2354 2355 2356 0
2357 2358 2359 2360 0
2361 2362 2363 2364 0
2365 2366 2367 2368 0
2369 2370 2371 2372 0
2373 2374 2375 2376 0
2377 2378 2379 2380 0
2381 2382 2383 2384 0
2385 2386 2387 2388 0
2389 2390 2391 2392 0
2393 2394 2395 2396 0
2397 2398 2399 2400 0
2401 2402 2403 2404 0
2405 2406 2407 2408 0
2409 2410 2411 2412 0
2413 2414 2415 2416 0
2417 2418 2419 2420 0
2421 2422 2423 2424 0
2425 2426 2427 2428 0
2429 2430 2431 2432 0
2433 2434 2435 2436 0
2437 2438 2439 2440 0
2441 2442 2443 2444 0
2445 2446 2447 2448 0
2449 2450 2451 2452 0
2453 2454 2455 2456 0
2457 2458 2459 2460 0
2461 2462 2463 2464 0
2465 2466 2467 2468 0
2469 2470 2471 2472 0
2473 2474 2475 2476 0
2477 2478 2479 2480 0
2481 2482 2483 2484 0
2485 2486 2487 2488 0
2489 2490 2491 2492 0
2493 2494 2495 2496 0
2497 2498 2499 2500 0
2501 2502 2503 2504 0
2505 2506 2507 2508 0
2509 2510 2511 2512 0
2513 2514 2515 2516 0
2517 2518 2519 2520 0
2521 2522 2523 2524 0
2525 2526 2527 2528 0
2529 2530 2531 2532 0
2533 2534 2535 2536 0
2537 2538 2539 2540 0
2541 2542 2543 2544 0
2545 2546 2547 2548 0
2549 2550 2551 2552 0
2553 2554 2555 2556 0
2557 2558 2559 2560 0
2561 2562 2563 2564 0
2565 2566 2567 2568 0
2569 2570 2571 2572 0
2573 2574 2575 2576 0
2577 2578 2579 2580 0
2581 2582 2583 2584 0
2585 2586 2587 2588 0
2589 2590 2591 2592 0
2593 2594 2595 2596 0
2597 2598 2599 2600 0
2601 2602 2603 2604 0
2605 2606 2607 2608 0
2609 2610 2611 2612 0
2613 2614 2615 2616 0
2617 2618 2619 2620 0
2621 2622 2623 2624 0
2625 2626 2627 2628 0
2629 2630 2631 2632 0
2633 2634 2635 2636 0
2637 2638 2639 2640 0
2641 2642 2643 2644 0
2645 2646 2647 2648 0
2649 2650 2651 2652 0
2653 2654 2655 2656 0
2657 2658 2659 2660 0
2661 2662 2663 2664 0
2665 2666 2667 2668 0
2669 2670 2671 2672 0
2673 2674 2675 2676 0
2677 2678 2679 2680 0
2681 2682 2683 2684 0
2685 2686 2687 2688 0
2689 2690 2691 2692 0
2693 2694 2695 2696 0
2697 2698 2699 2700 0
2701 2702 2703 2704 0
2705 2706 2707 2708 0
2709 2710 2711 2712 0
2713 2714 2715 2716 0
2717 2718 2719 2720 0
2721 2722 2723 2724 0
2725 2726 2727 2728 0
2729 2730 2731 2732 0
2733 2734 2735 2736 0
2737 2738 2739 2740 0
2741 2742 2743 2744 0
2745 2746 2747 2748 0
2749 2750 2751 2752 0
2753 2754 2755 2756 0
2757 2758 2759 2760 0
2761 2762 2763 2764 0
2765 2766 2767 2768 0
2769 2770 2771 2772 0
2773 2774 2775 2776 0
2777 2778 2779 2780 0
2781 2782 2783 2784 0
2785 2786 2787 2788 0
2789 2790 2791 2792 0
2793 2794 2795 2796 0
2797 2798 2799 2800 0
2801 2802 2803 2804 0
2805 2806 2807 2808 0
2809 2810 2811 2812 0
2813 2814 2815 2816 0
2817 2818 2819 2820 0
2821 2822 2823 2824 0
2825 2826 2827 2828 0
2829 2830 2831 2832 0
2833 2834 2835 2836 0
2837 2838 2839 2840 0
2841 2842 2843 2844 0
2845 2846 2847 2848 0
2849 2850 2851 2852 0
2853 2854 2855 2856 0
2857 2858 2859 2860 0
2861 2862 2863 2864 0
2865 2866 2867 2868 0
2869 2870 2871 2872 0
2873 2874 2875 2876 0
2877 2878 2879 2880 0
2881 2882 2883 2884 0
2885 2886 2887 2888 0
2889 2890 2891 2892 0
2893 2894 2895 2896 0
2897 2898 2899 2900 0
2901 2902 2903 2904 0
2905 2906 2907 2908 0
2909 2910 2911 2912 0
2913 2914 2915 2916 0
2917 2918 2919 2920 0
2921 2922 2923 2924 0
2925 2926 2927 2928 0
2929 2930 2931 2932 0
2933 2934 2935 2936 0
2937 2938 2939 2940 0
2941 2942 2943 2944 0
2945 2946 2947 2948 0
2949 2950 2951 2952 0
2953 2954 2955 2956 0
2957 2958 2959 2960 0
2961 2962 2963 2964 0
2965 2966 2967 2968 0
2969 2970 2971 2972 0
2973 2974 2975 2976 0
2977 2978 2979 2980 0
2981 2982 2983 2984 0
2985 2986 2987 2988 0
2989 2990 2991 2992 0
2993 2994 2995 2996 0
2997 2998 2999 3000 0
3001 3002 3003 3004 0
3005 3006 3007 3008 0
3009 3010 3011 3012 0
3013 3014 3015 3016 0
3017 3018 3019 3020 0
3021 3022 3023 3024 0
3025 3026 3027 3028 0
3029 3030 3031 3032 0
3033 3034 3035 3036 0
3037 3038 3039 3040 0
3041 3042 3043 3044 0
3045 3046 3047 3048 0
3049 3050 3051 3052 0
3053 3054 3055 3056 0
3057 3058 3059 3060 0
3061 3062 3063 3064 0
3065 3066 3067 3068 0
3069 3070 3071 3072 0
3073 3074 3075 3076 0
3077 3078 3079 3080 0
3081 3082 3083 3084 0
3085 3086 3087 3088 0
3089 3090 3091 3092 0
3093 3094 3095 3096 0
3097 3098 3099 3100 0
3101 3102 3103 3104 0
3105 3106 3107 3108 0
3109 3110 3111 3112 0
3113 3114 3115 3116 0
3117 3118 3119 3120 0
3121 3122 3123 3124 0
3125 3126 3127 3128 0
3129 3130 3131 3132 0
3133 3134 3135 3136 0
3137 3138 3139 3140 0
3141 3142 3143 3144 0
3145 3146 3147 3148 0
3149 3150 3151 3152 0
3153 3154 3155 3156 0
3157 3158 3159 3160 0
3161 3162 3163 3164 0
3165 3166 3167 3168 0
3169 3170 3171 3172 0
3173 3174 3175 3176 0
3177 3178 3179 3180 0
3181 3182 3183 3184 0
3185 3186 3187 3188 0
3189 3190 3191 3192 0
3193 3194 3195 3196 0
3197 3198 3199 3200 0
3201 3202 3203 3204 0
3205 3206 3207 3208 0
3209 3210 3211 3212 0
3213 3214 3215 3216 0
3217 3218 3219 3220 0
3221 3222 3223 3224 0
3225 3226 3227 3228 0
3229 3230 3231 3232 0
3233 3234 3235 3236 0
3237 3238 3239 3240 0
3241 3242 3243 3244 0
3245 3246 3247 3248 0
3249 3250 3251 3252 0
3253 3254 3255 3256 0
3257 3258 3259 3260 0
3261 3262 3263 3264 0
3265 3266 3267 3268 0
3269 3270 3271 3272 0
3273 3274 3275 3276 0
3277 3278 3279 3280 0
3281 3282 3283 3284 0
3285 3286 3287 3288 0
3289 3290 3291 3292 0
3293 3294 3295 3296 0
3297 3298 3299 3300 0
3301 3302 3303 3304 0
3305 3306 3307 3308 0
3309 3310 3311 3312 0
3313 3314 3315 3316 0
3317 3318 3319 3320 0
3321 3322 3323 3324 0
3325 3326 3327 3328 0
3329 3330 3331 3332 0
3333 3334 3335 3336 0
3337 3338 3339 3340 0
3341 3342 3343 3344 0
3345 3346 3347 3348 0
3349 3350 3351 3352 0
3353 3354 3355 3356 0
3357 3358 3359 3360 0
3361 3362 3363 3364 0
3365 3366 3367 3368 0
3369 3370 3371 3372 0
3373 3374 3375 3376 0
3377 3378 3379 3380 0
3381 3382 3383 3384 0
3385 3386 3387 3388 0
3389 3390 3391 3392 0
3393 3394 3395 3396 0
3397 3398 3399 3400 0
3401 3402 3403 3404 0
3405 3406 3407 3408 0
3409 3410 3411 3412 0
3413 3414 3415 3416 0
3417 3418 3419 3420 0
3421 3422 3423 3424 0
3425 3426 3427 3428 0
3429 3430 3431 3432 0
3433 3434 3435 3436 0
3437 3438 3439 3440 0
3441 3442 3443 3444 0
3445 3446 3447 3448 0
3449 3450 3451 3452 0
3453 3454 3455 3456 0
3457 3458 3459 3460 0
3461 3462 3463 3464 0
3465 3466 3467 3468 0
3469 3470 3471 3472 0
3473 3474 3475 3476 0
3477 3478 3479 3480 0
3481 3482 3483 3484 0
3485 3486 3487 3488 0
3489 3490 3491 3492 0
3493 3494 3495 3496 0
3497 3498 3499 3500 0
3501 3502 3503 3504 0
3505 3506 3507 3508 0
3509 3510 3511 3512 0
3513 3514 3515 3516 0
3517 3518 3519 3520 0
3521 3522 3523 3524 0
3525 3526 3527 3528 0
3529 3530 3531 3532 0
3533 3534 3535 3536 0
3537 3538 3539 3540 0
3541 3542 3543 3544 0
3545 3546 3547 3548 0
3549 3550 3551 3552 0
3553 3554 3555 3556 0
3557 3558 3559 3560 0
3561 3562 3563 3564 0
3565 3566 3567 3568 0
3569 3570 3571 3572 0
3573 3574 3575 3576 0
3577 3578 3579 3580 0
3581 3582 3583 3584 0
3585 3586 3587 3588 0
3589 3590 3591 3592 0
3593 3594 3595 3596 0
3597 3598 3599 3600 0
3601 3602 3603 3604 0
3605 3606 3607 3608 0
3609 3610 3611 3612 0
3613 3614 3615 3616 0
3617 3618 3619 3620 0
3621 3622 3623 3624 0
3625 3626 3627 3628 0
3629 3630 3631 3632 0
3633 3634 3635 3636 0
3637 3638 3639 3640 0
3641 3642 3643 3644 0
3645 3646 3647 3648 0
3649 3650 3651 3652 0
3653 3654 3655 3656 0
3657 3658 3659 3660 0
3661 3662 3663 3664 0
3665 3666 3667 3668 0
3669 3670 3671 3672 0
3673 3674 3675 3676 0
3677 3678 3679 3680 0
3681 3682 3683 3684 0
3685 3686 3687 3688 0
3689 3690 3691 3692 0
3693 3694 3695 3696 0
3697 3698 3699 3700 0
3701 3702 3703 3704 0
3705 3706 3707 3708 0
3709 3710 3711 3712 0
3713 3714 3715 3716 0
3717 3718 3719 3720 0
3721 3722 3723 3724 0
3725 3726 3727 3728 0
3729 3730 3731 3732 0
3733 3734 3735 3736 0
3737 3738 3739 3740 0
3741 3742 3743 3744 0
3745 3746 3747 3748 0
3749 3750 3751 3752 0
3753 3754 3755 3756 0
3757 3758 3759 3760 0
3761 3762 3763 3764 0
3765 3766 3767 3768 0
3769 3770 3771 3772 0
3773 3774 3775 3776 0
3777 3778 3779 3780 0
3781 3782 3783 3784 0
3785 3786 3787 3788 0
3789 3790 3791 3792 0
3793 3794 3795 3796 0
3797 3798 3799 3800 0
3801 3802 3803 3804 0
3805 3806 3807 3808 0
3809 3810 3811 3812 0
3813 3814 3815 3816 0
3817 3818 3819 3820 0
3821 3822 3823 3824 0
3825 3826 3827 3828 0
3829 3830 3831 3832 0
3833 3834 3835 3836 0
3837 3838 3839 3840 0
3841 3842 3843 3844 0
3845 3846 3847 3848 0
3849 3850 3851 3852 0
3853 3854 3855 3856 0
3857 3858 3859 3860 0
3861 3862 3863 3864 0
3865 3866 3867 3868 0
3869 3870 3871 3872 0
3873 3874 3875 3876 0
3877 3878 3879 3880 0
3881 3882 3883 3884 0
3885 3886 3887 3888 0
3889 3890 3891 3892 0
3893 3894 3895 3896 0
3897 3898 3899 3900 0
3901 3902 3903 3904 0
3905 3906 3907 3908 0
3909 3910 3911 3912 0
3913 3914 3915 3916 0
3917 3918 3919 3920 0
3921 3922 3923 3924 0
3925 3926 3927 3928 0
3929 3930 3931 3932 0
3933 3934 3935 3936 0
3937 3938 3939 3940 0
3941 3942 3943 3944 0
3945 3946 3947 3948 0
3949 3950 3951 3952 0
3953 3954 3955 3956 0
3957 3958 3959 3960 0
3961 3962 3963 3964 0
3965 3966 3967 3968 0
3969 3970 3971 3972 0
3973 3974 3975 3976 0
3977 3978 3979 3980 0
3981 3982 3983 3984 0
3985 3986 3987 3988 0
3989 3990 3991 3992 0
3993 3994 3995 3996 0
3997 3998 3999 4000 0
4001 4002 4003 4004 0
4005 4006 4007 4008 0
4009 4010 4011 4012 0
4013 4014 4015 4016 0
4017 4018 4019 4020 0
4021 4022 4023 4024 0
4025 4026 4027 4028 0
4029 4030 4031 4032 0
4033 4034 4035 4036 0
4037 4038 4039 4040 0
4041 4042 4043 4044 0
4045 4046 4047 4048 0
4049 4050 4051 4052 0
4053 4054 4055 4056 0
4057 4058 4059 4060 0
4061 4062 4063 4064 0
4065 4066 4067 4068 0
4069 4070 4071 4072 0
4073 4074 4075 4076 0
4077 4078 4079 4080 0
4081 4082 4083 4084 0
4085 4086 4087 4088 0
4089 4090 4091 4092 0
4093 4094 4095 4096 0
4097 4098 4099 4100 0
4101 4102 4103 4104 0
4105 4106 4107 4108 0
4109 4110 4111 4112 0
4113 4114 4115 4116 0
4117 4118 4119 4120 0
4121 4122 4123 4124 0
4125 4126 4127 4128 0
4129 4130 4131 4132 0
4133 4134 4135 4136 0
4137 4138 4139 4140 0
4141 4142 4143 4144 0
4145 4146 4147 4148 0
4149 4150 4151 4152 0
4153 4154 4155 4156 0
4157 4158 4159 4160 0
4161 4162 4163 4164 0
4165 4166 4167 4168 0
4169 4170 4171 4172 0
4173 4174 4175 4176 0
4177 4178 4179 4180 0
4181 4182 4183 4184 0
4185 4186 4187 4188 0
4189 4190 4191 4192 0
4193 4194 4195 4196 0
4197 4198 4199 4200 0
4201 4202 4203 4204 0
4205 4206 4207 4208 0
4209 4210 4211 4212 0
4213 4214 4215 4216 0
4217 4218 4219 4220 0
4221 4222 4223 4224 0
4225 4226 4227 4228 0
4229 4230 4231 4232 0
4233 4234 4235 4236 0
4237 4238 4239 4240 0
4241 4242 4243 4244 0
4245 4246 4247 4248 0
4249 4250 4251 4252 0
4253 4254 4255 4256 0
4257 4258 4259 4260 0
4261 4262 4263 4264 0
4265 4266 4267 4268 0
4269 4270 4271 4272 0
4273 4274 4275 4276 0
4277 4278 4279 4280 0
4281 4282 4283 4284 0
4285 4286 4287 4288 0
4289 4290 4291 4292 0
4293 4294 4295 4296 0
4297 4298 4299 4300 0
4301 4302 4303 4304 0
4305 4306 4307 4308 0
4309 4310 4311 4312 0
4313 4314 4315 4316 0
4317 4318 4319 4320 0
4321 4322 4323 4324 0
4325 4326 4327 4328 0
4329 4330 4331 4332 0
4333 4334 4335 4336 0
4337 4338 4339 4340 0
4341 4342 4343 4344 0
4345 4346 4347 4348 0
4349 4350 4351 4352 0
4353 4354 4355 4356 0
4357 4358 4359 4360 0
4361 4362 4363 4364 0
4365 4366 4367 4368 0
4369 4370 4371 4372 0
4373 4374 4375 4376 0
4377 4378 4379 4380 0
4381 4382 4383 4384 0
4385 4386 4387 4388 0
4389 4390 4391 4392 0
4393 4394 4395 4396 0
4397 4398 4399 4400 0
4401 4402 4403 4404 0
4405 4406 4407 4408 0
4409 4410 4411 4412 0
4413 4414 4415 4416 0
4417 4418 4419 4420 0
4421 4422 4423 4424 0
4425 4426 4427 4428 0
4429 4430 4431 4432 0
4433 4434 4435 4436 0
4437 4438 4439 4440 0
4441 4442 4443 4444 0
4445 4446 4447 4448 0
4449 4450 4451 4452 0
4453 4454 4455 4456 0
4457 4458 4459 4460 0
4461 4462 4463 4464 0
4465 4466 4467 4468 0
4469 4470 4471 4472 0
4473 4474 4475 4476 0
4477 4478 4479 4480 0
4481 4482 4483 4484 0
4485 4486 4487 4488 0
4489 4490 4491 4492 0
4493 4494 4495 4496 0
4497 4498 4499 4500 0
4501 4502 4503 4504 0
4505 4506 4507 4508 0
4509 4510 4511 4512 0
4513 4514 4515 4516 0
4517 4518 4519 4520 0
4521 4522 4523 4524 0
4525 4526 4527 4528 0
4529 4530 4531 4532 0
4533 4534 4535 4536 0
4537 4538 4539 4540 0
4541 4542 4543 4544 0
4545 4546 4547 4548 0
4549 4550 4551 4552 0
4553 4554 4555 4556 0
4557 4558 4559 4560 0
4561 4562 4563 4564 0
4565 4566 4567 4568 0
4569 4570 4571 4572 0
4573 4574 4575 4576 0
4577 4578 4579 4580 0
4581 4582 4583 4584 0
4585 4586 4587 4588 0
4589 4590 4591 4592 0
4593 4594 4595 4596 0
4597 4598 4599 4600 0
4601 4602 4603 4604 0
4605 4606 4607 4608 0
4609 4610 4611 4612 0
4613 4614 4615 4616 0
4617 4618 4619 4620 0
4621 4622 4623 4624 0
4625 4626 4627 4628 0
4629 4630 4631 4632 0
4633 4634 4635 4636 0
4637 4638 4639 4640 0
4641 4642 4643 4644 0
4645 4646 4647 4648 0
4649 4650 4651 4652 0
4653 4654 4655 4656 0
4657 4658 4659 4660 0
4661 4662 4663 4664 0
4665 4666 4667 4668 0
4669 4670 4671 4672 0
4673 4674 4675 4676 0
4677 4678 4679 4680 0
4681 4682 4683 4684 0
4685 4686 4687 4688 0
4689 4690 4691 4692 0
4693 4694 4695 4696 0
4697 4698 4699 4700 0
4701 4702 4703 4704 0
4705 4706 4707 4708 0
4709 4710 4711 4712 0
4713 4714 4715 4716 0
4717 4718 4719 4720 0
4721 4722 4723 4724 0
4725 4726 4727 4728 0
4729 4730 4731 4732 0
4733 4734 4735 4736 0
4737 4738 4739 4740 0
4741 4742 4743 4744 0
4745 4746 4747 4748 0
4749 4750 4751 4752 0
4753 4754 4755 4756 0
4757 4758 4759 4760 0
4761 4762 4763 4764 0
4765 4766 4767 4768 0
4769 4770 4771 4772 0
4773 4774 4775 4776 0
4777 4778 4779 4780 0
4781 4782 4783 4784 0
4785 4786 4787 4788 0
4789 4790 4791 4792 0
4793 4794 4795 4796 0
4797 4798 4799 4800 0
4801 4802 4803 4804 0
4805 4806 4807 4808 0
4809 4810 4811 4812 0
4813 4814 4815 4816 0
4817 4818 4819 4820 0
4821 4822 4823 4824 0
4825 4826 4827 4828 0
4829 4830 4831 4832 0
4833 4834 4835 4836 0
4837 4838 4839 4840 0
4841 4842 4843 4844 0
4845 4846 4847 4848 0
4849 4850 4851 4852 0
4853 4854 4855 4856 0
4857 4858 4859 4860 0
4861 4862 4863 4864 0
4865 4866 4867 4868 0
4869 4870 4871 4872 0
4873 4874 4875 4876 0
4877 4878 4879 4880 0
4881 4882 4883 4884 0
4885 4886 4887 4888 0
4889 4890 4891 4892 0
4893 4894 4895 4896 0
4897 4898 4899 4900 0
4901 4902 4903 4904 0
4905 4906 4907 4908 0
4909 4910 4911 4912 0
4913 4914 4915 4916 0
4917 4918 4919 4920 0
4921 4922 4923 4924 0
4925 4926 4927 4928 0
4929 4930 4931 4932 0
4933 4934 4935 4936 0
4937 4938 4939 4940 0
4941 4942 4943 4944 0
4945 4946 4947 4948 0
4949 4950 4951 4952 0
4953 4954 4955 4956 0
4957 4958 4959 4960 0
4961 4962 4963 4964 0
4965 4966 4967 4968 0
4969 4970 4971 4972 0
4973 4974 4975 4976 0
4977 4978 4979 4980 0
4981 4982 4983 4984 0
4985 4986 4987 4988 0
4989 4990 4991 4992 0
4993 4994 4995 4996 0
4997 4998 4999 5000 0
5001 5002 5003 5004 0
5005 5006 5007 5008 0
5009 5010 5011 5012 0
5013 5014 5015 5016 0
5017 5018 5019 5020 0
5021 5022 5023 5024 0
5025 5026 5027 5028 0
5029 5030 5031 5032 0
5033 5034 5035 5036 0
5037 5038 5039 5040 0
5041 5042 5043 5044 0
5045 5046 5047 5048 0
5049 5050 5051 5052 0
5053 5054 5055 5056 0
5057 5058 5059 5060 0
5061 5062 5063 5064 0
5065 5066 5067 5068 0
5069 5070 5071 5072 0
5073 5074 5075 5076 0
5077 5078 5079 5080 0
5081 5082 5083 5084 0
5085 5086 5087 5088 0
5089 5090 5091 5092 0
5093 5094 5095 5096 0
5097 5098 5099 5100 0
5101 5102 5103 5104 0
5105 5106 5107 5108 0
5109 5110 5111 5112 0
5113 5114 5115 5116 0
5117 5118 5119 5120 0
5121 5122 5123 5124 0
5125 5126 5127 5128 0
5129 5130 5131 5132 0
5133 5134 5135 5136 0
5137 5138 5139 5140 0
5141 5142 5143 5144 0
5145 5146 5147 5148 0
5149 5150 5151 5152 0
5153 5154 5155 5156 0
5157 5158 5159 5160 0
5161 5162 5163 5164 0
5165 5166 5167 5168 0
5169 5170 5171 5172 0
5173 5174 5175 5176 0
5177 5178 5179 5180 0
5181 5182 5183 5184 0
5185 5186 5187 5188 0
5189 5190 5191 5192 0
5193 5194 5195 5196 0
5197 5198 5199 5200 0
5201 5202 5203 5204 0
5205 5206 5207 5208 0
5209 5210 5211 5212 0
5213 5214 5215 5216 0
5217 5218 5219 5220 0
5221 5222 5223 5224 0
5225 5226 5227 5228 0
5229 5230 5231 5232 0
5233 5234 5235 5236 0
5237 5238 5239 5240 0
5241 5242 5243 5244 0
5245 5246 5247 5248 0
5249 5250 5251 5252 0
5253 5254 5255 5256 0
5257 5258 5259 5260 0
5261 5262 5263 5264 0
5265 5266 5267 5268 0
5269 5270 5271 5272 0
5273 5274 5275 5276 0
5277 5278 5279 5280 0
5281 5282 5283 5284 0
5285 5286 5287 5288 0
5289 5290 5291 5292 0
5293 5294 5295 5296 0
5297 5298 5299 5300 0
5301 5302 5303 5304 0
5305 5306 5307 5308 0
5309 5310 5311 5312 0
5313 5314 5315 5316 0
5317 5318 5319 5320 0
5321 5322 5323 5324 0
5325 5326 5327 5328 0
5329 5330 5331 5332 0
5333 5334 5335 5336 0
5337 5338 5339 5340 0
5341 5342 5343 5344 0
5345 5346 5347 5348 0
5349 5350 5351 5352 0
5353 5354 5355 5356 0
5357 5358 5359 5360 0
5361 5362 5363 5364 0
5365 5366 5367 5368 0
5369 5370 5371 5372 0
5373 5374 5375 5376 0
5377 5378 5379 5380 0
5381 5382 5383 5384 0
5385 5386 5387 5388 0
5389 5390 5391 5392 0
5393 5394 5395 5396 0
5397 5398 5399 5400 0
5401 5402 5403 5404 0
5405 5406 5407 5408 0
5409 5410 5411 5412 0
5413 5414 5415 5416 0
5417 5418 5419 5420 0
5421 5422 5423 5424 0
5425 5426 5427 5428 0
5429 5430 5431 5432 0
5433 5434 5435 5436 0
5437 5438 5439 5440 0
5441 5442 5443 5444 0
5445 5446 5447 5448 0
5449 5450 5451 5452 0
5453 5454 5455 5456 0
5457 5458 5459 5460 0
5461 5462 5463 5464 0
5465 5466 5467 5468 0
5469 5470 5471 5472 0
5473 5474 5475 5476 0
5477 5478 5479 5480 0
5481 5482 5483 5484 0
5485 5486 5487 5488 0
5489 5490 5491 5492 0
5493 5494 5495 5496 0
5497 5498 5499 5500 0
5501 5502 5503 5504 0
5505 5506 5507 5508 0
5509 5510 5511 5512 0
5513 5514 5515 5516 0
5517 5518 5519 5520 0
5521 5522 5523 5524 0
5525 5526 5527 5528 0
5529 5530 5531 5532 0
5533 5534 5535 5536 0
5537 5538 5539 5540 0
5541 5542 5543 5544 0
5545 5546 5547 5548 0
5549 5550 5551 5552 0
5553 5554 5555 5556 0
5557 5558 5559 5560 0
5561 5562 5563 5564 0
5565 5566 5567 5568 0
5569 5570 5571 5572 0
5573 5574 5575 5576 0
5577 5578 5579 5580 0
5581 5582 5583 5584 0
5585 5586 5587 5588 0
5589 5590 5591 5592 0
5593 5594 5595 5596 0
5597 5598 5599 5600 0
5601 5602 5603 5604 0
5605 5606 5607 5608 0
5609 5610 5611 5612 0
5613 5614 5615 5616 0
5617 5618 5619 5620 0
5621 5622 5623 5624 0
5625 5626 5627 5628 0
5629 5630 5631 5632 0
5633 5634 5635 5636 0
5637 5638 5639 5640 0
5641 5642 5643 5644 0
5645 5646 5647 5648 0
5649 5650 5651 5652 0
5653 5654 5655 5656 0
5657 5658 5659 5660 0
5661 5662 5663 5664 0
5665 5666 5667 5668 0
5669 5670 5671 5672 0
5673 5674 5675 5676 0
5677 5678 5679 5680 0
5681 5682 5683 5684 0
5685 5686 5687 5688 0
5689 5690 5691 5692 0
5693 5694 5695 5696 0
5697 5698 5699 5700 0
5701 5702 5703 5704 0
5705 5706 5707 5708 0
5709 5710 5711 5712 0
5713 5714 5715 5716 0
5717 5718 5719 5720 0
5721 5722 5723 5724 0
5725 5726 5727 5728 0
5729 5730 5731 5732 0
5733 5734 5735 5736 0
5737 5738 5739 5740 0
5741 5742 5743 5744 0
5745 5746 5747 5748 0
5749 5750 5751 5752 0
5753 5754 5755 5756 0
5757 5758 5759 5760 0
5761 5762 5763 5764 0
5765 5766 5767 5768 0
5769 5770 5771 5772 0
5773 5774 5775 5776 0
5777 5778 5779 5780 0
5781 5782 5783 5784 0
5785 5786 5787 5788 0
5789 5790 5791 5792 0
5793 5794 5795 5796 0
5797 5798 5799 5800 0
5801 5802 5803 5804 0
5805 5806 5807 5808 0
5809 5810 5811 5812 0
5813 5814 5815 5816 0
5817 5818 5819 5820 0
5821 5822 5823 5824 0
5825 5826 5827 5828 0
5829 5830 5831 5832 0
5833 5834 5835 5836 0
5837 5838 5839 5840 0
5841 5842 5843 5844 0
5845 5846 5847 5848 0
5849 5850 5851 5852 0
5853 5854 5855 5856 0
5857 5858 5859 5860 0
5861 5862 5863 5864 0
5865 5866 5867 5868 0
5869 5870 5871 5872 0
5873 5874 5875 5876 0
5877 5878 5879 5880 0
5881 5882 5883 5884 0
5885 5886 5887 5888 0
5889 5890 5891 5892 0
5893 5894 5895 5896 0
5897 5898 5899 5900 0
5901 5902 5903 5904 0
5905 5906 5907 5908 0
5909 5910 5911 5912 0
5913 5914 5915 5916 0
5917 5918 5919 5920 0
5921 5922 5923 5924 0
5925 5926 5927 5928 0
5929 5930 5931 5932 0
5933 5934 5935 5936 0
5937 5938 5939 5940 0
5941 5942 5943 5944 0
5945 5946 5947 5948 0
5949 5950 5951 5952 0
5953 5954 5955 5956 0
5957 5958 5959 5960 0
5961 5962 5963 5964 0
5965 5966 5967 5968 0
5969 5970 5971 5972 0
5973 5974 5975 5976 0
5977 5978 5979 5980 0
5981 5982 5983 5984 0
5985 5986 5987 5988 0
5989 5990 5991 5992 0
5993 5994 5995 5996 0
5997 5998 5999 6000 0
6001 6002 6003 6004 0
-1 -5 0
-2 -6 0
-3 -7 0
-4 -8 0
-1 -121 0
-2 -122 0
-3 -123 0
-4 -124 0
-1 -173 0
-2 -174 0
-3 -175 0
-4 -176 0
-1 -369 0
-2 -370 0
-3 -371 0
-4 -372 0
-1 -433 0
-2 -434 0
-3 -435 0
-4 -436 0
-1 -585 0
-2 -586 0
-3 -587 0
-4 -588 0
-5 -9 0
-6 -10 0
-7 -11 0
-8 -12 0
-5 -25 0
-6 -26 0
-7 -27 0
-8 -28 0
-5 -257 0
-6 -258 0
-7 -259 0
-8 -260 0
-5 -369 0
-6 -370 0
-7 -371 0
-8 -372 0
-5 -373 0
-6 -374 0
-7 -375 0
-8 -376 0
-5 -417 0
-6 -418 0
-7 -419 0
-8 -420 0
-5 -461 0
-6 -462 0
-7 -463 0
-8 -464 0
-5 -593 0
-6 -594 0
-7 -595 0
-8 -596 0
-9 -97 0
-10 -98 0
-11 -99 0
-12 -100 0
-9 -117 0
-10 -118 0
-11 -119 0
-12 -120 0
-9 -177 0
-10 -178 0
-11 -179 0
-12 -180 0
-9 -377 0
-10 -378 0
-11 -379 0
-12 -380 0
-9 -381 0
-10 -382 0
-11 -383 0
-12 -384 0
-9 -461 0
-10 -462 0
-11 -463 0
-12 -464 0
-9 -489 0
-10 -490 0
-11 -491 0
-12 -492 0
-9 -597 0
-10 -598 0
-11 -599 0
-12 -600 0
-13 -17 0
-14 -18 0
-15 -19 0
-16 -20 0
-13 -45 0
-14 -46 0
-15 -47 0
-16 -48 0
-13 -197 0
-14 -198 0
-15 -199 0
-16 -200 0
-13 -337 0
-14 -338 0
-15 -339 0
-16 -340 0
-13 -421 0
-14 -422 0
-15 -423 0
-16 -424 0
-13 -433 0
-14 -434 0
-15 -435 0
-16 -436 0
-13 -533 0
-14 -534 0
-15 -535 0
-16 -536 0
-13 -697 0
-14 -698 0
-15 -699 0
-16 -700 0
-17 -21 0
-18 -22 0
-19 -23 0
-20 -24 0
-17 -165 0
-18 -166 0
-19 -167 0
-20 -168 0
-17 -341 0
-18 -342 0
-19 -343 0
-20 -344 0
-17 -425 0
-18 -426 0
-19 -427 0
-20 -428 0
-17 -461 0
-18 -462 0
-19 -463 0
-20 -464 0
-17 -533 0
-18 -534 0
-19 -535 0
-20 -536 0
-17 -537 0
-18 -538 0
-19 -539 0
-20 -540 0
-17 -709 0
-18 -710 0
-19 -711 0
-20 -712 0
-21 -41 0
-22 -42 0
-23 -43 0
-24 -44 0
-21 -161 0
-22 -162 0
-23 -163 0
-24 -164 0
-21 -349 0
-22 -350 0
-23 -351 0
-24 -352 0
-21 -461 0
-22 -462 0
-23 -463 0
-24 -464 0
-21 -485 0
-22 -486 0
-23 -487 0
-24 -488 0
-21 -541 0
-22 -542 0
-23 -543 0
-24 -544 0
-21 -545 0
-22 -546 0
-23 -547 0
-24 -548 0
-25 -29 0
-26 -30 0
-27 -31 0
-28 -32 0
-25 -33 0
-26 -34 0
-27 -35 0
-28 -36 0
-25 -421 0
-26 -422 0
-27 -423 0
-28 -424 0
-25 -609 0
-26 -610 0
-27 -611 0
-28 -612 0
-25 -665 0
-26 -666 0
-27 -667 0
-28 -668 0
-25 -673 0
-26 -674 0
-27 -675 0
-28 -676 0
-25 -785 0
-26 -786 0
-27 -787 0
-28 -788 0
-29 -89 0
-30 -90 0
-31 -91 0
-32 -92 0
-29 -433 0
-30 -434 0
-31 -435 0
-32 -436 0
-29 -613 0
-30 -614 0
-31 -615 0
-32 -616 0
-29 -617 0
-30 -618 0
-31 -619 0
-32 -620 0
-29 -681 0
-30 -682 0
-31 -683 0
-32 -684 0
-33 -69 0
-34 -70 0
-35 -71 0
-36 -72 0
-33 -221 0
-34 -222 0
-35 -223 0
-36 -224 0
-33 -289 0
-34 -290 0
-35 -291 0
-36 -292 0
-33 -653 0
-34 -654 0
-35 -655 0
-36 -656 0
-33 -693 0
-34 -694 0
-35 -695 0
-36 -696 0
-33 -713 0
-34 -714 0
-35 -715 0
-36 -716 0
-33 -849 0
-34 -850 0
-35 -851 0
-36 -852 0
-37 -41 0
-38 -42 0
-39 -43 0
-40 -44 0
-37 -49 0
-38 -50 0
-39 -51 0
-40 -52 0
-37 -53 0
-38 -54 0
-39 -55 0
-40 -56 0
-37 -309 0
-38 -310 0
-39 -311 0
-40 -312 0
-37 -365 0
-38 -366 0
-39 -367 0
-40 -368 0
-37 -605 0
-38 -606 0
-39 -607 0
-40 -608 0
-37 -717 0
-38 -718 0
-39 -719 0
-40 -720 0
-37 -745 0
-38 -746 0
-39 -747 0
-40 -748 0
-37 -749 0
-38 -750 0
-39 -751 0
-40 -752 0
-37 -949 0
-38 -950 0
-39 -951 0
-40 -952 0
-41 -133 0
-42 -134 0
-43 -135 0
-44 -136 0
-41 -181 0
-42 -182 0
-43 -183 0
-44 -184 0
-41 -265 0
-42 -266 0
-43 -267 0
-44 -268 0
-41 -617 0
-42 -618 0
-43 -619 0
-44 -620 0
-41 -621 0
-42 -622 0
-43 -623 0
-44 -624 0
-41 -721 0
-42 -722 0
-43 -723 0
-44 -724 0
-41 -753 0
-42 -754 0
-43 -755 0
-44 -756 0
-45 -49 0
-46 -50 0
-47 -51 0
-48 -52 0
-45 -189 0
-46 -190 0
-47 -191 0
-48 -192 0
-45 -397 0
-46 -398 0
-47 -399 0
-48 -400 0
-45 -669 0
-46 -670 0
-47 -671 0
-48 -672 0
-45 -757 0
-46 -758 0
-47 -759 0
-48 -760 0
-45 -793 0
-46 -794 0
-47 -795 0
-48 -796 0
-45 -797 0
-46 -798 0
-47 -799 0
-48 -800 0
-49 -53 0
-50 -54 0
-51 -55 0
-52 -56 0
-49 -57 0
-50 -58 0
-51 -59 0
-52 -60 0
-49 -121 0
-50 -122 0
-51 -123 0
-52 -124 0
-49 -461 0
-50 -462 0
-51 -463 0
-52 -464 0
-49 -685 0
-50 -686 0
-51 -687 0
-52 -688 0
-49 -761 0
-50 -762 0
-51 -763 0
-52 -764 0
-49 -777 0
-50 -778 0
-51 -779 0
-52 -780 0
-49 -861 0
-50 -862 0
-51 -863 0
-52 -864 0
-49 -873 0
-50 -874 0
-51 -875 0
-52 -876 0
-49 -1061 0
-50 -1062 0
-51 -1063 0
-52 -1064 0
-53 -125 0
-54 -126 0
-55 -127 0
-56 -128 0
-53 -209 0
-54 -210 0
-55 -211 0
-56 -212 0
-53 -345 0
-54 -346 0
-55 -347 0
-56 -348 0
-53 -477 0
-54 -478 0
-55 -479 0
-56 -480 0
-53 -769 0
-54 -770 0
-55 -771 0
-56 -772 0
-53 -781 0
-54 -782 0
-55 -783 0
-56 -784 0
-53 -865 0
-54 -866 0
-55 -867 0
-56 -868 0
-53 -877 0
-54 -878 0
-55 -879 0
-56 -880 0
-57 -85 0
-58 -86 0
-59 -87 0
-60 -88 0
-57 -221 0
-58 -222 0
-59 -223 0
-60 -224 0
-57 -489 0
-58 -490 0
-59 -491 0
-60 -492 0
-57 -881 0
-58 -882 0
-59 -883 0
-60 -884 0
-57 -885 0
-58 -886 0
-59 -887 0
-60 -888 0
-61 -65 0
-62 -66 0
-63 -67 0
-64 -68 0
-61 -73 0
-62 -74 0
-63 -75 0
-64 -76 0
-61 -433 0
-62 -434 0
-63 -435 0
-64 -436 0
-61 -769 0
-62 -770 0
-63 -771 0
-64 -772 0
-61 -925 0
-62 -926 0
-63 -927 0
-64 -928 0
-61 -937 0
-62 -938 0
-63 -939 0
-64 -940 0
-65 -77 0
-66 -78 0
-67 -79 0
-68 -80 0
-65 -81 0
-66 -82 0
-67 -83 0
-68 -84 0
-65 -85 0
-66 -86 0
-67 -87 0
-68 -88 0
-65 -257 0
-66 -258 0
-67 -259 0
-68 -260 0
-65 -409 0
-66 -410 0
-67 -411 0
-68 -412 0
-65 -441 0
-66 -442 0
-67 -443 0
-68 -444 0
-65 -941 0
-66 -942 0
-67 -943 0
-68 -944 0
-69 -81 0
-70 -82 0
-71 -83 0
-72 -84 0
-69 -445 0
-70 -446 0
-71 -447 0
-72 -448 0
-69 -957 0
-70 -958 0
-71 -959 0
-72 -960 0
-69 -973 0
-70 -974 0
-71 -975 0
-72 -976 0
-69 -1165 0
-70 -1166 0
-71 -1167 0
-72 -1168 0
-73 -81 0
-74 -82 0
-75 -83 0
-76 -84 0
-73 -117 0
-74 -118 0
-75 -119 0
-76 -120 0
-73 -197 0
-74 -198 0
-75 -199 0
-76 -200 0
-73 -449 0
-74 -450 0
-75 -451 0
-76 -452 0
-73 -497 0
-74 -498 0
-75 -499 0
-76 -500 0
-73 -961 0
-74 -962 0
-75 -963 0
-76 -964 0
-73 -981 0
-74 -982 0
-75 -983 0
-76 -984 0
-77 -81 0
-78 -82 0
-79 -83 0
-80 -84 0
-77 -89 0
-78 -90 0
-79 -91 0
-80 -92 0
-77 -97 0
-78 -98 0
-79 -99 0
-80 -100 0
-77 -205 0
-78 -206 0
-79 -207 0
-80 -208 0
-77 -285 0
-78 -286 0
-79 -287 0
-80 -288 0
-77 -457 0
-78 -458 0
-79 -459 0
-80 -460 0
-77 -561 0
-78 -562 0
-79 -563 0
-80 -564 0
-77 -985 0
-78 -986 0
-79 -987 0
-80 -988 0
-81 -93 0
-82 -94 0
-83 -95 0
-84 -96 0
-81 -101 0
-82 -102 0
-83 -103 0
-84 -104 0
-81 -173 0
-82 -174 0
-83 -175 0
-84 -176 0
-81 -329 0
-82 -330 0
-83 -331 0
-84 -332 0
-81 -461 0
-82 -462 0
-83 -463 0
-84 -464 0
-81 -565 0
-82 -566 0
-83 -567 0
-84 -568 0
-81 -965 0
-82 -966 0
-83 -967 0
-84 -968 0
-81 -989 0
-82 -990 0
-83 -991 0
-84 -992 0
-85 -89 0
-86 -90 0
-87 -91 0
-88 -92 0
-85 -93 0
-86 -94 0
-87 -95 0
-88 -96 0
-85 -289 0
-86 -290 0
-87 -291 0
-88 -292 0
-85 -581 0
-86 -582 0
-87 -583 0
-88 -584 0
-85 -1009 0
-86 -1010 0
-87 -1011 0
-88 -1012 0
-85 -1201 0
-86 -1202 0
-87 -1203 0
-88 -1204 0
-89 -93 0
-90 -94 0
-91 -95 0
-92 -96 0
-89 -97 0
-90 -98 0
-91 -99 0
-92 -100 0
-89 -105 0
-90 -106 0
-91 -107 0
-92 -108 0
-89 -109 0
-90 -110 0
-91 -111 0
-92 -112 0
-89 -165 0
-90 -166 0
-91 -167 0
-92 -168 0
-89 -185 0
-90 -186 0
-91 -187 0
-92 -188 0
-89 -317 0
-90 -318 0
-91 -319 0
-92 -320 0
-89 -433 0
-90 -434 0
-91 -435 0
-92 -436 0
-89 -805 0
-90 -806 0
-91 -807 0
-92 -808 0
-89 -913 0
-90 -914 0
-91 -915 0
-92 -916 0
-89 -921 0
-90 -922 0
-91 -923 0
-92 -924 0
-89 -1017 0
-90 -1018 0
-91 -1019 0
-92 -1020 0
-89 -1057 0
-90 -1058 0
-91 -1059 0
-92 -1060 0
-89 -1241 0
-90 -1242 0
-91 -1243 0
-92 -1244 0
-93 -101 0
-94 -102 0
-95 -103 0
-96 -104 0
-93 -345 0
-94 -346 0
-95 -347 0
-96 -348 0
-93 -513 0
-94 -514 0
-95 -515 0
-96 -516 0
-93 -809 0
-94 -810 0
-95 -811 0
-96 -812 0
-93 -1013 0
-94 -1014 0
-95 -1015 0
-96 -1016 0
-93 -1021 0
-94 -1022 0
-95 -1023 0
-96 -1024 0
-93 -1245 0
-94 -1246 0
-95 -1247 0
-96 -1248 0
-97 -101 0
-98 -102 0
-99 -103 0
-100 -104 0
-97 -129 0
-98 -130 0
-99 -131 0
-100 -132 0
-97 -169 0
-98 -170 0
-99 -171 0
-100 -172 0
-97 -325 0
-98 -326 0
-99 -327 0
-100 -328 0
-97 -437 0
-98 -438 0
-99 -439 0
-100 -440 0
-97 -597 0
-98 -598 0
-99 -599 0
-100 -600 0
-97 -601 0
-98 -602 0
-99 -603 0
-100 -604 0
-97 -813 0
-98 -814 0
-99 -815 0
-100 -816 0
-97 -1025 0
-98 -1026 0
-99 -1027 0
-100 -1028 0
-97 -1061 0
-98 -1062 0
-99 -1063 0
-100 -1064 0
-101 -229 0
-102 -230 0
-103 -231 0
-104 -232 0
-101 -517 0
-102 -518 0
-103 -519 0
-104 -520 0
-101 -605 0
-102 -606 0
-103 -607 0
-104 -608 0
-101 -817 0
-102 -818 0
-103 -819 0
-104 -820 0
-101 -1029 0
-102 -1030 0
-103 -1031 0
-104 -1032 0
-101 -1065 0
-102 -1066 0
-103 -1067 0
-104 -1068 0
-105 -321 0
-106 -322 0
-107 -323 0
-108 -324 0
-105 -461 0
-106 -462 0
-107 -463 0
-108 -464 0
-105 -825 0
-106 -826 0
-107 -827 0
-108 -828 0
-105 -917 0
-106 -918 0
-107 -919 0
-108 -920 0
-105 -1017 0
-106 -1018 0
-107 -1019 0
-108 -1020 0
-105 -1069 0
-106 -1070 0
-107 -1071 0
-108 -1072 0
-109 -145 0
-110 -146 0
-111 -147 0
-112 -148 0
-109 -201 0
-110 -202 0
-111 -203 0
-112 -204 0
-109 -225 0
-110 -226 0
-111 -227 0
-112 -228 0
-109 -521 0
-110 -522 0
-111 -523 0
-112 -524 0
-109 -893 0
-110 -894 0
-111 -895 0
-112 -896 0
-109 -997 0
-110 -998 0
-111 -999 0
-112 -1000 0
-109 -1045 0
-110 -1046 0
-111 -1047 0
-112 -1048 0
-113 -117 0
-114 -118 0
-115 -119 0
-116 -120 0
-113 -433 0
-114 -434 0
-115 -435 0
-116 -436 0
-113 -1085 0
-114 -1086 0
-115 -1087 0
-116 -1088 0
-113 -1097 0
-114 -1098 0
-115 -1099 0
-116 -1100 0
-113 -1149 0
-114 -1150 0
-115 -1151 0
-116 -1152 0
-113 -1313 0
-114 -1314 0
-115 -1315 0
-116 -1316 0
-117 -437 0
-118 -438 0
-119 -439 0
-120 -440 0
-117 -717 0
-118 -718 0
-119 -719 0
-120 -720 0
-117 -1089 0
-118 -1090 0
-119 -1091 0
-120 -1092 0
-117 -1101 0
-118 -1102 0
-119 -1103 0
-120 -1104 0
-117 -1157 0
-118 -1158 0
-119 -1159 0
-120 -1160 0
-121 -125 0
-122 -126 0
-123 -127 0
-124 -128 0
-121 -721 0
-122 -722 0
-123 -723 0
-124 -724 0
-121 -1109 0
-122 -1110 0
-123 -1111 0
-124 -1112 0
-121 -1185 0
-122 -1186 0
-123 -1187 0
-124 -1188 0
-121 -1353 0
-122 -1354 0
-123 -1355 0
-124 -1356 0
-125 -129 0
-126 -130 0
-127 -131 0
-128 -132 0
-125 -133 0
-126 -134 0
-127 -135 0
-128 -136 0
-125 -149 0
-126 -150 0
-127 -151 0
-128 -152 0
-125 -209 0
-126 -210 0
-127 -211 0
-128 -212 0
-125 -245 0
-126 -246 0
-127 -247 0
-128 -248 0
-125 -613 0
-126 -614 0
-127 -615 0
-128 -616 0
-125 -925 0
-126 -926 0
-127 -927 0
-128 -928 0
-125 -1117 0
-126 -1118 0
-127 -1119 0
-128 -1120 0
-125 -1197 0
-126 -1198 0
-127 -1199 0
-128 -1200 0
-129 -137 0
-130 -138 0
-131 -139 0
-132 -140 0
-129 -149 0
-130 -150 0
-131 -151 0
-132 -152 0
-129 -213 0
-130 -214 0
-131 -215 0
-132 -216 0
-129 -369 0
-130 -370 0
-131 -371 0
-132 -372 0
-129 -385 0
-130 -386 0
-131 -387 0
-132 -388 0
-129 -601 0
-130 -602 0
-131 -603 0
-132 -604 0
-129 -1121 0
-130 -1122 0
-131 -1123 0
-132 -1124 0
-129 -1169 0
-130 -1170 0
-131 -1171 0
-132 -1172 0
-129 -1201 0
-130 -1202 0
-131 -1203 0
-132 -1204 0
-133 -137 0
-134 -138 0
-135 -139 0
-136 -140 0
-133 -157 0
-134 -158 0
-135 -159 0
-136 -160 0
-133 -217 0
-134 -218 0
-135 -219 0
-136 -220 0
-133 -301 0
-134 -302 0
-135 -303 0
-136 -304 0
-133 -389 0
-134 -390 0
-135 -391 0
-136 -392 0
-133 -617 0
-134 -618 0
-135 -619 0
-136 -620 0
-133 -937 0
-134 -938 0
-135 -939 0
-136 -940 0
-133 -1117 0
-134 -1118 0
-135 -1119 0
-136 -1120 0
-133 -1213 0
-134 -1214 0
-135 -1215 0
-136 -1216 0
-137 -157 0
-138 -158 0
-139 -159 0
-140 -160 0
-137 -185 0
-138 -186 0
-139 -187 0
-140 -188 0
-137 -373 0
-138 -374 0
-139 -375 0
-140 -376 0
-137 -393 0
-138 -394 0
-139 -395 0
-140 -396 0
-137 -569 0
-138 -570 0
-139 -571 0
-140 -572 0
-137 -941 0
-138 -942 0
-139 -943 0
-140 -944 0
-137 -1121 0
-138 -1122 0
-139 -1123 0
-140 -1124 0
-137 -1173 0
-138 -1174 0
-139 -1175 0
-140 -1176 0
-137 -1217 0
-138 -1218 0
-139 -1219 0
-140 -1220 0
-141 -153 0
-142 -154 0
-143 -155 0
-144 -156 0
-141 -157 0
-142 -158 0
-143 -159 0
-144 -160 0
-141 -197 0
-142 -198 0
-143 -199 0
-144 -200 0
-141 -397 0
-142 -398 0
-143 -399 0
-144 -400 0
-141 -633 0
-142 -634 0
-143 -635 0
-144 -636 0
-141 -989 0
-142 -990 0
-143 -991 0
-144 -992 0
-145 -149 0
-146 -150 0
-147 -151 0
-148 -152 0
-145 -153 0
-146 -154 0
-147 -155 0
-148 -156 0
-145 -269 0
-146 -270 0
-147 -271 0
-148 -272 0
-145 -293 0
-146 -294 0
-147 -295 0
-148 -296 0
-145 -429 0
-146 -430 0
-147 -431 0
-148 -432 0
-145 -1013 0
-146 -1014 0
-147 -1015 0
-148 -1016 0
-145 -1085 0
-146 -1086 0
-147 -1087 0
-148 -1088 0
-145 -1129 0
-146 -1130 0
-147 -1131 0
-148 -1132 0
-149 -157 0
-150 -158 0
-151 -159 0
-152 -160 0
-149 -273 0
-150 -274 0
-151 -275 0
-152 -276 0
-149 -433 0
-150 -434 0
-151 -435 0
-152 -436 0
-149 -641 0
-150 -642 0
-151 -643 0
-152 -644 0
-149 -737 0
-150 -738 0
-151 -739 0
-152 -740 0
-149 -745 0
-150 -746 0
-151 -747 0
-152 -748 0
-149 -1089 0
-150 -1090 0
-151 -1091 0
-152 -1092 0
-149 -1133 0
-150 -1134 0
-151 -1135 0
-152 -1136 0
-149 -1261 0
-150 -1262 0
-151 -1263 0
-152 -1264 0
-149 -1269 0
-150 -1270 0
-151 -1271 0
-152 -1272 0
-153 -157 0
-154 -158 0
-155 -159 0
-156 -160 0
-153 -165 0
-154 -166 0
-155 -167 0
-156 -168 0
-153 -305 0
-154 -306 0
-155 -307 0
-156 -308 0
-153 -453 0
-154 -454 0
-155 -455 0
-156 -456 0
-153 -541 0
-154 -542 0
-155 -543 0
-156 -544 0
-153 -625 0
-154 -626 0
-155 -627 0
-156 -628 0
-153 -1021 0
-154 -1022 0
-155 -1023 0
-156 -1024 0
-153 -1097 0
-154 -1098 0
-155 -1099 0
-156 -1100 0
-153 -1105 0
-154 -1106 0
-155 -1107 0
-156 -1108 0
-153 -1129 0
-154 -1130 0
-155 -1131 0
-156 -1132 0
-153 -1137 0
-154 -1138 0
-155 -1139 0
-156 -1140 0
-153 -1441 0
-154 -1442 0
-155 -1443 0
-156 -1444 0
-157 -169 0
-158 -170 0
-159 -171 0
-160 -172 0
-157 -225 0
-158 -226 0
-159 -227 0
-160 -228 0
-157 -277 0
-158 -278 0
-159 -279 0
-160 -280 0
-157 -461 0
-158 -462 0
-159 -463 0
-160 -464 0
-157 -649 0
-158 -650 0
-159 -651 0
-160 -652 0
-157 -657 0
-158 -658 0
-159 -659 0
-160 -660 0
-157 -749 0
-158 -750 0
-159 -751 0
-160 -752 0
-157 -1029 0
-158 -1030 0
-159 -1031 0
-160 -1032 0
-157 -1033 0
-158 -1034 0
-159 -1035 0
-160 -1036 0
-157 -1101 0
-158 -1102 0
-159 -1103 0
-160 -1104 0
-157 -1133 0
-158 -1134 0
-159 -1135 0
-160 -1136 0
-157 -1141 0
-158 -1142 0
-159 -1143 0
-160 -1144 0
-157 -1265 0
-158 -1266 0
-159 -1267 0
-160 -1268 0
-157 -1273 0
-158 -1274 0
-159 -1275 0
-160 -1276 0
-161 -265 0
-162 -266 0
-163 -267 0
-164 -268 0
-161 -1065 0
-162 -1066 0
-163 -1067 0
-164 -1068 0
-161 -1157 0
-162 -1158 0
-163 -1159 0
-164 -1160 0
-161 -1261 0
-162 -1262 0
-163 -1263 0
-164 -1264 0
-161 -1265 0
-162 -1266 0
-163 -1267 0
-164 -1268 0
-165 -169 0
-166 -170 0
-167 -171 0
-168 -172 0
-165 -317 0
-166 -318 0
-167 -319 0
-168 -320 0
-165 -341 0
-166 -342 0
-167 -343 0
-168 -344 0
-165 -693 0
-166 -694 0
-167 -695 0
-168 -696 0
-165 -853 0
-166 -854 0
-167 -855 0
-168 -856 0
-165 -869 0
-166 -870 0
-167 -871 0
-168 -872 0
-165 -1221 0
-166 -1222 0
-167 -1223 0
-168 -1224 0
-165 -1237 0
-166 -1238 0
-167 -1239 0
-168 -1240 0
-165 -1277 0
-166 -1278 0
-167 -1279 0
-168 -1280 0
-165 -1501 0
-166 -1502 0
-167 -1503 0
-168 -1504 0
-169 -213 0
-170 -214 0
-171 -215 0
-172 -216 0
-169 -553 0
-170 -554 0
-171 -555 0
-172 -556 0
-169 -857 0
-170 -858 0
-171 -859 0
-172 -860 0
-169 -873 0
-170 -874 0
-171 -875 0
-172 -876 0
-173 -585 0
-174 -586 0
-175 -587 0
-176 -588 0
-173 -721 0
-174 -722 0
-175 -723 0
-176 -724 0
-173 -1285 0
-174 -1286 0
-175 -1287 0
-176 -1288 0
-173 -1301 0
-174 -1302 0
-175 -1303 0
-176 -1304 0
-173 -1313 0
-174 -1314 0
-175 -1315 0
-176 -1316 0
-177 -185 0
-178 -186 0
-179 -187 0
-180 -188 0
-177 -297 0
-178 -298 0
-179 -299 0
-180 -300 0
-177 -601 0
-178 -602 0
-179 -603 0
-180 -604 0
-177 -717 0
-178 -718 0
-179 -719 0
-180 -720 0
-177 -1329 0
-178 -1330 0
-179 -1331 0
-180 -1332 0
-177 -1529 0
-178 -1530 0
-179 -1531 0
-180 -1532 0
-181 -201 0
-182 -202 0
-183 -203 0
-184 -204 0
-181 -389 0
-182 -390 0
-183 -391 0
-184 -392 0
-181 -1145 0
-182 -1146 0
-183 -1147 0
-184 -1148 0
-181 -1345 0
-182 -1346 0
-183 -1347 0
-184 -1348 0
-181 -1365 0
-182 -1366 0
-183 -1367 0
-184 -1368 0
-185 -225 0
-186 -226 0
-187 -227 0
-188 -228 0
-185 -229 0
-186 -230 0
-187 -231 0
-188 -232 0
-185 -341 0
-186 -342 0
-187 -343 0
-188 -344 0
-185 -393 0
-186 -394 0
-187 -395 0
-188 -396 0
-185 -609 0
-186 -610 0
-187 -611 0
-188 -612 0
-185 -769 0
-186 -770 0
-187 -771 0
-188 -772 0
-185 -1177 0
-186 -1178 0
-187 -1179 0
-188 -1180 0
-185 -1393 0
-186 -1394 0
-187 -1395 0
-188 -1396 0
-185 -1477 0
-186 -1478 0
-187 -1479 0
-188 -1480 0
-189 -201 0
-190 -202 0
-191 -203 0
-192 -204 0
-189 -237 0
-190 -238 0
-191 -239 0
-192 -240 0
-189 -353 0
-190 -354 0
-191 -355 0
-192 -356 0
-189 -413 0
-190 -414 0
-191 -415 0
-192 -416 0
-189 -1397 0
-190 -1398 0
-191 -1399 0
-192 -1400 0
-189 -1405 0
-190 -1406 0
-191 -1407 0
-192 -1408 0
-189 -1621 0
-190 -1622 0
-191 -1623 0
-192 -1624 0
-193 -197 0
-194 -198 0
-195 -199 0
-196 -200 0
-193 -201 0
-194 -202 0
-195 -203 0
-196 -204 0
-193 -221 0
-194 -222 0
-195 -223 0
-196 -224 0
-193 -425 0
-194 -426 0
-195 -427 0
-196 -428 0
-193 -689 0
-194 -690 0
-195 -691 0
-196 -692 0
-193 -1221 0
-194 -1222 0
-195 -1223 0
-196 -1224 0
-193 -1309 0
-194 -1310 0
-195 -1311 0
-196 -1312 0
-193 -1417 0
-194 -1418 0
-195 -1419 0
-196 -1420 0
-193 -1625 0
-194 -1626 0
-195 -1627 0
-196 -1628 0
-197 -205 0
-198 -206 0
-199 -207 0
-200 -208 0
-197 -225 0
-198 -226 0
-199 -227 0
-200 -228 0
-197 -397 0
-198 -398 0
-199 -399 0
-200 -400 0
-197 -697 0
-198 -698 0
-199 -699 0
-200 -700 0
-197 -821 0
-198 -822 0
-199 -823 0
-200 -824 0
-197 -845 0
-198 -846 0
-199 -847 0
-200 -848 0
-197 -1229 0
-198 -1230 0
-199 -1231 0
-200 -1232 0
-197 -1313 0
-198 -1314 0
-199 -1315 0
-200 -1316 0
-197 -1421 0
-198 -1422 0
-199 -1423 0
-200 -1424 0
-201 -205 0
-202 -206 0
-203 -207 0
-204 -208 0
-201 -241 0
-202 -242 0
-203 -243 0
-204 -244 0
-201 -269 0
-202 -270 0
-203 -271 0
-204 -272 0
-201 -461 0
-202 -462 0
-203 -463 0
-204 -464 0
-201 -1237 0
-202 -1238 0
-203 -1239 0
-204 -1240 0
-201 -1309 0
-202 -1310 0
-203 -1311 0
-204 -1312 0
-201 -1429 0
-202 -1430 0
-203 -1431 0
-204 -1432 0
-201 -1433 0
-202 -1434 0
-203 -1435 0
-204 -1436 0
-205 -241 0
-206 -242 0
-207 -243 0
-208 -244 0
-205 -285 0
-206 -286 0
-207 -287 0
-208 -288 0
-205 -477 0
-206 -478 0
-207 -479 0
-208 -480 0
-205 -1245 0
-206 -1246 0
-207 -1247 0
-208 -1248 0
-205 -1313 0
-206 -1314 0
-207 -1315 0
-208 -1316 0
-205 -1441 0
-206 -1442 0
-207 -1443 0
-208 -1444 0
-209 -213 0
-210 -214 0
-211 -215 0
-212 -216 0
-209 -217 0
-210 -218 0
-211 -219 0
-212 -220 0
-209 -225 0
-210 -226 0
-211 -227 0
-212 -228 0
-209 -417 0
-210 -418 0
-211 -419 0
-212 -420 0
-209 -533 0
-210 -534 0
-211 -535 0
-212 -536 0
-209 -665 0
-210 -666 0
-211 -667 0
-212 -668 0
-209 -981 0
-210 -982 0
-211 -983 0
-212 -984 0
-209 -1337 0
-210 -1338 0
-211 -1339 0
-212 -1340 0
-209 -1357 0
-210 -1358 0
-211 -1359 0
-212 -1360 0
-209 -1445 0
-210 -1446 0
-211 -1447 0
-212 -1448 0
-209 -1485 0
-210 -1486 0
-211 -1487 0
-212 -1488 0
-213 -229 0
-214 -230 0
-215 -231 0
-216 -232 0
-213 -337 0
-214 -338 0
-215 -339 0
-216 -340 0
-213 -369 0
-214 -370 0
-215 -371 0
-216 -372 0
-213 -669 0
-214 -670 0
-215 -671 0
-216 -672 0
-213 -873 0
-214 -874 0
-215 -875 0
-216 -876 0
-213 -989 0
-214 -990 0
-215 -991 0
-216 -992 0
-213 -1341 0
-214 -1342 0
-215 -1343 0
-216 -1344 0
-213 -1361 0
-214 -1362 0
-215 -1363 0
-216 -1364 0
-213 -1449 0
-214 -1450 0
-215 -1451 0
-216 -1452 0
-213 -1493 0
-214 -1494 0
-215 -1495 0
-216 -1496 0
-213 -1657 0
-214 -1658 0
-215 -1659 0
-216 -1660 0
-217 -233 0
-218 -234 0
-219 -235 0
-220 -236 0
-217 -537 0
-218 -538 0
-219 -539 0
-220 -540 0
-217 -889 0
-218 -890 0
-219 -891 0
-220 -892 0
-217 -1257 0
-218 -1258 0
-219 -1259 0
-220 -1260 0
-217 -1377 0
-218 -1378 0
-219 -1379 0
-220 -1380 0
-217 -1445 0
-218 -1446 0
-219 -1447 0
-220 -1448 0
-217 -1497 0
-218 -1498 0
-219 -1499 0
-220 -1500 0
-221 -225 0
-222 -226 0
-223 -227 0
-224 -228 0
-221 -289 0
-222 -290 0
-223 -291 0
-224 -292 0
-221 -445 0
-222 -446 0
-223 -447 0
-224 -448 0
-221 -1001 0
-222 -1002 0
-223 -1003 0
-224 -1004 0
-221 -1453 0
-222 -1454 0
-223 -1455 0
-224 -1456 0
-221 -1673 0
-222 -1674 0
-223 -1675 0
-224 -1676 0
-225 -229 0
-226 -230 0
-227 -231 0
-228 -232 0
-225 -233 0
-226 -234 0
-227 -235 0
-228 -236 0
-225 -293 0
-226 -294 0
-227 -295 0
-228 -296 0
-225 -461 0
-226 -462 0
-227 -463 0
-228 -464 0
-225 -673 0
-226 -674 0
-227 -675 0
-228 -676 0
-225 -801 0
-226 -802 0
-227 -803 0
-228 -804 0
-225 -893 0
-226 -894 0
-227 -895 0
-228 -896 0
-225 -1005 0
-226 -1006 0
-227 -1007 0
-228 -1008 0
-225 -1385 0
-226 -1386 0
-227 -1387 0
-228 -1388 0
-225 -1457 0
-226 -1458 0
-227 -1459 0
-228 -1460 0
-225 -1485 0
-226 -1486 0
-227 -1487 0
-228 -1488 0
-225 -1685 0
-226 -1686 0
-227 -1687 0
-228 -1688 0
-229 -377 0
-230 -378 0
-231 -379 0
-232 -380 0
-229 -473 0
-230 -474 0
-231 -475 0
-232 -476 0
-229 -653 0
-230 -654 0
-231 -655 0
-232 -656 0
-229 -677 0
-230 -678 0
-231 -679 0
-232 -680 0
-229 -817 0
-230 -818 0
-231 -819 0
-232 -820 0
-229 -885 0
-230 -886 0
-231 -887 0
-232 -888 0
-229 -1009 0
-230 -1010 0
-231 -1011 0
-232 -1012 0
-229 -1461 0
-230 -1462 0
-231 -1463 0
-232 -1464 0
-229 -1493 0
-230 -1494 0
-231 -1495 0
-232 -1496 0
-229 -1689 0
-230 -1690 0
-231 -1691 0
-232 -1692 0
-233 -305 0
-234 -306 0
-235 -307 0
-236 -308 0
-233 -481 0
-234 -482 0
-235 -483 0
-236 -484 0
-233 -897 0
-234 -898 0
-235 -899 0
-236 -900 0
-233 -1389 0
-234 -1390 0
-235 -1391 0
-236 -1392 0
-233 -1457 0
-234 -1458 0
-235 -1459 0
-236 -1460 0
-233 -1497 0
-234 -1498 0
-235 -1499 0
-236 -1500 0
-237 -241 0
-238 -242 0
-239 -243 0
-240 -244 0
-237 -433 0
-238 -434 0
-239 -435 0
-240 -436 0
-237 -693 0
-238 -694 0
-239 -695 0
-240 -696 0
-237 -1481 0
-238 -1482 0
-239 -1483 0
-240 -1484 0
-237 -1493 0
-238 -1494 0
-239 -1495 0
-240 -1496 0
-241 -493 0
-242 -494 0
-243 -495 0
-244 -496 0
-241 -557 0
-242 -558 0
-243 -559 0
-244 -560 0
-241 -1057 0
-242 -1058 0
-243 -1059 0
-244 -1060 0
-241 -1465 0
-242 -1466 0
-243 -1467 0
-244 -1468 0
-241 -1501 0
-242 -1502 0
-243 -1503 0
-244 -1504 0
-245 -249 0
-246 -250 0
-247 -251 0
-248 -252 0
-245 -265 0
-246 -266 0
-247 -267 0
-248 -268 0
-245 -273 0
-246 -274 0
-247 -275 0
-248 -276 0
-245 -417 0
-246 -418 0
-247 -419 0
-248 -420 0
-245 -561 0
-246 -562 0
-247 -563 0
-248 -564 0
-245 -1289 0
-246 -1290 0
-247 -1291 0
-248 -1292 0
-245 -1505 0
-246 -1506 0
-247 -1507 0
-248 -1508 0
-245 -1509 0
-246 -1510 0
-247 -1511 0
-248 -1512 0
-245 -1585 0
-246 -1586 0
-247 -1587 0
-248 -1588 0
-249 -253 0
-250 -254 0
-251 -255 0
-252 -256 0
-249 -281 0
-250 -282 0
-251 -283 0
-252 -284 0
-249 -285 0
-250 -286 0
-251 -287 0
-252 -288 0
-249 -325 0
-250 -326 0
-251 -327 0
-252 -328 0
-249 -461 0
-250 -462 0
-251 -463 0
-252 -464 0
-249 -721 0
-250 -722 0
-251 -723 0
-252 -724 0
-249 -921 0
-250 -922 0
-251 -923 0
-252 -924 0
-249 -1297 0
-250 -1298 0
-251 -1299 0
-252 -1300 0
-249 -1517 0
-250 -1518 0
-251 -1519 0
-252 -1520 0
-249 -1529 0
-250 -1530 0
-251 -1531 0
-252 -1532 0
-249 -1585 0
-250 -1586 0
-251 -1587 0
-252 -1588 0
-253 -465 0
-254 -466 0
-255 -467 0
-256 -468 0
-253 -581 0
-254 -582 0
-255 -583 0
-256 -584 0
-253 -781 0
-254 -782 0
-255 -783 0
-256 -784 0
-253 -1521 0
-254 -1522 0
-255 -1523 0
-256 -1524 0
-253 -1533 0
-254 -1534 0
-255 -1535 0
-256 -1536 0
-257 -261 0
-258 -262 0
-259 -263 0
-260 -264 0
-257 -273 0
-258 -274 0
-259 -275 0
-260 -276 0
-257 -289 0
-258 -290 0
-259 -291 0
-260 -292 0
-257 -421 0
-258 -422 0
-259 -423 0
-260 -424 0
-257 -625 0
-258 -626 0
-259 -627 0
-260 -628 0
-257 -929 0
-258 -930 0
-259 -931 0
-260 -932 0
-257 -957 0
-258 -958 0
-259 -959 0
-260 -960 0
-257 -1341 0
-258 -1342 0
-259 -1343 0
-260 -1344 0
-257 -1541 0
-258 -1542 0
-259 -1543 0
-260 -1544 0
-257 -1613 0
-258 -1614 0
-259 -1615 0
-260 -1616 0
-257 -1757 0
-258 -1758 0
-259 -1759 0
-260 -1760 0
-261 -277 0
-262 -278 0
-263 -279 0
-264 -280 0
-261 -297 0
-262 -298 0
-263 -299 0
-264 -300 0
-261 -425 0
-262 -426 0
-263 -427 0
-264 -428 0
-261 -637 0
-262 -638 0
-263 -639 0
-264 -640 0
-261 -973 0
-262 -974 0
-263 -975 0
-264 -976 0
-261 -1541 0
-262 -1542 0
-263 -1543 0
-264 -1544 0
-261 -1617 0
-262 -1618 0
-263 -1619 0
-264 -1620 0
-261 -1765 0
-262 -1766 0
-263 -1767 0
-264 -1768 0
-265 -273 0
-266 -274 0
-267 -275 0
-268 -276 0
-265 -281 0
-266 -282 0
-267 -283 0
-268 -284 0
-265 -621 0
-266 -622 0
-267 -623 0
-268 -624 0
-265 -1357 0
-266 -1358 0
-267 -1359 0
-268 -1360 0
-265 -1545 0
-266 -1546 0
-267 -1547 0
-268 -1548 0
-269 -273 0
-270 -274 0
-271 -275 0
-272 -276 0
-269 -309 0
-270 -310 0
-271 -311 0
-272 -312 0
-269 -429 0
-270 -430 0
-271 -431 0
-272 -432 0
-269 -565 0
-270 -566 0
-271 -567 0
-272 -568 0
-269 -1549 0
-270 -1550 0
-271 -1551 0
-272 -1552 0
-273 -277 0
-274 -278 0
-275 -279 0
-276 -280 0
-273 -285 0
-274 -286 0
-275 -287 0
-276 -288 0
-273 -309 0
-274 -310 0
-275 -311 0
-276 -312 0
-273 -329 0
-274 -330 0
-275 -331 0
-276 -332 0
-273 -433 0
-274 -434 0
-275 -435 0
-276 -436 0
-273 -569 0
-274 -570 0
-275 -571 0
-276 -572 0
-273 -629 0
-274 -630 0
-275 -631 0
-276 -632 0
-273 -757 0
-274 -758 0
-275 -759 0
-276 -760 0
-273 -945 0
-274 -946 0
-275 -947 0
-276 -948 0
-273 -1361 0
-274 -1362 0
-275 -1363 0
-276 -1364 0
-273 -1553 0
-274 -1554 0
-275 -1555 0
-276 -1556 0
-273 -1621 0
-274 -1622 0
-275 -1623 0
-276 -1624 0
-277 -313 0
-278 -314 0
-279 -315 0
-280 -316 0
-277 -461 0
-278 -462 0
-279 -463 0
-280 -464 0
-277 -1553 0
-278 -1554 0
-279 -1555 0
-280 -1556 0
-281 -285 0
-282 -286 0
-283 -287 0
-284 -288 0
-281 -333 0
-282 -334 0
-283 -335 0
-284 -336 0
-281 -357 0
-282 -358 0
-283 -359 0
-284 -360 0
-281 -525 0
-282 -526 0
-283 -527 0
-284 -528 0
-281 -1385 0
-282 -1386 0
-283 -1387 0
-284 -1388 0
-281 -1557 0
-282 -1558 0
-283 -1559 0
-284 -1560 0
-285 -529 0
-286 -530 0
-287 -531 0
-288 -532 0
-285 -733 0
-286 -734 0
-287 -735 0
-288 -736 0
-285 -1561 0
-286 -1562 0
-287 -1563 0
-288 -1564 0
-285 -1621 0
-286 -1622 0
-287 -1623 0
-288 -1624 0
-289 -293 0
-290 -294 0
-291 -295 0
-292 -296 0
-289 -297 0
-290 -298 0
-291 -299 0
-292 -300 0
-289 -309 0
-290 -310 0
-291 -311 0
-292 -312 0
-289 -317 0
-290 -318 0
-291 -319 0
-292 -320 0
-289 -337 0
-290 -338 0
-291 -339 0
-292 -340 0
-289 -861 0
-290 -862 0
-291 -863 0
-292 -864 0
-289 -1097 0
-290 -1098 0
-291 -1099 0
-292 -1100 0
-289 -1513 0
-290 -1514 0
-291 -1515 0
-292 -1516 0
-289 -1565 0
-290 -1566 0
-291 -1567 0
-292 -1568 0
-289 -1633 0
-290 -1634 0
-291 -1635 0
-292 -1636 0
-289 -1637 0
-290 -1638 0
-291 -1639 0
-292 -1640 0
-289 -1821 0
-290 -1822 0
-291 -1823 0
-292 -1824 0
-293 -305 0
-294 -306 0
-295 -307 0
-296 -308 0
-293 -337 0
-294 -338 0
-295 -339 0
-296 -340 0
-293 -565 0
-294 -566 0
-295 -567 0
-296 -568 0
-293 -765 0
-294 -766 0
-295 -767 0
-296 -768 0
-293 -865 0
-294 -866 0
-295 -867 0
-296 -868 0
-293 -1005 0
-294 -1006 0
-295 -1007 0
-296 -1008 0
-293 -1013 0
-294 -1014 0
-295 -1015 0
-296 -1016 0
-293 -1521 0
-294 -1522 0
-295 -1523 0
-296 -1524 0
-293 -1569 0
-294 -1570 0
-295 -1571 0
-296 -1572 0
-293 -1837 0
-294 -1838 0
-295 -1839 0
-296 -1840 0
-297 -305 0
-298 -306 0
-299 -307 0
-300 -308 0
-297 -313 0
-298 -314 0
-299 -315 0
-300 -316 0
-297 -321 0
-298 -322 0
-299 -323 0
-300 -324 0
-297 -341 0
-298 -342 0
-299 -343 0
-300 -344 0
-297 -873 0
-298 -874 0
-299 -875 0
-300 -876 0
-297 -933 0
-298 -934 0
-299 -935 0
-300 -936 0
-297 -1525 0
-298 -1526 0
-299 -1527 0
-300 -1528 0
-297 -1565 0
-298 -1566 0
-299 -1567 0
-300 -1568 0
-297 -1645 0
-298 -1646 0
-299 -1647 0
-300 -1648 0
-297 -1857 0
-298 -1858 0
-299 -1859 0
-300 -1860 0
-301 -305 0
-302 -306 0
-303 -307 0
-304 -308 0
-301 -537 0
-302 -538 0
-303 -539 0
-304 -540 0
-301 -573 0
-302 -574 0
-303 -575 0
-304 -576 0
-301 -937 0
-302 -938 0
-303 -939 0
-304 -940 0
-301 -1017 0
-302 -1018 0
-303 -1019 0
-304 -1020 0
-301 -1393 0
-302 -1394 0
-303 -1395 0
-304 -1396 0
-301 -1529 0
-302 -1530 0
-303 -1531 0
-304 -1532 0
-305 -341 0
-306 -342 0
-307 -343 0
-308 -344 0
-305 -577 0
-306 -578 0
-307 -579 0
-308 -580 0
-305 -877 0
-306 -878 0
-307 -879 0
-308 -880 0
-305 -1021 0
-306 -1022 0
-307 -1023 0
-308 -1024 0
-305 -1533 0
-306 -1534 0
-307 -1535 0
-308 -1536 0
-305 -1569 0
-306 -1570 0
-307 -1571 0
-308 -1572 0
-305 -1873 0
-306 -1874 0
-307 -1875 0
-308 -1876 0
-309 -313 0
-310 -314 0
-311 -315 0
-312 -316 0
-309 -345 0
-310 -346 0
-311 -347 0
-312 -348 0
-309 -605 0
-310 -606 0
-311 -607 0
-312 -608 0
-309 -1105 0
-310 -1106 0
-311 -1107 0
-312 -1108 0
-309 -1397 0
-310 -1398 0
-311 -1399 0
-312 -1400 0
-309 -1513 0
-310 -1514 0
-311 -1515 0
-312 -1516 0
-309 -1573 0
-310 -1574 0
-311 -1575 0
-312 -1576 0
-309 -1877 0
-310 -1878 0
-311 -1879 0
-312 -1880 0
-313 -349 0
-314 -350 0
-315 -351 0
-316 -352 0
-313 -513 0
-314 -514 0
-315 -515 0
-316 -516 0
-313 -1405 0
-314 -1406 0
-315 -1407 0
-316 -1408 0
-313 -1525 0
-314 -1526 0
-315 -1527 0
-316 -1528 0
-313 -1573 0
-314 -1574 0
-315 -1575 0
-316 -1576 0
-313 -1881 0
-314 -1882 0
-315 -1883 0
-316 -1884 0
-317 -321 0
-318 -322 0
-319 -323 0
-320 -324 0
-317 -609 0
-318 -610 0
-319 -611 0
-320 -612 0
-317 -953 0
-318 -954 0
-319 -955 0
-320 -956 0
-317 -1577 0
-318 -1578 0
-319 -1579 0
-320 -1580 0
-317 -1669 0
-318 -1670 0
-319 -1671 0
-320 -1672 0
-317 -1893 0
-318 -1894 0
-319 -1895 0
-320 -1896 0
-321 -969 0
-322 -970 0
-323 -971 0
-324 -972 0
-321 -1417 0
-322 -1418 0
-323 -1419 0
-324 -1420 0
-321 -1577 0
-322 -1578 0
-323 -1579 0
-324 -1580 0
-321 -1901 0
-322 -1902 0
-323 -1903 0
-324 -1904 0
-325 -333 0
-326 -334 0
-327 -335 0
-328 -336 0
-325 -385 0
-326 -386 0
-327 -387 0
-328 -388 0
-325 -553 0
-326 -554 0
-327 -555 0
-328 -556 0
-325 -681 0
-326 -682 0
-327 -683 0
-328 -684 0
-325 -1593 0
-326 -1594 0
-327 -1595 0
-328 -1596 0
-325 -1605 0
-326 -1606 0
-327 -1607 0
-328 -1608 0
-329 -345 0
-330 -346 0
-331 -347 0
-332 -348 0
-329 -549 0
-330 -550 0
-331 -551 0
-332 -552 0
-329 -585 0
-330 -586 0
-331 -587 0
-332 -588 0
-329 -1061 0
-330 -1062 0
-331 -1063 0
-332 -1064 0
-329 -1169 0
-330 -1170 0
-331 -1171 0
-332 -1172 0
-329 -1657 0
-330 -1658 0
-331 -1659 0
-332 -1660 0
-333 -433 0
-334 -434 0
-335 -435 0
-336 -436 0
-333 -1185 0
-334 -1186 0
-335 -1187 0
-336 -1188 0
-333 -1661 0
-334 -1662 0
-335 -1663 0
-336 -1664 0
-333 -1673 0
-334 -1674 0
-335 -1675 0
-336 -1676 0
-337 -341 0
-338 -342 0
-339 -343 0
-340 -344 0
-337 -345 0
-338 -346 0
-339 -347 0
-340 -348 0
-337 -669 0
-338 -670 0
-339 -671 0
-340 -672 0
-337 -1229 0
-338 -1230 0
-339 -1231 0
-340 -1232 0
-337 -1597 0
-338 -1598 0
-339 -1599 0
-340 -1600 0
-337 -1693 0
-338 -1694 0
-339 -1695 0
-340 -1696 0
-337 -1965 0
-338 -1966 0
-339 -1967 0
-340 -1968 0
-341 -349 0
-342 -350 0
-343 -351 0
-344 -352 0
-341 -609 0
-342 -610 0
-343 -611 0
-344 -612 0
-341 -1609 0
-342 -1610 0
-343 -1611 0
-344 -1612 0
-341 -1693 0
-342 -1694 0
-343 -1695 0
-344 -1696 0
-341 -1973 0
-342 -1974 0
-343 -1975 0
-344 -1976 0
-345 -349 0
-346 -350 0
-347 -351 0
-348 -352 0
-345 -613 0
-346 -614 0
-347 -615 0
-348 -616 0
-345 -1245 0
-346 -1246 0
-347 -1247 0
-348 -1248 0
-345 -1481 0
-346 -1482 0
-347 -1483 0
-348 -1484 0
-345 -1597 0
-346 -1598 0
-347 -1599 0
-348 -1600 0
-345 -1697 0
-346 -1698 0
-347 -1699 0
-348 -1700 0
-349 -617 0
-350 -618 0
-351 -619 0
-352 -620 0
-349 -889 0
-350 -890 0
-351 -891 0
-352 -892 0
-349 -1065 0
-350 -1066 0
-351 -1067 0
-352 -1068 0
-349 -1253 0
-350 -1254 0
-351 -1255 0
-352 -1256 0
-349 -1493 0
-350 -1494 0
-351 -1495 0
-352 -1496 0
-349 -1609 0
-350 -1610 0
-351 -1611 0
-352 -1612 0
-349 -1697 0
-350 -1698 0
-351 -1699 0
-352 -1700 0
-353 -357 0
-354 -358 0
-355 -359 0
-356 -360 0
-353 -361 0
-354 -362 0
-355 -363 0
-356 -364 0
-353 -433 0
-354 -434 0
-355 -435 0
-356 -436 0
-353 -717 0
-354 -718 0
-355 -719 0
-356 -720 0
-353 -1513 0
-354 -1514 0
-355 -1515 0
-356 -1516 0
-353 -1705 0
-354 -1706 0
-355 -1707 0
-356 -1708 0
-353 -1989 0
-354 -1990 0
-355 -1991 0
-356 -1992 0
-357 -365 0
-358 -366 0
-359 -367 0
-360 -368 0
-357 -433 0
-358 -434 0
-359 -435 0
-360 -436 0
-357 -625 0
-358 -626 0
-359 -627 0
-360 -628 0
-357 -1521 0
-358 -1522 0
-359 -1523 0
-360 -1524 0
-357 -1709 0
-358 -1710 0
-359 -1711 0
-360 -1712 0
-361 -365 0
-362 -366 0
-363 -367 0
-364 -368 0
-361 -445 0
-362 -446 0
-363 -447 0
-364 -448 0
-361 -461 0
-362 -462 0
-363 -463 0
-364 -464 0
-361 -945 0
-362 -946 0
-363 -947 0
-364 -948 0
-361 -1525 0
-362 -1526 0
-363 -1527 0
-364 -1528 0
-361 -1705 0
-362 -1706 0
-363 -1707 0
-364 -1708 0
-361 -1713 0
-362 -1714 0
-363 -1715 0
-364 -1716 0
-361 -1993 0
-362 -1994 0
-363 -1995 0
-364 -1996 0
-365 -461 0
-366 -462 0
-367 -463 0
-368 -464 0
-365 -477 0
-366 -478 0
-367 -479 0
-368 -480 0
-365 -637 0
-366 -638 0
-367 -639 0
-368 -640 0
-365 -949 0
-366 -950 0
-367 -951 0
-368 -952 0
-365 -1105 0
-366 -1106 0
-367 -1107 0
-368 -1108 0
-365 -1533 0
-366 -1534 0
-367 -1535 0
-368 -1536 0
-365 -1709 0
-366 -1710 0
-367 -1711 0
-368 -1712 0
-365 -1717 0
-366 -1718 0
-367 -1719 0
-368 -1720 0
-369 -373 0
-370 -374 0
-371 -375 0
-372 -376 0
-369 -377 0
-370 -378 0
-371 -379 0
-372 -380 0
-369 -905 0
-370 -906 0
-371 -907 0
-372 -908 0
-369 -1109 0
-370 -1110 0
-371 -1111 0
-372 -1112 0
-369 -1285 0
-370 -1286 0
-371 -1287 0
-372 -1288 0
-369 -1785 0
-370 -1786 0
-371 -1787 0
-372 -1788 0
-369 -1821 0
-370 -1822 0
-371 -1823 0
-372 -1824 0
-369 -2021 0
-370 -2022 0
-371 -2023 0
-372 -2024 0
-373 -381 0
-374 -382 0
-375 -383 0
-376 -384 0
-373 -609 0
-374 -610 0
-375 -611 0
-376 -612 0
-373 -909 0
-374 -910 0
-375 -911 0
-376 -912 0
-373 -1081 0
-374 -1082 0
-375 -1083 0
-376 -1084 0
-373 -1541 0
-374 -1542 0
-375 -1543 0
-376 -1544 0
-373 -1789 0
-374 -1790 0
-375 -1791 0
-376 -1792 0
-373 -1857 0
-374 -1858 0
-375 -1859 0
-376 -1860 0
-373 -2029 0
-374 -2030 0
-375 -2031 0
-376 -2032 0
-377 -381 0
-378 -382 0
-379 -383 0
-380 -384 0
-377 -653 0
-378 -654 0
-379 -655 0
-380 -656 0
-377 -725 0
-378 -726 0
-379 -727 0
-380 -728 0
-377 -913 0
-378 -914 0
-379 -915 0
-380 -916 0
-377 -1089 0
-378 -1090 0
-379 -1091 0
-380 -1092 0
-377 -1721 0
-378 -1722 0
-379 -1723 0
-380 -1724 0
-377 -1821 0
-378 -1822 0
-379 -1823 0
-380 -1824 0
-377 -1885 0
-378 -1886 0
-379 -1887 0
-380 -1888 0
-381 -917 0
-382 -918 0
-383 -919 0
-384 -920 0
-381 -1025 0
-382 -1026 0
-383 -1027 0
-384 -1028 0
-381 -1101 0
-382 -1102 0
-383 -1103 0
-384 -1104 0
-381 -1721 0
-382 -1722 0
-383 -1723 0
-384 -1724 0
-381 -1857 0
-382 -1858 0
-383 -1859 0
-384 -1860 0
-381 -1889 0
-382 -1890 0
-383 -1891 0
-384 -1892 0
-385 -393 0
-386 -394 0
-387 -395 0
-388 -396 0
-385 -433 0
-386 -434 0
-387 -435 0
-388 -436 0
-385 -441 0
-386 -442 0
-387 -443 0
-388 -444 0
-385 -669 0
-386 -670 0
-387 -671 0
-388 -672 0
-385 -905 0
-386 -906 0
-387 -907 0
-388 -908 0
-385 -1741 0
-386 -1742 0
-387 -1743 0
-388 -1744 0
-389 -393 0
-390 -394 0
-391 -395 0
-392 -396 0
-389 -449 0
-390 -450 0
-391 -451 0
-392 -452 0
-389 -461 0
-390 -462 0
-391 -463 0
-392 -464 0
-389 -1581 0
-390 -1582 0
-391 -1583 0
-392 -1584 0
-389 -1737 0
-390 -1738 0
-391 -1739 0
-392 -1740 0
-389 -1745 0
-390 -1746 0
-391 -1747 0
-392 -1748 0
-393 -461 0
-394 -462 0
-395 -463 0
-396 -464 0
-393 -473 0
-394 -474 0
-395 -475 0
-396 -476 0
-393 -909 0
-394 -910 0
-395 -911 0
-396 -912 0
-393 -1741 0
-394 -1742 0
-395 -1743 0
-396 -1744 0
-393 -1749 0
-394 -1750 0
-395 -1751 0
-396 -1752 0
-397 -401 0
-398 -402 0
-399 -403 0
-400 -404 0
-397 -453 0
-398 -454 0
-399 -455 0
-400 -456 0
-397 -461 0
-398 -462 0
-399 -463 0
-400 -464 0
-397 -1589 0
-398 -1590 0
-399 -1591 0
-400 -1592 0
-397 -1753 0
-398 -1754 0
-399 -1755 0
-400 -1756 0
-397 -1761 0
-398 -1762 0
-399 -1763 0
-400 -1764 0
-401 -461 0
-402 -462 0
-403 -463 0
-404 -464 0
-401 -469 0
-402 -470 0
-403 -471 0
-404 -472 0
-401 -661 0
-402 -662 0
-403 -663 0
-404 -664 0
-401 -1165 0
-402 -1166 0
-403 -1167 0
-404 -1168 0
-401 -1293 0
-402 -1294 0
-403 -1295 0
-404 -1296 0
-401 -1757 0
-402 -1758 0
-403 -1759 0
-404 -1760 0
-401 -1765 0
-402 -1766 0
-403 -1767 0
-404 -1768 0
-405 -409 0
-406 -410 0
-407 -411 0
-408 -412 0
-405 -433 0
-406 -434 0
-407 -435 0
-408 -436 0
-405 -685 0
-406 -686 0
-407 -687 0
-408 -688 0
-405 -1297 0
-406 -1298 0
-407 -1299 0
-408 -1300 0
-405 -1769 0
-406 -1770 0
-407 -1771 0
-408 -1772 0
-409 -413 0
-410 -414 0
-411 -415 0
-412 -416 0
-409 -457 0
-410 -458 0
-411 -459 0
-412 -460 0
-409 -461 0
-410 -462 0
-411 -463 0
-412 -464 0
-409 -929 0
-410 -930 0
-411 -931 0
-412 -932 0
-409 -1193 0
-410 -1194 0
-411 -1195 0
-412 -1196 0
-409 -1769 0
-410 -1770 0
-411 -1771 0
-412 -1772 0
-409 -1777 0
-410 -1778 0
-411 -1779 0
-412 -1780 0
-413 -461 0
-414 -462 0
-415 -463 0
-416 -464 0
-413 -465 0
-414 -466 0
-415 -467 0
-416 -468 0
-413 -717 0
-414 -718 0
-415 -719 0
-416 -720 0
-413 -933 0
-414 -934 0
-415 -935 0
-416 -936 0
-413 -1773 0
-414 -1774 0
-415 -1775 0
-416 -1776 0
-413 -1781 0
-414 -1782 0
-415 -1783 0
-416 -1784 0
-413 -2065 0
-414 -2066 0
-415 -2067 0
-416 -2068 0
-417 -461 0
-418 -462 0
-419 -463 0
-420 -464 0
-417 -665 0
-418 -666 0
-419 -667 0
-420 -668 0
-417 -797 0
-418 -798 0
-419 -799 0
-420 -800 0
-417 -1305 0
-418 -1306 0
-419 -1307 0
-420 -1308 0
-417 -1785 0
-418 -1786 0
-419 -1787 0
-420 -1788 0
-417 -1789 0
-418 -1790 0
-419 -1791 0
-420 -1792 0
-417 -1949 0
-418 -1950 0
-419 -1951 0
-420 -1952 0
-421 -425 0
-422 -426 0
-423 -427 0
-424 -428 0
-421 -433 0
-422 -434 0
-423 -435 0
-424 -436 0
-421 -1793 0
-422 -1794 0
-423 -1795 0
-424 -1796 0
-421 -2069 0
-422 -2070 0
-423 -2071 0
-424 -2072 0
-425 -461 0
-426 -462 0
-427 -463 0
-428 -464 0
-425 -1049 0
-426 -1050 0
-427 -1051 0
-428 -1052 0
-425 -1221 0
-426 -1222 0
-427 -1223 0
-428 -1224 0
-425 -1725 0
-426 -1726 0
-427 -1727 0
-428 -1728 0
-425 -1793 0
-426 -1794 0
-427 -1795 0
-428 -1796 0
-425 -1797 0
-426 -1798 0
-427 -1799 0
-428 -1800 0
-425 -2073 0
-426 -2074 0
-427 -2075 0
-428 -2076 0
-429 -433 0
-430 -434 0
-431 -435 0
-432 -436 0
-429 -453 0
-430 -454 0
-431 -455 0
-432 -456 0
-429 -765 0
-430 -766 0
-431 -767 0
-432 -768 0
-429 -1813 0
-430 -1814 0
-431 -1815 0
-432 -1816 0
-433 -437 0
-434 -438 0
-435 -439 0
-436 -440 0
-433 -441 0
-434 -442 0
-435 -443 0
-436 -444 0
-433 -461 0
-434 -462 0
-435 -463 0
-436 -464 0
-433 -493 0
-434 -494 0
-435 -495 0
-436 -496 0
-433 -497 0
-434 -498 0
-435 -499 0
-436 -500 0
-433 -509 0
-434 -510 0
-435 -511 0
-436 -512 0
-433 -521 0
-434 -522 0
-435 -523 0
-436 -524 0
-433 -549 0
-434 -550 0
-435 -551 0
-436 -552 0
-433 -693 0
-434 -694 0
-435 -695 0
-436 -696 0
-433 -757 0
-434 -758 0
-435 -759 0
-436 -760 0
-433 -769 0
-434 -770 0
-435 -771 0
-436 -772 0
-433 -805 0
-434 -806 0
-435 -807 0
-436 -808 0
-433 -953 0
-434 -954 0
-435 -955 0
-436 -956 0
-433 -1185 0
-434 -1186 0
-435 -1187 0
-436 -1188 0
-433 -1313 0
-434 -1314 0
-435 -1315 0
-436 -1316 0
-433 -1321 0
-434 -1322 0
-435 -1323 0
-436 -1324 0
-433 -1597 0
-434 -1598 0
-435 -1599 0
-436 -1600 0
-433 -1729 0
-434 -1730 0
-435 -1731 0
-436 -1732 0
-433 -1801 0
-434 -1802 0
-435 -1803 0
-436 -1804 0
-433 -1821 0
-434 -1822 0
-435 -1823 0
-436 -1824 0
-433 -1945 0
-434 -1946 0
-435 -1947 0
-436 -1948 0
-433 -1953 0
-434 -1954 0
-435 -1955 0
-436 -1956 0
-433 -2085 0
-434 -2086 0
-435 -2087 0
-436 -2088 0
-433 -3005 0
-434 -3006 0
-435 -3007 0
-436 -3008 0
-433 -3017 0
-434 -3018 0
-435 -3019 0
-436 -3020 0
-433 -3033 0
-434 -3034 0
-435 -3035 0
-436 -3036 0
-433 -3065 0
-434 -3066 0
-435 -3067 0
-436 -3068 0
-433 -3093 0
-434 -3094 0
-435 -3095 0
-436 -3096 0
-433 -3117 0
-434 -3118 0
-435 -3119 0
-436 -3120 0
-433 -3153 0
-434 -3154 0
-435 -3155 0
-436 -3156 0
-433 -3241 0
-434 -3242 0
-435 -3243 0
-436 -3244 0
-433 -3277 0
-434 -3278 0
-435 -3279 0
-436 -3280 0
-433 -3337 0
-434 -3338 0
-435 -3339 0
-436 -3340 0
-433 -3357 0
-434 -3358 0
-435 -3359 0
-436 -3360 0
-433 -3361 0
-434 -3362 0
-435 -3363 0
-436 -3364 0
-433 -3389 0
-434 -3390 0
-435 -3391 0
-436 -3392 0
-433 -3409 0
-434 -3410 0
-435 -3411 0
-436 -3412 0
-433 -3425 0
-434 -3426 0
-435 -3427 0
-436 -3428 0
-433 -3433 0
-434 -3434 0
-435 -3435 0
-436 -3436 0
-433 -3437 0
-434 -3438 0
-435 -3439 0
-436 -3440 0
-433 -3441 0
-434 -3442 0
-435 -3443 0
-436 -3444 0
-433 -3461 0
-434 -3462 0
-435 -3463 0
-436 -3464 0
-433 -3493 0
-434 -3494 0
-435 -3495 0
-436 -3496 0
-433 -3497 0
-434 -3498 0
-435 -3499 0
-436 -3500 0
-433 -3509 0
-434 -3510 0
-435 -3511 0
-436 -3512 0
-433 -3521 0
-434 -3522 0
-435 -3523 0
-436 -3524 0
-433 -3549 0
-434 -3550 0
-435 -3551 0
-436 -3552 0
-433 -3693 0
-434 -3694 0
-435 -3695 0
-436 -3696 0
-433 -3757 0
-434 -3758 0
-435 -3759 0
-436 -3760 0
-433 -3769 0
-434 -3770 0
-435 -3771 0
-436 -3772 0
-433 -3805 0
-434 -3806 0
-435 -3807 0
-436 -3808 0
-433 -3953 0
-434 -3954 0
-435 -3955 0
-436 -3956 0
-433 -4185 0
-434 -4186 0
-435 -4187 0
-436 -4188 0
-433 -4313 0
-434 -4314 0
-435 -4315 0
-436 -4316 0
-433 -4321 0
-434 -4322 0
-435 -4323 0
-436 -4324 0
-433 -4597 0
-434 -4598 0
-435 -4599 0
-436 -4600 0
-433 -4729 0
-434 -4730 0
-435 -4731 0
-436 -4732 0
-433 -4801 0
-434 -4802 0
-435 -4803 0
-436 -4804 0
-433 -4821 0
-434 -4822 0
-435 -4823 0
-436 -4824 0
-433 -4945 0
-434 -4946 0
-435 -4947 0
-436 -4948 0
-433 -4953 0
-434 -4954 0
-435 -4955 0
-436 -4956 0
-433 -5085 0
-434 -5086 0
-435 -5087 0
-436 -5088 0
-437 -469 0
-438 -470 0
-439 -471 0
-440 -472 0
-437 -509 0
-438 -510 0
-439 -511 0
-440 -512 0
-437 -813 0
-438 -814 0
-439 -815 0
-440 -816 0
-437 -1325 0
-438 -1326 0
-439 -1327 0
-440 -1328 0
-437 -1829 0
-438 -1830 0
-439 -1831 0
-440 -1832 0
-441 -473 0
-442 -474 0
-443 -475 0
-444 -476 0
-441 -957 0
-442 -958 0
-443 -959 0
-444 -960 0
-441 -1193 0
-442 -1194 0
-443 -1195 0
-444 -1196 0
-441 -1833 0
-442 -1834 0
-443 -1835 0
-444 -1836 0
-445 -461 0
-446 -462 0
-447 -463 0
-448 -464 0
-445 -553 0
-446 -554 0
-447 -555 0
-448 -556 0
-445 -1805 0
-446 -1806 0
-447 -1807 0
-448 -1808 0
-445 -1841 0
-446 -1842 0
-447 -1843 0
-448 -1844 0
-445 -2089 0
-446 -2090 0
-447 -2091 0
-448 -2092 0
-449 -461 0
-450 -462 0
-451 -463 0
-452 -464 0
-449 -525 0
-450 -526 0
-451 -527 0
-452 -528 0
-449 -821 0
-450 -822 0
-451 -823 0
-452 -824 0
-449 -1233 0
-450 -1234 0
-451 -1235 0
-452 -1236 0
-449 -1601 0
-450 -1602 0
-451 -1603 0
-452 -1604 0
-449 -1809 0
-450 -1810 0
-451 -1811 0
-452 -1812 0
-449 -1845 0
-450 -1846 0
-451 -1847 0
-452 -1848 0
-453 -461 0
-454 -462 0
-455 -463 0
-456 -464 0
-453 -513 0
-454 -514 0
-455 -515 0
-456 -516 0
-453 -1057 0
-454 -1058 0
-455 -1059 0
-456 -1060 0
-453 -1149 0
-454 -1150 0
-455 -1151 0
-456 -1152 0
-453 -1813 0
-454 -1814 0
-455 -1815 0
-456 -1816 0
-453 -1849 0
-454 -1850 0
-455 -1851 0
-456 -1852 0
-457 -461 0
-458 -462 0
-459 -463 0
-460 -464 0
-457 -501 0
-458 -502 0
-459 -503 0
-460 -504 0
-457 -561 0
-458 -562 0
-459 -563 0
-460 -564 0
-457 -701 0
-458 -702 0
-459 -703 0
-460 -704 0
-457 -1153 0
-458 -1154 0
-459 -1155 0
-460 -1156 0
-457 -1605 0
-458 -1606 0
-459 -1607 0
-460 -1608 0
-457 -1817 0
-458 -1818 0
-459 -1819 0
-460 -1820 0
-457 -1853 0
-458 -1854 0
-459 -1855 0
-460 -1856 0
-461 -465 0
-462 -466 0
-463 -467 0
-464 -468 0
-461 -469 0
-462 -470 0
-463 -471 0
-464 -472 0
-461 -473 0
-462 -474 0
-463 -475 0
-464 -476 0
-461 -477 0
-462 -478 0
-463 -479 0
-464 -480 0
-461 -481 0
-462 -482 0
-463 -483 0
-464 -484 0
-461 -485 0
-462 -486 0
-463 -487 0
-464 -488 0
-461 -489 0
-462 -490 0
-463 -491 0
-464 -492 0
-461 -501 0
-462 -502 0
-463 -503 0
-464 -504 0
-461 -505 0
-462 -506 0
-463 -507 0
-464 -508 0
-461 -513 0
-462 -514 0
-463 -515 0
-464 -516 0
-461 -517 0
-462 -518 0
-463 -519 0
-464 -520 0
-461 -525 0
-462 -526 0
-463 -527 0
-464 -528 0
-461 -529 0
-462 -530 0
-463 -531 0
-464 -532 0
-461 -553 0
-462 -554 0
-463 -555 0
-464 -556 0
-461 -557 0
-462 -558 0
-463 -559 0
-464 -560 0
-461 -565 0
-462 -566 0
-463 -567 0
-464 -568 0
-461 -673 0
-462 -674 0
-463 -675 0
-464 -676 0
-461 -705 0
-462 -706 0
-463 -707 0
-464 -708 0
-461 -721 0
-462 -722 0
-463 -723 0
-464 -724 0
-461 -773 0
-462 -774 0
-463 -775 0
-464 -776 0
-461 -825 0
-462 -826 0
-463 -827 0
-464 -828 0
-461 -969 0
-462 -970 0
-463 -971 0
-464 -972 0
-461 -1061 0
-462 -1062 0
-463 -1063 0
-464 -1064 0
-461 -1157 0
-462 -1158 0
-463 -1159 0
-464 -1160 0
-461 -1205 0
-462 -1206 0
-463 -1207 0
-464 -1208 0
-461 -1237 0
-462 -1238 0
-463 -1239 0
-464 -1240 0
-461 -1317 0
-462 -1318 0
-463 -1319 0
-464 -1320 0
-461 -1329 0
-462 -1330 0
-463 -1331 0
-464 -1332 0
-461 -1609 0
-462 -1610 0
-463 -1611 0
-464 -1612 0
-461 -1613 0
-462 -1614 0
-463 -1615 0
-464 -1616 0
-461 -1725 0
-462 -1726 0
-463 -1727 0
-464 -1728 0
-461 -1733 0
-462 -1734 0
-463 -1735 0
-464 -1736 0
-461 -1821 0
-462 -1822 0
-463 -1823 0
-464 -1824 0
-461 -1857 0
-462 -1858 0
-463 -1859 0
-464 -1860 0
-461 -1949 0
-462 -1950 0
-463 -1951 0
-464 -1952 0
-461 -1957 0
-462 -1958 0
-463 -1959 0
-464 -1960 0
-461 -2093 0
-462 -2094 0
-463 -2095 0
-464 -2096 0
-465 -505 0
-466 -506 0
-467 -507 0
-468 -508 0
-465 -829 0
-466 -830 0
-467 -831 0
-468 -832 0
-465 -1065 0
-466 -1066 0
-467 -1067 0
-468 -1068 0
-465 -1825 0
-466 -1826 0
-467 -1827 0
-468 -1828 0
-465 -1861 0
-466 -1862 0
-467 -1863 0
-468 -1864 0
-469 -517 0
-470 -518 0
-471 -519 0
-472 -520 0
-469 -569 0
-470 -570 0
-471 -571 0
-472 -572 0
-469 -833 0
-470 -834 0
-471 -835 0
-472 -836 0
-469 -1333 0
-470 -1334 0
-471 -1335 0
-472 -1336 0
-469 -1829 0
-470 -1830 0
-471 -1831 0
-472 -1832 0
-469 -1865 0
-470 -1866 0
-471 -1867 0
-472 -1868 0
-473 -529 0
-474 -530 0
-475 -531 0
-476 -532 0
-473 -677 0
-474 -678 0
-475 -679 0
-476 -680 0
-473 -725 0
-474 -726 0
-475 -727 0
-476 -728 0
-473 -973 0
-474 -974 0
-475 -975 0
-476 -976 0
-473 -1209 0
-474 -1210 0
-475 -1211 0
-476 -1212 0
-473 -1833 0
-474 -1834 0
-475 -1835 0
-476 -1836 0
-473 -1869 0
-474 -1870 0
-475 -1871 0
-476 -1872 0
-477 -557 0
-478 -558 0
-479 -559 0
-480 -560 0
-477 -981 0
-478 -982 0
-479 -983 0
-480 -984 0
-477 -1213 0
-478 -1214 0
-479 -1215 0
-480 -1216 0
-477 -1245 0
-478 -1246 0
-479 -1247 0
-480 -1248 0
-477 -1837 0
-478 -1838 0
-479 -1839 0
-480 -1840 0
-477 -1873 0
-478 -1874 0
-479 -1875 0
-480 -1876 0
-481 -577 0
-482 -578 0
-483 -579 0
-484 -580 0
-481 -729 0
-482 -730 0
-483 -731 0
-484 -732 0
-481 -1073 0
-482 -1074 0
-483 -1075 0
-484 -1076 0
-481 -1249 0
-482 -1250 0
-483 -1251 0
-484 -1252 0
-481 -1617 0
-482 -1618 0
-483 -1619 0
-484 -1620 0
-481 -1857 0
-482 -1858 0
-483 -1859 0
-484 -1860 0
-481 -3481 0
-482 -3482 0
-483 -3483 0
-484 -3484 0
-485 -681 0
-486 -682 0
-487 -683 0
-488 -684 0
-485 -841 0
-486 -842 0
-487 -843 0
-488 -844 0
-485 -993 0
-486 -994 0
-487 -995 0
-488 -996 0
-485 -1621 0
-486 -1622 0
-487 -1623 0
-488 -1624 0
-485 -1733 0
-486 -1734 0
-487 -1735 0
-488 -1736 0
-485 -1877 0
-486 -1878 0
-487 -1879 0
-488 -1880 0
-485 -1881 0
-486 -1882 0
-487 -1883 0
-488 -1884 0
-489 -581 0
-490 -582 0
-491 -583 0
-492 -584 0
-489 -1001 0
-490 -1002 0
-491 -1003 0
-492 -1004 0
-489 -1885 0
-490 -1886 0
-491 -1887 0
-492 -1888 0
-489 -1889 0
-490 -1890 0
-491 -1891 0
-492 -1892 0
-489 -1957 0
-490 -1958 0
-491 -1959 0
-492 -1960 0
-493 -497 0
-494 -498 0
-495 -499 0
-496 -500 0
-493 -501 0
-494 -502 0
-495 -503 0
-496 -504 0
-493 -785 0
-494 -786 0
-495 -787 0
-496 -788 0
-493 -1345 0
-494 -1346 0
-495 -1347 0
-496 -1348 0
-493 -1893 0
-494 -1894 0
-495 -1895 0
-496 -1896 0
-497 -505 0
-498 -506 0
-499 -507 0
-500 -508 0
-497 -845 0
-498 -846 0
-499 -847 0
-500 -848 0
-497 -1233 0
-498 -1234 0
-499 -1235 0
-500 -1236 0
-497 -1349 0
-498 -1350 0
-499 -1351 0
-500 -1352 0
-497 -1897 0
-498 -1898 0
-499 -1899 0
-500 -1900 0
-501 -505 0
-502 -506 0
-503 -507 0
-504 -508 0
-501 -589 0
-502 -590 0
-503 -591 0
-504 -592 0
-501 -789 0
-502 -790 0
-503 -791 0
-504 -792 0
-501 -1161 0
-502 -1162 0
-503 -1163 0
-504 -1164 0
-501 -1365 0
-502 -1366 0
-503 -1367 0
-504 -1368 0
-501 -1625 0
-502 -1626 0
-503 -1627 0
-504 -1628 0
-501 -1893 0
-502 -1894 0
-503 -1895 0
-504 -1896 0
-501 -1901 0
-502 -1902 0
-503 -1903 0
-504 -1904 0
-505 -853 0
-506 -854 0
-507 -855 0
-508 -856 0
-505 -1369 0
-506 -1370 0
-507 -1371 0
-508 -1372 0
-505 -1629 0
-506 -1630 0
-507 -1631 0
-508 -1632 0
-505 -1897 0
-506 -1898 0
-507 -1899 0
-508 -1900 0
-505 -1905 0
-506 -1906 0
-507 -1907 0
-508 -1908 0
-509 -517 0
-510 -518 0
-511 -519 0
-512 -520 0
-509 -777 0
-510 -778 0
-511 -779 0
-512 -780 0
-509 -881 0
-510 -882 0
-511 -883 0
-512 -884 0
-509 -1385 0
-510 -1386 0
-511 -1387 0
-512 -1388 0
-509 -1913 0
-510 -1914 0
-511 -1915 0
-512 -1916 0
-513 -517 0
-514 -518 0
-515 -519 0
-516 -520 0
-513 -1189 0
-514 -1190 0
-515 -1191 0
-516 -1192 0
-513 -1637 0
-514 -1638 0
-515 -1639 0
-516 -1640 0
-513 -1909 0
-514 -1910 0
-515 -1911 0
-516 -1912 0
-513 -1917 0
-514 -1918 0
-515 -1919 0
-516 -1920 0
-513 -2133 0
-514 -2134 0
-515 -2135 0
-516 -2136 0
-517 -605 0
-518 -606 0
-519 -607 0
-520 -608 0
-517 -885 0
-518 -886 0
-519 -887 0
-520 -888 0
-517 -1389 0
-518 -1390 0
-519 -1391 0
-520 -1392 0
-517 -1641 0
-518 -1642 0
-519 -1643 0
-520 -1644 0
-517 -1913 0
-518 -1914 0
-519 -1915 0
-520 -1916 0
-517 -1921 0
-518 -1922 0
-519 -1923 0
-520 -1924 0
-521 -525 0
-522 -526 0
-523 -527 0
-524 -528 0
-521 -801 0
-522 -802 0
-523 -803 0
-524 -804 0
-521 -1665 0
-522 -1666 0
-523 -1667 0
-524 -1668 0
-521 -1925 0
-522 -1926 0
-523 -1927 0
-524 -1928 0
-525 -529 0
-526 -530 0
-527 -531 0
-528 -532 0
-525 -625 0
-526 -626 0
-527 -627 0
-528 -628 0
-525 -1677 0
-526 -1678 0
-527 -1679 0
-528 -1680 0
-525 -1925 0
-526 -1926 0
-527 -1927 0
-528 -1928 0
-525 -1933 0
-526 -1934 0
-527 -1935 0
-528 -1936 0
-529 -713 0
-530 -714 0
-531 -715 0
-532 -716 0
-529 -733 0
-530 -734 0
-531 -735 0
-532 -736 0
-529 -837 0
-530 -838 0
-531 -839 0
-532 -840 0
-529 -1405 0
-530 -1406 0
-531 -1407 0
-532 -1408 0
-529 -1929 0
-530 -1930 0
-531 -1931 0
-532 -1932 0
-529 -1937 0
-530 -1938 0
-531 -1939 0
-532 -1940 0
-533 -537 0
-534 -538 0
-535 -539 0
-536 -540 0
-533 -541 0
-534 -542 0
-535 -543 0
-536 -544 0
-533 -797 0
-534 -798 0
-535 -799 0
-536 -800 0
-533 -1421 0
-534 -1422 0
-535 -1423 0
-536 -1424 0
-533 -1693 0
-534 -1694 0
-535 -1695 0
-536 -1696 0
-533 -1793 0
-534 -1794 0
-535 -1795 0
-536 -1796 0
-533 -1821 0
-534 -1822 0
-535 -1823 0
-536 -1824 0
-533 -2149 0
-534 -2150 0
-535 -2151 0
-536 -2152 0
-537 -545 0
-538 -546 0
-539 -547 0
-540 -548 0
-537 -1257 0
-538 -1258 0
-539 -1259 0
-540 -1260 0
-537 -1277 0
-538 -1278 0
-539 -1279 0
-540 -1280 0
-537 -1797 0
-538 -1798 0
-539 -1799 0
-540 -1800 0
-537 -1857 0
-538 -1858 0
-539 -1859 0
-540 -1860 0
-541 -545 0
-542 -546 0
-543 -547 0
-544 -548 0
-541 -645 0
-542 -646 0
-543 -647 0
-544 -648 0
-541 -877 0
-542 -878 0
-543 -879 0
-544 -880 0
-541 -1057 0
-542 -1058 0
-543 -1059 0
-544 -1060 0
-541 -1261 0
-542 -1262 0
-543 -1263 0
-544 -1264 0
-541 -1441 0
-542 -1442 0
-543 -1443 0
-544 -1444 0
-541 -1697 0
-542 -1698 0
-543 -1699 0
-544 -1700 0
-541 -1821 0
-542 -1822 0
-543 -1823 0
-544 -1824 0
-541 -1877 0
-542 -1878 0
-543 -1879 0
-544 -1880 0
-541 -1941 0
-542 -1942 0
-543 -1943 0
-544 -1944 0
-545 -753 0
-546 -754 0
-547 -755 0
-548 -756 0
-545 -1069 0
-546 -1070 0
-547 -1071 0
-548 -1072 0
-545 -1265 0
-546 -1266 0
-547 -1267 0
-548 -1268 0
-545 -1701 0
-546 -1702 0
-547 -1703 0
-548 -1704 0
-545 -1857 0
-546 -1858 0
-547 -1859 0
-548 -1860 0
-545 -1881 0
-546 -1882 0
-547 -1883 0
-548 -1884 0
-545 -1941 0
-546 -1942 0
-547 -1943 0
-548 -1944 0
-549 -557 0
-550 -558 0
-551 -559 0
-552 -560 0
-549 -1281 0
-550 -1282 0
-551 -1283 0
-552 -1284 0
-549 -1469 0
-550 -1470 0
-551 -1471 0
-552 -1472 0
-549 -1965 0
-550 -1966 0
-551 -1967 0
-552 -1968 0
-553 -557 0
-554 -558 0
-555 -559 0
-556 -560 0
-553 -669 0
-554 -670 0
-555 -671 0
-556 -672 0
-553 -1473 0
-554 -1474 0
-555 -1475 0
-556 -1476 0
-553 -1961 0
-554 -1962 0
-555 -1963 0
-556 -1964 0
-553 -1969 0
-554 -1970 0
-555 -1971 0
-556 -1972 0
-557 -785 0
-558 -786 0
-559 -787 0
-560 -788 0
-557 -1477 0
-558 -1478 0
-559 -1479 0
-560 -1480 0
-557 -1965 0
-558 -1966 0
-559 -1967 0
-560 -1968 0
-557 -1973 0
-558 -1974 0
-559 -1975 0
-560 -1976 0
-561 -565 0
-562 -566 0
-563 -567 0
-564 -568 0
-561 -573 0
-562 -574 0
-563 -575 0
-564 -576 0
-561 -589 0
-562 -590 0
-563 -591 0
-564 -592 0
-561 -601 0
-562 -602 0
-563 -603 0
-564 -604 0
-561 -621 0
-562 -622 0
-563 -623 0
-564 -624 0
-561 -629 0
-562 -630 0
-563 -631 0
-564 -632 0
-561 -797 0
-562 -798 0
-563 -799 0
-564 -800 0
-561 -1289 0
-562 -1290 0
-563 -1291 0
-564 -1292 0
-561 -1741 0
-562 -1742 0
-563 -1743 0
-564 -1744 0
-561 -2001 0
-562 -2002 0
-563 -2003 0
-564 -2004 0
-565 -569 0
-566 -570 0
-567 -571 0
-568 -572 0
-565 -577 0
-566 -578 0
-567 -579 0
-568 -580 0
-565 -581 0
-566 -582 0
-567 -583 0
-568 -584 0
-565 -589 0
-566 -590 0
-567 -591 0
-568 -592 0
-565 -605 0
-566 -606 0
-567 -607 0
-568 -608 0
-565 -625 0
-566 -626 0
-567 -627 0
-568 -628 0
-565 -669 0
-566 -670 0
-567 -671 0
-568 -672 0
-565 -765 0
-566 -766 0
-567 -767 0
-568 -768 0
-565 -1077 0
-566 -1078 0
-567 -1079 0
-568 -1080 0
-565 -1169 0
-566 -1170 0
-567 -1171 0
-568 -1172 0
-565 -1329 0
-566 -1330 0
-567 -1331 0
-568 -1332 0
-565 -2005 0
-566 -2006 0
-567 -2007 0
-568 -2008 0
-565 -2197 0
-566 -2198 0
-567 -2199 0
-568 -2200 0
-569 -593 0
-570 -594 0
-571 -595 0
-572 -596 0
-569 -605 0
-570 -606 0
-571 -607 0
-572 -608 0
-569 -769 0
-570 -770 0
-571 -771 0
-572 -772 0
-569 -941 0
-570 -942 0
-571 -943 0
-572 -944 0
-569 -1081 0
-570 -1082 0
-571 -1083 0
-572 -1084 0
-569 -1333 0
-570 -1334 0
-571 -1335 0
-572 -1336 0
-569 -1361 0
-570 -1362 0
-571 -1363 0
-572 -1364 0
-569 -2009 0
-570 -2010 0
-571 -2011 0
-572 -2012 0
-569 -2065 0
-570 -2066 0
-571 -2067 0
-572 -2068 0
-573 -577 0
-574 -578 0
-575 -579 0
-576 -580 0
-573 -633 0
-574 -634 0
-575 -635 0
-576 -636 0
-573 -1293 0
-574 -1294 0
-575 -1295 0
-576 -1296 0
-573 -1381 0
-574 -1382 0
-575 -1383 0
-576 -1384 0
-573 -1749 0
-574 -1750 0
-575 -1751 0
-576 -1752 0
-573 -2001 0
-574 -2002 0
-575 -2003 0
-576 -2004 0
-577 -637 0
-578 -638 0
-579 -639 0
-580 -640 0
-577 -1173 0
-578 -1174 0
-579 -1175 0
-580 -1176 0
-577 -2005 0
-578 -2006 0
-579 -2007 0
-580 -2008 0
-581 -677 0
-582 -678 0
-583 -679 0
-584 -680 0
-581 -829 0
-582 -830 0
-583 -831 0
-584 -832 0
-581 -1097 0
-582 -1098 0
-583 -1099 0
-584 -1100 0
-581 -1201 0
-582 -1202 0
-583 -1203 0
-584 -1204 0
-581 -2017 0
-582 -2018 0
-583 -2019 0
-584 -2020 0
-585 -593 0
-586 -594 0
-587 -595 0
-588 -596 0
-585 -613 0
-586 -614 0
-587 -615 0
-588 -616 0
-585 -1353 0
-586 -1354 0
-587 -1355 0
-588 -1356 0
-585 -1505 0
-586 -1506 0
-587 -1507 0
-588 -1508 0
-585 -2021 0
-586 -2022 0
-587 -2023 0
-588 -2024 0
-585 -2085 0
-586 -2086 0
-587 -2087 0
-588 -2088 0
-589 -593 0
-590 -594 0
-591 -595 0
-592 -596 0
-589 -617 0
-590 -618 0
-591 -619 0
-592 -620 0
-589 -725 0
-590 -726 0
-591 -727 0
-592 -728 0
-589 -1105 0
-590 -1106 0
-591 -1107 0
-592 -1108 0
-589 -1301 0
-590 -1302 0
-591 -1303 0
-592 -1304 0
-589 -1365 0
-590 -1366 0
-591 -1367 0
-592 -1368 0
-589 -1753 0
-590 -1754 0
-591 -1755 0
-592 -1756 0
-589 -2025 0
-590 -2026 0
-591 -2027 0
-592 -2028 0
-593 -597 0
-594 -598 0
-595 -599 0
-596 -600 0
-593 -617 0
-594 -618 0
-595 -619 0
-596 -620 0
-593 -785 0
-594 -786 0
-595 -787 0
-596 -788 0
-593 -985 0
-594 -986 0
-595 -987 0
-596 -988 0
-593 -1373 0
-594 -1374 0
-595 -1375 0
-596 -1376 0
-593 -1509 0
-594 -1510 0
-595 -1511 0
-596 -1512 0
-593 -1757 0
-594 -1758 0
-595 -1759 0
-596 -1760 0
-593 -2021 0
-594 -2022 0
-595 -2023 0
-596 -2024 0
-593 -2029 0
-594 -2030 0
-595 -2031 0
-596 -2032 0
-593 -2093 0
-594 -2094 0
-595 -2095 0
-596 -2096 0
-597 -857 0
-598 -858 0
-599 -859 0
-600 -860 0
-597 -1529 0
-598 -1530 0
-599 -1531 0
-600 -1532 0
-597 -2093 0
-598 -2094 0
-599 -2095 0
-600 -2096 0
-601 -605 0
-602 -606 0
-603 -607 0
-604 -608 0
-601 -617 0
-602 -618 0
-603 -619 0
-604 -620 0
-601 -641 0
-602 -642 0
-603 -643 0
-604 -644 0
-601 -645 0
-602 -646 0
-603 -647 0
-604 -648 0
-601 -873 0
-602 -874 0
-603 -875 0
-604 -876 0
-601 -1109 0
-602 -1110 0
-603 -1111 0
-604 -1112 0
-601 -1325 0
-602 -1326 0
-603 -1327 0
-604 -1328 0
-601 -1529 0
-602 -1530 0
-603 -1531 0
-604 -1532 0
-601 -1769 0
-602 -1770 0
-603 -1771 0
-604 -1772 0
-601 -2033 0
-602 -2034 0
-603 -2035 0
-604 -2036 0
-605 -617 0
-606 -618 0
-607 -619 0
-608 -620 0
-605 -1009 0
-606 -1010 0
-607 -1011 0
-608 -1012 0
-605 -1113 0
-606 -1114 0
-607 -1115 0
-608 -1116 0
-605 -1533 0
-606 -1534 0
-607 -1535 0
-608 -1536 0
-605 -1773 0
-606 -1774 0
-607 -1775 0
-608 -1776 0
-605 -2037 0
-606 -2038 0
-607 -2039 0
-608 -2040 0
-605 -2237 0
-606 -2238 0
-607 -2239 0
-608 -2240 0
-609 -617 0
-610 -618 0
-611 -619 0
-612 -620 0
-609 -653 0
-610 -654 0
-611 -655 0
-612 -656 0
-609 -909 0
-610 -910 0
-611 -911 0
-612 -912 0
-609 -1125 0
-610 -1126 0
-611 -1127 0
-612 -1128 0
-609 -1337 0
-610 -1338 0
-611 -1339 0
-612 -1340 0
-609 -1793 0
-610 -1794 0
-611 -1795 0
-612 -1796 0
-609 -1977 0
-610 -1978 0
-611 -1979 0
-612 -1980 0
-609 -2097 0
-610 -2098 0
-611 -2099 0
-612 -2100 0
-609 -2117 0
-610 -2118 0
-611 -2119 0
-612 -2120 0
-609 -2241 0
-610 -2242 0
-611 -2243 0
-612 -2244 0
-613 -617 0
-614 -618 0
-615 -619 0
-616 -620 0
-613 -1801 0
-614 -1802 0
-615 -1803 0
-616 -1804 0
-613 -2041 0
-614 -2042 0
-615 -2043 0
-616 -2044 0
-613 -2129 0
-614 -2130 0
-615 -2131 0
-616 -2132 0
-617 -657 0
-618 -658 0
-619 -659 0
-620 -660 0
-617 -889 0
-618 -890 0
-619 -891 0
-620 -892 0
-617 -1017 0
-618 -1018 0
-619 -1019 0
-620 -1020 0
-617 -1357 0
-618 -1358 0
-619 -1359 0
-620 -1360 0
-617 -1537 0
-618 -1538 0
-619 -1539 0
-620 -1540 0
-617 -1821 0
-618 -1822 0
-619 -1823 0
-620 -1824 0
-617 -1977 0
-618 -1978 0
-619 -1979 0
-620 -1980 0
-617 -2041 0
-618 -2042 0
-619 -2043 0
-620 -2044 0
-617 -2045 0
-618 -2046 0
-619 -2047 0
-620 -2048 0
-617 -2105 0
-618 -2106 0
-619 -2107 0
-620 -2108 0
-617 -2133 0
-618 -2134 0
-619 -2135 0
-620 -2136 0
-621 -625 0
-622 -626 0
-623 -627 0
-624 -628 0
-621 -629 0
-622 -630 0
-623 -631 0
-624 -632 0
-621 -633 0
-622 -634 0
-623 -635 0
-624 -636 0
-621 -641 0
-622 -642 0
-623 -643 0
-624 -644 0
-621 -689 0
-622 -690 0
-623 -691 0
-624 -692 0
-621 -697 0
-622 -698 0
-623 -699 0
-624 -700 0
-621 -937 0
-622 -938 0
-623 -939 0
-624 -940 0
-621 -1145 0
-622 -1146 0
-623 -1147 0
-624 -1148 0
-621 -1429 0
-622 -1430 0
-623 -1431 0
-624 -1432 0
-621 -1821 0
-622 -1822 0
-623 -1823 0
-624 -1824 0
-621 -1981 0
-622 -1982 0
-623 -1983 0
-624 -1984 0
-621 -1989 0
-622 -1990 0
-623 -1991 0
-624 -1992 0
-621 -2049 0
-622 -2050 0
-623 -2051 0
-624 -2052 0
-625 -637 0
-626 -638 0
-627 -639 0
-628 -640 0
-625 -693 0
-626 -694 0
-627 -695 0
-628 -696 0
-625 -1149 0
-626 -1150 0
-627 -1151 0
-628 -1152 0
-625 -1261 0
-626 -1262 0
-627 -1263 0
-628 -1264 0
-625 -1825 0
-626 -1826 0
-627 -1827 0
-628 -1828 0
-625 -2053 0
-626 -2054 0
-627 -2055 0
-628 -2056 0
-625 -2249 0
-626 -2250 0
-627 -2251 0
-628 -2252 0
-629 -645 0
-630 -646 0
-631 -647 0
-632 -648 0
-629 -805 0
-630 -806 0
-631 -807 0
-632 -808 0
-629 -941 0
-630 -942 0
-631 -943 0
-632 -944 0
-629 -1401 0
-630 -1402 0
-631 -1403 0
-632 -1404 0
-629 -1833 0
-630 -1834 0
-631 -1835 0
-632 -1836 0
-629 -2057 0
-630 -2058 0
-631 -2059 0
-632 -2060 0
-633 -637 0
-634 -638 0
-635 -639 0
-636 -640 0
-633 -649 0
-634 -650 0
-635 -651 0
-636 -652 0
-633 -701 0
-634 -702 0
-635 -703 0
-636 -704 0
-633 -709 0
-634 -710 0
-635 -711 0
-636 -712 0
-633 -821 0
-634 -822 0
-635 -823 0
-636 -824 0
-633 -1433 0
-634 -1434 0
-635 -1435 0
-636 -1436 0
-633 -1857 0
-634 -1858 0
-635 -1859 0
-636 -1860 0
-633 -1985 0
-634 -1986 0
-635 -1987 0
-636 -1988 0
-633 -1993 0
-634 -1994 0
-635 -1995 0
-636 -1996 0
-633 -2049 0
-634 -2050 0
-635 -2051 0
-636 -2052 0
-637 -705 0
-638 -706 0
-639 -707 0
-640 -708 0
-637 -1265 0
-638 -1266 0
-639 -1267 0
-640 -1268 0
-637 -1861 0
-638 -1862 0
-639 -1863 0
-640 -1864 0
-637 -2053 0
-638 -2054 0
-639 -2055 0
-640 -2056 0
-641 -645 0
-642 -646 0
-643 -647 0
-644 -648 0
-641 -649 0
-642 -650 0
-643 -651 0
-644 -652 0
-641 -745 0
-642 -746 0
-643 -747 0
-644 -748 0
-641 -945 0
-642 -946 0
-643 -947 0
-644 -948 0
-641 -1185 0
-642 -1186 0
-643 -1187 0
-644 -1188 0
-641 -1557 0
-642 -1558 0
-643 -1559 0
-644 -1560 0
-641 -1913 0
-642 -1914 0
-643 -1915 0
-644 -1916 0
-641 -2061 0
-642 -2062 0
-643 -2063 0
-644 -2064 0
-645 -657 0
-646 -658 0
-647 -659 0
-648 -660 0
-645 -881 0
-646 -882 0
-647 -883 0
-648 -884 0
-645 -1193 0
-646 -1194 0
-647 -1195 0
-648 -1196 0
-645 -1561 0
-646 -1562 0
-647 -1563 0
-648 -1564 0
-649 -749 0
-650 -750 0
-651 -751 0
-652 -752 0
-649 -1205 0
-650 -1206 0
-651 -1207 0
-652 -1208 0
-649 -1921 0
-650 -1922 0
-651 -1923 0
-652 -1924 0
-649 -2061 0
-650 -2062 0
-651 -2063 0
-652 -2064 0
-653 -657 0
-654 -658 0
-655 -659 0
-656 -660 0
-653 -973 0
-654 -974 0
-655 -975 0
-656 -976 0
-653 -1221 0
-654 -1222 0
-655 -1223 0
-656 -1224 0
-653 -1453 0
-654 -1454 0
-655 -1455 0
-656 -1456 0
-653 -1565 0
-654 -1566 0
-655 -1567 0
-656 -1568 0
-653 -2145 0
-654 -2146 0
-655 -2147 0
-656 -2148 0
-653 -2157 0
-654 -2158 0
-655 -2159 0
-656 -2160 0
-653 -2289 0
-654 -2290 0
-655 -2291 0
-656 -2292 0
-657 -893 0
-658 -894 0
-659 -895 0
-660 -896 0
-657 -1029 0
-658 -1030 0
-659 -1031 0
-660 -1032 0
-657 -1237 0
-658 -1238 0
-659 -1239 0
-660 -1240 0
-657 -1573 0
-658 -1574 0
-659 -1575 0
-660 -1576 0
-657 -1929 0
-658 -1930 0
-659 -1931 0
-660 -1932 0
-661 -673 0
-662 -674 0
-663 -675 0
-664 -676 0
-661 -1465 0
-662 -1466 0
-663 -1467 0
-664 -1468 0
-661 -1581 0
-662 -1582 0
-663 -1583 0
-664 -1584 0
-661 -2069 0
-662 -2070 0
-663 -2071 0
-664 -2072 0
-661 -2073 0
-662 -2074 0
-663 -2075 0
-664 -2076 0
-665 -669 0
-666 -670 0
-667 -671 0
-668 -672 0
-665 -673 0
-666 -674 0
-667 -675 0
-668 -676 0
-665 -693 0
-666 -694 0
-667 -695 0
-668 -696 0
-665 -761 0
-666 -762 0
-667 -763 0
-668 -764 0
-665 -1189 0
-666 -1190 0
-667 -1191 0
-668 -1192 0
-665 -2097 0
-666 -2098 0
-667 -2099 0
-668 -2100 0
-669 -677 0
-670 -678 0
-671 -679 0
-672 -680 0
-669 -693 0
-670 -694 0
-671 -695 0
-672 -696 0
-669 -905 0
-670 -906 0
-671 -907 0
-672 -908 0
-669 -1473 0
-670 -1474 0
-671 -1475 0
-672 -1476 0
-669 -1589 0
-670 -1590 0
-671 -1591 0
-672 -1592 0
-669 -2101 0
-670 -2102 0
-671 -2103 0
-672 -2104 0
-673 -677 0
-674 -678 0
-675 -679 0
-676 -680 0
-673 -681 0
-674 -682 0
-675 -683 0
-676 -684 0
-673 -713 0
-674 -714 0
-675 -715 0
-676 -716 0
-673 -765 0
-674 -766 0
-675 -767 0
-676 -768 0
-673 -1281 0
-674 -1282 0
-675 -1283 0
-676 -1284 0
-673 -2109 0
-674 -2110 0
-675 -2111 0
-676 -2112 0
-673 -2117 0
-674 -2118 0
-675 -2119 0
-676 -2120 0
-677 -713 0
-678 -714 0
-679 -715 0
-680 -716 0
-677 -913 0
-678 -914 0
-679 -915 0
-680 -916 0
-677 -1221 0
-678 -1222 0
-679 -1223 0
-680 -1224 0
-677 -2113 0
-678 -2114 0
-679 -2115 0
-680 -2116 0
-677 -2125 0
-678 -2126 0
-679 -2127 0
-680 -2128 0
-681 -1233 0
-682 -1234 0
-683 -1235 0
-684 -1236 0
-681 -1953 0
-682 -1954 0
-683 -1955 0
-684 -1956 0
-681 -2129 0
-682 -2130 0
-683 -2131 0
-684 -2132 0
-681 -2133 0
-682 -2134 0
-683 -2135 0
-684 -2136 0
-685 -689 0
-686 -690 0
-687 -691 0
-688 -692 0
-685 -693 0
-686 -694 0
-687 -695 0
-688 -696 0
-685 -1613 0
-686 -1614 0
-687 -1615 0
-688 -1616 0
-685 -2137 0
-686 -2138 0
-687 -2139 0
-688 -2140 0
-689 -693 0
-690 -694 0
-691 -695 0
-692 -696 0
-689 -697 0
-690 -698 0
-691 -699 0
-692 -700 0
-689 -701 0
-690 -702 0
-691 -703 0
-692 -704 0
-689 -793 0
-690 -794 0
-691 -795 0
-692 -796 0
-689 -1049 0
-690 -1050 0
-691 -1051 0
-692 -1052 0
-689 -1625 0
-690 -1626 0
-691 -1627 0
-692 -1628 0
-689 -1961 0
-690 -1962 0
-691 -1963 0
-692 -1964 0
-689 -2077 0
-690 -2078 0
-691 -2079 0
-692 -2080 0
-689 -2141 0
-690 -2142 0
-691 -2143 0
-692 -2144 0
-693 -705 0
-694 -706 0
-695 -707 0
-696 -708 0
-693 -713 0
-694 -714 0
-695 -715 0
-696 -716 0
-693 -953 0
-694 -954 0
-695 -955 0
-696 -956 0
-693 -1629 0
-694 -1630 0
-695 -1631 0
-696 -1632 0
-693 -1633 0
-694 -1634 0
-695 -1635 0
-696 -1636 0
-693 -2081 0
-694 -2082 0
-695 -2083 0
-696 -2084 0
-693 -2145 0
-694 -2146 0
-695 -2147 0
-696 -2148 0
-693 -2309 0
-694 -2310 0
-695 -2311 0
-696 -2312 0
-697 -709 0
-698 -710 0
-699 -711 0
-700 -712 0
-697 -813 0
-698 -814 0
-699 -815 0
-700 -816 0
-697 -1269 0
-698 -1270 0
-699 -1271 0
-700 -1272 0
-697 -1965 0
-698 -1966 0
-699 -1967 0
-700 -1968 0
-697 -2069 0
-698 -2070 0
-699 -2071 0
-700 -2072 0
-697 -2085 0
-698 -2086 0
-699 -2087 0
-700 -2088 0
-697 -2149 0
-698 -2150 0
-699 -2151 0
-700 -2152 0
-701 -705 0
-702 -706 0
-703 -707 0
-704 -708 0
-701 -709 0
-702 -710 0
-703 -711 0
-704 -712 0
-701 -797 0
-702 -798 0
-703 -799 0
-704 -800 0
-701 -1053 0
-702 -1054 0
-703 -1055 0
-704 -1056 0
-701 -1969 0
-702 -1970 0
-703 -1971 0
-704 -1972 0
-701 -2089 0
-702 -2090 0
-703 -2091 0
-704 -2092 0
-701 -2141 0
-702 -2142 0
-703 -2143 0
-704 -2144 0
-705 -969 0
-706 -970 0
-707 -971 0
-708 -972 0
-705 -2145 0
-706 -2146 0
-707 -2147 0
-708 -2148 0
-705 -2313 0
-706 -2314 0
-707 -2315 0
-708 -2316 0
-709 -833 0
-710 -834 0
-711 -835 0
-712 -836 0
-709 -977 0
-710 -978 0
-711 -979 0
-712 -980 0
-709 -1273 0
-710 -1274 0
-711 -1275 0
-712 -1276 0
-709 -1501 0
-710 -1502 0
-711 -1503 0
-712 -1504 0
-709 -1973 0
-710 -1974 0
-711 -1975 0
-712 -1976 0
-709 -2073 0
-710 -2074 0
-711 -2075 0
-712 -2076 0
-709 -2093 0
-710 -2094 0
-711 -2095 0
-712 -2096 0
-709 -2149 0
-710 -2150 0
-711 -2151 0
-712 -2152 0
-713 -809 0
-714 -810 0
-715 -811 0
-716 -812 0
-713 -997 0
-714 -998 0
-715 -999 0
-716 -1000 0
-713 -1637 0
-714 -1638 0
-715 -1639 0
-716 -1640 0
-713 -2153 0
-714 -2154 0
-715 -2155 0
-716 -2156 0
-713 -2157 0
-714 -2158 0
-715 -2159 0
-716 -2160 0
-717 -721 0
-718 -722 0
-719 -723 0
-720 -724 0
-717 -761 0
-718 -762 0
-719 -763 0
-720 -764 0
-717 -769 0
-718 -770 0
-719 -771 0
-720 -772 0
-717 -933 0
-718 -934 0
-719 -935 0
-720 -936 0
-717 -1325 0
-718 -1326 0
-719 -1327 0
-720 -1328 0
-717 -1513 0
-718 -1514 0
-719 -1515 0
-720 -1516 0
-717 -2161 0
-718 -2162 0
-719 -2163 0
-720 -2164 0
-717 -2325 0
-718 -2326 0
-719 -2327 0
-720 -2328 0
-721 -725 0
-722 -726 0
-723 -727 0
-724 -728 0
-721 -729 0
-722 -730 0
-723 -731 0
-724 -732 0
-721 -733 0
-722 -734 0
-723 -735 0
-724 -736 0
-721 -785 0
-722 -786 0
-723 -787 0
-724 -788 0
-721 -969 0
-722 -970 0
-723 -971 0
-724 -972 0
-721 -1093 0
-722 -1094 0
-723 -1095 0
-724 -1096 0
-721 -1353 0
-722 -1354 0
-723 -1355 0
-724 -1356 0
-721 -1977 0
-722 -1978 0
-723 -1979 0
-724 -1980 0
-721 -1981 0
-722 -1982 0
-723 -1983 0
-724 -1984 0
-721 -2165 0
-722 -2166 0
-723 -2167 0
-724 -2168 0
-721 -2189 0
-722 -2190 0
-723 -2191 0
-724 -2192 0
-721 -2205 0
-722 -2206 0
-723 -2207 0
-724 -2208 0
-725 -733 0
-726 -734 0
-727 -735 0
-728 -736 0
-725 -913 0
-726 -914 0
-727 -915 0
-728 -916 0
-725 -973 0
-726 -974 0
-727 -975 0
-728 -976 0
-725 -1105 0
-726 -1106 0
-727 -1107 0
-728 -1108 0
-725 -2173 0
-726 -2174 0
-727 -2175 0
-728 -2176 0
-725 -2193 0
-726 -2194 0
-727 -2195 0
-728 -2196 0
-725 -2209 0
-726 -2210 0
-727 -2211 0
-728 -2212 0
-729 -741 0
-730 -742 0
-731 -743 0
-732 -744 0
-729 -789 0
-730 -790 0
-731 -791 0
-732 -792 0
-729 -1373 0
-730 -1374 0
-731 -1375 0
-732 -1376 0
-729 -1985 0
-730 -1986 0
-731 -1987 0
-732 -1988 0
-729 -2165 0
-730 -2166 0
-731 -2167 0
-732 -2168 0
-733 -737 0
-734 -738 0
-735 -739 0
-736 -740 0
-733 -741 0
-734 -742 0
-735 -743 0
-736 -744 0
-733 -849 0
-734 -850 0
-735 -851 0
-736 -852 0
-733 -997 0
-734 -998 0
-735 -999 0
-736 -1000 0
-733 -1101 0
-734 -1102 0
-735 -1103 0
-736 -1104 0
-733 -1309 0
-734 -1310 0
-735 -1311 0
-736 -1312 0
-733 -1705 0
-734 -1706 0
-735 -1707 0
-736 -1708 0
-733 -2177 0
-734 -2178 0
-735 -2179 0
-736 -2180 0
-733 -2245 0
-734 -2246 0
-735 -2247 0
-736 -2248 0
-737 -849 0
-738 -850 0
-739 -851 0
-740 -852 0
-737 -1041 0
-738 -1042 0
-739 -1043 0
-740 -1044 0
-737 -1313 0
-738 -1314 0
-739 -1315 0
-740 -1316 0
-737 -1557 0
-738 -1558 0
-739 -1559 0
-740 -1560 0
-737 -1709 0
-738 -1710 0
-739 -1711 0
-740 -1712 0
-737 -2249 0
-738 -2250 0
-739 -2251 0
-740 -2252 0
-741 -857 0
-742 -858 0
-743 -859 0
-744 -860 0
-741 -901 0
-742 -902 0
-743 -903 0
-744 -904 0
-741 -1001 0
-742 -1002 0
-743 -1003 0
-744 -1004 0
-741 -1437 0
-742 -1438 0
-743 -1439 0
-744 -1440 0
-741 -1713 0
-742 -1714 0
-743 -1715 0
-744 -1716 0
-741 -2177 0
-742 -2178 0
-743 -2179 0
-744 -2180 0
-745 -749 0
-746 -750 0
-747 -751 0
-748 -752 0
-745 -861 0
-746 -862 0
-747 -863 0
-748 -864 0
-745 -865 0
-746 -866 0
-747 -867 0
-748 -868 0
-745 -1321 0
-746 -1322 0
-747 -1323 0
-748 -1324 0
-745 -1709 0
-746 -1710 0
-747 -1711 0
-748 -1712 0
-749 -753 0
-750 -754 0
-751 -755 0
-752 -756 0
-749 -873 0
-750 -874 0
-751 -875 0
-752 -876 0
-749 -877 0
-750 -878 0
-751 -879 0
-752 -880 0
-749 -1005 0
-750 -1006 0
-751 -1007 0
-752 -1008 0
-749 -1329 0
-750 -1330 0
-751 -1331 0
-752 -1332 0
-749 -1573 0
-750 -1574 0
-751 -1575 0
-752 -1576 0
-749 -1717 0
-750 -1718 0
-751 -1719 0
-752 -1720 0
-749 -2037 0
-750 -2038 0
-751 -2039 0
-752 -2040 0
-749 -2161 0
-750 -2162 0
-751 -2163 0
-752 -2164 0
-749 -2369 0
-750 -2370 0
-751 -2371 0
-752 -2372 0
-753 -1365 0
-754 -1366 0
-755 -1367 0
-756 -1368 0
-753 -1545 0
-754 -1546 0
-755 -1547 0
-756 -1548 0
-753 -2045 0
-754 -2046 0
-755 -2047 0
-756 -2048 0
-753 -2049 0
-754 -2050 0
-755 -2051 0
-756 -2052 0
-753 -2165 0
-754 -2166 0
-755 -2167 0
-756 -2168 0
-757 -777 0
-758 -778 0
-759 -779 0
-760 -780 0
-757 -2185 0
-758 -2186 0
-759 -2187 0
-760 -2188 0
-757 -2193 0
-758 -2194 0
-759 -2195 0
-760 -2196 0
-761 -769 0
-762 -770 0
-763 -771 0
-764 -772 0
-761 -777 0
-762 -778 0
-763 -779 0
-764 -780 0
-761 -1189 0
-762 -1190 0
-763 -1191 0
-764 -1192 0
-761 -1725 0
-762 -1726 0
-763 -1727 0
-764 -1728 0
-761 -2217 0
-762 -2218 0
-763 -2219 0
-764 -2220 0
-761 -2405 0
-762 -2406 0
-763 -2407 0
-764 -2408 0
-765 -769 0
-766 -770 0
-767 -771 0
-768 -772 0
-765 -809 0
-766 -810 0
-767 -811 0
-768 -812 0
-765 -1469 0
-766 -1470 0
-767 -1471 0
-768 -1472 0
-765 -2221 0
-766 -2222 0
-767 -2223 0
-768 -2224 0
-769 -773 0
-770 -774 0
-771 -775 0
-772 -776 0
-769 -781 0
-770 -782 0
-771 -783 0
-772 -784 0
-769 -785 0
-770 -786 0
-771 -787 0
-772 -788 0
-769 -801 0
-770 -802 0
-771 -803 0
-772 -804 0
-769 -817 0
-770 -818 0
-771 -819 0
-772 -820 0
-769 -1177 0
-770 -1178 0
-771 -1179 0
-772 -1180 0
-769 -1337 0
-770 -1338 0
-771 -1339 0
-772 -1340 0
-769 -1597 0
-770 -1598 0
-771 -1599 0
-772 -1600 0
-769 -2225 0
-770 -2226 0
-771 -2227 0
-772 -2228 0
-773 -789 0
-774 -790 0
-775 -791 0
-776 -792 0
-773 -837 0
-774 -838 0
-775 -839 0
-776 -840 0
-773 -1181 0
-774 -1182 0
-775 -1183 0
-776 -1184 0
-773 -1609 0
-774 -1610 0
-775 -1611 0
-776 -1612 0
-773 -2225 0
-774 -2226 0
-775 -2227 0
-776 -2228 0
-777 -781 0
-778 -782 0
-779 -783 0
-780 -784 0
-777 -1193 0
-778 -1194 0
-779 -1195 0
-780 -1196 0
-777 -1733 0
-778 -1734 0
-779 -1735 0
-780 -1736 0
-777 -2233 0
-778 -2234 0
-779 -2235 0
-780 -2236 0
-781 -1065 0
-782 -1066 0
-783 -1067 0
-784 -1068 0
-781 -1201 0
-782 -1202 0
-783 -1203 0
-784 -1204 0
-781 -1357 0
-782 -1358 0
-783 -1359 0
-784 -1360 0
-781 -2237 0
-782 -2238 0
-783 -2239 0
-784 -2240 0
-785 -789 0
-786 -790 0
-787 -791 0
-788 -792 0
-785 -849 0
-786 -850 0
-787 -851 0
-788 -852 0
-785 -1225 0
-786 -1226 0
-787 -1227 0
-788 -1228 0
-785 -1385 0
-786 -1386 0
-787 -1387 0
-788 -1388 0
-785 -1737 0
-786 -1738 0
-787 -1739 0
-788 -1740 0
-785 -2069 0
-786 -2070 0
-787 -2071 0
-788 -2072 0
-785 -2241 0
-786 -2242 0
-787 -2243 0
-788 -2244 0
-789 -857 0
-790 -858 0
-791 -859 0
-792 -860 0
-789 -1389 0
-790 -1390 0
-791 -1391 0
-792 -1392 0
-789 -1745 0
-790 -1746 0
-791 -1747 0
-792 -1748 0
-789 -2073 0
-790 -2074 0
-791 -2075 0
-792 -2076 0
-789 -2241 0
-790 -2242 0
-791 -2243 0
-792 -2244 0
-793 -797 0
-794 -798 0
-795 -799 0
-796 -800 0
-793 -805 0
-794 -806 0
-795 -807 0
-796 -808 0
-793 -861 0
-794 -862 0
-795 -863 0
-796 -864 0
-793 -1397 0
-794 -1398 0
-795 -1399 0
-796 -1400 0
-793 -1753 0
-794 -1754 0
-795 -1755 0
-796 -1756 0
-793 -2185 0
-794 -2186 0
-795 -2187 0
-796 -2188 0
-793 -2253 0
-794 -2254 0
-795 -2255 0
-796 -2256 0
-797 -825 0
-798 -826 0
-799 -827 0
-800 -828 0
-797 -869 0
-798 -870 0
-799 -871 0
-800 -872 0
-797 -873 0
-798 -874 0
-799 -875 0
-800 -876 0
-797 -1405 0
-798 -1406 0
-799 -1407 0
-800 -1408 0
-797 -1761 0
-798 -1762 0
-799 -1763 0
-800 -1764 0
-797 -2101 0
-798 -2102 0
-799 -2103 0
-800 -2104 0
-797 -2181 0
-798 -2182 0
-799 -2183 0
-800 -2184 0
-797 -2193 0
-798 -2194 0
-799 -2195 0
-800 -2196 0
-797 -2253 0
-798 -2254 0
-799 -2255 0
-800 -2256 0
-797 -2257 0
-798 -2258 0
-799 -2259 0
-800 -2260 0
-801 -817 0
-802 -818 0
-803 -819 0
-804 -820 0
-801 -1157 0
-802 -1158 0
-803 -1159 0
-804 -1160 0
-801 -1665 0
-802 -1666 0
-803 -1667 0
-804 -1668 0
-801 -2261 0
-802 -2262 0
-803 -2263 0
-804 -2264 0
-805 -809 0
-806 -810 0
-807 -811 0
-808 -812 0
-805 -813 0
-806 -814 0
-807 -815 0
-808 -816 0
-805 -825 0
-806 -826 0
-807 -827 0
-808 -828 0
-805 -845 0
-806 -846 0
-807 -847 0
-808 -848 0
-805 -881 0
-806 -882 0
-807 -883 0
-808 -884 0
-805 -1177 0
-806 -1178 0
-807 -1179 0
-808 -1180 0
-805 -2113 0
-806 -2114 0
-807 -2115 0
-808 -2116 0
-805 -2201 0
-806 -2202 0
-807 -2203 0
-808 -2204 0
-805 -2265 0
-806 -2266 0
-807 -2267 0
-808 -2268 0
-809 -817 0
-810 -818 0
-811 -819 0
-812 -820 0
-809 -829 0
-810 -830 0
-811 -831 0
-812 -832 0
-809 -845 0
-810 -846 0
-811 -847 0
-812 -848 0
-809 -1085 0
-810 -1086 0
-811 -1087 0
-812 -1088 0
-809 -1481 0
-810 -1482 0
-811 -1483 0
-812 -1484 0
-809 -1637 0
-810 -1638 0
-811 -1639 0
-812 -1640 0
-809 -2269 0
-810 -2270 0
-811 -2271 0
-812 -2272 0
-813 -817 0
-814 -818 0
-815 -819 0
-816 -820 0
-813 -833 0
-814 -834 0
-815 -835 0
-816 -836 0
-813 -849 0
-814 -850 0
-815 -851 0
-816 -852 0
-813 -881 0
-814 -882 0
-815 -883 0
-816 -884 0
-813 -1269 0
-814 -1270 0
-815 -1271 0
-816 -1272 0
-813 -1769 0
-814 -1770 0
-815 -1771 0
-816 -1772 0
-813 -2273 0
-814 -2274 0
-815 -2275 0
-816 -2276 0
-817 -837 0
-818 -838 0
-819 -839 0
-820 -840 0
-817 -849 0
-818 -850 0
-819 -851 0
-820 -852 0
-817 -1089 0
-818 -1090 0
-819 -1091 0
-820 -1092 0
-817 -1641 0
-818 -1642 0
-819 -1643 0
-820 -1644 0
-817 -1773 0
-818 -1774 0
-819 -1775 0
-820 -1776 0
-817 -2277 0
-818 -2278 0
-819 -2279 0
-820 -2280 0
-821 -825 0
-822 -826 0
-823 -827 0
-824 -828 0
-821 -1669 0
-822 -1670 0
-823 -1671 0
-824 -1672 0
-821 -2117 0
-822 -2118 0
-823 -2119 0
-824 -2120 0
-821 -2205 0
-822 -2206 0
-823 -2207 0
-824 -2208 0
-825 -829 0
-826 -830 0
-827 -831 0
-828 -832 0
-825 -833 0
-826 -834 0
-827 -835 0
-828 -836 0
-825 -841 0
-826 -842 0
-827 -843 0
-828 -844 0
-825 -853 0
-826 -854 0
-827 -855 0
-828 -856 0
-825 -885 0
-826 -886 0
-827 -887 0
-828 -888 0
-825 -1093 0
-826 -1094 0
-827 -1095 0
-828 -1096 0
-825 -1181 0
-826 -1182 0
-827 -1183 0
-828 -1184 0
-825 -1417 0
-826 -1418 0
-827 -1419 0
-828 -1420 0
-825 -1489 0
-826 -1490 0
-827 -1491 0
-828 -1492 0
-825 -1613 0
-826 -1614 0
-827 -1615 0
-828 -1616 0
-825 -2125 0
-826 -2126 0
-827 -2127 0
-828 -2128 0
-825 -2209 0
-826 -2210 0
-827 -2211 0
-828 -2212 0
-825 -2265 0
-826 -2266 0
-827 -2267 0
-828 -2268 0
-825 -2281 0
-826 -2282 0
-827 -2283 0
-828 -2284 0
-829 -837 0
-830 -838 0
-831 -839 0
-832 -840 0
-829 -853 0
-830 -854 0
-831 -855 0
-832 -856 0
-829 -1097 0
-830 -1098 0
-831 -1099 0
-832 -1100 0
-829 -1493 0
-830 -1494 0
-831 -1495 0
-832 -1496 0
-829 -1645 0
-830 -1646 0
-831 -1647 0
-832 -1648 0
-829 -2269 0
-830 -2270 0
-831 -2271 0
-832 -2272 0
-829 -2437 0
-830 -2438 0
-831 -2439 0
-832 -2440 0
-833 -837 0
-834 -838 0
-835 -839 0
-836 -840 0
-833 -857 0
-834 -858 0
-835 -859 0
-836 -860 0
-833 -885 0
-834 -886 0
-835 -887 0
-836 -888 0
-833 -941 0
-834 -942 0
-835 -943 0
-836 -944 0
-833 -1273 0
-834 -1274 0
-835 -1275 0
-836 -1276 0
-833 -1681 0
-834 -1682 0
-835 -1683 0
-836 -1684 0
-833 -1777 0
-834 -1778 0
-835 -1779 0
-836 -1780 0
-833 -2273 0
-834 -2274 0
-835 -2275 0
-836 -2276 0
-837 -857 0
-838 -858 0
-839 -859 0
-840 -860 0
-837 -1101 0
-838 -1102 0
-839 -1103 0
-840 -1104 0
-837 -1649 0
-838 -1650 0
-839 -1651 0
-840 -1652 0
-837 -1781 0
-838 -1782 0
-839 -1783 0
-840 -1784 0
-837 -2277 0
-838 -2278 0
-839 -2279 0
-840 -2280 0
-841 -1217 0
-842 -1218 0
-843 -1219 0
-844 -1220 0
-841 -1433 0
-842 -1434 0
-843 -1435 0
-844 -1436 0
-841 -1621 0
-842 -1622 0
-843 -1623 0
-844 -1624 0
-841 -2209 0
-842 -2210 0
-843 -2211 0
-844 -2212 0
-845 -849 0
-846 -850 0
-847 -851 0
-848 -852 0
-845 -853 0
-846 -854 0
-847 -855 0
-848 -856 0
-845 -893 0
-846 -894 0
-847 -895 0
-848 -896 0
-845 -1229 0
-846 -1230 0
-847 -1231 0
-848 -1232 0
-845 -1669 0
-846 -1670 0
-847 -1671 0
-848 -1672 0
-845 -1813 0
-846 -1814 0
-847 -1815 0
-848 -1816 0
-845 -2285 0
-846 -2286 0
-847 -2287 0
-848 -2288 0
-849 -857 0
-850 -858 0
-851 -859 0
-852 -860 0
-849 -893 0
-850 -894 0
-851 -895 0
-852 -896 0
-849 -965 0
-850 -966 0
-851 -967 0
-852 -968 0
-849 -1165 0
-850 -1166 0
-851 -1167 0
-852 -1168 0
-849 -1465 0
-850 -1466 0
-851 -1467 0
-852 -1468 0
-849 -1673 0
-850 -1674 0
-851 -1675 0
-852 -1676 0
-849 -1821 0
-850 -1822 0
-851 -1823 0
-852 -1824 0
-849 -2289 0
-850 -2290 0
-851 -2291 0
-852 -2292 0
-849 -2309 0
-850 -2310 0
-851 -2311 0
-852 -2312 0
-853 -857 0
-854 -858 0
-855 -859 0
-856 -860 0
-853 -897 0
-854 -898 0
-855 -899 0
-856 -900 0
-853 -1501 0
-854 -1502 0
-855 -1503 0
-856 -1504 0
-853 -1629 0
-854 -1630 0
-855 -1631 0
-856 -1632 0
-853 -1849 0
-854 -1850 0
-855 -1851 0
-856 -1852 0
-853 -2285 0
-854 -2286 0
-855 -2287 0
-856 -2288 0
-857 -897 0
-858 -898 0
-859 -899 0
-860 -900 0
-857 -989 0
-858 -990 0
-859 -991 0
-860 -992 0
-857 -1857 0
-858 -1858 0
-859 -1859 0
-860 -1860 0
-857 -2289 0
-858 -2290 0
-859 -2291 0
-860 -2292 0
-857 -2313 0
-858 -2314 0
-859 -2315 0
-860 -2316 0
-861 -865 0
-862 -866 0
-863 -867 0
-864 -868 0
-861 -873 0
-862 -874 0
-863 -875 0
-864 -876 0
-861 -881 0
-862 -882 0
-863 -883 0
-864 -884 0
-861 -1821 0
-862 -1822 0
-863 -1823 0
-864 -1824 0
-861 -2293 0
-862 -2294 0
-863 -2295 0
-864 -2296 0
-865 -877 0
-866 -878 0
-867 -879 0
-868 -880 0
-865 -1169 0
-866 -1170 0
-867 -1171 0
-868 -1172 0
-865 -1469 0
-866 -1470 0
-867 -1471 0
-868 -1472 0
-865 -1837 0
-866 -1838 0
-867 -1839 0
-868 -1840 0
-869 -873 0
-870 -874 0
-871 -875 0
-872 -876 0
-869 -1633 0
-870 -1634 0
-871 -1635 0
-872 -1636 0
-869 -1849 0
-870 -1850 0
-871 -1851 0
-872 -1852 0
-869 -2213 0
-870 -2214 0
-871 -2215 0
-872 -2216 0
-869 -2229 0
-870 -2230 0
-871 -2231 0
-872 -2232 0
-869 -2445 0
-870 -2446 0
-871 -2447 0
-872 -2448 0
-873 -877 0
-874 -878 0
-875 -879 0
-876 -880 0
-873 -885 0
-874 -886 0
-875 -887 0
-876 -888 0
-873 -889 0
-874 -890 0
-875 -891 0
-876 -892 0
-873 -1109 0
-874 -1110 0
-875 -1111 0
-876 -1112 0
-873 -1473 0
-874 -1474 0
-875 -1475 0
-876 -1476 0
-873 -1857 0
-874 -1858 0
-875 -1859 0
-876 -1860 0
-873 -2137 0
-874 -2138 0
-875 -2139 0
-876 -2140 0
-873 -2217 0
-874 -2218 0
-875 -2219 0
-876 -2220 0
-873 -2233 0
-874 -2234 0
-875 -2235 0
-876 -2236 0
-873 -2293 0
-874 -2294 0
-875 -2295 0
-876 -2296 0
-873 -2297 0
-874 -2298 0
-875 -2299 0
-876 -2300 0
-873 -2317 0
-874 -2318 0
-875 -2319 0
-876 -2320 0
-873 -2449 0
-874 -2450 0
-875 -2451 0
-876 -2452 0
-877 -1117 0
-878 -1118 0
-879 -1119 0
-880 -1120 0
-877 -1173 0
-878 -1174 0
-879 -1175 0
-880 -1176 0
-877 -1445 0
-878 -1446 0
-879 -1447 0
-880 -1448 0
-877 -1477 0
-878 -1478 0
-879 -1479 0
-880 -1480 0
-877 -1697 0
-878 -1698 0
-879 -1699 0
-880 -1700 0
-877 -1873 0
-878 -1874 0
-879 -1875 0
-880 -1876 0
-877 -2225 0
-878 -2226 0
-879 -2227 0
-880 -2228 0
-877 -2237 0
-878 -2238 0
-879 -2239 0
-880 -2240 0
-881 -885 0
-882 -886 0
-883 -887 0
-884 -888 0
-881 -893 0
-882 -894 0
-883 -895 0
-884 -896 0
-881 -1193 0
-882 -1194 0
-883 -1195 0
-884 -1196 0
-881 -1885 0
-882 -1886 0
-883 -1887 0
-884 -1888 0
-881 -2301 0
-882 -2302 0
-883 -2303 0
-884 -2304 0
-885 -897 0
-886 -898 0
-887 -899 0
-888 -900 0
-885 -1009 0
-886 -1010 0
-887 -1011 0
-888 -1012 0
-885 -1209 0
-886 -1210 0
-887 -1211 0
-888 -1212 0
-885 -1453 0
-886 -1454 0
-887 -1455 0
-888 -1456 0
-885 -1641 0
-886 -1642 0
-887 -1643 0
-888 -1644 0
-885 -1889 0
-886 -1890 0
-887 -1891 0
-888 -1892 0
-885 -2301 0
-886 -2302 0
-887 -2303 0
-888 -2304 0
-885 -2317 0
-886 -2318 0
-887 -2319 0
-888 -2320 0
-885 -2457 0
-886 -2458 0
-887 -2459 0
-888 -2460 0
-889 -897 0
-890 -898 0
-891 -899 0
-892 -900 0
-889 -1277 0
-890 -1278 0
-891 -1279 0
-892 -1280 0
-889 -1905 0
-890 -1906 0
-891 -1907 0
-892 -1908 0
-889 -2145 0
-890 -2146 0
-891 -2147 0
-892 -2148 0
-893 -897 0
-894 -898 0
-895 -899 0
-896 -900 0
-893 -1013 0
-894 -1014 0
-895 -1015 0
-896 -1016 0
-893 -1237 0
-894 -1238 0
-895 -1239 0
-896 -1240 0
-893 -1665 0
-894 -1666 0
-895 -1667 0
-896 -1668 0
-893 -1909 0
-894 -1910 0
-895 -1911 0
-896 -1912 0
-893 -2153 0
-894 -2154 0
-895 -2155 0
-896 -2156 0
-893 -2305 0
-894 -2306 0
-895 -2307 0
-896 -2308 0
-897 -1021 0
-898 -1022 0
-899 -1023 0
-900 -1024 0
-897 -1249 0
-898 -1250 0
-899 -1251 0
-900 -1252 0
-897 -1677 0
-898 -1678 0
-899 -1679 0
-900 -1680 0
-897 -1917 0
-898 -1918 0
-899 -1919 0
-900 -1920 0
-897 -2157 0
-898 -2158 0
-899 -2159 0
-900 -2160 0
-897 -2305 0
-898 -2306 0
-899 -2307 0
-900 -2308 0
-901 -973 0
-902 -974 0
-903 -975 0
-904 -976 0
-901 -989 0
-902 -990 0
-903 -991 0
-904 -992 0
-901 -1097 0
-902 -1098 0
-903 -1099 0
-904 -1100 0
-901 -1553 0
-902 -1554 0
-903 -1555 0
-904 -1556 0
-901 -1713 0
-902 -1714 0
-903 -1715 0
-904 -1716 0
-905 -909 0
-906 -910 0
-907 -911 0
-908 -912 0
-905 -913 0
-906 -914 0
-907 -915 0
-908 -916 0
-905 -953 0
-906 -954 0
-907 -955 0
-908 -956 0
-905 -957 0
-906 -958 0
-907 -959 0
-908 -960 0
-905 -1349 0
-906 -1350 0
-907 -1351 0
-908 -1352 0
-905 -1513 0
-906 -1514 0
-907 -1515 0
-908 -1516 0
-905 -2337 0
-906 -2338 0
-907 -2339 0
-908 -2340 0
-905 -2401 0
-906 -2402 0
-907 -2403 0
-908 -2404 0
-909 -917 0
-910 -918 0
-911 -919 0
-912 -920 0
-909 -969 0
-910 -970 0
-911 -971 0
-912 -972 0
-909 -973 0
-910 -974 0
-911 -975 0
-912 -976 0
-909 -1369 0
-910 -1370 0
-911 -1371 0
-912 -1372 0
-909 -1525 0
-910 -1526 0
-911 -1527 0
-912 -1528 0
-909 -2181 0
-910 -2182 0
-911 -2183 0
-912 -2184 0
-909 -2337 0
-910 -2338 0
-911 -2339 0
-912 -2340 0
-909 -2409 0
-910 -2410 0
-911 -2411 0
-912 -2412 0
-913 -917 0
-914 -918 0
-915 -919 0
-916 -920 0
-913 -921 0
-914 -922 0
-915 -923 0
-916 -924 0
-913 -997 0
-914 -998 0
-915 -999 0
-916 -1000 0
-913 -1221 0
-914 -1222 0
-915 -1223 0
-916 -1224 0
-913 -1593 0
-914 -1594 0
-915 -1595 0
-916 -1596 0
-913 -2341 0
-914 -2342 0
-915 -2343 0
-916 -2344 0
-913 -2401 0
-914 -2402 0
-915 -2403 0
-916 -2404 0
-917 -1001 0
-918 -1002 0
-919 -1003 0
-920 -1004 0
-917 -1605 0
-918 -1606 0
-919 -1607 0
-920 -1608 0
-917 -1725 0
-918 -1726 0
-919 -1727 0
-920 -1728 0
-917 -2341 0
-918 -2342 0
-919 -2343 0
-920 -2344 0
-917 -2409 0
-918 -2410 0
-919 -2411 0
-920 -2412 0
-921 -1237 0
-922 -1238 0
-923 -1239 0
-924 -1240 0
-921 -1729 0
-922 -1730 0
-923 -1731 0
-924 -1732 0
-921 -2201 0
-922 -2202 0
-923 -2203 0
-924 -2204 0
-921 -2345 0
-922 -2346 0
-923 -2347 0
-924 -2348 0
-925 -937 0
-926 -938 0
-927 -939 0
-928 -940 0
-925 -961 0
-926 -962 0
-927 -963 0
-928 -964 0
-925 -1289 0
-926 -1290 0
-927 -1291 0
-928 -1292 0
-925 -1801 0
-926 -1802 0
-927 -1803 0
-928 -1804 0
-925 -2353 0
-926 -2354 0
-927 -2355 0
-928 -2356 0
-929 -933 0
-930 -934 0
-931 -935 0
-932 -936 0
-929 -937 0
-930 -938 0
-931 -939 0
-932 -940 0
-929 -945 0
-930 -946 0
-931 -947 0
-932 -948 0
-929 -969 0
-930 -970 0
-931 -971 0
-932 -972 0
-929 -1049 0
-930 -1050 0
-931 -1051 0
-932 -1052 0
-929 -1805 0
-930 -1806 0
-931 -1807 0
-932 -1808 0
-929 -1985 0
-930 -1986 0
-931 -1987 0
-932 -1988 0
-929 -2217 0
-930 -2218 0
-931 -2219 0
-932 -2220 0
-929 -2349 0
-930 -2350 0
-931 -2351 0
-932 -2352 0
-929 -2357 0
-930 -2358 0
-931 -2359 0
-932 -2360 0
-929 -2501 0
-930 -2502 0
-931 -2503 0
-932 -2504 0
-933 -969 0
-934 -970 0
-935 -971 0
-936 -972 0
-933 -2505 0
-934 -2506 0
-935 -2507 0
-936 -2508 0
-937 -941 0
-938 -942 0
-939 -943 0
-940 -944 0
-937 -949 0
-938 -950 0
-939 -951 0
-940 -952 0
-937 -977 0
-938 -978 0
-939 -979 0
-940 -980 0
-937 -981 0
-938 -982 0
-939 -983 0
-940 -984 0
-937 -1005 0
-938 -1006 0
-939 -1007 0
-940 -1008 0
-937 -1033 0
-938 -1034 0
-939 -1035 0
-940 -1036 0
-937 -1049 0
-938 -1050 0
-939 -1051 0
-940 -1052 0
-937 -1257 0
-938 -1258 0
-939 -1259 0
-940 -1260 0
-937 -1293 0
-938 -1294 0
-939 -1295 0
-940 -1296 0
-937 -1581 0
-938 -1582 0
-939 -1583 0
-940 -1584 0
-937 -1821 0
-938 -1822 0
-939 -1823 0
-940 -1824 0
-937 -2225 0
-938 -2226 0
-939 -2227 0
-940 -2228 0
-937 -2325 0
-938 -2326 0
-939 -2327 0
-940 -2328 0
-937 -2353 0
-938 -2354 0
-939 -2355 0
-940 -2356 0
-937 -2361 0
-938 -2362 0
-939 -2363 0
-940 -2364 0
-941 -985 0
-942 -986 0
-943 -987 0
-944 -988 0
-941 -989 0
-942 -990 0
-943 -991 0
-944 -992 0
-941 -1009 0
-942 -1010 0
-943 -1011 0
-944 -1012 0
-941 -1033 0
-942 -1034 0
-943 -1035 0
-944 -1036 0
-941 -1177 0
-942 -1178 0
-943 -1179 0
-944 -1180 0
-941 -1413 0
-942 -1414 0
-943 -1415 0
-944 -1416 0
-941 -1541 0
-942 -1542 0
-943 -1543 0
-944 -1544 0
-941 -1777 0
-942 -1778 0
-943 -1779 0
-944 -1780 0
-941 -1833 0
-942 -1834 0
-943 -1835 0
-944 -1836 0
-945 -949 0
-946 -950 0
-947 -951 0
-948 -952 0
-945 -993 0
-946 -994 0
-947 -995 0
-948 -996 0
-945 -1061 0
-946 -1062 0
-947 -1063 0
-948 -1064 0
-945 -1185 0
-946 -1186 0
-947 -1187 0
-948 -1188 0
-945 -1333 0
-946 -1334 0
-947 -1335 0
-948 -1336 0
-945 -1401 0
-946 -1402 0
-947 -1403 0
-948 -1404 0
-945 -1993 0
-946 -1994 0
-947 -1995 0
-948 -1996 0
-945 -2233 0
-946 -2234 0
-947 -2235 0
-948 -2236 0
-945 -2365 0
-946 -2366 0
-947 -2367 0
-948 -2368 0
-949 -1061 0
-950 -1062 0
-951 -1063 0
-952 -1064 0
-949 -1197 0
-950 -1198 0
-951 -1199 0
-952 -1200 0
-949 -1265 0
-950 -1266 0
-951 -1267 0
-952 -1268 0
-949 -1409 0
-950 -1410 0
-951 -1411 0
-952 -1412 0
-949 -1545 0
-950 -1546 0
-951 -1547 0
-952 -1548 0
-949 -1585 0
-950 -1586 0
-951 -1587 0
-952 -1588 0
-949 -1877 0
-950 -1878 0
-951 -1879 0
-952 -1880 0
-949 -2237 0
-950 -2238 0
-951 -2239 0
-952 -2240 0
-949 -2325 0
-950 -2326 0
-951 -2327 0
-952 -2328 0
-949 -2369 0
-950 -2370 0
-951 -2371 0
-952 -2372 0
-953 -957 0
-954 -958 0
-955 -959 0
-956 -960 0
-953 -961 0
-954 -962 0
-955 -963 0
-956 -964 0
-953 -969 0
-954 -970 0
-955 -971 0
-956 -972 0
-953 -997 0
-954 -998 0
-955 -999 0
-956 -1000 0
-953 -1337 0
-954 -1338 0
-955 -1339 0
-956 -1340 0
-953 -2373 0
-954 -2374 0
-955 -2375 0
-956 -2376 0
-953 -2421 0
-954 -2422 0
-955 -2423 0
-956 -2424 0
-953 -2509 0
-954 -2510 0
-955 -2511 0
-956 -2512 0
-957 -965 0
-958 -966 0
-959 -967 0
-960 -968 0
-957 -973 0
-958 -974 0
-959 -975 0
-960 -976 0
-957 -1341 0
-958 -1342 0
-959 -1343 0
-960 -1344 0
-957 -1805 0
-958 -1806 0
-959 -1807 0
-960 -1808 0
-957 -2377 0
-958 -2378 0
-959 -2379 0
-960 -2380 0
-957 -2425 0
-958 -2426 0
-959 -2427 0
-960 -2428 0
-961 -965 0
-962 -966 0
-963 -967 0
-964 -968 0
-961 -981 0
-962 -982 0
-963 -983 0
-964 -984 0
-961 -1089 0
-962 -1090 0
-963 -1091 0
-964 -1092 0
-961 -1301 0
-962 -1302 0
-963 -1303 0
-964 -1304 0
-961 -1809 0
-962 -1810 0
-963 -1811 0
-964 -1812 0
-961 -2381 0
-962 -2382 0
-963 -2383 0
-964 -2384 0
-965 -989 0
-966 -990 0
-967 -991 0
-968 -992 0
-965 -1013 0
-966 -1014 0
-967 -1015 0
-968 -1016 0
-965 -1821 0
-966 -1822 0
-967 -1823 0
-968 -1824 0
-965 -2385 0
-966 -2386 0
-967 -2387 0
-968 -2388 0
-969 -973 0
-970 -974 0
-971 -975 0
-972 -976 0
-969 -981 0
-970 -982 0
-971 -983 0
-972 -984 0
-969 -993 0
-970 -994 0
-971 -995 0
-972 -996 0
-969 -1001 0
-970 -1002 0
-971 -1003 0
-972 -1004 0
-969 -1077 0
-970 -1078 0
-971 -1079 0
-972 -1080 0
-969 -1417 0
-970 -1418 0
-971 -1419 0
-972 -1420 0
-969 -1653 0
-970 -1654 0
-971 -1655 0
-972 -1656 0
-969 -2373 0
-970 -2374 0
-971 -2375 0
-972 -2376 0
-969 -2389 0
-970 -2390 0
-971 -2391 0
-972 -2392 0
-969 -2429 0
-970 -2430 0
-971 -2431 0
-972 -2432 0
-969 -2513 0
-970 -2514 0
-971 -2515 0
-972 -2516 0
-973 -989 0
-974 -990 0
-975 -991 0
-976 -992 0
-973 -1221 0
-974 -1222 0
-975 -1223 0
-976 -1224 0
-973 -1841 0
-974 -1842 0
-975 -1843 0
-976 -1844 0
-973 -1997 0
-974 -1998 0
-975 -1999 0
-976 -2000 0
-973 -2377 0
-974 -2378 0
-975 -2379 0
-976 -2380 0
-973 -2433 0
-974 -2434 0
-975 -2435 0
-976 -2436 0
-973 -2517 0
-974 -2518 0
-975 -2519 0
-976 -2520 0
-977 -981 0
-978 -982 0
-979 -983 0
-980 -984 0
-977 -985 0
-978 -986 0
-979 -987 0
-980 -988 0
-977 -1037 0
-978 -1038 0
-979 -1039 0
-980 -1040 0
-977 -1557 0
-978 -1558 0
-979 -1559 0
-980 -1560 0
-977 -1893 0
-978 -1894 0
-979 -1895 0
-980 -1896 0
-977 -2241 0
-978 -2242 0
-979 -2243 0
-980 -2244 0
-981 -989 0
-982 -990 0
-983 -991 0
-984 -992 0
-981 -1041 0
-982 -1042 0
-983 -1043 0
-984 -1044 0
-981 -1101 0
-982 -1102 0
-983 -1103 0
-984 -1104 0
-981 -1305 0
-982 -1306 0
-983 -1307 0
-984 -1308 0
-981 -1421 0
-982 -1422 0
-983 -1423 0
-984 -1424 0
-981 -1845 0
-982 -1846 0
-983 -1847 0
-984 -1848 0
-981 -1897 0
-982 -1898 0
-983 -1899 0
-984 -1900 0
-981 -2381 0
-982 -2382 0
-983 -2383 0
-984 -2384 0
-981 -2393 0
-982 -2394 0
-983 -2395 0
-984 -2396 0
-985 -989 0
-986 -990 0
-987 -991 0
-988 -992 0
-985 -1017 0
-986 -1018 0
-987 -1019 0
-988 -1020 0
-985 -1025 0
-986 -1026 0
-987 -1027 0
-988 -1028 0
-985 -1037 0
-986 -1038 0
-987 -1039 0
-988 -1040 0
-985 -1225 0
-986 -1226 0
-987 -1227 0
-988 -1228 0
-985 -1441 0
-986 -1442 0
-987 -1443 0
-988 -1444 0
-985 -1561 0
-986 -1562 0
-987 -1563 0
-988 -1564 0
-985 -1757 0
-986 -1758 0
-987 -1759 0
-988 -1760 0
-985 -1853 0
-986 -1854 0
-987 -1855 0
-988 -1856 0
-985 -2001 0
-986 -2002 0
-987 -2003 0
-988 -2004 0
-989 -1021 0
-990 -1022 0
-991 -1023 0
-992 -1024 0
-989 -1029 0
-990 -1030 0
-991 -1031 0
-992 -1032 0
-989 -1041 0
-990 -1042 0
-991 -1043 0
-992 -1044 0
-989 -1229 0
-990 -1230 0
-991 -1231 0
-992 -1232 0
-989 -1285 0
-990 -1286 0
-991 -1287 0
-992 -1288 0
-989 -1589 0
-990 -1590 0
-991 -1591 0
-992 -1592 0
-989 -1657 0
-990 -1658 0
-991 -1659 0
-992 -1660 0
-989 -1857 0
-990 -1858 0
-991 -1859 0
-992 -1860 0
-989 -2005 0
-990 -2006 0
-991 -2007 0
-992 -2008 0
-989 -2385 0
-990 -2386 0
-991 -2387 0
-992 -2388 0
-989 -2437 0
-990 -2438 0
-991 -2439 0
-992 -2440 0
-993 -1233 0
-994 -1234 0
-995 -1235 0
-996 -1236 0
-993 -1377 0
-994 -1378 0
-995 -1379 0
-996 -1380 0
-993 -1433 0
-994 -1434 0
-995 -1435 0
-996 -1436 0
-993 -2245 0
-994 -2246 0
-995 -2247 0
-996 -2248 0
-997 -1001 0
-998 -1002 0
-999 -1003 0
-1000 -1004 0
-997 -1085 0
-998 -1086 0
-999 -1087 0
-1000 -1088 0
-997 -1309 0
-998 -1310 0
-999 -1311 0
-1000 -1312 0
-997 -1661 0
-998 -1662 0
-999 -1663 0
-1000 -1664 0
-997 -2397 0
-998 -2398 0
-999 -2399 0
-1000 -2400 0
-997 -2421 0
-998 -2422 0
-999 -2423 0
-1000 -2424 0
-1001 -1097 0
-1002 -1098 0
-1003 -1099 0
-1004 -1100 0
-1001 -1673 0
-1002 -1674 0
-1003 -1675 0
-1004 -1676 0
-1001 -2013 0
-1002 -2014 0
-1003 -2015 0
-1004 -2016 0
-1001 -2397 0
-1002 -2398 0
-1003 -2399 0
-1004 -2400 0
-1001 -2429 0
-1002 -2430 0
-1003 -2431 0
-1004 -2432 0
-1005 -1009 0
-1006 -1010 0
-1007 -1011 0
-1008 -1012 0
-1005 -1329 0
-1006 -1330 0
-1007 -1331 0
-1008 -1332 0
-1005 -1909 0
-1006 -1910 0
-1007 -1911 0
-1008 -1912 0
-1005 -2333 0
-1006 -2334 0
-1007 -2335 0
-1008 -2336 0
-1005 -2541 0
-1006 -2542 0
-1007 -2543 0
-1008 -2544 0
-1009 -1017 0
-1010 -1018 0
-1011 -1019 0
-1012 -1020 0
-1009 -1021 0
-1010 -1022 0
-1011 -1023 0
-1012 -1024 0
-1009 -1565 0
-1010 -1566 0
-1011 -1567 0
-1012 -1568 0
-1009 -1773 0
-1010 -1774 0
-1011 -1775 0
-1012 -1776 0
-1009 -2017 0
-1010 -2018 0
-1011 -2019 0
-1012 -2020 0
-1009 -2545 0
-1010 -2546 0
-1011 -2547 0
-1012 -2548 0
-1013 -1021 0
-1014 -1022 0
-1015 -1023 0
-1016 -1024 0
-1013 -1909 0
-1014 -1910 0
-1015 -1911 0
-1016 -1912 0
-1017 -1021 0
-1018 -1022 0
-1019 -1023 0
-1020 -1024 0
-1017 -1025 0
-1018 -1026 0
-1019 -1027 0
-1020 -1028 0
-1017 -1045 0
-1018 -1046 0
-1019 -1047 0
-1020 -1048 0
-1017 -1277 0
-1018 -1278 0
-1019 -1279 0
-1020 -1280 0
-1017 -1381 0
-1018 -1382 0
-1019 -1383 0
-1020 -1384 0
-1017 -1393 0
-1018 -1394 0
-1019 -1395 0
-1020 -1396 0
-1017 -1577 0
-1018 -1578 0
-1019 -1579 0
-1020 -1580 0
-1017 -1821 0
-1018 -1822 0
-1019 -1823 0
-1020 -1824 0
-1017 -2265 0
-1018 -2266 0
-1019 -2267 0
-1020 -2268 0
-1017 -2341 0
-1018 -2342 0
-1019 -2343 0
-1020 -2344 0
-1017 -2345 0
-1018 -2346 0
-1019 -2347 0
-1020 -2348 0
-1017 -2445 0
-1018 -2446 0
-1019 -2447 0
-1020 -2448 0
-1017 -2565 0
-1018 -2566 0
-1019 -2567 0
-1020 -2568 0
-1021 -1029 0
-1022 -1030 0
-1023 -1031 0
-1024 -1032 0
-1021 -1697 0
-1022 -1698 0
-1023 -1699 0
-1024 -1700 0
-1021 -1825 0
-1022 -1826 0
-1023 -1827 0
-1024 -1828 0
-1021 -1917 0
-1022 -1918 0
-1023 -1919 0
-1024 -1920 0
-1021 -2269 0
-1022 -2270 0
-1023 -2271 0
-1024 -2272 0
-1021 -2569 0
-1022 -2570 0
-1023 -2571 0
-1024 -2572 0
-1025 -1029 0
-1026 -1030 0
-1027 -1031 0
-1028 -1032 0
-1025 -1121 0
-1026 -1122 0
-1027 -1123 0
-1028 -1124 0
-1025 -1605 0
-1026 -1606 0
-1027 -1607 0
-1028 -1608 0
-1025 -1829 0
-1026 -1830 0
-1027 -1831 0
-1028 -1832 0
-1025 -2033 0
-1026 -2034 0
-1027 -2035 0
-1028 -2036 0
-1025 -2273 0
-1026 -2274 0
-1027 -2275 0
-1028 -2276 0
-1025 -2449 0
-1026 -2450 0
-1027 -2451 0
-1028 -2452 0
-1025 -2457 0
-1026 -2458 0
-1027 -2459 0
-1028 -2460 0
-1029 -1461 0
-1030 -1462 0
-1031 -1463 0
-1032 -1464 0
-1029 -1609 0
-1030 -1610 0
-1031 -1611 0
-1032 -1612 0
-1029 -1921 0
-1030 -1922 0
-1031 -1923 0
-1032 -1924 0
-1029 -2037 0
-1030 -2038 0
-1031 -2039 0
-1032 -2040 0
-1029 -2277 0
-1030 -2278 0
-1031 -2279 0
-1032 -2280 0
-1029 -2453 0
-1030 -2454 0
-1031 -2455 0
-1032 -2456 0
-1033 -1037 0
-1034 -1038 0
-1035 -1039 0
-1036 -1040 0
-1033 -1041 0
-1034 -1042 0
-1035 -1043 0
-1036 -1044 0
-1033 -1613 0
-1034 -1614 0
-1035 -1615 0
-1036 -1616 0
-1033 -1929 0
-1034 -1930 0
-1035 -1931 0
-1036 -1932 0
-1033 -2277 0
-1034 -2278 0
-1035 -2279 0
-1036 -2280 0
-1037 -1041 0
-1038 -1042 0
-1039 -1043 0
-1040 -1044 0
-1037 -1045 0
-1038 -1046 0
-1039 -1047 0
-1040 -1048 0
-1037 -1425 0
-1038 -1426 0
-1039 -1427 0
-1040 -1428 0
-1037 -1625 0
-1038 -1626 0
-1039 -1627 0
-1040 -1628 0
-1037 -2049 0
-1038 -2050 0
-1039 -2051 0
-1040 -2052 0
-1037 -2289 0
-1038 -2290 0
-1039 -2291 0
-1040 -2292 0
-1041 -1629 0
-1042 -1630 0
-1043 -1631 0
-1044 -1632 0
-1041 -1933 0
-1042 -1934 0
-1043 -1935 0
-1044 -1936 0
-1041 -2053 0
-1042 -2054 0
-1043 -2055 0
-1044 -2056 0
-1045 -1129 0
-1046 -1130 0
-1047 -1131 0
-1048 -1132 0
-1045 -1433 0
-1046 -1434 0
-1047 -1435 0
-1048 -1436 0
-1045 -1457 0
-1046 -1458 0
-1047 -1459 0
-1048 -1460 0
-1045 -1669 0
-1046 -1670 0
-1047 -1671 0
-1048 -1672 0
-1045 -1925 0
-1046 -1926 0
-1047 -1927 0
-1048 -1928 0
-1045 -2305 0
-1046 -2306 0
-1047 -2307 0
-1048 -2308 0
-1045 -2397 0
-1046 -2398 0
-1047 -2399 0
-1048 -2400 0
-1049 -1053 0
-1050 -1054 0
-1051 -1055 0
-1052 -1056 0
-1049 -1061 0
-1050 -1062 0
-1051 -1063 0
-1052 -1064 0
-1049 -1485 0
-1050 -1486 0
-1051 -1487 0
-1052 -1488 0
-1049 -1641 0
-1050 -1642 0
-1051 -1643 0
-1052 -1644 0
-1049 -1961 0
-1050 -1962 0
-1051 -1963 0
-1052 -1964 0
-1049 -2073 0
-1050 -2074 0
-1051 -2075 0
-1052 -2076 0
-1049 -2405 0
-1050 -2406 0
-1051 -2407 0
-1052 -2408 0
-1049 -2441 0
-1050 -2442 0
-1051 -2443 0
-1052 -2444 0
-1053 -1073 0
-1054 -1074 0
-1055 -1075 0
-1056 -1076 0
-1053 -1497 0
-1054 -1498 0
-1055 -1499 0
-1056 -1500 0
-1053 -1649 0
-1054 -1650 0
-1055 -1651 0
-1056 -1652 0
-1053 -1969 0
-1054 -1970 0
-1055 -1971 0
-1056 -1972 0
-1053 -2413 0
-1054 -2414 0
-1055 -2415 0
-1056 -2416 0
-1053 -2441 0
-1054 -2442 0
-1055 -2443 0
-1056 -2444 0
-1057 -1061 0
-1058 -1062 0
-1059 -1063 0
-1060 -1064 0
-1057 -1069 0
-1058 -1070 0
-1059 -1071 0
-1060 -1072 0
-1057 -1193 0
-1058 -1194 0
-1059 -1195 0
-1060 -1196 0
-1057 -1345 0
-1058 -1346 0
-1059 -1347 0
-1060 -1348 0
-1057 -1477 0
-1058 -1478 0
-1059 -1479 0
-1060 -1480 0
-1057 -1945 0
-1058 -1946 0
-1059 -1947 0
-1060 -1948 0
-1057 -2401 0
-1058 -2402 0
-1059 -2403 0
-1060 -2404 0
-1057 -2445 0
-1058 -2446 0
-1059 -2447 0
-1060 -2448 0
-1061 -1065 0
-1062 -1066 0
-1063 -1067 0
-1064 -1068 0
-1061 -1073 0
-1062 -1074 0
-1063 -1075 0
-1064 -1076 0
-1061 -1169 0
-1062 -1170 0
-1063 -1171 0
-1064 -1172 0
-1061 -1281 0
-1062 -1282 0
-1063 -1283 0
-1064 -1284 0
-1061 -1353 0
-1062 -1354 0
-1063 -1355 0
-1064 -1356 0
-1061 -1489 0
-1062 -1490 0
-1063 -1491 0
-1064 -1492 0
-1061 -1653 0
-1062 -1654 0
-1063 -1655 0
-1064 -1656 0
-1061 -2093 0
-1062 -2094 0
-1063 -2095 0
-1064 -2096 0
-1061 -2405 0
-1062 -2406 0
-1063 -2407 0
-1064 -2408 0
-1061 -2449 0
-1062 -2450 0
-1063 -2451 0
-1064 -2452 0
-1065 -1357 0
-1066 -1358 0
-1067 -1359 0
-1068 -1360 0
-1065 -1493 0
-1066 -1494 0
-1067 -1495 0
-1068 -1496 0
-1065 -2453 0
-1066 -2454 0
-1067 -2455 0
-1068 -2456 0
-1069 -1073 0
-1070 -1074 0
-1071 -1075 0
-1072 -1076 0
-1069 -1209 0
-1070 -1210 0
-1071 -1211 0
-1072 -1212 0
-1069 -1365 0
-1070 -1366 0
-1071 -1367 0
-1072 -1368 0
-1069 -1949 0
-1070 -1950 0
-1071 -1951 0
-1072 -1952 0
-1069 -2409 0
-1070 -2410 0
-1071 -2411 0
-1072 -2412 0
-1069 -2445 0
-1070 -2446 0
-1071 -2447 0
-1072 -2448 0
-1073 -1173 0
-1074 -1174 0
-1075 -1175 0
-1076 -1176 0
-1073 -1373 0
-1074 -1374 0
-1075 -1375 0
-1076 -1376 0
-1073 -2413 0
-1074 -2414 0
-1075 -2415 0
-1076 -2416 0
-1073 -2449 0
-1074 -2450 0
-1075 -2451 0
-1076 -2452 0
-1077 -1081 0
-1078 -1082 0
-1079 -1083 0
-1080 -1084 0
-1077 -1097 0
-1078 -1098 0
-1079 -1099 0
-1080 -1100 0
-1077 -1113 0
-1078 -1114 0
-1079 -1115 0
-1080 -1116 0
-1077 -1785 0
-1078 -1786 0
-1079 -1787 0
-1080 -1788 0
-1077 -2497 0
-1078 -2498 0
-1079 -2499 0
-1080 -2500 0
-1077 -2593 0
-1078 -2594 0
-1079 -2595 0
-1080 -2596 0
-1081 -1101 0
-1082 -1102 0
-1083 -1103 0
-1084 -1104 0
-1081 -1113 0
-1082 -1114 0
-1083 -1115 0
-1084 -1116 0
-1081 -1337 0
-1082 -1338 0
-1083 -1339 0
-1084 -1340 0
-1081 -1541 0
-1082 -1542 0
-1083 -1543 0
-1084 -1544 0
-1081 -2505 0
-1082 -2506 0
-1083 -2507 0
-1084 -2508 0
-1085 -1089 0
-1086 -1090 0
-1087 -1091 0
-1088 -1092 0
-1085 -1097 0
-1086 -1098 0
-1087 -1099 0
-1088 -1100 0
-1085 -1801 0
-1086 -1802 0
-1087 -1803 0
-1088 -1804 0
-1085 -2461 0
-1086 -2462 0
-1087 -2463 0
-1088 -2464 0
-1089 -1101 0
-1090 -1102 0
-1091 -1103 0
-1092 -1104 0
-1089 -2465 0
-1090 -2466 0
-1091 -2467 0
-1092 -2468 0
-1089 -2489 0
-1090 -2490 0
-1091 -2491 0
-1092 -2492 0
-1093 -1097 0
-1094 -1098 0
-1095 -1099 0
-1096 -1100 0
-1093 -1225 0
-1094 -1226 0
-1095 -1227 0
-1096 -1228 0
-1093 -1417 0
-1094 -1418 0
-1095 -1419 0
-1096 -1420 0
-1093 -1817 0
-1094 -1818 0
-1095 -1819 0
-1096 -1820 0
-1093 -1981 0
-1094 -1982 0
-1095 -1983 0
-1096 -1984 0
-1093 -2341 0
-1094 -2342 0
-1095 -2343 0
-1096 -2344 0
-1093 -2493 0
-1094 -2494 0
-1095 -2495 0
-1096 -2496 0
-1097 -1101 0
-1098 -1102 0
-1099 -1103 0
-1100 -1104 0
-1097 -1105 0
-1098 -1106 0
-1099 -1107 0
-1100 -1108 0
-1097 -1125 0
-1098 -1126 0
-1099 -1127 0
-1100 -1128 0
-1097 -1221 0
-1098 -1222 0
-1099 -1223 0
-1100 -1224 0
-1097 -1229 0
-1098 -1230 0
-1099 -1231 0
-1100 -1232 0
-1097 -1821 0
-1098 -1822 0
-1099 -1823 0
-1100 -1824 0
-1097 -2013 0
-1098 -2014 0
-1099 -2015 0
-1100 -2016 0
-1097 -2461 0
-1098 -2462 0
-1099 -2463 0
-1100 -2464 0
-1097 -2469 0
-1098 -2470 0
-1099 -2471 0
-1100 -2472 0
-1097 -2497 0
-1098 -2498 0
-1099 -2499 0
-1100 -2500 0
-1097 -2605 0
-1098 -2606 0
-1099 -2607 0
-1100 -2608 0
-1101 -1125 0
-1102 -1126 0
-1103 -1127 0
-1104 -1128 0
-1101 -1725 0
-1102 -1726 0
-1103 -1727 0
-1104 -1728 0
-1101 -1829 0
-1102 -1830 0
-1103 -1831 0
-1104 -1832 0
-1101 -2161 0
-1102 -2162 0
-1103 -2163 0
-1104 -2164 0
-1101 -2465 0
-1102 -2466 0
-1103 -2467 0
-1104 -2468 0
-1101 -2505 0
-1102 -2506 0
-1103 -2507 0
-1104 -2508 0
-1105 -1237 0
-1106 -1238 0
-1107 -1239 0
-1108 -1240 0
-1105 -1245 0
-1106 -1246 0
-1107 -1247 0
-1108 -1248 0
-1105 -1533 0
-1106 -1534 0
-1107 -1535 0
-1108 -1536 0
-1105 -1877 0
-1106 -1878 0
-1107 -1879 0
-1108 -1880 0
-1105 -2473 0
-1106 -2474 0
-1107 -2475 0
-1108 -2476 0
-1109 -1113 0
-1110 -1114 0
-1111 -1115 0
-1112 -1116 0
-1109 -1117 0
-1110 -1118 0
-1111 -1119 0
-1112 -1120 0
-1109 -2165 0
-1110 -2166 0
-1111 -2167 0
-1112 -2168 0
-1109 -2349 0
-1110 -2350 0
-1111 -2351 0
-1112 -2352 0
-1109 -2529 0
-1110 -2530 0
-1111 -2531 0
-1112 -2532 0
-1109 -2633 0
-1110 -2634 0
-1111 -2635 0
-1112 -2636 0
-1113 -1125 0
-1114 -1126 0
-1115 -1127 0
-1116 -1128 0
-1113 -1565 0
-1114 -1566 0
-1115 -1567 0
-1116 -1568 0
-1113 -2169 0
-1114 -2170 0
-1115 -2171 0
-1116 -2172 0
-1113 -2533 0
-1114 -2534 0
-1115 -2535 0
-1116 -2536 0
-1113 -2637 0
-1114 -2638 0
-1115 -2639 0
-1116 -2640 0
-1117 -1121 0
-1118 -1122 0
-1119 -1123 0
-1120 -1124 0
-1117 -1133 0
-1118 -1134 0
-1119 -1135 0
-1120 -1136 0
-1117 -1445 0
-1118 -1446 0
-1119 -1447 0
-1120 -1448 0
-1117 -1509 0
-1118 -1510 0
-1119 -1511 0
-1120 -1512 0
-1117 -1737 0
-1118 -1738 0
-1119 -1739 0
-1120 -1740 0
-1117 -2041 0
-1118 -2042 0
-1119 -2043 0
-1120 -2044 0
-1117 -2353 0
-1118 -2354 0
-1119 -2355 0
-1120 -2356 0
-1117 -2541 0
-1118 -2542 0
-1119 -2543 0
-1120 -2544 0
-1121 -1133 0
-1122 -1134 0
-1123 -1135 0
-1124 -1136 0
-1121 -1449 0
-1122 -1450 0
-1123 -1451 0
-1124 -1452 0
-1121 -1741 0
-1122 -1742 0
-1123 -1743 0
-1124 -1744 0
-1121 -2033 0
-1122 -2034 0
-1123 -2035 0
-1124 -2036 0
-1121 -2521 0
-1122 -2522 0
-1123 -2523 0
-1124 -2524 0
-1121 -2545 0
-1122 -2546 0
-1123 -2547 0
-1124 -2548 0
-1125 -1525 0
-1126 -1526 0
-1127 -1527 0
-1128 -1528 0
-1125 -1913 0
-1126 -1914 0
-1127 -1915 0
-1128 -1916 0
-1125 -2533 0
-1126 -2534 0
-1127 -2535 0
-1128 -2536 0
-1125 -2645 0
-1126 -2646 0
-1127 -2647 0
-1128 -2648 0
-1129 -1133 0
-1130 -1134 0
-1131 -1135 0
-1132 -1136 0
-1129 -1137 0
-1130 -1138 0
-1131 -1139 0
-1132 -1140 0
-1129 -1549 0
-1130 -1550 0
-1131 -1551 0
-1132 -1552 0
-1129 -1569 0
-1130 -1570 0
-1131 -1571 0
-1132 -1572 0
-1129 -1813 0
-1130 -1814 0
-1131 -1815 0
-1132 -1816 0
-1129 -2461 0
-1130 -2462 0
-1131 -2463 0
-1132 -2464 0
-1133 -1141 0
-1134 -1142 0
-1135 -1143 0
-1136 -1144 0
-1133 -1553 0
-1134 -1554 0
-1135 -1555 0
-1136 -1556 0
-1133 -1821 0
-1134 -1822 0
-1135 -1823 0
-1136 -1824 0
-1133 -2061 0
-1134 -2062 0
-1135 -2063 0
-1136 -2064 0
-1133 -2465 0
-1134 -2466 0
-1135 -2467 0
-1136 -2468 0
-1133 -2573 0
-1134 -2574 0
-1135 -2575 0
-1136 -2576 0
-1133 -2577 0
-1134 -2578 0
-1135 -2579 0
-1136 -2580 0
-1137 -1141 0
-1138 -1142 0
-1139 -1143 0
-1140 -1144 0
-1137 -1277 0
-1138 -1278 0
-1139 -1279 0
-1140 -1280 0
-1137 -1849 0
-1138 -1850 0
-1139 -1851 0
-1140 -1852 0
-1137 -1941 0
-1138 -1942 0
-1139 -1943 0
-1140 -1944 0
-1137 -2053 0
-1138 -2054 0
-1139 -2055 0
-1140 -2056 0
-1137 -2469 0
-1138 -2470 0
-1139 -2471 0
-1140 -2472 0
-1137 -2473 0
-1138 -2474 0
-1139 -2475 0
-1140 -2476 0
-1141 -1457 0
-1142 -1458 0
-1143 -1459 0
-1144 -1460 0
-1141 -1857 0
-1142 -1858 0
-1143 -1859 0
-1144 -1860 0
-1145 -1149 0
-1146 -1150 0
-1147 -1151 0
-1148 -1152 0
-1145 -1153 0
-1146 -1154 0
-1147 -1155 0
-1148 -1156 0
-1145 -1185 0
-1146 -1186 0
-1147 -1187 0
-1148 -1188 0
-1145 -1581 0
-1146 -1582 0
-1147 -1583 0
-1148 -1584 0
-1145 -2401 0
-1146 -2402 0
-1147 -2403 0
-1148 -2404 0
-1145 -2493 0
-1146 -2494 0
-1147 -2495 0
-1148 -2496 0
-1149 -1157 0
-1150 -1158 0
-1151 -1159 0
-1152 -1160 0
-1149 -1189 0
-1150 -1190 0
-1151 -1191 0
-1152 -1192 0
-1149 -1945 0
-1150 -1946 0
-1151 -1947 0
-1152 -1948 0
-1149 -2497 0
-1150 -2498 0
-1151 -2499 0
-1152 -2500 0
-1153 -1157 0
-1154 -1158 0
-1155 -1159 0
-1156 -1160 0
-1153 -1161 0
-1154 -1162 0
-1155 -1163 0
-1156 -1164 0
-1153 -1185 0
-1154 -1186 0
-1155 -1187 0
-1156 -1188 0
-1153 -1289 0
-1154 -1290 0
-1155 -1291 0
-1156 -1292 0
-1153 -2077 0
-1154 -2078 0
-1155 -2079 0
-1156 -2080 0
-1153 -2405 0
-1154 -2406 0
-1155 -2407 0
-1156 -2408 0
-1153 -2485 0
-1154 -2486 0
-1155 -2487 0
-1156 -2488 0
-1153 -2501 0
-1154 -2502 0
-1155 -2503 0
-1156 -2504 0
-1157 -1161 0
-1158 -1162 0
-1159 -1163 0
-1160 -1164 0
-1157 -1189 0
-1158 -1190 0
-1159 -1191 0
-1160 -1192 0
-1157 -1613 0
-1158 -1614 0
-1159 -1615 0
-1160 -1616 0
-1157 -2081 0
-1158 -2082 0
-1159 -2083 0
-1160 -2084 0
-1157 -2489 0
-1158 -2490 0
-1159 -2491 0
-1160 -2492 0
-1157 -2505 0
-1158 -2506 0
-1159 -2507 0
-1160 -2508 0
-1161 -1165 0
-1162 -1166 0
-1163 -1167 0
-1164 -1168 0
-1161 -1233 0
-1162 -1234 0
-1163 -1235 0
-1164 -1236 0
-1161 -1301 0
-1162 -1302 0
-1163 -1303 0
-1164 -1304 0
-1161 -1625 0
-1162 -1626 0
-1163 -1627 0
-1164 -1628 0
-1161 -2189 0
-1162 -2190 0
-1163 -2191 0
-1164 -2192 0
-1161 -2509 0
-1162 -2510 0
-1163 -2511 0
-1164 -2512 0
-1161 -2513 0
-1162 -2514 0
-1163 -2515 0
-1164 -2516 0
-1165 -1237 0
-1166 -1238 0
-1167 -1239 0
-1168 -1240 0
-1165 -1465 0
-1166 -1466 0
-1167 -1467 0
-1168 -1468 0
-1165 -2089 0
-1166 -2090 0
-1167 -2091 0
-1168 -2092 0
-1165 -2193 0
-1166 -2194 0
-1167 -2195 0
-1168 -2196 0
-1165 -2517 0
-1166 -2518 0
-1167 -2519 0
-1168 -2520 0
-1169 -1173 0
-1170 -1174 0
-1171 -1175 0
-1172 -1176 0
-1169 -1201 0
-1170 -1202 0
-1171 -1203 0
-1172 -1204 0
-1169 -1261 0
-1170 -1262 0
-1171 -1263 0
-1172 -1264 0
-1169 -1469 0
-1170 -1470 0
-1171 -1471 0
-1172 -1472 0
-1169 -1505 0
-1170 -1506 0
-1171 -1507 0
-1172 -1508 0
-1169 -1785 0
-1170 -1786 0
-1171 -1787 0
-1172 -1788 0
-1169 -2197 0
-1170 -2198 0
-1171 -2199 0
-1172 -2200 0
-1169 -2521 0
-1170 -2522 0
-1171 -2523 0
-1172 -2524 0
-1173 -1217 0
-1174 -1218 0
-1175 -1219 0
-1176 -1220 0
-1173 -1265 0
-1174 -1266 0
-1175 -1267 0
-1176 -1268 0
-1173 -1477 0
-1174 -1478 0
-1175 -1479 0
-1176 -1480 0
-1173 -1509 0
-1174 -1510 0
-1175 -1511 0
-1176 -1512 0
-1173 -1789 0
-1174 -1790 0
-1175 -1791 0
-1176 -1792 0
-1173 -2477 0
-1174 -2478 0
-1175 -2479 0
-1176 -2480 0
-1173 -2521 0
-1174 -2522 0
-1175 -2523 0
-1176 -2524 0
-1177 -1181 0
-1178 -1182 0
-1179 -1183 0
-1180 -1184 0
-1177 -1201 0
-1178 -1202 0
-1179 -1203 0
-1180 -1204 0
-1177 -1225 0
-1178 -1226 0
-1179 -1227 0
-1180 -1228 0
-1177 -1229 0
-1178 -1230 0
-1179 -1231 0
-1180 -1232 0
-1177 -1793 0
-1178 -1794 0
-1179 -1795 0
-1180 -1796 0
-1177 -2113 0
-1178 -2114 0
-1179 -2115 0
-1180 -2116 0
-1177 -2525 0
-1178 -2526 0
-1179 -2527 0
-1180 -2528 0
-1181 -1217 0
-1182 -1218 0
-1183 -1219 0
-1184 -1220 0
-1181 -1797 0
-1182 -1798 0
-1183 -1799 0
-1184 -1800 0
-1181 -2125 0
-1182 -2126 0
-1183 -2127 0
-1184 -2128 0
-1181 -2525 0
-1182 -2526 0
-1183 -2527 0
-1184 -2528 0
-1185 -1189 0
-1186 -1190 0
-1187 -1191 0
-1188 -1192 0
-1185 -1193 0
-1186 -1194 0
-1187 -1195 0
-1188 -1196 0
-1185 -1197 0
-1186 -1198 0
-1187 -1199 0
-1188 -1200 0
-1185 -1205 0
-1186 -1206 0
-1187 -1207 0
-1188 -1208 0
-1185 -1233 0
-1186 -1234 0
-1187 -1235 0
-1188 -1236 0
-1185 -1281 0
-1186 -1282 0
-1187 -1283 0
-1188 -1284 0
-1185 -1321 0
-1186 -1322 0
-1187 -1323 0
-1188 -1324 0
-1185 -2205 0
-1186 -2206 0
-1187 -2207 0
-1188 -2208 0
-1185 -2417 0
-1186 -2418 0
-1187 -2419 0
-1188 -2420 0
-1185 -2529 0
-1186 -2530 0
-1187 -2531 0
-1188 -2532 0
-1189 -1233 0
-1190 -1234 0
-1191 -1235 0
-1192 -1236 0
-1189 -1637 0
-1190 -1638 0
-1191 -1639 0
-1192 -1640 0
-1189 -2533 0
-1190 -2534 0
-1191 -2535 0
-1192 -2536 0
-1193 -1201 0
-1194 -1202 0
-1195 -1203 0
-1196 -1204 0
-1193 -1209 0
-1194 -1210 0
-1195 -1211 0
-1196 -1212 0
-1193 -1237 0
-1194 -1238 0
-1195 -1239 0
-1196 -1240 0
-1193 -1805 0
-1194 -1806 0
-1195 -1807 0
-1196 -1808 0
-1193 -2209 0
-1194 -2210 0
-1195 -2211 0
-1196 -2212 0
-1193 -2537 0
-1194 -2538 0
-1195 -2539 0
-1196 -2540 0
-1197 -1201 0
-1198 -1202 0
-1199 -1203 0
-1200 -1204 0
-1197 -1213 0
-1198 -1214 0
-1199 -1215 0
-1200 -1216 0
-1197 -1269 0
-1198 -1270 0
-1199 -1271 0
-1200 -1272 0
-1197 -1281 0
-1198 -1282 0
-1199 -1283 0
-1200 -1284 0
-1197 -1485 0
-1198 -1486 0
-1199 -1487 0
-1200 -1488 0
-1197 -1585 0
-1198 -1586 0
-1199 -1587 0
-1200 -1588 0
-1197 -1809 0
-1198 -1810 0
-1199 -1811 0
-1200 -1812 0
-1197 -2129 0
-1198 -2130 0
-1199 -2131 0
-1200 -2132 0
-1197 -2541 0
-1198 -2542 0
-1199 -2543 0
-1200 -2544 0
-1201 -1217 0
-1202 -1218 0
-1203 -1219 0
-1204 -1220 0
-1201 -1241 0
-1202 -1242 0
-1203 -1243 0
-1204 -1244 0
-1201 -1245 0
-1202 -1246 0
-1203 -1247 0
-1204 -1248 0
-1201 -1269 0
-1202 -1270 0
-1203 -1271 0
-1204 -1272 0
-1201 -1493 0
-1202 -1494 0
-1203 -1495 0
-1204 -1496 0
-1201 -1517 0
-1202 -1518 0
-1203 -1519 0
-1204 -1520 0
-1201 -1821 0
-1202 -1822 0
-1203 -1823 0
-1204 -1824 0
-1201 -2545 0
-1202 -2546 0
-1203 -2547 0
-1204 -2548 0
-1205 -1209 0
-1206 -1210 0
-1207 -1211 0
-1208 -1212 0
-1205 -1213 0
-1206 -1214 0
-1207 -1215 0
-1208 -1216 0
-1205 -1329 0
-1206 -1330 0
-1207 -1331 0
-1208 -1332 0
-1205 -2529 0
-1206 -2530 0
-1207 -2531 0
-1208 -2532 0
-1209 -1217 0
-1210 -1218 0
-1211 -1219 0
-1212 -1220 0
-1209 -1249 0
-1210 -1250 0
-1211 -1251 0
-1212 -1252 0
-1209 -1841 0
-1210 -1842 0
-1211 -1843 0
-1212 -1844 0
-1209 -2537 0
-1210 -2538 0
-1211 -2539 0
-1212 -2540 0
-1213 -1217 0
-1214 -1218 0
-1215 -1219 0
-1216 -1220 0
-1213 -1273 0
-1214 -1274 0
-1215 -1275 0
-1216 -1276 0
-1213 -1497 0
-1214 -1498 0
-1215 -1499 0
-1216 -1500 0
-1213 -1845 0
-1214 -1846 0
-1215 -1847 0
-1216 -1848 0
-1213 -2133 0
-1214 -2134 0
-1215 -2135 0
-1216 -2136 0
-1213 -2541 0
-1214 -2542 0
-1215 -2543 0
-1216 -2544 0
-1217 -1253 0
-1218 -1254 0
-1219 -1255 0
-1220 -1256 0
-1217 -1273 0
-1218 -1274 0
-1219 -1275 0
-1220 -1276 0
-1217 -1529 0
-1218 -1530 0
-1219 -1531 0
-1220 -1532 0
-1217 -1857 0
-1218 -1858 0
-1219 -1859 0
-1220 -1860 0
-1217 -2065 0
-1218 -2066 0
-1219 -2067 0
-1220 -2068 0
-1217 -2545 0
-1218 -2546 0
-1219 -2547 0
-1220 -2548 0
-1221 -1229 0
-1222 -1230 0
-1223 -1231 0
-1224 -1232 0
-1221 -1237 0
-1222 -1238 0
-1223 -1239 0
-1224 -1240 0
-1221 -1961 0
-1222 -1962 0
-1223 -1963 0
-1224 -1964 0
-1221 -2213 0
-1222 -2214 0
-1223 -2215 0
-1224 -2216 0
-1221 -2549 0
-1222 -2550 0
-1223 -2551 0
-1224 -2552 0
-1221 -2669 0
-1222 -2670 0
-1223 -2671 0
-1224 -2672 0
-1225 -1229 0
-1226 -1230 0
-1227 -1231 0
-1228 -1232 0
-1225 -1241 0
-1226 -1242 0
-1227 -1243 0
-1228 -1244 0
-1225 -1885 0
-1226 -1886 0
-1227 -1887 0
-1228 -1888 0
-1225 -2069 0
-1226 -2070 0
-1227 -2071 0
-1228 -2072 0
-1229 -1245 0
-1230 -1246 0
-1231 -1247 0
-1232 -1248 0
-1229 -1589 0
-1230 -1590 0
-1231 -1591 0
-1232 -1592 0
-1229 -1965 0
-1230 -1966 0
-1231 -1967 0
-1232 -1968 0
-1229 -2117 0
-1230 -2118 0
-1231 -2119 0
-1232 -2120 0
-1229 -2221 0
-1230 -2222 0
-1231 -2223 0
-1232 -2224 0
-1229 -2553 0
-1230 -2554 0
-1231 -2555 0
-1232 -2556 0
-1233 -1237 0
-1234 -1238 0
-1235 -1239 0
-1236 -1240 0
-1233 -1349 0
-1234 -1350 0
-1235 -1351 0
-1236 -1352 0
-1233 -1601 0
-1234 -1602 0
-1235 -1603 0
-1236 -1604 0
-1233 -1669 0
-1234 -1670 0
-1235 -1671 0
-1236 -1672 0
-1233 -2421 0
-1234 -2422 0
-1235 -2423 0
-1236 -2424 0
-1233 -2557 0
-1234 -2558 0
-1235 -2559 0
-1236 -2560 0
-1237 -1245 0
-1238 -1246 0
-1239 -1247 0
-1240 -1248 0
-1237 -1249 0
-1238 -1250 0
-1239 -1251 0
-1240 -1252 0
-1237 -1609 0
-1238 -1610 0
-1239 -1611 0
-1240 -1612 0
-1237 -2081 0
-1238 -2082 0
-1239 -2083 0
-1240 -2084 0
-1237 -2229 0
-1238 -2230 0
-1239 -2231 0
-1240 -2232 0
-1237 -2425 0
-1238 -2426 0
-1239 -2427 0
-1240 -2428 0
-1237 -2561 0
-1238 -2562 0
-1239 -2563 0
-1240 -2564 0
-1241 -1245 0
-1242 -1246 0
-1243 -1247 0
-1244 -1248 0
-1241 -1501 0
-1242 -1502 0
-1243 -1503 0
-1244 -1504 0
-1241 -1893 0
-1242 -1894 0
-1243 -1895 0
-1244 -1896 0
-1241 -2085 0
-1242 -2086 0
-1243 -2087 0
-1244 -2088 0
-1241 -2565 0
-1242 -2566 0
-1243 -2567 0
-1244 -2568 0
-1245 -1253 0
-1246 -1254 0
-1247 -1255 0
-1248 -1256 0
-1245 -1897 0
-1246 -1898 0
-1247 -1899 0
-1248 -1900 0
-1245 -2133 0
-1246 -2134 0
-1247 -2135 0
-1248 -2136 0
-1245 -2569 0
-1246 -2570 0
-1247 -2571 0
-1248 -2572 0
-1249 -1253 0
-1250 -1254 0
-1251 -1255 0
-1252 -1256 0
-1249 -2433 0
-1250 -2434 0
-1251 -2435 0
-1252 -2436 0
-1249 -2561 0
-1250 -2562 0
-1251 -2563 0
-1252 -2564 0
-1253 -1537 0
-1254 -1538 0
-1255 -1539 0
-1256 -1540 0
-1253 -1905 0
-1254 -1906 0
-1255 -1907 0
-1256 -1908 0
-1253 -2437 0
-1254 -2438 0
-1255 -2439 0
-1256 -2440 0
-1253 -2569 0
-1254 -2570 0
-1255 -2571 0
-1256 -2572 0
-1257 -1265 0
-1258 -1266 0
-1259 -1267 0
-1260 -1268 0
-1257 -2145 0
-1258 -2146 0
-1259 -2147 0
-1260 -2148 0
-1257 -2505 0
-1258 -2506 0
-1259 -2507 0
-1260 -2508 0
-1261 -1265 0
-1262 -1266 0
-1263 -1267 0
-1264 -1268 0
-1261 -1269 0
-1262 -1270 0
-1263 -1271 0
-1264 -1272 0
-1261 -1945 0
-1262 -1946 0
-1263 -1947 0
-1264 -1948 0
-1261 -2249 0
-1262 -2250 0
-1263 -2251 0
-1264 -2252 0
-1261 -2489 0
-1262 -2490 0
-1263 -2491 0
-1264 -2492 0
-1261 -2573 0
-1262 -2574 0
-1263 -2575 0
-1264 -2576 0
-1265 -1273 0
-1266 -1274 0
-1267 -1275 0
-1268 -1276 0
-1265 -1485 0
-1266 -1486 0
-1267 -1487 0
-1268 -1488 0
-1265 -1545 0
-1266 -1546 0
-1267 -1547 0
-1268 -1548 0
-1265 -1701 0
-1266 -1702 0
-1267 -1703 0
-1268 -1704 0
-1265 -1949 0
-1266 -1950 0
-1267 -1951 0
-1268 -1952 0
-1265 -2453 0
-1266 -2454 0
-1267 -2455 0
-1268 -2456 0
-1265 -2505 0
-1266 -2506 0
-1267 -2507 0
-1268 -2508 0
-1265 -2573 0
-1266 -2574 0
-1267 -2575 0
-1268 -2576 0
-1269 -1273 0
-1270 -1274 0
-1271 -1275 0
-1272 -1276 0
-1269 -1621 0
-1270 -1622 0
-1271 -1623 0
-1272 -1624 0
-1269 -1925 0
-1270 -1926 0
-1271 -1927 0
-1272 -1928 0
-1269 -1953 0
-1270 -1954 0
-1271 -1955 0
-1272 -1956 0
-1269 -2577 0
-1270 -2578 0
-1271 -2579 0
-1272 -2580 0
-1273 -1413 0
-1274 -1414 0
-1275 -1415 0
-1276 -1416 0
-1273 -1557 0
-1274 -1558 0
-1275 -1559 0
-1276 -1560 0
-1273 -1933 0
-1274 -1934 0
-1275 -1935 0
-1276 -1936 0
-1273 -1957 0
-1274 -1958 0
-1275 -1959 0
-1276 -1960 0
-1273 -2577 0
-1274 -2578 0
-1275 -2579 0
-1276 -2580 0
-1277 -1577 0
-1278 -1578 0
-1279 -1579 0
-1280 -1580 0
-1277 -2145 0
-1278 -2146 0
-1279 -2147 0
-1280 -2148 0
-1277 -2549 0
-1278 -2550 0
-1279 -2551 0
-1280 -2552 0
-1277 -2561 0
-1278 -2562 0
-1279 -2563 0
-1280 -2564 0
-1281 -1469 0
-1282 -1470 0
-1283 -1471 0
-1284 -1472 0
-1281 -2581 0
-1282 -2582 0
-1283 -2583 0
-1284 -2584 0
-1285 -2021 0
-1286 -2022 0
-1287 -2023 0
-1288 -2024 0
-1285 -2165 0
-1286 -2166 0
-1287 -2167 0
-1288 -2168 0
-1285 -2593 0
-1286 -2594 0
-1287 -2595 0
-1288 -2596 0
-1285 -2605 0
-1286 -2606 0
-1287 -2607 0
-1288 -2608 0
-1289 -1293 0
-1290 -1294 0
-1291 -1295 0
-1292 -1296 0
-1289 -1297 0
-1290 -1298 0
-1291 -1299 0
-1292 -1300 0
-1289 -1301 0
-1290 -1302 0
-1291 -1303 0
-1292 -1304 0
-1289 -1321 0
-1290 -1322 0
-1291 -1323 0
-1292 -1324 0
-1289 -1325 0
-1290 -1326 0
-1291 -1327 0
-1292 -1328 0
-1289 -2185 0
-1290 -2186 0
-1291 -2187 0
-1292 -2188 0
-1289 -2585 0
-1290 -2586 0
-1291 -2587 0
-1292 -2588 0
-1293 -1305 0
-1294 -1306 0
-1295 -1307 0
-1296 -1308 0
-1293 -1329 0
-1294 -1330 0
-1295 -1331 0
-1296 -1332 0
-1293 -1333 0
-1294 -1334 0
-1295 -1335 0
-1296 -1336 0
-1293 -1581 0
-1294 -1582 0
-1295 -1583 0
-1296 -1584 0
-1293 -2193 0
-1294 -2194 0
-1295 -2195 0
-1296 -2196 0
-1293 -2477 0
-1294 -2478 0
-1295 -2479 0
-1296 -2480 0
-1293 -2585 0
-1294 -2586 0
-1295 -2587 0
-1296 -2588 0
-1297 -1313 0
-1298 -1314 0
-1299 -1315 0
-1300 -1316 0
-1297 -1613 0
-1298 -1614 0
-1299 -1615 0
-1300 -1616 0
-1297 -1981 0
-1298 -1982 0
-1299 -1983 0
-1300 -1984 0
-1297 -2201 0
-1298 -2202 0
-1299 -2203 0
-1300 -2204 0
-1297 -2589 0
-1298 -2590 0
-1299 -2591 0
-1300 -2592 0
-1301 -1305 0
-1302 -1306 0
-1303 -1307 0
-1304 -1308 0
-1301 -1313 0
-1302 -1314 0
-1303 -1315 0
-1304 -1316 0
-1301 -1349 0
-1302 -1350 0
-1303 -1351 0
-1304 -1352 0
-1301 -1357 0
-1302 -1358 0
-1303 -1359 0
-1304 -1360 0
-1301 -1753 0
-1302 -1754 0
-1303 -1755 0
-1304 -1756 0
-1301 -2189 0
-1302 -2190 0
-1303 -2191 0
-1304 -2192 0
-1301 -2593 0
-1302 -2594 0
-1303 -2595 0
-1304 -2596 0
-1305 -1317 0
-1306 -1318 0
-1307 -1319 0
-1308 -1320 0
-1305 -1369 0
-1306 -1370 0
-1307 -1371 0
-1308 -1372 0
-1305 -1377 0
-1306 -1378 0
-1307 -1379 0
-1308 -1380 0
-1305 -1761 0
-1306 -1762 0
-1307 -1763 0
-1308 -1764 0
-1305 -2593 0
-1306 -2594 0
-1307 -2595 0
-1308 -2596 0
-1309 -1313 0
-1310 -1314 0
-1311 -1315 0
-1312 -1316 0
-1309 -1465 0
-1310 -1466 0
-1311 -1467 0
-1312 -1468 0
-1309 -1725 0
-1310 -1726 0
-1311 -1727 0
-1312 -1728 0
-1309 -2077 0
-1310 -2078 0
-1311 -2079 0
-1312 -2080 0
-1309 -2597 0
-1310 -2598 0
-1311 -2599 0
-1312 -2600 0
-1309 -2601 0
-1310 -2602 0
-1311 -2603 0
-1312 -2604 0
-1313 -1317 0
-1314 -1318 0
-1315 -1319 0
-1316 -1320 0
-1313 -1385 0
-1314 -1386 0
-1315 -1387 0
-1316 -1388 0
-1313 -1465 0
-1314 -1466 0
-1315 -1467 0
-1316 -1468 0
-1313 -1629 0
-1314 -1630 0
-1315 -1631 0
-1316 -1632 0
-1313 -2085 0
-1314 -2086 0
-1315 -2087 0
-1316 -2088 0
-1313 -2205 0
-1314 -2206 0
-1315 -2207 0
-1316 -2208 0
-1313 -2321 0
-1314 -2322 0
-1315 -2323 0
-1316 -2324 0
-1313 -2605 0
-1314 -2606 0
-1315 -2607 0
-1316 -2608 0
-1317 -1389 0
-1318 -1390 0
-1319 -1391 0
-1320 -1392 0
-1317 -2093 0
-1318 -2094 0
-1319 -2095 0
-1320 -2096 0
-1317 -2329 0
-1318 -2330 0
-1319 -2331 0
-1320 -2332 0
-1317 -2605 0
-1318 -2606 0
-1319 -2607 0
-1320 -2608 0
-1321 -1325 0
-1322 -1326 0
-1323 -1327 0
-1324 -1328 0
-1321 -1329 0
-1322 -1330 0
-1323 -1331 0
-1324 -1332 0
-1321 -1345 0
-1322 -1346 0
-1323 -1347 0
-1324 -1348 0
-1321 -1349 0
-1322 -1350 0
-1323 -1351 0
-1324 -1352 0
-1321 -1397 0
-1322 -1398 0
-1323 -1399 0
-1324 -1400 0
-1321 -1469 0
-1322 -1470 0
-1323 -1471 0
-1324 -1472 0
-1321 -1633 0
-1322 -1634 0
-1323 -1635 0
-1324 -1636 0
-1321 -2321 0
-1322 -2322 0
-1323 -2323 0
-1324 -2324 0
-1321 -2609 0
-1322 -2610 0
-1323 -2611 0
-1324 -2612 0
-1321 -2709 0
-1322 -2710 0
-1323 -2711 0
-1324 -2712 0
-1325 -1333 0
-1326 -1334 0
-1327 -1335 0
-1328 -1336 0
-1325 -1353 0
-1326 -1354 0
-1327 -1355 0
-1328 -1356 0
-1325 -1357 0
-1326 -1358 0
-1327 -1359 0
-1328 -1360 0
-1325 -1769 0
-1326 -1770 0
-1327 -1771 0
-1328 -1772 0
-1325 -2325 0
-1326 -2326 0
-1327 -2327 0
-1328 -2328 0
-1325 -2613 0
-1326 -2614 0
-1327 -2615 0
-1328 -2616 0
-1329 -1333 0
-1330 -1334 0
-1331 -1335 0
-1332 -1336 0
-1329 -1365 0
-1330 -1366 0
-1331 -1367 0
-1332 -1368 0
-1329 -1369 0
-1330 -1370 0
-1331 -1371 0
-1332 -1372 0
-1329 -1405 0
-1330 -1406 0
-1331 -1407 0
-1332 -1408 0
-1329 -1473 0
-1330 -1474 0
-1331 -1475 0
-1332 -1476 0
-1329 -1477 0
-1330 -1478 0
-1331 -1479 0
-1332 -1480 0
-1329 -2229 0
-1330 -2230 0
-1331 -2231 0
-1332 -2232 0
-1329 -2329 0
-1330 -2330 0
-1331 -2331 0
-1332 -2332 0
-1329 -2609 0
-1330 -2610 0
-1331 -2611 0
-1332 -2612 0
-1329 -2617 0
-1330 -2618 0
-1331 -2619 0
-1332 -2620 0
-1329 -2713 0
-1330 -2714 0
-1331 -2715 0
-1332 -2716 0
-1333 -1373 0
-1334 -1374 0
-1335 -1375 0
-1336 -1376 0
-1333 -1377 0
-1334 -1378 0
-1335 -1379 0
-1336 -1380 0
-1333 -1777 0
-1334 -1778 0
-1335 -1779 0
-1336 -1780 0
-1333 -2233 0
-1334 -2234 0
-1335 -2235 0
-1336 -2236 0
-1333 -2613 0
-1334 -2614 0
-1335 -2615 0
-1336 -2616 0
-1337 -1341 0
-1338 -1342 0
-1339 -1343 0
-1340 -1344 0
-1337 -1357 0
-1338 -1358 0
-1339 -1359 0
-1340 -1360 0
-1337 -1793 0
-1338 -1794 0
-1339 -1795 0
-1340 -1796 0
-1337 -2621 0
-1338 -2622 0
-1339 -2623 0
-1340 -2624 0
-1341 -1361 0
-1342 -1362 0
-1343 -1363 0
-1344 -1364 0
-1341 -1825 0
-1342 -1826 0
-1343 -1827 0
-1344 -1828 0
-1341 -2217 0
-1342 -2218 0
-1343 -2219 0
-1344 -2220 0
-1341 -2665 0
-1342 -2666 0
-1343 -2667 0
-1344 -2668 0
-1345 -1349 0
-1346 -1350 0
-1347 -1351 0
-1348 -1352 0
-1345 -1353 0
-1346 -1354 0
-1347 -1355 0
-1348 -1356 0
-1345 -1365 0
-1346 -1366 0
-1347 -1367 0
-1348 -1368 0
-1345 -1429 0
-1346 -1430 0
-1347 -1431 0
-1348 -1432 0
-1345 -1737 0
-1346 -1738 0
-1347 -1739 0
-1348 -1740 0
-1345 -2625 0
-1346 -2626 0
-1347 -2627 0
-1348 -2628 0
-1349 -1357 0
-1350 -1358 0
-1351 -1359 0
-1352 -1360 0
-1349 -1369 0
-1350 -1370 0
-1351 -1371 0
-1352 -1372 0
-1349 -1513 0
-1350 -1514 0
-1351 -1515 0
-1352 -1516 0
-1349 -1813 0
-1350 -1814 0
-1351 -1815 0
-1352 -1816 0
-1349 -2629 0
-1350 -2630 0
-1351 -2631 0
-1352 -2632 0
-1353 -1357 0
-1354 -1358 0
-1355 -1359 0
-1356 -1360 0
-1353 -1373 0
-1354 -1374 0
-1355 -1375 0
-1356 -1376 0
-1353 -1505 0
-1354 -1506 0
-1355 -1507 0
-1356 -1508 0
-1353 -1653 0
-1354 -1654 0
-1355 -1655 0
-1356 -1656 0
-1353 -1817 0
-1354 -1818 0
-1355 -1819 0
-1356 -1820 0
-1353 -2485 0
-1354 -2486 0
-1355 -2487 0
-1356 -2488 0
-1353 -2633 0
-1354 -2634 0
-1355 -2635 0
-1356 -2636 0
-1357 -1361 0
-1358 -1362 0
-1359 -1363 0
-1360 -1364 0
-1357 -1377 0
-1358 -1378 0
-1359 -1379 0
-1360 -1380 0
-1357 -1385 0
-1358 -1386 0
-1359 -1387 0
-1360 -1388 0
-1357 -1821 0
-1358 -1822 0
-1359 -1823 0
-1360 -1824 0
-1357 -2489 0
-1358 -2490 0
-1359 -2491 0
-1360 -2492 0
-1357 -2637 0
-1358 -2638 0
-1359 -2639 0
-1360 -2640 0
-1361 -1597 0
-1362 -1598 0
-1363 -1599 0
-1364 -1600 0
-1361 -1833 0
-1362 -1834 0
-1363 -1835 0
-1364 -1836 0
-1361 -2233 0
-1362 -2234 0
-1363 -2235 0
-1364 -2236 0
-1361 -2641 0
-1362 -2642 0
-1363 -2643 0
-1364 -2644 0
-1365 -1369 0
-1366 -1370 0
-1367 -1371 0
-1368 -1372 0
-1365 -1373 0
-1366 -1374 0
-1367 -1375 0
-1368 -1376 0
-1365 -1381 0
-1366 -1382 0
-1367 -1383 0
-1368 -1384 0
-1365 -1433 0
-1366 -1434 0
-1367 -1435 0
-1368 -1436 0
-1365 -1745 0
-1366 -1746 0
-1367 -1747 0
-1368 -1748 0
-1365 -2189 0
-1366 -2190 0
-1367 -2191 0
-1368 -2192 0
-1365 -2481 0
-1366 -2482 0
-1367 -2483 0
-1368 -2484 0
-1365 -2493 0
-1366 -2494 0
-1367 -2495 0
-1368 -2496 0
-1365 -2625 0
-1366 -2626 0
-1367 -2627 0
-1368 -2628 0
-1369 -1377 0
-1370 -1378 0
-1371 -1379 0
-1372 -1380 0
-1369 -1525 0
-1370 -1526 0
-1371 -1527 0
-1372 -1528 0
-1369 -1849 0
-1370 -1850 0
-1371 -1851 0
-1372 -1852 0
-1369 -2105 0
-1370 -2106 0
-1371 -2107 0
-1372 -2108 0
-1369 -2497 0
-1370 -2498 0
-1371 -2499 0
-1372 -2500 0
-1369 -2629 0
-1370 -2630 0
-1371 -2631 0
-1372 -2632 0
-1373 -1377 0
-1374 -1378 0
-1375 -1379 0
-1376 -1380 0
-1373 -1437 0
-1374 -1438 0
-1375 -1439 0
-1376 -1440 0
-1373 -1509 0
-1374 -1510 0
-1375 -1511 0
-1376 -1512 0
-1373 -1853 0
-1374 -1854 0
-1375 -1855 0
-1376 -1856 0
-1373 -2501 0
-1374 -2502 0
-1375 -2503 0
-1376 -2504 0
-1373 -2633 0
-1374 -2634 0
-1375 -2635 0
-1376 -2636 0
-1377 -1389 0
-1378 -1390 0
-1379 -1391 0
-1380 -1392 0
-1377 -1601 0
-1378 -1602 0
-1379 -1603 0
-1380 -1604 0
-1377 -1857 0
-1378 -1858 0
-1379 -1859 0
-1380 -1860 0
-1377 -2505 0
-1378 -2506 0
-1379 -2507 0
-1380 -2508 0
-1377 -2637 0
-1378 -2638 0
-1379 -2639 0
-1380 -2640 0
-1381 -1433 0
-1382 -1434 0
-1383 -1435 0
-1384 -1436 0
-1381 -1749 0
-1382 -1750 0
-1383 -1751 0
-1384 -1752 0
-1381 -2193 0
-1382 -2194 0
-1383 -2195 0
-1384 -2196 0
-1385 -1389 0
-1386 -1390 0
-1387 -1391 0
-1388 -1392 0
-1385 -1521 0
-1386 -1522 0
-1387 -1523 0
-1388 -1524 0
-1385 -1677 0
-1386 -1678 0
-1387 -1679 0
-1388 -1680 0
-1385 -1733 0
-1386 -1734 0
-1387 -1735 0
-1388 -1736 0
-1385 -1885 0
-1386 -1886 0
-1387 -1887 0
-1388 -1888 0
-1385 -2333 0
-1386 -2334 0
-1387 -2335 0
-1388 -2336 0
-1385 -2645 0
-1386 -2646 0
-1387 -2647 0
-1388 -2648 0
-1389 -1533 0
-1390 -1534 0
-1391 -1535 0
-1392 -1536 0
-1389 -1889 0
-1390 -1890 0
-1391 -1891 0
-1392 -1892 0
-1389 -2645 0
-1390 -2646 0
-1391 -2647 0
-1392 -2648 0
-1393 -1457 0
-1394 -1458 0
-1395 -1459 0
-1396 -1460 0
-1393 -1461 0
-1394 -1462 0
-1395 -1463 0
-1396 -1464 0
-1393 -1749 0
-1394 -1750 0
-1395 -1751 0
-1396 -1752 0
-1393 -2225 0
-1394 -2226 0
-1395 -2227 0
-1396 -2228 0
-1393 -2525 0
-1394 -2526 0
-1395 -2527 0
-1396 -2528 0
-1393 -2677 0
-1394 -2678 0
-1395 -2679 0
-1396 -2680 0
-1397 -1405 0
-1398 -1406 0
-1399 -1407 0
-1400 -1408 0
-1397 -1429 0
-1398 -1430 0
-1399 -1431 0
-1400 -1432 0
-1397 -1481 0
-1398 -1482 0
-1399 -1483 0
-1400 -1484 0
-1397 -1773 0
-1398 -1774 0
-1399 -1775 0
-1400 -1776 0
-1397 -2649 0
-1398 -2650 0
-1399 -2651 0
-1400 -2652 0
-1401 -1405 0
-1402 -1406 0
-1403 -1407 0
-1404 -1408 0
-1401 -1409 0
-1402 -1410 0
-1403 -1411 0
-1404 -1412 0
-1401 -1433 0
-1402 -1434 0
-1403 -1435 0
-1404 -1436 0
-1401 -1489 0
-1402 -1490 0
-1403 -1491 0
-1404 -1492 0
-1401 -1777 0
-1402 -1778 0
-1403 -1779 0
-1404 -1780 0
-1401 -2537 0
-1402 -2538 0
-1403 -2539 0
-1404 -2540 0
-1405 -1413 0
-1406 -1414 0
-1407 -1415 0
-1408 -1416 0
-1405 -1433 0
-1406 -1434 0
-1407 -1435 0
-1408 -1436 0
-1405 -1493 0
-1406 -1494 0
-1407 -1495 0
-1408 -1496 0
-1405 -1637 0
-1406 -1638 0
-1407 -1639 0
-1408 -1640 0
-1405 -1705 0
-1406 -1706 0
-1407 -1707 0
-1408 -1708 0
-1405 -1781 0
-1406 -1782 0
-1407 -1783 0
-1408 -1784 0
-1405 -2649 0
-1406 -2650 0
-1407 -2651 0
-1408 -2652 0
-1405 -2653 0
-1406 -2654 0
-1407 -2655 0
-1408 -2656 0
-1405 -2737 0
-1406 -2738 0
-1407 -2739 0
-1408 -2740 0
-1409 -1413 0
-1410 -1414 0
-1411 -1415 0
-1412 -1416 0
-1409 -1441 0
-1410 -1442 0
-1411 -1443 0
-1412 -1444 0
-1409 -1489 0
-1410 -1490 0
-1411 -1491 0
-1412 -1492 0
-1409 -1701 0
-1410 -1702 0
-1411 -1703 0
-1412 -1704 0
-1409 -2049 0
-1410 -2050 0
-1411 -2051 0
-1412 -2052 0
-1409 -2545 0
-1410 -2546 0
-1411 -2547 0
-1412 -2548 0
-1409 -2589 0
-1410 -2590 0
-1411 -2591 0
-1412 -2592 0
-1413 -1441 0
-1414 -1442 0
-1415 -1443 0
-1416 -1444 0
-1413 -1493 0
-1414 -1494 0
-1415 -1495 0
-1416 -1496 0
-1413 -1709 0
-1414 -1710 0
-1415 -1711 0
-1416 -1712 0
-1413 -2053 0
-1414 -2054 0
-1415 -2055 0
-1416 -2056 0
-1417 -1421 0
-1418 -1422 0
-1419 -1423 0
-1420 -1424 0
-1417 -1433 0
-1418 -1434 0
-1419 -1435 0
-1420 -1436 0
-1417 -1453 0
-1418 -1454 0
-1419 -1455 0
-1420 -1456 0
-1417 -1797 0
-1418 -1798 0
-1419 -1799 0
-1420 -1800 0
-1417 -2141 0
-1418 -2142 0
-1419 -2143 0
-1420 -2144 0
-1417 -2549 0
-1418 -2550 0
-1419 -2551 0
-1420 -2552 0
-1417 -2601 0
-1418 -2602 0
-1419 -2603 0
-1420 -2604 0
-1417 -2741 0
-1418 -2742 0
-1419 -2743 0
-1420 -2744 0
-1421 -1425 0
-1422 -1426 0
-1423 -1427 0
-1424 -1428 0
-1421 -1441 0
-1422 -1442 0
-1423 -1443 0
-1424 -1444 0
-1421 -1457 0
-1422 -1458 0
-1423 -1459 0
-1424 -1460 0
-1421 -1761 0
-1422 -1762 0
-1423 -1763 0
-1424 -1764 0
-1421 -2149 0
-1422 -2150 0
-1423 -2151 0
-1424 -2152 0
-1421 -2285 0
-1422 -2286 0
-1423 -2287 0
-1424 -2288 0
-1421 -2553 0
-1422 -2554 0
-1423 -2555 0
-1424 -2556 0
-1421 -2605 0
-1422 -2606 0
-1423 -2607 0
-1424 -2608 0
-1425 -1457 0
-1426 -1458 0
-1427 -1459 0
-1428 -1460 0
-1425 -1765 0
-1426 -1766 0
-1427 -1767 0
-1428 -1768 0
-1425 -2073 0
-1426 -2074 0
-1427 -2075 0
-1428 -2076 0
-1425 -2289 0
-1426 -2290 0
-1427 -2291 0
-1428 -2292 0
-1425 -2361 0
-1426 -2362 0
-1427 -2363 0
-1428 -2364 0
-1429 -1433 0
-1430 -1434 0
-1431 -1435 0
-1432 -1436 0
-1429 -1821 0
-1430 -1822 0
-1431 -1823 0
-1432 -1824 0
-1429 -2597 0
-1430 -2598 0
-1431 -2599 0
-1432 -2600 0
-1429 -2657 0
-1430 -2658 0
-1431 -2659 0
-1432 -2660 0
-1433 -1437 0
-1434 -1438 0
-1435 -1439 0
-1436 -1440 0
-1433 -1441 0
-1434 -1442 0
-1435 -1443 0
-1436 -1444 0
-1433 -1501 0
-1434 -1502 0
-1435 -1503 0
-1436 -1504 0
-1433 -1549 0
-1434 -1550 0
-1435 -1551 0
-1436 -1552 0
-1433 -1669 0
-1434 -1670 0
-1435 -1671 0
-1436 -1672 0
-1433 -1857 0
-1434 -1858 0
-1435 -1859 0
-1436 -1860 0
-1433 -2245 0
-1434 -2246 0
-1435 -2247 0
-1436 -2248 0
-1433 -2561 0
-1434 -2562 0
-1435 -2563 0
-1436 -2564 0
-1433 -2601 0
-1434 -2602 0
-1435 -2603 0
-1436 -2604 0
-1433 -2657 0
-1434 -2658 0
-1435 -2659 0
-1436 -2660 0
-1433 -2661 0
-1434 -2662 0
-1435 -2663 0
-1436 -2664 0
-1437 -1553 0
-1438 -1554 0
-1439 -1555 0
-1440 -1556 0
-1437 -1673 0
-1438 -1674 0
-1439 -1675 0
-1440 -1676 0
-1437 -1865 0
-1438 -1866 0
-1439 -1867 0
-1440 -1868 0
-1437 -2089 0
-1438 -2090 0
-1439 -2091 0
-1440 -2092 0
-1437 -2365 0
-1438 -2366 0
-1439 -2367 0
-1440 -2368 0
-1441 -1501 0
-1442 -1502 0
-1443 -1503 0
-1444 -1504 0
-1441 -1561 0
-1442 -1562 0
-1443 -1563 0
-1444 -1564 0
-1441 -1873 0
-1442 -1874 0
-1443 -1875 0
-1444 -1876 0
-1441 -2249 0
-1442 -2250 0
-1443 -2251 0
-1444 -2252 0
-1441 -2569 0
-1442 -2570 0
-1443 -2571 0
-1444 -2572 0
-1441 -2605 0
-1442 -2606 0
-1443 -2607 0
-1444 -2608 0
-1445 -1449 0
-1446 -1450 0
-1447 -1451 0
-1448 -1452 0
-1445 -1457 0
-1446 -1458 0
-1447 -1459 0
-1448 -1460 0
-1445 -1789 0
-1446 -1790 0
-1447 -1791 0
-1448 -1792 0
-1445 -2097 0
-1446 -2098 0
-1447 -2099 0
-1448 -2100 0
-1445 -2393 0
-1446 -2394 0
-1447 -2395 0
-1448 -2396 0
-1445 -2621 0
-1446 -2622 0
-1447 -2623 0
-1448 -2624 0
-1445 -2637 0
-1446 -2638 0
-1447 -2639 0
-1448 -2640 0
-1445 -2685 0
-1446 -2686 0
-1447 -2687 0
-1448 -2688 0
-1449 -1461 0
-1450 -1462 0
-1451 -1463 0
-1452 -1464 0
-1449 -1693 0
-1450 -1694 0
-1451 -1695 0
-1452 -1696 0
-1449 -2101 0
-1450 -2102 0
-1451 -2103 0
-1452 -2104 0
-1449 -2297 0
-1450 -2298 0
-1451 -2299 0
-1452 -2300 0
-1449 -2641 0
-1450 -2642 0
-1451 -2643 0
-1452 -2644 0
-1449 -2689 0
-1450 -2690 0
-1451 -2691 0
-1452 -2692 0
-1453 -1457 0
-1454 -1458 0
-1455 -1459 0
-1456 -1460 0
-1453 -1565 0
-1454 -1566 0
-1455 -1567 0
-1456 -1568 0
-1453 -1841 0
-1454 -1842 0
-1455 -1843 0
-1456 -1844 0
-1453 -2773 0
-1454 -2774 0
-1455 -2775 0
-1456 -2776 0
-1457 -1461 0
-1458 -1462 0
-1459 -1463 0
-1460 -1464 0
-1457 -1569 0
-1458 -1570 0
-1459 -1571 0
-1460 -1572 0
-1457 -1857 0
-1458 -1858 0
-1459 -1859 0
-1460 -1860 0
-1457 -2117 0
-1458 -2118 0
-1459 -2119 0
-1460 -2120 0
-1457 -2261 0
-1458 -2262 0
-1459 -2263 0
-1460 -2264 0
-1457 -2305 0
-1458 -2306 0
-1459 -2307 0
-1460 -2308 0
-1457 -2645 0
-1458 -2646 0
-1459 -2647 0
-1460 -2648 0
-1457 -2685 0
-1458 -2686 0
-1459 -2687 0
-1460 -2688 0
-1461 -1721 0
-1462 -1722 0
-1463 -1723 0
-1464 -1724 0
-1461 -1869 0
-1462 -1870 0
-1463 -1871 0
-1464 -1872 0
-1461 -2125 0
-1462 -2126 0
-1463 -2127 0
-1464 -2128 0
-1461 -2277 0
-1462 -2278 0
-1463 -2279 0
-1464 -2280 0
-1461 -2689 0
-1462 -2690 0
-1463 -2691 0
-1464 -2692 0
-1465 -2401 0
-1466 -2402 0
-1467 -2403 0
-1468 -2404 0
-1465 -2669 0
-1466 -2670 0
-1467 -2671 0
-1468 -2672 0
-1469 -1477 0
-1470 -1478 0
-1471 -1479 0
-1472 -1480 0
-1469 -1481 0
-1470 -1482 0
-1471 -1483 0
-1472 -1484 0
-1469 -2673 0
-1470 -2674 0
-1471 -2675 0
-1472 -2676 0
-1473 -1477 0
-1474 -1478 0
-1475 -1479 0
-1476 -1480 0
-1473 -2409 0
-1474 -2410 0
-1475 -2411 0
-1476 -2412 0
-1477 -1485 0
-1478 -1486 0
-1479 -1487 0
-1480 -1488 0
-1477 -1493 0
-1478 -1494 0
-1479 -1495 0
-1480 -1496 0
-1477 -1737 0
-1478 -1738 0
-1479 -1739 0
-1480 -1740 0
-1477 -2097 0
-1478 -2098 0
-1479 -2099 0
-1480 -2100 0
-1477 -2673 0
-1478 -2674 0
-1479 -2675 0
-1480 -2676 0
-1477 -2677 0
-1478 -2678 0
-1479 -2679 0
-1480 -2680 0
-1481 -1493 0
-1482 -1494 0
-1483 -1495 0
-1484 -1496 0
-1481 -1801 0
-1482 -1802 0
-1483 -1803 0
-1484 -1804 0
-1481 -2681 0
-1482 -2682 0
-1483 -2683 0
-1484 -2684 0
-1485 -1493 0
-1486 -1494 0
-1487 -1495 0
-1488 -1496 0
-1485 -1497 0
-1486 -1498 0
-1487 -1499 0
-1488 -1500 0
-1485 -1641 0
-1486 -1642 0
-1487 -1643 0
-1488 -1644 0
-1485 -1809 0
-1486 -1810 0
-1487 -1811 0
-1488 -1812 0
-1485 -1949 0
-1486 -1950 0
-1487 -1951 0
-1488 -1952 0
-1485 -2685 0
-1486 -2686 0
-1487 -2687 0
-1488 -2688 0
-1489 -1493 0
-1490 -1494 0
-1491 -1495 0
-1492 -1496 0
-1489 -1501 0
-1490 -1502 0
-1491 -1503 0
-1492 -1504 0
-1489 -1817 0
-1490 -1818 0
-1491 -1819 0
-1492 -1820 0
-1489 -2141 0
-1490 -2142 0
-1491 -2143 0
-1492 -2144 0
-1493 -1501 0
-1494 -1502 0
-1495 -1503 0
-1496 -1504 0
-1493 -1821 0
-1494 -1822 0
-1495 -1823 0
-1496 -1824 0
-1493 -2145 0
-1494 -2146 0
-1495 -2147 0
-1496 -2148 0
-1493 -2317 0
-1494 -2318 0
-1495 -2319 0
-1496 -2320 0
-1493 -2437 0
-1494 -2438 0
-1495 -2439 0
-1496 -2440 0
-1493 -2665 0
-1494 -2666 0
-1495 -2667 0
-1496 -2668 0
-1493 -2681 0
-1494 -2682 0
-1495 -2683 0
-1496 -2684 0
-1493 -2689 0
-1494 -2690 0
-1495 -2691 0
-1496 -2692 0
-1497 -1649 0
-1498 -1650 0
-1499 -1651 0
-1500 -1652 0
-1497 -1845 0
-1498 -1846 0
-1499 -1847 0
-1500 -1848 0
-1497 -2685 0
-1498 -2686 0
-1499 -2687 0
-1500 -2688 0
-1501 -1681 0
-1502 -1682 0
-1503 -1683 0
-1504 -1684 0
-1501 -1893 0
-1502 -1894 0
-1503 -1895 0
-1504 -1896 0
-1501 -1973 0
-1502 -1974 0
-1503 -1975 0
-1504 -1976 0
-1501 -2309 0
-1502 -2310 0
-1503 -2311 0
-1504 -2312 0
-1501 -2445 0
-1502 -2446 0
-1503 -2447 0
-1504 -2448 0
-1501 -2669 0
-1502 -2670 0
-1503 -2671 0
-1504 -2672 0
-1505 -1509 0
-1506 -1510 0
-1507 -1511 0
-1508 -1512 0
-1505 -1517 0
-1506 -1518 0
-1507 -1519 0
-1508 -1520 0
-1505 -1785 0
-1506 -1786 0
-1507 -1787 0
-1508 -1788 0
-1505 -2709 0
-1506 -2710 0
-1507 -2711 0
-1508 -2712 0
-1509 -1529 0
-1510 -1530 0
-1511 -1531 0
-1512 -1532 0
-1509 -1545 0
-1510 -1546 0
-1511 -1547 0
-1512 -1548 0
-1509 -1553 0
-1510 -1554 0
-1511 -1555 0
-1512 -1556 0
-1509 -1737 0
-1510 -1738 0
-1511 -1739 0
-1512 -1740 0
-1509 -1789 0
-1510 -1790 0
-1511 -1791 0
-1512 -1792 0
-1509 -2001 0
-1510 -2002 0
-1511 -2003 0
-1512 -2004 0
-1509 -2585 0
-1510 -2586 0
-1511 -2587 0
-1512 -2588 0
-1509 -2713 0
-1510 -2714 0
-1511 -2715 0
-1512 -2716 0
-1513 -1521 0
-1514 -1522 0
-1515 -1523 0
-1516 -1524 0
-1513 -1525 0
-1514 -1526 0
-1515 -1527 0
-1516 -1528 0
-1513 -1597 0
-1514 -1598 0
-1515 -1599 0
-1516 -1600 0
-1513 -2693 0
-1514 -2694 0
-1515 -2695 0
-1516 -2696 0
-1513 -2793 0
-1514 -2794 0
-1515 -2795 0
-1516 -2796 0
-1517 -1521 0
-1518 -1522 0
-1519 -1523 0
-1520 -1524 0
-1517 -1529 0
-1518 -1530 0
-1519 -1531 0
-1520 -1532 0
-1517 -1593 0
-1518 -1594 0
-1519 -1595 0
-1520 -1596 0
-1517 -1821 0
-1518 -1822 0
-1519 -1823 0
-1520 -1824 0
-1517 -2697 0
-1518 -2698 0
-1519 -2699 0
-1520 -2700 0
-1517 -2709 0
-1518 -2710 0
-1519 -2711 0
-1520 -2712 0
-1521 -1533 0
-1522 -1534 0
-1523 -1535 0
-1524 -1536 0
-1521 -1597 0
-1522 -1598 0
-1523 -1599 0
-1524 -1600 0
-1521 -1825 0
-1522 -1826 0
-1523 -1827 0
-1524 -1828 0
-1521 -2333 0
-1522 -2334 0
-1523 -2335 0
-1524 -2336 0
-1521 -2701 0
-1522 -2702 0
-1523 -2703 0
-1524 -2704 0
-1525 -1533 0
-1526 -1534 0
-1527 -1535 0
-1528 -1536 0
-1525 -1609 0
-1526 -1610 0
-1527 -1611 0
-1528 -1612 0
-1525 -2233 0
-1526 -2234 0
-1527 -2235 0
-1528 -2236 0
-1525 -2693 0
-1526 -2694 0
-1527 -2695 0
-1528 -2696 0
-1525 -2797 0
-1526 -2798 0
-1527 -2799 0
-1528 -2800 0
-1529 -1533 0
-1530 -1534 0
-1531 -1535 0
-1532 -1536 0
-1529 -1537 0
-1530 -1538 0
-1531 -1539 0
-1532 -1540 0
-1529 -1557 0
-1530 -1558 0
-1531 -1559 0
-1532 -1560 0
-1529 -1561 0
-1530 -1562 0
-1531 -1563 0
-1532 -1564 0
-1529 -1605 0
-1530 -1606 0
-1531 -1607 0
-1532 -1608 0
-1529 -1857 0
-1530 -1858 0
-1531 -1859 0
-1532 -1860 0
-1529 -2165 0
-1530 -2166 0
-1531 -2167 0
-1532 -2168 0
-1529 -2325 0
-1530 -2326 0
-1531 -2327 0
-1532 -2328 0
-1529 -2345 0
-1530 -2346 0
-1531 -2347 0
-1532 -2348 0
-1529 -2589 0
-1530 -2590 0
-1531 -2591 0
-1532 -2592 0
-1529 -2697 0
-1530 -2698 0
-1531 -2699 0
-1532 -2700 0
-1529 -2713 0
-1530 -2714 0
-1531 -2715 0
-1532 -2716 0
-1533 -1537 0
-1534 -1538 0
-1535 -1539 0
-1536 -1540 0
-1533 -1609 0
-1534 -1610 0
-1535 -1611 0
-1536 -1612 0
-1533 -1861 0
-1534 -1862 0
-1535 -1863 0
-1536 -1864 0
-1533 -2017 0
-1534 -2018 0
-1535 -2019 0
-1536 -2020 0
-1533 -2169 0
-1534 -2170 0
-1535 -2171 0
-1536 -2172 0
-1533 -2237 0
-1534 -2238 0
-1535 -2239 0
-1536 -2240 0
-1533 -2701 0
-1534 -2702 0
-1535 -2703 0
-1536 -2704 0
-1537 -1905 0
-1538 -1906 0
-1539 -1907 0
-1540 -1908 0
-1537 -2605 0
-1538 -2606 0
-1539 -2607 0
-1540 -2608 0
-1541 -1553 0
-1542 -1554 0
-1543 -1555 0
-1544 -1556 0
-1541 -1565 0
-1542 -1566 0
-1543 -1567 0
-1544 -1568 0
-1541 -1793 0
-1542 -1794 0
-1543 -1795 0
-1544 -1796 0
-1541 -2053 0
-1542 -2054 0
-1543 -2055 0
-1544 -2056 0
-1541 -2181 0
-1542 -2182 0
-1543 -2183 0
-1544 -2184 0
-1541 -2357 0
-1542 -2358 0
-1543 -2359 0
-1544 -2360 0
-1541 -2377 0
-1542 -2378 0
-1543 -2379 0
-1544 -2380 0
-1541 -2733 0
-1542 -2734 0
-1543 -2735 0
-1544 -2736 0
-1541 -2809 0
-1542 -2810 0
-1543 -2811 0
-1544 -2812 0
-1545 -1553 0
-1546 -1554 0
-1547 -1555 0
-1548 -1556 0
-1545 -1557 0
-1546 -1558 0
-1547 -1559 0
-1548 -1560 0
-1545 -1653 0
-1546 -1654 0
-1547 -1655 0
-1548 -1656 0
-1545 -1809 0
-1546 -1810 0
-1547 -1811 0
-1548 -1812 0
-1545 -2049 0
-1546 -2050 0
-1547 -2051 0
-1548 -2052 0
-1545 -2189 0
-1546 -2190 0
-1547 -2191 0
-1548 -2192 0
-1545 -2637 0
-1546 -2638 0
-1547 -2639 0
-1548 -2640 0
-1549 -1553 0
-1550 -1554 0
-1551 -1555 0
-1552 -1556 0
-1549 -1573 0
-1550 -1574 0
-1551 -1575 0
-1552 -1576 0
-1549 -1813 0
-1550 -1814 0
-1551 -1815 0
-1552 -1816 0
-1549 -2005 0
-1550 -2006 0
-1551 -2007 0
-1552 -2008 0
-1553 -1561 0
-1554 -1562 0
-1555 -1563 0
-1556 -1564 0
-1553 -1573 0
-1554 -1574 0
-1555 -1575 0
-1556 -1576 0
-1553 -1657 0
-1554 -1658 0
-1555 -1659 0
-1556 -1660 0
-1553 -1821 0
-1554 -1822 0
-1555 -1823 0
-1556 -1824 0
-1553 -2009 0
-1554 -2010 0
-1555 -2011 0
-1556 -2012 0
-1553 -2057 0
-1554 -2058 0
-1555 -2059 0
-1556 -2060 0
-1553 -2193 0
-1554 -2194 0
-1555 -2195 0
-1556 -2196 0
-1553 -2365 0
-1554 -2366 0
-1555 -2367 0
-1556 -2368 0
-1553 -2641 0
-1554 -2642 0
-1555 -2643 0
-1556 -2644 0
-1553 -2737 0
-1554 -2738 0
-1555 -2739 0
-1556 -2740 0
-1557 -1561 0
-1558 -1562 0
-1559 -1563 0
-1560 -1564 0
-1557 -1673 0
-1558 -1674 0
-1559 -1675 0
-1560 -1676 0
-1557 -1685 0
-1558 -1686 0
-1559 -1687 0
-1560 -1688 0
-1557 -1709 0
-1558 -1710 0
-1559 -1711 0
-1560 -1712 0
-1557 -1933 0
-1558 -1934 0
-1559 -1935 0
-1560 -1936 0
-1557 -1993 0
-1558 -1994 0
-1559 -1995 0
-1560 -1996 0
-1557 -2205 0
-1558 -2206 0
-1559 -2207 0
-1560 -2208 0
-1557 -2645 0
-1558 -2646 0
-1559 -2647 0
-1560 -2648 0
-1561 -1681 0
-1562 -1682 0
-1563 -1683 0
-1564 -1684 0
-1561 -1689 0
-1562 -1690 0
-1563 -1691 0
-1564 -1692 0
-1561 -1885 0
-1562 -1886 0
-1563 -1887 0
-1564 -1888 0
-1561 -1937 0
-1562 -1938 0
-1563 -1939 0
-1564 -1940 0
-1561 -2177 0
-1562 -2178 0
-1563 -2179 0
-1564 -2180 0
-1561 -2209 0
-1562 -2210 0
-1563 -2211 0
-1564 -2212 0
-1561 -2737 0
-1562 -2738 0
-1563 -2739 0
-1564 -2740 0
-1565 -1569 0
-1566 -1570 0
-1567 -1571 0
-1568 -1572 0
-1565 -1573 0
-1566 -1574 0
-1567 -1575 0
-1568 -1576 0
-1565 -1577 0
-1566 -1578 0
-1567 -1579 0
-1568 -1580 0
-1565 -1693 0
-1566 -1694 0
-1567 -1695 0
-1568 -1696 0
-1565 -1997 0
-1566 -1998 0
-1567 -1999 0
-1568 -2000 0
-1565 -2213 0
-1566 -2214 0
-1567 -2215 0
-1568 -2216 0
-1565 -2293 0
-1566 -2294 0
-1567 -2295 0
-1568 -2296 0
-1565 -2469 0
-1566 -2470 0
-1567 -2471 0
-1568 -2472 0
-1565 -2693 0
-1566 -2694 0
-1567 -2695 0
-1568 -2696 0
-1565 -2749 0
-1566 -2750 0
-1567 -2751 0
-1568 -2752 0
-1565 -2753 0
-1566 -2754 0
-1567 -2755 0
-1568 -2756 0
-1565 -2833 0
-1566 -2834 0
-1567 -2835 0
-1568 -2836 0
-1569 -1693 0
-1570 -1694 0
-1571 -1695 0
-1572 -1696 0
-1569 -2005 0
-1570 -2006 0
-1571 -2007 0
-1572 -2008 0
-1569 -2221 0
-1570 -2222 0
-1571 -2223 0
-1572 -2224 0
-1569 -2701 0
-1570 -2702 0
-1571 -2703 0
-1572 -2704 0
-1573 -1697 0
-1574 -1698 0
-1575 -1699 0
-1576 -1700 0
-1573 -1909 0
-1574 -1910 0
-1575 -1911 0
-1576 -1912 0
-1573 -2037 0
-1574 -2038 0
-1575 -2039 0
-1576 -2040 0
-1573 -2229 0
-1574 -2230 0
-1575 -2231 0
-1576 -2232 0
-1573 -2473 0
-1574 -2474 0
-1575 -2475 0
-1576 -2476 0
-1573 -2649 0
-1574 -2650 0
-1575 -2651 0
-1576 -2652 0
-1573 -2693 0
-1574 -2694 0
-1575 -2695 0
-1576 -2696 0
-1573 -2845 0
-1574 -2846 0
-1575 -2847 0
-1576 -2848 0
-1577 -2373 0
-1578 -2374 0
-1579 -2375 0
-1580 -2376 0
-1577 -2769 0
-1578 -2770 0
-1579 -2771 0
-1580 -2772 0
-1577 -2853 0
-1578 -2854 0
-1579 -2855 0
-1580 -2856 0
-1581 -1585 0
-1582 -1586 0
-1583 -1587 0
-1584 -1588 0
-1581 -1613 0
-1582 -1614 0
-1583 -1615 0
-1584 -1616 0
-1581 -2401 0
-1582 -2402 0
-1583 -2403 0
-1584 -2404 0
-1581 -2705 0
-1582 -2706 0
-1583 -2707 0
-1584 -2708 0
-1585 -1621 0
-1586 -1622 0
-1587 -1623 0
-1588 -1624 0
-1585 -1949 0
-1586 -1950 0
-1587 -1951 0
-1588 -1952 0
-1585 -2189 0
-1586 -2190 0
-1587 -2191 0
-1588 -2192 0
-1585 -2709 0
-1586 -2710 0
-1587 -2711 0
-1588 -2712 0
-1585 -2713 0
-1586 -2714 0
-1587 -2715 0
-1588 -2716 0
-1589 -1609 0
-1590 -1610 0
-1591 -1611 0
-1592 -1612 0
-1589 -1629 0
-1590 -1630 0
-1591 -1631 0
-1592 -1632 0
-1589 -2409 0
-1590 -2410 0
-1591 -2411 0
-1592 -2412 0
-1593 -1597 0
-1594 -1598 0
-1595 -1599 0
-1596 -1600 0
-1593 -1605 0
-1594 -1606 0
-1595 -1607 0
-1596 -1608 0
-1593 -1661 0
-1594 -1662 0
-1595 -1663 0
-1596 -1664 0
-1593 -1961 0
-1594 -1962 0
-1595 -1963 0
-1596 -1964 0
-1593 -2129 0
-1594 -2130 0
-1595 -2131 0
-1596 -2132 0
-1593 -2717 0
-1594 -2718 0
-1595 -2719 0
-1596 -2720 0
-1597 -1609 0
-1598 -1610 0
-1599 -1611 0
-1600 -1612 0
-1597 -1665 0
-1598 -1666 0
-1599 -1667 0
-1600 -1668 0
-1597 -2113 0
-1598 -2114 0
-1599 -2115 0
-1600 -2116 0
-1597 -2417 0
-1598 -2418 0
-1599 -2419 0
-1600 -2420 0
-1597 -2721 0
-1598 -2722 0
-1599 -2723 0
-1600 -2724 0
-1601 -1609 0
-1602 -1610 0
-1603 -1611 0
-1604 -1612 0
-1601 -1677 0
-1602 -1678 0
-1603 -1679 0
-1604 -1680 0
-1601 -2117 0
-1602 -2118 0
-1603 -2119 0
-1604 -2120 0
-1605 -1609 0
-1606 -1610 0
-1607 -1611 0
-1608 -1612 0
-1605 -1673 0
-1606 -1674 0
-1607 -1675 0
-1608 -1676 0
-1605 -1681 0
-1606 -1682 0
-1607 -1683 0
-1608 -1684 0
-1605 -1741 0
-1606 -1742 0
-1607 -1743 0
-1608 -1744 0
-1605 -1969 0
-1606 -1970 0
-1607 -1971 0
-1608 -1972 0
-1605 -2133 0
-1606 -2134 0
-1607 -2135 0
-1608 -2136 0
-1605 -2405 0
-1606 -2406 0
-1607 -2407 0
-1608 -2408 0
-1605 -2717 0
-1606 -2718 0
-1607 -2719 0
-1608 -2720 0
-1605 -2725 0
-1606 -2726 0
-1607 -2727 0
-1608 -2728 0
-1609 -1677 0
-1610 -1678 0
-1611 -1679 0
-1612 -1680 0
-1609 -1977 0
-1610 -1978 0
-1611 -1979 0
-1612 -1980 0
-1609 -2125 0
-1610 -2126 0
-1611 -2127 0
-1612 -2128 0
-1609 -2665 0
-1610 -2666 0
-1611 -2667 0
-1612 -2668 0
-1609 -2721 0
-1610 -2722 0
-1611 -2723 0
-1612 -2724 0
-1609 -2729 0
-1610 -2730 0
-1611 -2731 0
-1612 -2732 0
-1613 -1617 0
-1614 -1618 0
-1615 -1619 0
-1616 -1620 0
-1613 -1621 0
-1614 -1622 0
-1615 -1623 0
-1616 -1624 0
-1613 -1625 0
-1614 -1626 0
-1615 -1627 0
-1616 -1628 0
-1613 -1629 0
-1614 -1630 0
-1615 -1631 0
-1616 -1632 0
-1613 -1637 0
-1614 -1638 0
-1615 -1639 0
-1616 -1640 0
-1613 -1641 0
-1614 -1642 0
-1615 -1643 0
-1616 -1644 0
-1613 -1981 0
-1614 -1982 0
-1615 -1983 0
-1616 -1984 0
-1613 -2425 0
-1614 -2426 0
-1615 -2427 0
-1616 -2428 0
-1613 -2665 0
-1614 -2666 0
-1615 -2667 0
-1616 -2668 0
-1613 -2733 0
-1614 -2734 0
-1615 -2735 0
-1616 -2736 0
-1617 -1645 0
-1618 -1646 0
-1619 -1647 0
-1620 -1648 0
-1617 -1649 0
-1618 -1650 0
-1619 -1651 0
-1620 -1652 0
-1617 -1985 0
-1618 -1986 0
-1619 -1987 0
-1620 -1988 0
-1617 -2433 0
-1618 -2434 0
-1619 -2435 0
-1620 -2436 0
-1617 -2733 0
-1618 -2734 0
-1619 -2735 0
-1620 -2736 0
-1621 -1953 0
-1622 -1954 0
-1623 -1955 0
-1624 -1956 0
-1621 -1989 0
-1622 -1990 0
-1623 -1991 0
-1624 -1992 0
-1621 -2065 0
-1622 -2066 0
-1623 -2067 0
-1624 -2068 0
-1621 -2245 0
-1622 -2246 0
-1623 -2247 0
-1624 -2248 0
-1621 -2737 0
-1622 -2738 0
-1623 -2739 0
-1624 -2740 0
-1625 -1629 0
-1626 -1630 0
-1627 -1631 0
-1628 -1632 0
-1625 -1669 0
-1626 -1670 0
-1627 -1671 0
-1628 -1672 0
-1625 -1673 0
-1626 -1674 0
-1627 -1675 0
-1628 -1676 0
-1625 -1753 0
-1626 -1754 0
-1627 -1755 0
-1628 -1756 0
-1625 -2073 0
-1626 -2074 0
-1627 -2075 0
-1628 -2076 0
-1625 -2493 0
-1626 -2494 0
-1627 -2495 0
-1628 -2496 0
-1625 -2669 0
-1626 -2670 0
-1627 -2671 0
-1628 -2672 0
-1625 -2741 0
-1626 -2742 0
-1627 -2743 0
-1628 -2744 0
-1629 -1677 0
-1630 -1678 0
-1631 -1679 0
-1632 -1680 0
-1629 -2309 0
-1630 -2310 0
-1631 -2311 0
-1632 -2312 0
-1629 -2429 0
-1630 -2430 0
-1631 -2431 0
-1632 -2432 0
-1629 -2497 0
-1630 -2498 0
-1631 -2499 0
-1632 -2500 0
-1629 -2745 0
-1630 -2746 0
-1631 -2747 0
-1632 -2748 0
-1633 -1637 0
-1634 -1638 0
-1635 -1639 0
-1636 -1640 0
-1633 -2497 0
-1634 -2498 0
-1635 -2499 0
-1636 -2500 0
-1633 -2749 0
-1634 -2750 0
-1635 -2751 0
-1636 -2752 0
-1633 -2861 0
-1634 -2862 0
-1635 -2863 0
-1636 -2864 0
-1637 -1641 0
-1638 -1642 0
-1639 -1643 0
-1640 -1644 0
-1637 -1645 0
-1638 -1646 0
-1639 -1647 0
-1640 -1648 0
-1637 -1669 0
-1638 -1670 0
-1639 -1671 0
-1640 -1672 0
-1637 -2753 0
-1638 -2754 0
-1639 -2755 0
-1640 -2756 0
-1637 -2869 0
-1638 -2870 0
-1639 -2871 0
-1640 -2872 0
-1641 -1649 0
-1642 -1650 0
-1643 -1651 0
-1644 -1652 0
-1641 -1673 0
-1642 -1674 0
-1643 -1675 0
-1644 -1676 0
-1641 -1677 0
-1642 -1678 0
-1643 -1679 0
-1644 -1680 0
-1641 -1773 0
-1642 -1774 0
-1643 -1775 0
-1644 -1776 0
-1641 -2757 0
-1642 -2758 0
-1643 -2759 0
-1644 -2760 0
-1645 -1649 0
-1646 -1650 0
-1647 -1651 0
-1648 -1652 0
-1645 -2013 0
-1646 -2014 0
-1647 -2015 0
-1648 -2016 0
-1645 -2317 0
-1646 -2318 0
-1647 -2319 0
-1648 -2320 0
-1645 -2753 0
-1646 -2754 0
-1647 -2755 0
-1648 -2756 0
-1645 -2873 0
-1646 -2874 0
-1647 -2875 0
-1648 -2876 0
-1649 -1781 0
-1650 -1782 0
-1651 -1783 0
-1652 -1784 0
-1649 -2757 0
-1650 -2758 0
-1651 -2759 0
-1652 -2760 0
-1653 -1673 0
-1654 -1674 0
-1655 -1675 0
-1656 -1676 0
-1653 -1785 0
-1654 -1786 0
-1655 -1787 0
-1656 -1788 0
-1653 -2141 0
-1654 -2142 0
-1655 -2143 0
-1656 -2144 0
-1653 -2513 0
-1654 -2514 0
-1655 -2515 0
-1656 -2516 0
-1657 -1689 0
-1658 -1690 0
-1659 -1691 0
-1660 -1692 0
-1657 -1697 0
-1658 -1698 0
-1659 -1699 0
-1660 -1700 0
-1657 -1965 0
-1658 -1966 0
-1659 -1967 0
-1660 -1968 0
-1657 -2021 0
-1658 -2022 0
-1659 -2023 0
-1660 -2024 0
-1657 -2449 0
-1658 -2450 0
-1659 -2451 0
-1660 -2452 0
-1657 -2521 0
-1658 -2522 0
-1659 -2523 0
-1660 -2524 0
-1661 -1665 0
-1662 -1666 0
-1663 -1667 0
-1664 -1668 0
-1661 -1673 0
-1662 -1674 0
-1663 -1675 0
-1664 -1676 0
-1661 -1801 0
-1662 -1802 0
-1663 -1803 0
-1664 -1804 0
-1661 -2077 0
-1662 -2078 0
-1663 -2079 0
-1664 -2080 0
-1661 -2761 0
-1662 -2762 0
-1663 -2763 0
-1664 -2764 0
-1665 -1677 0
-1666 -1678 0
-1667 -1679 0
-1668 -1680 0
-1665 -2081 0
-1666 -2082 0
-1667 -2083 0
-1668 -2084 0
-1665 -2153 0
-1666 -2154 0
-1667 -2155 0
-1668 -2156 0
-1665 -2765 0
-1666 -2766 0
-1667 -2767 0
-1668 -2768 0
-1669 -1673 0
-1670 -1674 0
-1671 -1675 0
-1672 -1676 0
-1669 -1813 0
-1670 -1814 0
-1671 -1815 0
-1672 -1816 0
-1669 -2117 0
-1670 -2118 0
-1671 -2119 0
-1672 -2120 0
-1669 -2421 0
-1670 -2422 0
-1671 -2423 0
-1672 -2424 0
-1669 -2769 0
-1670 -2770 0
-1671 -2771 0
-1672 -2772 0
-1673 -1677 0
-1674 -1678 0
-1675 -1679 0
-1676 -1680 0
-1673 -1681 0
-1674 -1682 0
-1675 -1683 0
-1676 -1684 0
-1673 -1685 0
-1674 -1686 0
-1675 -1687 0
-1676 -1688 0
-1673 -1821 0
-1674 -1822 0
-1675 -1823 0
-1676 -1824 0
-1673 -2089 0
-1674 -2090 0
-1675 -2091 0
-1676 -2092 0
-1673 -2121 0
-1674 -2122 0
-1675 -2123 0
-1676 -2124 0
-1673 -2529 0
-1674 -2530 0
-1675 -2531 0
-1676 -2532 0
-1673 -2761 0
-1674 -2762 0
-1675 -2763 0
-1676 -2764 0
-1673 -2773 0
-1674 -2774 0
-1675 -2775 0
-1676 -2776 0
-1677 -1825 0
-1678 -1826 0
-1679 -1827 0
-1680 -1828 0
-1677 -2157 0
-1678 -2158 0
-1679 -2159 0
-1680 -2160 0
-1677 -2533 0
-1678 -2534 0
-1679 -2535 0
-1680 -2536 0
-1677 -2765 0
-1678 -2766 0
-1679 -2767 0
-1680 -2768 0
-1677 -2777 0
-1678 -2778 0
-1679 -2779 0
-1680 -2780 0
-1681 -1689 0
-1682 -1690 0
-1683 -1691 0
-1684 -1692 0
-1681 -1833 0
-1682 -1834 0
-1683 -1835 0
-1684 -1836 0
-1681 -2537 0
-1682 -2538 0
-1683 -2539 0
-1684 -2540 0
-1685 -1689 0
-1686 -1690 0
-1687 -1691 0
-1688 -1692 0
-1685 -1837 0
-1686 -1838 0
-1687 -1839 0
-1688 -1840 0
-1685 -2093 0
-1686 -2094 0
-1687 -2095 0
-1688 -2096 0
-1685 -2541 0
-1686 -2542 0
-1687 -2543 0
-1688 -2544 0
-1689 -2289 0
-1690 -2290 0
-1691 -2291 0
-1692 -2292 0
-1689 -2457 0
-1690 -2458 0
-1691 -2459 0
-1692 -2460 0
-1689 -2545 0
-1690 -2546 0
-1691 -2547 0
-1692 -2548 0
-1693 -1697 0
-1694 -1698 0
-1695 -1699 0
-1696 -1700 0
-1693 -2101 0
-1694 -2102 0
-1695 -2103 0
-1696 -2104 0
-1693 -2553 0
-1694 -2554 0
-1695 -2555 0
-1696 -2556 0
-1693 -2721 0
-1694 -2722 0
-1695 -2723 0
-1696 -2724 0
-1697 -2041 0
-1698 -2042 0
-1699 -2043 0
-1700 -2044 0
-1697 -2569 0
-1698 -2570 0
-1699 -2571 0
-1700 -2572 0
-1697 -2681 0
-1698 -2682 0
-1699 -2683 0
-1700 -2684 0
-1697 -2721 0
-1698 -2722 0
-1699 -2723 0
-1700 -2724 0
-1701 -2049 0
-1702 -2050 0
-1703 -2051 0
-1704 -2052 0
-1701 -2689 0
-1702 -2690 0
-1703 -2691 0
-1704 -2692 0
-1701 -2733 0
-1702 -2734 0
-1703 -2735 0
-1704 -2736 0
-1701 -2737 0
-1702 -2738 0
-1703 -2739 0
-1704 -2740 0
-1705 -1709 0
-1706 -1710 0
-1707 -1711 0
-1708 -1712 0
-1705 -1713 0
-1706 -1714 0
-1707 -1715 0
-1708 -1716 0
-1705 -1805 0
-1706 -1806 0
-1707 -1807 0
-1708 -1808 0
-1705 -1821 0
-1706 -1822 0
-1707 -1823 0
-1708 -1824 0
-1705 -2161 0
-1706 -2162 0
-1707 -2163 0
-1708 -2164 0
-1705 -2693 0
-1706 -2694 0
-1707 -2695 0
-1708 -2696 0
-1705 -2885 0
-1706 -2886 0
-1707 -2887 0
-1708 -2888 0
-1709 -1717 0
-1710 -1718 0
-1711 -1719 0
-1712 -1720 0
-1709 -1821 0
-1710 -1822 0
-1711 -1823 0
-1712 -1824 0
-1709 -1837 0
-1710 -1838 0
-1711 -1839 0
-1712 -1840 0
-1709 -2053 0
-1710 -2054 0
-1711 -2055 0
-1712 -2056 0
-1709 -2321 0
-1710 -2322 0
-1711 -2323 0
-1712 -2324 0
-1709 -2701 0
-1710 -2702 0
-1711 -2703 0
-1712 -2704 0
-1709 -2781 0
-1710 -2782 0
-1711 -2783 0
-1712 -2784 0
-1713 -1717 0
-1714 -1718 0
-1715 -1719 0
-1716 -1720 0
-1713 -1841 0
-1714 -1842 0
-1715 -1843 0
-1716 -1844 0
-1713 -1857 0
-1714 -1858 0
-1715 -1859 0
-1716 -1860 0
-1713 -2013 0
-1714 -2014 0
-1715 -2015 0
-1716 -2016 0
-1713 -2365 0
-1714 -2366 0
-1715 -2367 0
-1716 -2368 0
-1717 -1857 0
-1718 -1858 0
-1719 -1859 0
-1720 -1860 0
-1717 -1873 0
-1718 -1874 0
-1719 -1875 0
-1720 -1876 0
-1717 -2329 0
-1718 -2330 0
-1719 -2331 0
-1720 -2332 0
-1717 -2369 0
-1718 -2370 0
-1719 -2371 0
-1720 -2372 0
-1717 -2473 0
-1718 -2474 0
-1719 -2475 0
-1720 -2476 0
-1717 -2781 0
-1718 -2782 0
-1719 -2783 0
-1720 -2784 0
-1721 -2173 0
-1722 -2174 0
-1723 -2175 0
-1724 -2176 0
-1721 -2341 0
-1722 -2342 0
-1723 -2343 0
-1724 -2344 0
-1721 -2465 0
-1722 -2466 0
-1723 -2467 0
-1724 -2468 0
-1721 -2833 0
-1722 -2834 0
-1723 -2835 0
-1724 -2836 0
-1721 -2849 0
-1722 -2850 0
-1723 -2851 0
-1724 -2852 0
-1725 -1733 0
-1726 -1734 0
-1727 -1735 0
-1728 -1736 0
-1725 -2405 0
-1726 -2406 0
-1727 -2407 0
-1728 -2408 0
-1725 -2785 0
-1726 -2786 0
-1727 -2787 0
-1728 -2788 0
-1725 -2789 0
-1726 -2790 0
-1727 -2791 0
-1728 -2792 0
-1729 -1733 0
-1730 -1734 0
-1731 -1735 0
-1732 -1736 0
-1729 -2081 0
-1730 -2082 0
-1731 -2083 0
-1732 -2084 0
-1729 -2201 0
-1730 -2202 0
-1731 -2203 0
-1732 -2204 0
-1729 -2793 0
-1730 -2794 0
-1731 -2795 0
-1732 -2796 0
-1733 -2209 0
-1734 -2210 0
-1735 -2211 0
-1736 -2212 0
-1733 -2793 0
-1734 -2794 0
-1735 -2795 0
-1736 -2796 0
-1733 -2797 0
-1734 -2798 0
-1735 -2799 0
-1736 -2800 0
-1737 -1741 0
-1738 -1742 0
-1739 -1743 0
-1740 -1744 0
-1737 -1745 0
-1738 -1746 0
-1739 -1747 0
-1740 -1748 0
-1737 -1809 0
-1738 -1810 0
-1739 -1811 0
-1740 -1812 0
-1737 -1821 0
-1738 -1822 0
-1739 -1823 0
-1740 -1824 0
-1737 -2097 0
-1738 -2098 0
-1739 -2099 0
-1740 -2100 0
-1737 -2333 0
-1738 -2334 0
-1739 -2335 0
-1740 -2336 0
-1737 -2801 0
-1738 -2802 0
-1739 -2803 0
-1740 -2804 0
-1741 -1749 0
-1742 -1750 0
-1743 -1751 0
-1744 -1752 0
-1741 -1821 0
-1742 -1822 0
-1743 -1823 0
-1744 -1824 0
-1741 -1833 0
-1742 -1834 0
-1743 -1835 0
-1744 -1836 0
-1741 -2101 0
-1742 -2102 0
-1743 -2103 0
-1744 -2104 0
-1741 -2337 0
-1742 -2338 0
-1743 -2339 0
-1744 -2340 0
-1745 -1749 0
-1746 -1750 0
-1747 -1751 0
-1748 -1752 0
-1745 -1845 0
-1746 -1846 0
-1747 -1847 0
-1748 -1848 0
-1745 -1857 0
-1746 -1858 0
-1747 -1859 0
-1748 -1860 0
-1745 -2481 0
-1746 -2482 0
-1747 -2483 0
-1748 -2484 0
-1745 -2705 0
-1746 -2706 0
-1747 -2707 0
-1748 -2708 0
-1745 -2801 0
-1746 -2802 0
-1747 -2803 0
-1748 -2804 0
-1749 -1857 0
-1750 -1858 0
-1751 -1859 0
-1752 -1860 0
-1749 -1869 0
-1750 -1870 0
-1751 -1871 0
-1752 -1872 0
-1749 -2477 0
-1750 -2478 0
-1751 -2479 0
-1752 -2480 0
-1753 -1757 0
-1754 -1758 0
-1755 -1759 0
-1756 -1760 0
-1753 -1761 0
-1754 -1762 0
-1755 -1763 0
-1756 -1764 0
-1753 -1813 0
-1754 -1814 0
-1755 -1815 0
-1756 -1816 0
-1753 -1821 0
-1754 -1822 0
-1755 -1823 0
-1756 -1824 0
-1753 -2493 0
-1754 -2494 0
-1755 -2495 0
-1756 -2496 0
-1753 -2805 0
-1754 -2806 0
-1755 -2807 0
-1756 -2808 0
-1757 -1765 0
-1758 -1766 0
-1759 -1767 0
-1760 -1768 0
-1757 -1821 0
-1758 -1822 0
-1759 -1823 0
-1760 -1824 0
-1757 -1829 0
-1758 -1830 0
-1759 -1831 0
-1760 -1832 0
-1757 -2069 0
-1758 -2070 0
-1759 -2071 0
-1760 -2072 0
-1757 -2249 0
-1758 -2250 0
-1759 -2251 0
-1760 -2252 0
-1757 -2501 0
-1758 -2502 0
-1759 -2503 0
-1760 -2504 0
-1757 -2585 0
-1758 -2586 0
-1759 -2587 0
-1760 -2588 0
-1757 -2809 0
-1758 -2810 0
-1759 -2811 0
-1760 -2812 0
-1761 -1765 0
-1762 -1766 0
-1763 -1767 0
-1764 -1768 0
-1761 -1849 0
-1762 -1850 0
-1763 -1851 0
-1764 -1852 0
-1761 -1857 0
-1762 -1858 0
-1763 -1859 0
-1764 -1860 0
-1761 -2805 0
-1762 -2806 0
-1763 -2807 0
-1764 -2808 0
-1765 -1857 0
-1766 -1858 0
-1767 -1859 0
-1768 -1860 0
-1765 -1865 0
-1766 -1866 0
-1767 -1867 0
-1768 -1868 0
-1765 -2073 0
-1766 -2074 0
-1767 -2075 0
-1768 -2076 0
-1765 -2517 0
-1766 -2518 0
-1767 -2519 0
-1768 -2520 0
-1765 -2809 0
-1766 -2810 0
-1767 -2811 0
-1768 -2812 0
-1769 -1773 0
-1770 -1774 0
-1771 -1775 0
-1772 -1776 0
-1769 -1777 0
-1770 -1778 0
-1771 -1779 0
-1772 -1780 0
-1769 -1817 0
-1770 -1818 0
-1771 -1819 0
-1772 -1820 0
-1769 -1821 0
-1770 -1822 0
-1771 -1823 0
-1772 -1824 0
-1769 -2137 0
-1770 -2138 0
-1771 -2139 0
-1772 -2140 0
-1769 -2349 0
-1770 -2350 0
-1771 -2351 0
-1772 -2352 0
-1769 -2589 0
-1770 -2590 0
-1771 -2591 0
-1772 -2592 0
-1773 -1781 0
-1774 -1782 0
-1775 -1783 0
-1776 -1784 0
-1773 -1821 0
-1774 -1822 0
-1775 -1823 0
-1776 -1824 0
-1773 -1825 0
-1774 -1826 0
-1775 -1827 0
-1776 -1828 0
-1773 -2813 0
-1774 -2814 0
-1775 -2815 0
-1776 -2816 0
-1777 -1781 0
-1778 -1782 0
-1779 -1783 0
-1780 -1784 0
-1777 -1853 0
-1778 -1854 0
-1779 -1855 0
-1780 -1856 0
-1777 -1857 0
-1778 -1858 0
-1779 -1859 0
-1780 -1860 0
-1777 -2357 0
-1778 -2358 0
-1779 -2359 0
-1780 -2360 0
-1777 -2537 0
-1778 -2538 0
-1779 -2539 0
-1780 -2540 0
-1781 -1857 0
-1782 -1858 0
-1783 -1859 0
-1784 -1860 0
-1781 -1861 0
-1782 -1862 0
-1783 -1863 0
-1784 -1864 0
-1781 -2161 0
-1782 -2162 0
-1783 -2163 0
-1784 -2164 0
-1781 -2813 0
-1782 -2814 0
-1783 -2815 0
-1784 -2816 0
-1785 -1789 0
-1786 -1790 0
-1787 -1791 0
-1788 -1792 0
-1785 -1821 0
-1786 -1822 0
-1787 -1823 0
-1788 -1824 0
-1785 -2253 0
-1786 -2254 0
-1787 -2255 0
-1788 -2256 0
-1785 -2593 0
-1786 -2594 0
-1787 -2595 0
-1788 -2596 0
-1785 -2861 0
-1786 -2862 0
-1787 -2863 0
-1788 -2864 0
-1789 -1857 0
-1790 -1858 0
-1791 -1859 0
-1792 -1860 0
-1789 -2097 0
-1790 -2098 0
-1791 -2099 0
-1792 -2100 0
-1789 -2257 0
-1790 -2258 0
-1791 -2259 0
-1792 -2260 0
-1789 -2865 0
-1790 -2866 0
-1791 -2867 0
-1792 -2868 0
-1793 -1797 0
-1794 -1798 0
-1795 -1799 0
-1796 -1800 0
-1793 -1821 0
-1794 -1822 0
-1795 -1823 0
-1796 -1824 0
-1793 -2181 0
-1794 -2182 0
-1795 -2183 0
-1796 -2184 0
-1793 -2785 0
-1794 -2786 0
-1795 -2787 0
-1796 -2788 0
-1793 -2817 0
-1794 -2818 0
-1795 -2819 0
-1796 -2820 0
-1793 -2897 0
-1794 -2898 0
-1795 -2899 0
-1796 -2900 0
-1797 -1857 0
-1798 -1858 0
-1799 -1859 0
-1800 -1860 0
-1797 -2441 0
-1798 -2442 0
-1799 -2443 0
-1800 -2444 0
-1797 -2549 0
-1798 -2550 0
-1799 -2551 0
-1800 -2552 0
-1797 -2789 0
-1798 -2790 0
-1799 -2791 0
-1800 -2792 0
-1797 -2817 0
-1798 -2818 0
-1799 -2819 0
-1800 -2820 0
-1801 -1821 0
-1802 -1822 0
-1803 -1823 0
-1804 -1824 0
-1801 -2185 0
-1802 -2186 0
-1803 -2187 0
-1804 -2188 0
-1801 -2821 0
-1802 -2822 0
-1803 -2823 0
-1804 -2824 0
-1805 -1821 0
-1806 -1822 0
-1807 -1823 0
-1808 -1824 0
-1805 -1841 0
-1806 -1842 0
-1807 -1843 0
-1808 -1844 0
-1805 -1961 0
-1806 -1962 0
-1807 -1963 0
-1808 -1964 0
-1805 -2217 0
-1806 -2218 0
-1807 -2219 0
-1808 -2220 0
-1805 -2601 0
-1806 -2602 0
-1807 -2603 0
-1808 -2604 0
-1805 -2825 0
-1806 -2826 0
-1807 -2827 0
-1808 -2828 0
-1805 -2901 0
-1806 -2902 0
-1807 -2903 0
-1808 -2904 0
-1809 -1821 0
-1810 -1822 0
-1811 -1823 0
-1812 -1824 0
-1809 -1845 0
-1810 -1846 0
-1811 -1847 0
-1812 -1848 0
-1809 -1925 0
-1810 -1926 0
-1811 -1927 0
-1812 -1928 0
-1809 -2189 0
-1810 -2190 0
-1811 -2191 0
-1812 -2192 0
-1809 -2829 0
-1810 -2830 0
-1811 -2831 0
-1812 -2832 0
-1813 -1821 0
-1814 -1822 0
-1815 -1823 0
-1816 -1824 0
-1813 -1849 0
-1814 -1850 0
-1815 -1851 0
-1816 -1852 0
-1813 -1909 0
-1814 -1910 0
-1815 -1911 0
-1816 -1912 0
-1813 -2221 0
-1814 -2222 0
-1815 -2223 0
-1816 -2224 0
-1817 -1821 0
-1818 -1822 0
-1819 -1823 0
-1820 -1824 0
-1817 -1853 0
-1818 -1854 0
-1819 -1855 0
-1820 -1856 0
-1817 -1893 0
-1818 -1894 0
-1819 -1895 0
-1820 -1896 0
-1817 -2141 0
-1818 -2142 0
-1819 -2143 0
-1820 -2144 0
-1817 -2485 0
-1818 -2486 0
-1819 -2487 0
-1820 -2488 0
-1817 -2717 0
-1818 -2718 0
-1819 -2719 0
-1820 -2720 0
-1821 -1825 0
-1822 -1826 0
-1823 -1827 0
-1824 -1828 0
-1821 -1829 0
-1822 -1830 0
-1823 -1831 0
-1824 -1832 0
-1821 -1833 0
-1822 -1834 0
-1823 -1835 0
-1824 -1836 0
-1821 -1837 0
-1822 -1838 0
-1823 -1839 0
-1824 -1840 0
-1821 -1857 0
-1822 -1858 0
-1823 -1859 0
-1824 -1860 0
-1821 -1877 0
-1822 -1878 0
-1823 -1879 0
-1824 -1880 0
-1821 -1885 0
-1822 -1886 0
-1823 -1887 0
-1824 -1888 0
-1821 -1893 0
-1822 -1894 0
-1823 -1895 0
-1824 -1896 0
-1821 -1897 0
-1822 -1898 0
-1823 -1899 0
-1824 -1900 0
-1821 -1909 0
-1822 -1910 0
-1823 -1911 0
-1824 -1912 0
-1821 -1913 0
-1822 -1914 0
-1823 -1915 0
-1824 -1916 0
-1821 -1925 0
-1822 -1926 0
-1823 -1927 0
-1824 -1928 0
-1821 -1929 0
-1822 -1930 0
-1823 -1931 0
-1824 -1932 0
-1821 -1961 0
-1822 -1962 0
-1823 -1963 0
-1824 -1964 0
-1821 -1965 0
-1822 -1966 0
-1823 -1967 0
-1824 -1968 0
-1821 -2109 0
-1822 -2110 0
-1823 -2111 0
-1824 -2112 0
-1821 -2145 0
-1822 -2146 0
-1823 -2147 0
-1824 -2148 0
-1821 -2193 0
-1822 -2194 0
-1823 -2195 0
-1824 -2196 0
-1821 -2225 0
-1822 -2226 0
-1823 -2227 0
-1824 -2228 0
-1821 -2265 0
-1822 -2266 0
-1823 -2267 0
-1824 -2268 0
-1821 -2373 0
-1822 -2374 0
-1823 -2375 0
-1824 -2376 0
-1821 -2401 0
-1822 -2402 0
-1823 -2403 0
-1824 -2404 0
-1821 -2489 0
-1822 -2490 0
-1823 -2491 0
-1824 -2492 0
-1821 -2529 0
-1822 -2530 0
-1823 -2531 0
-1824 -2532 0
-1821 -2605 0
-1822 -2606 0
-1823 -2607 0
-1824 -2608 0
-1821 -2609 0
-1822 -2610 0
-1823 -2611 0
-1824 -2612 0
-1821 -2721 0
-1822 -2722 0
-1823 -2723 0
-1824 -2724 0
-1821 -2785 0
-1822 -2786 0
-1823 -2787 0
-1824 -2788 0
-1821 -2793 0
-1822 -2794 0
-1823 -2795 0
-1824 -2796 0
-1821 -2821 0
-1822 -2822 0
-1823 -2823 0
-1824 -2824 0
-1821 -2833 0
-1822 -2834 0
-1823 -2835 0
-1824 -2836 0
-1821 -2861 0
-1822 -2862 0
-1823 -2863 0
-1824 -2864 0
-1821 -2869 0
-1822 -2870 0
-1823 -2871 0
-1824 -2872 0
-1821 -2909 0
-1822 -2910 0
-1823 -2911 0
-1824 -2912 0
-1825 -1861 0
-1826 -1862 0
-1827 -1863 0
-1828 -1864 0
-1825 -1897 0
-1826 -1898 0
-1827 -1899 0
-1828 -1900 0
-1825 -2269 0
-1826 -2270 0
-1827 -2271 0
-1828 -2272 0
-1825 -2533 0
-1826 -2534 0
-1827 -2535 0
-1828 -2536 0
-1825 -2837 0
-1826 -2838 0
-1827 -2839 0
-1828 -2840 0
-1829 -1865 0
-1830 -1866 0
-1831 -1867 0
-1832 -1868 0
-1829 -1913 0
-1830 -1914 0
-1831 -1915 0
-1832 -1916 0
-1829 -2273 0
-1830 -2274 0
-1831 -2275 0
-1832 -2276 0
-1829 -2405 0
-1830 -2406 0
-1831 -2407 0
-1832 -2408 0
-1829 -2613 0
-1830 -2614 0
-1831 -2615 0
-1832 -2616 0
-1833 -1869 0
-1834 -1870 0
-1835 -1871 0
-1836 -1872 0
-1833 -1929 0
-1834 -1930 0
-1835 -1931 0
-1836 -1932 0
-1833 -2113 0
-1834 -2114 0
-1835 -2115 0
-1836 -2116 0
-1833 -2377 0
-1834 -2378 0
-1835 -2379 0
-1836 -2380 0
-1833 -2537 0
-1834 -2538 0
-1835 -2539 0
-1836 -2540 0
-1833 -2841 0
-1834 -2842 0
-1835 -2843 0
-1836 -2844 0
-1837 -1873 0
-1838 -1874 0
-1839 -1875 0
-1840 -1876 0
-1837 -1965 0
-1838 -1966 0
-1839 -1967 0
-1840 -1968 0
-1837 -2197 0
-1838 -2198 0
-1839 -2199 0
-1840 -2200 0
-1837 -2381 0
-1838 -2382 0
-1839 -2383 0
-1840 -2384 0
-1837 -2541 0
-1838 -2542 0
-1839 -2543 0
-1840 -2544 0
-1841 -1857 0
-1842 -1858 0
-1843 -1859 0
-1844 -1860 0
-1841 -1969 0
-1842 -1970 0
-1843 -1971 0
-1844 -1972 0
-1841 -1997 0
-1842 -1998 0
-1843 -1999 0
-1844 -2000 0
-1841 -2825 0
-1842 -2826 0
-1843 -2827 0
-1844 -2828 0
-1845 -1857 0
-1846 -1858 0
-1847 -1859 0
-1848 -1860 0
-1845 -1933 0
-1846 -1934 0
-1847 -1935 0
-1848 -1936 0
-1845 -2557 0
-1846 -2558 0
-1847 -2559 0
-1848 -2560 0
-1845 -2829 0
-1846 -2830 0
-1847 -2831 0
-1848 -2832 0
-1849 -1857 0
-1850 -1858 0
-1851 -1859 0
-1852 -1860 0
-1849 -1917 0
-1850 -1918 0
-1851 -1919 0
-1852 -1920 0
-1849 -2445 0
-1850 -2446 0
-1851 -2447 0
-1852 -2448 0
-1849 -2497 0
-1850 -2498 0
-1851 -2499 0
-1852 -2500 0
-1853 -1857 0
-1854 -1858 0
-1855 -1859 0
-1856 -1860 0
-1853 -1901 0
-1854 -1902 0
-1855 -1903 0
-1856 -1904 0
-1853 -2001 0
-1854 -2002 0
-1855 -2003 0
-1856 -2004 0
-1853 -2501 0
-1854 -2502 0
-1855 -2503 0
-1856 -2504 0
-1853 -2725 0
-1854 -2726 0
-1855 -2727 0
-1856 -2728 0
-1857 -1861 0
-1858 -1862 0
-1859 -1863 0
-1860 -1864 0
-1857 -1865 0
-1858 -1866 0
-1859 -1867 0
-1860 -1868 0
-1857 -1869 0
-1858 -1870 0
-1859 -1871 0
-1860 -1872 0
-1857 -1873 0
-1858 -1874 0
-1859 -1875 0
-1860 -1876 0
-1857 -1881 0
-1858 -1882 0
-1859 -1883 0
-1860 -1884 0
-1857 -1889 0
-1858 -1890 0
-1859 -1891 0
-1860 -1892 0
-1857 -1901 0
-1858 -1902 0
-1859 -1903 0
-1860 -1904 0
-1857 -1905 0
-1858 -1906 0
-1859 -1907 0
-1860 -1908 0
-1857 -1917 0
-1858 -1918 0
-1859 -1919 0
-1860 -1920 0
-1857 -1921 0
-1858 -1922 0
-1859 -1923 0
-1860 -1924 0
-1857 -1933 0
-1858 -1934 0
-1859 -1935 0
-1860 -1936 0
-1857 -1937 0
-1858 -1938 0
-1859 -1939 0
-1860 -1940 0
-1857 -1969 0
-1858 -1970 0
-1859 -1971 0
-1860 -1972 0
-1857 -1973 0
-1858 -1974 0
-1859 -1975 0
-1860 -1976 0
-1857 -2005 0
-1858 -2006 0
-1859 -2007 0
-1860 -2008 0
-1857 -2117 0
-1858 -2118 0
-1859 -2119 0
-1860 -2120 0
-1857 -2165 0
-1858 -2166 0
-1859 -2167 0
-1860 -2168 0
-1857 -2281 0
-1858 -2282 0
-1859 -2283 0
-1860 -2284 0
-1857 -2389 0
-1858 -2390 0
-1859 -2391 0
-1860 -2392 0
-1857 -2409 0
-1858 -2410 0
-1859 -2411 0
-1860 -2412 0
-1857 -2449 0
-1858 -2450 0
-1859 -2451 0
-1860 -2452 0
-1857 -2505 0
-1858 -2506 0
-1859 -2507 0
-1860 -2508 0
-1857 -2561 0
-1858 -2562 0
-1859 -2563 0
-1860 -2564 0
-1857 -2617 0
-1858 -2618 0
-1859 -2619 0
-1860 -2620 0
-1857 -2729 0
-1858 -2730 0
-1859 -2731 0
-1860 -2732 0
-1857 -2733 0
-1858 -2734 0
-1859 -2735 0
-1860 -2736 0
-1857 -2789 0
-1858 -2790 0
-1859 -2791 0
-1860 -2792 0
-1857 -2797 0
-1858 -2798 0
-1859 -2799 0
-1860 -2800 0
-1857 -2833 0
-1858 -2834 0
-1859 -2835 0
-1860 -2836 0
-1857 -2865 0
-1858 -2866 0
-1859 -2867 0
-1860 -2868 0
-1857 -2873 0
-1858 -2874 0
-1859 -2875 0
-1860 -2876 0
-1857 -2913 0
-1858 -2914 0
-1859 -2915 0
-1860 -2916 0
-1861 -1905 0
-1862 -1906 0
-1863 -1907 0
-1864 -1908 0
-1861 -2169 0
-1862 -2170 0
-1863 -2171 0
-1864 -2172 0
-1861 -2453 0
-1862 -2454 0
-1863 -2455 0
-1864 -2456 0
-1861 -2837 0
-1862 -2838 0
-1863 -2839 0
-1864 -2840 0
-1865 -1921 0
-1866 -1922 0
-1867 -1923 0
-1868 -1924 0
-1865 -2009 0
-1866 -2010 0
-1867 -2011 0
-1868 -2012 0
-1865 -2121 0
-1866 -2122 0
-1867 -2123 0
-1868 -2124 0
-1865 -2413 0
-1866 -2414 0
-1867 -2415 0
-1868 -2416 0
-1869 -1937 0
-1870 -1938 0
-1871 -1939 0
-1872 -1940 0
-1869 -2125 0
-1870 -2126 0
-1871 -2127 0
-1872 -2128 0
-1869 -2173 0
-1870 -2174 0
-1871 -2175 0
-1872 -2176 0
-1869 -2841 0
-1870 -2842 0
-1871 -2843 0
-1872 -2844 0
-1873 -1973 0
-1874 -1974 0
-1875 -1975 0
-1876 -1976 0
-1873 -2393 0
-1874 -2394 0
-1875 -2395 0
-1876 -2396 0
-1873 -2569 0
-1874 -2570 0
-1875 -2571 0
-1876 -2572 0
-1877 -1881 0
-1878 -1882 0
-1879 -1883 0
-1880 -1884 0
-1877 -2129 0
-1878 -2130 0
-1879 -2131 0
-1880 -2132 0
-1877 -2237 0
-1878 -2238 0
-1879 -2239 0
-1880 -2240 0
-1877 -2793 0
-1878 -2794 0
-1879 -2795 0
-1880 -2796 0
-1877 -2845 0
-1878 -2846 0
-1879 -2847 0
-1880 -2848 0
-1881 -2133 0
-1882 -2134 0
-1883 -2135 0
-1884 -2136 0
-1881 -2737 0
-1882 -2738 0
-1883 -2739 0
-1884 -2740 0
-1881 -2797 0
-1882 -2798 0
-1883 -2799 0
-1884 -2800 0
-1881 -2845 0
-1882 -2846 0
-1883 -2847 0
-1884 -2848 0
-1885 -1889 0
-1886 -1890 0
-1887 -1891 0
-1888 -1892 0
-1885 -2157 0
-1886 -2158 0
-1887 -2159 0
-1888 -2160 0
-1885 -2209 0
-1886 -2210 0
-1887 -2211 0
-1888 -2212 0
-1885 -2397 0
-1886 -2398 0
-1887 -2399 0
-1888 -2400 0
-1885 -2849 0
-1886 -2850 0
-1887 -2851 0
-1888 -2852 0
-1885 -2869 0
-1886 -2870 0
-1887 -2871 0
-1888 -2872 0
-1889 -2017 0
-1890 -2018 0
-1891 -2019 0
-1892 -2020 0
-1889 -2457 0
-1890 -2458 0
-1891 -2459 0
-1892 -2460 0
-1889 -2849 0
-1890 -2850 0
-1891 -2851 0
-1892 -2852 0
-1889 -2873 0
-1890 -2874 0
-1891 -2875 0
-1892 -2876 0
-1893 -1897 0
-1894 -1898 0
-1895 -1899 0
-1896 -1900 0
-1893 -1901 0
-1894 -1902 0
-1895 -1903 0
-1896 -1904 0
-1893 -2241 0
-1894 -2242 0
-1895 -2243 0
-1896 -2244 0
-1893 -2509 0
-1894 -2510 0
-1895 -2511 0
-1896 -2512 0
-1893 -2625 0
-1894 -2626 0
-1895 -2627 0
-1896 -2628 0
-1893 -2853 0
-1894 -2854 0
-1895 -2855 0
-1896 -2856 0
-1897 -1905 0
-1898 -1906 0
-1899 -1907 0
-1900 -1908 0
-1897 -2285 0
-1898 -2286 0
-1899 -2287 0
-1900 -2288 0
-1897 -2557 0
-1898 -2558 0
-1899 -2559 0
-1900 -2560 0
-1897 -2629 0
-1898 -2630 0
-1899 -2631 0
-1900 -2632 0
-1901 -1905 0
-1902 -1906 0
-1903 -1907 0
-1904 -1908 0
-1901 -2025 0
-1902 -2026 0
-1903 -2027 0
-1904 -2028 0
-1901 -2513 0
-1902 -2514 0
-1903 -2515 0
-1904 -2516 0
-1901 -2741 0
-1902 -2742 0
-1903 -2743 0
-1904 -2744 0
-1901 -2853 0
-1902 -2854 0
-1903 -2855 0
-1904 -2856 0
-1905 -2745 0
-1906 -2746 0
-1907 -2747 0
-1908 -2748 0
-1909 -1913 0
-1910 -1914 0
-1911 -1915 0
-1912 -1916 0
-1909 -1917 0
-1910 -1918 0
-1911 -1919 0
-1912 -1920 0
-1909 -2229 0
-1910 -2230 0
-1911 -2231 0
-1912 -2232 0
-1909 -2925 0
-1910 -2926 0
-1911 -2927 0
-1912 -2928 0
-1913 -1921 0
-1914 -1922 0
-1915 -1923 0
-1916 -1924 0
-1913 -2233 0
-1914 -2234 0
-1915 -2235 0
-1916 -2236 0
-1913 -2301 0
-1914 -2302 0
-1915 -2303 0
-1916 -2304 0
-1913 -2417 0
-1914 -2418 0
-1915 -2419 0
-1916 -2420 0
-1913 -2645 0
-1914 -2646 0
-1915 -2647 0
-1916 -2648 0
-1913 -2857 0
-1914 -2858 0
-1915 -2859 0
-1916 -2860 0
-1917 -1921 0
-1918 -1922 0
-1919 -1923 0
-1920 -1924 0
-1917 -2533 0
-1918 -2534 0
-1919 -2535 0
-1920 -2536 0
-1917 -2753 0
-1918 -2754 0
-1919 -2755 0
-1920 -2756 0
-1917 -2929 0
-1918 -2930 0
-1919 -2931 0
-1920 -2932 0
-1921 -2037 0
-1922 -2038 0
-1923 -2039 0
-1924 -2040 0
-1921 -2757 0
-1922 -2758 0
-1923 -2759 0
-1924 -2760 0
-1921 -2857 0
-1922 -2858 0
-1923 -2859 0
-1924 -2860 0
-1925 -1929 0
-1926 -1930 0
-1927 -1931 0
-1928 -1932 0
-1925 -1933 0
-1926 -1934 0
-1927 -1935 0
-1928 -1936 0
-1925 -2245 0
-1926 -2246 0
-1927 -2247 0
-1928 -2248 0
-1925 -2261 0
-1926 -2262 0
-1927 -2263 0
-1928 -2264 0
-1925 -2421 0
-1926 -2422 0
-1927 -2423 0
-1928 -2424 0
-1925 -2765 0
-1926 -2766 0
-1927 -2767 0
-1928 -2768 0
-1929 -1937 0
-1930 -1938 0
-1931 -1939 0
-1932 -1940 0
-1929 -2153 0
-1930 -2154 0
-1931 -2155 0
-1932 -2156 0
-1929 -2277 0
-1930 -2278 0
-1931 -2279 0
-1932 -2280 0
-1929 -2425 0
-1930 -2426 0
-1931 -2427 0
-1932 -2428 0
-1929 -2649 0
-1930 -2650 0
-1931 -2651 0
-1932 -2652 0
-1933 -1937 0
-1934 -1938 0
-1935 -1939 0
-1936 -1940 0
-1933 -2053 0
-1934 -2054 0
-1935 -2055 0
-1936 -2056 0
-1933 -2429 0
-1934 -2430 0
-1935 -2431 0
-1936 -2432 0
-1933 -2777 0
-1934 -2778 0
-1935 -2779 0
-1936 -2780 0
-1937 -2157 0
-1938 -2158 0
-1939 -2159 0
-1940 -2160 0
-1937 -2177 0
-1938 -2178 0
-1939 -2179 0
-1940 -2180 0
-1937 -2433 0
-1938 -2434 0
-1939 -2435 0
-1940 -2436 0
-1937 -2653 0
-1938 -2654 0
-1939 -2655 0
-1940 -2656 0
-1941 -2445 0
-1942 -2446 0
-1943 -2447 0
-1944 -2448 0
-1941 -2573 0
-1942 -2574 0
-1943 -2575 0
-1944 -2576 0
-1941 -2833 0
-1942 -2834 0
-1943 -2835 0
-1944 -2836 0
-1941 -2845 0
-1942 -2846 0
-1943 -2847 0
-1944 -2848 0
-1945 -1949 0
-1946 -1950 0
-1947 -1951 0
-1948 -1952 0
-1945 -1953 0
-1946 -1954 0
-1947 -1955 0
-1948 -1956 0
-1945 -2861 0
-1946 -2862 0
-1947 -2863 0
-1948 -2864 0
-1949 -1957 0
-1950 -1958 0
-1951 -1959 0
-1952 -1960 0
-1949 -2189 0
-1950 -2190 0
-1951 -2191 0
-1952 -2192 0
-1949 -2861 0
-1950 -2862 0
-1951 -2863 0
-1952 -2864 0
-1949 -2865 0
-1950 -2866 0
-1951 -2867 0
-1952 -2868 0
-1953 -1957 0
-1954 -1958 0
-1955 -1959 0
-1956 -1960 0
-1953 -2421 0
-1954 -2422 0
-1955 -2423 0
-1956 -2424 0
-1953 -2869 0
-1954 -2870 0
-1955 -2871 0
-1956 -2872 0
-1957 -2205 0
-1958 -2206 0
-1959 -2207 0
-1960 -2208 0
-1957 -2429 0
-1958 -2430 0
-1959 -2431 0
-1960 -2432 0
-1957 -2869 0
-1958 -2870 0
-1959 -2871 0
-1960 -2872 0
-1957 -2873 0
-1958 -2874 0
-1959 -2875 0
-1960 -2876 0
-1961 -1965 0
-1962 -1966 0
-1963 -1967 0
-1964 -1968 0
-1961 -1969 0
-1962 -1970 0
-1963 -1971 0
-1964 -1972 0
-1961 -2669 0
-1962 -2670 0
-1963 -2671 0
-1964 -2672 0
-1961 -2877 0
-1962 -2878 0
-1963 -2879 0
-1964 -2880 0
-1965 -1973 0
-1966 -1974 0
-1967 -1975 0
-1968 -1976 0
-1965 -2581 0
-1966 -2582 0
-1967 -2583 0
-1968 -2584 0
-1965 -2673 0
-1966 -2674 0
-1967 -2675 0
-1968 -2676 0
-1969 -1973 0
-1970 -1974 0
-1971 -1975 0
-1972 -1976 0
-1969 -2101 0
-1970 -2102 0
-1971 -2103 0
-1972 -2104 0
-1969 -2877 0
-1970 -2878 0
-1971 -2879 0
-1972 -2880 0
-1973 -2241 0
-1974 -2242 0
-1975 -2243 0
-1976 -2244 0
-1973 -2677 0
-1974 -2678 0
-1975 -2679 0
-1976 -2680 0
-1977 -2341 0
-1978 -2342 0
-1979 -2343 0
-1980 -2344 0
-1977 -2785 0
-1978 -2786 0
-1979 -2787 0
-1980 -2788 0
-1977 -2889 0
-1978 -2890 0
-1979 -2891 0
-1980 -2892 0
-1977 -2893 0
-1978 -2894 0
-1979 -2895 0
-1980 -2896 0
-1981 -1985 0
-1982 -1986 0
-1983 -1987 0
-1984 -1988 0
-1981 -1989 0
-1982 -1990 0
-1983 -1991 0
-1984 -1992 0
-1981 -2069 0
-1982 -2070 0
-1983 -2071 0
-1984 -2072 0
-1981 -2485 0
-1982 -2486 0
-1983 -2487 0
-1984 -2488 0
-1981 -2597 0
-1982 -2598 0
-1983 -2599 0
-1984 -2600 0
-1981 -2785 0
-1982 -2786 0
-1983 -2787 0
-1984 -2788 0
-1981 -2881 0
-1982 -2882 0
-1983 -2883 0
-1984 -2884 0
-1985 -1993 0
-1986 -1994 0
-1987 -1995 0
-1988 -1996 0
-1985 -2013 0
-1986 -2014 0
-1987 -2015 0
-1988 -2016 0
-1985 -2073 0
-1986 -2074 0
-1987 -2075 0
-1988 -2076 0
-1985 -2501 0
-1986 -2502 0
-1987 -2503 0
-1988 -2504 0
-1985 -2601 0
-1986 -2602 0
-1987 -2603 0
-1988 -2604 0
-1985 -2789 0
-1986 -2790 0
-1987 -2791 0
-1988 -2792 0
-1985 -2881 0
-1986 -2882 0
-1987 -2883 0
-1988 -2884 0
-1989 -1993 0
-1990 -1994 0
-1991 -1995 0
-1992 -1996 0
-1989 -2077 0
-1990 -2078 0
-1991 -2079 0
-1992 -2080 0
-1989 -2085 0
-1990 -2086 0
-1991 -2087 0
-1992 -2088 0
-1989 -2245 0
-1990 -2246 0
-1991 -2247 0
-1992 -2248 0
-1989 -2325 0
-1990 -2326 0
-1991 -2327 0
-1992 -2328 0
-1989 -2793 0
-1990 -2794 0
-1991 -2795 0
-1992 -2796 0
-1989 -2885 0
-1990 -2886 0
-1991 -2887 0
-1992 -2888 0
-1993 -2089 0
-1994 -2090 0
-1995 -2091 0
-1996 -2092 0
-1993 -2093 0
-1994 -2094 0
-1995 -2095 0
-1996 -2096 0
-1993 -2205 0
-1994 -2206 0
-1995 -2207 0
-1996 -2208 0
-1993 -2797 0
-1994 -2798 0
-1995 -2799 0
-1996 -2800 0
-1993 -2885 0
-1994 -2886 0
-1995 -2887 0
-1996 -2888 0
-1997 -2005 0
-1998 -2006 0
-1999 -2007 0
-2000 -2008 0
-1997 -2101 0
-1998 -2102 0
-1999 -2103 0
-2000 -2104 0
-1997 -2213 0
-1998 -2214 0
-1999 -2215 0
-2000 -2216 0
-1997 -2941 0
-1998 -2942 0
-1999 -2943 0
-2000 -2944 0
-2001 -2005 0
-2002 -2006 0
-2003 -2007 0
-2004 -2008 0
-2001 -2025 0
-2002 -2026 0
-2003 -2027 0
-2004 -2028 0
-2001 -2033 0
-2002 -2034 0
-2003 -2035 0
-2004 -2036 0
-2001 -2049 0
-2002 -2050 0
-2003 -2051 0
-2004 -2052 0
-2001 -2057 0
-2002 -2058 0
-2003 -2059 0
-2004 -2060 0
-2001 -2257 0
-2002 -2258 0
-2003 -2259 0
-2004 -2260 0
-2001 -2585 0
-2002 -2586 0
-2003 -2587 0
-2004 -2588 0
-2005 -2009 0
-2006 -2010 0
-2007 -2011 0
-2008 -2012 0
-2005 -2017 0
-2006 -2018 0
-2007 -2019 0
-2008 -2020 0
-2005 -2025 0
-2006 -2026 0
-2007 -2027 0
-2008 -2028 0
-2005 -2037 0
-2006 -2038 0
-2007 -2039 0
-2008 -2040 0
-2005 -2053 0
-2006 -2054 0
-2007 -2055 0
-2008 -2056 0
-2005 -2101 0
-2006 -2102 0
-2007 -2103 0
-2008 -2104 0
-2005 -2221 0
-2006 -2222 0
-2007 -2223 0
-2008 -2224 0
-2005 -2521 0
-2006 -2522 0
-2007 -2523 0
-2008 -2524 0
-2005 -2617 0
-2006 -2618 0
-2007 -2619 0
-2008 -2620 0
-2009 -2029 0
-2010 -2030 0
-2011 -2031 0
-2012 -2032 0
-2009 -2037 0
-2010 -2038 0
-2011 -2039 0
-2012 -2040 0
-2009 -2225 0
-2010 -2226 0
-2011 -2227 0
-2012 -2228 0
-2009 -2477 0
-2010 -2478 0
-2011 -2479 0
-2012 -2480 0
-2009 -2641 0
-2010 -2642 0
-2011 -2643 0
-2012 -2644 0
-2013 -2117 0
-2014 -2118 0
-2015 -2119 0
-2016 -2120 0
-2013 -2529 0
-2014 -2530 0
-2015 -2531 0
-2016 -2532 0
-2013 -2949 0
-2014 -2950 0
-2015 -2951 0
-2016 -2952 0
-2017 -2125 0
-2018 -2126 0
-2019 -2127 0
-2020 -2128 0
-2017 -2469 0
-2018 -2470 0
-2019 -2471 0
-2020 -2472 0
-2017 -2545 0
-2018 -2546 0
-2019 -2547 0
-2020 -2548 0
-2021 -2029 0
-2022 -2030 0
-2023 -2031 0
-2024 -2032 0
-2021 -2041 0
-2022 -2042 0
-2023 -2043 0
-2024 -2044 0
-2021 -2633 0
-2022 -2634 0
-2023 -2635 0
-2024 -2636 0
-2021 -2909 0
-2022 -2910 0
-2023 -2911 0
-2024 -2912 0
-2025 -2029 0
-2026 -2030 0
-2027 -2031 0
-2028 -2032 0
-2025 -2045 0
-2026 -2046 0
-2027 -2047 0
-2028 -2048 0
-2025 -2173 0
-2026 -2174 0
-2027 -2175 0
-2028 -2176 0
-2025 -2473 0
-2026 -2474 0
-2027 -2475 0
-2028 -2476 0
-2025 -2593 0
-2026 -2594 0
-2027 -2595 0
-2028 -2596 0
-2025 -2805 0
-2026 -2806 0
-2027 -2807 0
-2028 -2808 0
-2029 -2045 0
-2030 -2046 0
-2031 -2047 0
-2032 -2048 0
-2029 -2241 0
-2030 -2242 0
-2031 -2243 0
-2032 -2244 0
-2029 -2809 0
-2030 -2810 0
-2031 -2811 0
-2032 -2812 0
-2029 -2913 0
-2030 -2914 0
-2031 -2915 0
-2032 -2916 0
-2033 -2037 0
-2034 -2038 0
-2035 -2039 0
-2036 -2040 0
-2033 -2045 0
-2034 -2046 0
-2035 -2047 0
-2036 -2048 0
-2033 -2061 0
-2034 -2062 0
-2035 -2063 0
-2036 -2064 0
-2033 -2297 0
-2034 -2298 0
-2035 -2299 0
-2036 -2300 0
-2033 -2613 0
-2034 -2614 0
-2035 -2615 0
-2036 -2616 0
-2037 -2045 0
-2038 -2046 0
-2039 -2047 0
-2040 -2048 0
-2037 -2813 0
-2038 -2814 0
-2039 -2815 0
-2040 -2816 0
-2041 -2045 0
-2042 -2046 0
-2043 -2047 0
-2044 -2048 0
-2041 -2821 0
-2042 -2822 0
-2043 -2823 0
-2044 -2824 0
-2041 -2925 0
-2042 -2926 0
-2043 -2927 0
-2044 -2928 0
-2045 -2481 0
-2046 -2482 0
-2047 -2483 0
-2048 -2484 0
-2045 -2637 0
-2046 -2638 0
-2047 -2639 0
-2048 -2640 0
-2045 -2833 0
-2046 -2834 0
-2047 -2835 0
-2048 -2836 0
-2045 -2929 0
-2046 -2930 0
-2047 -2931 0
-2048 -2932 0
-2049 -2053 0
-2050 -2054 0
-2051 -2055 0
-2052 -2056 0
-2049 -2057 0
-2050 -2058 0
-2051 -2059 0
-2052 -2060 0
-2049 -2061 0
-2050 -2062 0
-2051 -2063 0
-2052 -2064 0
-2049 -2141 0
-2050 -2142 0
-2051 -2143 0
-2052 -2144 0
-2049 -2149 0
-2050 -2150 0
-2051 -2151 0
-2052 -2152 0
-2049 -2361 0
-2050 -2362 0
-2051 -2363 0
-2052 -2364 0
-2049 -2493 0
-2050 -2494 0
-2051 -2495 0
-2052 -2496 0
-2049 -2657 0
-2050 -2658 0
-2051 -2659 0
-2052 -2660 0
-2049 -2833 0
-2050 -2834 0
-2051 -2835 0
-2052 -2836 0
-2049 -2881 0
-2050 -2882 0
-2051 -2883 0
-2052 -2884 0
-2049 -2885 0
-2050 -2886 0
-2051 -2887 0
-2052 -2888 0
-2053 -2145 0
-2054 -2146 0
-2055 -2147 0
-2056 -2148 0
-2053 -2497 0
-2054 -2498 0
-2055 -2499 0
-2056 -2500 0
-2053 -2573 0
-2054 -2574 0
-2055 -2575 0
-2056 -2576 0
-2053 -2837 0
-2054 -2838 0
-2055 -2839 0
-2056 -2840 0
-2057 -2265 0
-2058 -2266 0
-2059 -2267 0
-2060 -2268 0
-2057 -2841 0
-2058 -2842 0
-2059 -2843 0
-2060 -2844 0
-2061 -2365 0
-2062 -2366 0
-2063 -2367 0
-2064 -2368 0
-2061 -2529 0
-2062 -2530 0
-2063 -2531 0
-2064 -2532 0
-2061 -2857 0
-2062 -2858 0
-2063 -2859 0
-2064 -2860 0
-2065 -2093 0
-2066 -2094 0
-2067 -2095 0
-2068 -2096 0
-2065 -2325 0
-2066 -2326 0
-2067 -2327 0
-2068 -2328 0
-2065 -2505 0
-2066 -2506 0
-2067 -2507 0
-2068 -2508 0
-2069 -2073 0
-2070 -2074 0
-2071 -2075 0
-2072 -2076 0
-2069 -2085 0
-2070 -2086 0
-2071 -2087 0
-2072 -2088 0
-2069 -2109 0
-2070 -2110 0
-2071 -2111 0
-2072 -2112 0
-2069 -2897 0
-2070 -2898 0
-2071 -2899 0
-2072 -2900 0
-2073 -2093 0
-2074 -2094 0
-2075 -2095 0
-2076 -2096 0
-2073 -2117 0
-2074 -2118 0
-2075 -2119 0
-2076 -2120 0
-2073 -2121 0
-2074 -2122 0
-2075 -2123 0
-2076 -2124 0
-2073 -2669 0
-2074 -2670 0
-2075 -2671 0
-2076 -2672 0
-2073 -2705 0
-2074 -2706 0
-2075 -2707 0
-2076 -2708 0
-2073 -2897 0
-2074 -2898 0
-2075 -2899 0
-2076 -2900 0
-2077 -2081 0
-2078 -2082 0
-2079 -2083 0
-2080 -2084 0
-2077 -2085 0
-2078 -2086 0
-2079 -2087 0
-2080 -2088 0
-2077 -2089 0
-2078 -2090 0
-2079 -2091 0
-2080 -2092 0
-2077 -2185 0
-2078 -2186 0
-2079 -2187 0
-2080 -2188 0
-2077 -2405 0
-2078 -2406 0
-2079 -2407 0
-2080 -2408 0
-2077 -2901 0
-2078 -2902 0
-2079 -2903 0
-2080 -2904 0
-2081 -2425 0
-2082 -2426 0
-2083 -2427 0
-2084 -2428 0
-2081 -2905 0
-2082 -2906 0
-2083 -2907 0
-2084 -2908 0
-2085 -2093 0
-2086 -2094 0
-2087 -2095 0
-2088 -2096 0
-2085 -2129 0
-2086 -2130 0
-2087 -2131 0
-2088 -2132 0
-2085 -2309 0
-2086 -2310 0
-2087 -2311 0
-2088 -2312 0
-2085 -2509 0
-2086 -2510 0
-2087 -2511 0
-2088 -2512 0
-2085 -2709 0
-2086 -2710 0
-2087 -2711 0
-2088 -2712 0
-2085 -2909 0
-2086 -2910 0
-2087 -2911 0
-2088 -2912 0
-2089 -2093 0
-2090 -2094 0
-2091 -2095 0
-2092 -2096 0
-2089 -2193 0
-2090 -2194 0
-2091 -2195 0
-2092 -2196 0
-2089 -2413 0
-2090 -2414 0
-2091 -2415 0
-2092 -2416 0
-2089 -2901 0
-2090 -2902 0
-2091 -2903 0
-2092 -2904 0
-2093 -2133 0
-2094 -2134 0
-2095 -2135 0
-2096 -2136 0
-2093 -2197 0
-2094 -2198 0
-2095 -2199 0
-2096 -2200 0
-2093 -2313 0
-2094 -2314 0
-2095 -2315 0
-2096 -2316 0
-2093 -2513 0
-2094 -2514 0
-2095 -2515 0
-2096 -2516 0
-2093 -2713 0
-2094 -2714 0
-2095 -2715 0
-2096 -2716 0
-2093 -2909 0
-2094 -2910 0
-2095 -2911 0
-2096 -2912 0
-2093 -2913 0
-2094 -2914 0
-2095 -2915 0
-2096 -2916 0
-2097 -2101 0
-2098 -2102 0
-2099 -2103 0
-2100 -2104 0
-2097 -2105 0
-2098 -2106 0
-2099 -2107 0
-2100 -2108 0
-2097 -2117 0
-2098 -2118 0
-2099 -2119 0
-2100 -2120 0
-2097 -2145 0
-2098 -2146 0
-2099 -2147 0
-2100 -2148 0
-2097 -2217 0
-2098 -2218 0
-2099 -2219 0
-2100 -2220 0
-2097 -2533 0
-2098 -2534 0
-2099 -2535 0
-2100 -2536 0
-2097 -2889 0
-2098 -2890 0
-2099 -2891 0
-2100 -2892 0
-2101 -2125 0
-2102 -2126 0
-2103 -2127 0
-2104 -2128 0
-2101 -2145 0
-2102 -2146 0
-2103 -2147 0
-2104 -2148 0
-2101 -2337 0
-2102 -2338 0
-2103 -2339 0
-2104 -2340 0
-2105 -2133 0
-2106 -2134 0
-2107 -2135 0
-2108 -2136 0
-2105 -2233 0
-2106 -2234 0
-2107 -2235 0
-2108 -2236 0
-2105 -2445 0
-2106 -2446 0
-2107 -2447 0
-2108 -2448 0
-2105 -2861 0
-2106 -2862 0
-2107 -2863 0
-2108 -2864 0
-2105 -2889 0
-2106 -2890 0
-2107 -2891 0
-2108 -2892 0
-2109 -2113 0
-2110 -2114 0
-2111 -2115 0
-2112 -2116 0
-2109 -2117 0
-2110 -2118 0
-2111 -2119 0
-2112 -2120 0
-2109 -2129 0
-2110 -2130 0
-2111 -2131 0
-2112 -2132 0
-2109 -2153 0
-2110 -2154 0
-2111 -2155 0
-2112 -2156 0
-2109 -2401 0
-2110 -2402 0
-2111 -2403 0
-2112 -2404 0
-2109 -2917 0
-2110 -2918 0
-2111 -2919 0
-2112 -2920 0
-2113 -2125 0
-2114 -2126 0
-2115 -2127 0
-2116 -2128 0
-2113 -2153 0
-2114 -2154 0
-2115 -2155 0
-2116 -2156 0
-2117 -2121 0
-2118 -2122 0
-2119 -2123 0
-2120 -2124 0
-2117 -2125 0
-2118 -2126 0
-2119 -2127 0
-2120 -2128 0
-2117 -2133 0
-2118 -2134 0
-2119 -2135 0
-2120 -2136 0
-2117 -2157 0
-2118 -2158 0
-2119 -2159 0
-2120 -2160 0
-2117 -2221 0
-2118 -2222 0
-2119 -2223 0
-2120 -2224 0
-2117 -2409 0
-2118 -2410 0
-2119 -2411 0
-2120 -2412 0
-2117 -2581 0
-2118 -2582 0
-2119 -2583 0
-2120 -2584 0
-2117 -2893 0
-2118 -2894 0
-2119 -2895 0
-2120 -2896 0
-2117 -2917 0
-2118 -2918 0
-2119 -2919 0
-2120 -2920 0
-2117 -2921 0
-2118 -2922 0
-2119 -2923 0
-2120 -2924 0
-2121 -2225 0
-2122 -2226 0
-2123 -2227 0
-2124 -2228 0
-2121 -2413 0
-2122 -2414 0
-2123 -2415 0
-2124 -2416 0
-2125 -2157 0
-2126 -2158 0
-2127 -2159 0
-2128 -2160 0
-2125 -2341 0
-2126 -2342 0
-2127 -2343 0
-2128 -2344 0
-2125 -2549 0
-2126 -2550 0
-2127 -2551 0
-2128 -2552 0
-2125 -2665 0
-2126 -2666 0
-2127 -2667 0
-2128 -2668 0
-2129 -2133 0
-2130 -2134 0
-2131 -2135 0
-2132 -2136 0
-2129 -2925 0
-2130 -2926 0
-2131 -2927 0
-2132 -2928 0
-2133 -2557 0
-2134 -2558 0
-2135 -2559 0
-2136 -2560 0
-2133 -2869 0
-2134 -2870 0
-2135 -2871 0
-2136 -2872 0
-2133 -2893 0
-2134 -2894 0
-2135 -2895 0
-2136 -2896 0
-2133 -2925 0
-2134 -2926 0
-2135 -2927 0
-2136 -2928 0
-2133 -2929 0
-2134 -2930 0
-2135 -2931 0
-2136 -2932 0
-2137 -2141 0
-2138 -2142 0
-2139 -2143 0
-2140 -2144 0
-2137 -2145 0
-2138 -2146 0
-2139 -2147 0
-2140 -2148 0
-2137 -2349 0
-2138 -2350 0
-2139 -2351 0
-2140 -2352 0
-2137 -2733 0
-2138 -2734 0
-2139 -2735 0
-2140 -2736 0
-2141 -2145 0
-2142 -2146 0
-2143 -2147 0
-2144 -2148 0
-2141 -2149 0
-2142 -2150 0
-2143 -2151 0
-2144 -2152 0
-2141 -2253 0
-2142 -2254 0
-2143 -2255 0
-2144 -2256 0
-2141 -2441 0
-2142 -2442 0
-2143 -2443 0
-2144 -2444 0
-2141 -2741 0
-2142 -2742 0
-2143 -2743 0
-2144 -2744 0
-2141 -2877 0
-2142 -2878 0
-2143 -2879 0
-2144 -2880 0
-2141 -2901 0
-2142 -2902 0
-2143 -2903 0
-2144 -2904 0
-2145 -2157 0
-2146 -2158 0
-2147 -2159 0
-2148 -2160 0
-2145 -2373 0
-2146 -2374 0
-2147 -2375 0
-2148 -2376 0
-2145 -2745 0
-2146 -2746 0
-2147 -2747 0
-2148 -2748 0
-2145 -2749 0
-2146 -2750 0
-2147 -2751 0
-2148 -2752 0
-2145 -2905 0
-2146 -2906 0
-2147 -2907 0
-2148 -2908 0
-2145 -2961 0
-2146 -2962 0
-2147 -2963 0
-2148 -2964 0
-2149 -2273 0
-2150 -2274 0
-2151 -2275 0
-2152 -2276 0
-2149 -2577 0
-2150 -2578 0
-2151 -2579 0
-2152 -2580 0
-2149 -2897 0
-2150 -2898 0
-2151 -2899 0
-2152 -2900 0
-2149 -2909 0
-2150 -2910 0
-2151 -2911 0
-2152 -2912 0
-2153 -2157 0
-2154 -2158 0
-2155 -2159 0
-2156 -2160 0
-2153 -2425 0
-2154 -2426 0
-2155 -2427 0
-2156 -2428 0
-2157 -2269 0
-2158 -2270 0
-2159 -2271 0
-2160 -2272 0
-2157 -2397 0
-2158 -2398 0
-2159 -2399 0
-2160 -2400 0
-2157 -2433 0
-2158 -2434 0
-2159 -2435 0
-2160 -2436 0
-2157 -2753 0
-2158 -2754 0
-2159 -2755 0
-2160 -2756 0
-2161 -2165 0
-2162 -2166 0
-2163 -2167 0
-2164 -2168 0
-2161 -2169 0
-2162 -2170 0
-2163 -2171 0
-2164 -2172 0
-2161 -2217 0
-2162 -2218 0
-2163 -2219 0
-2164 -2220 0
-2161 -2225 0
-2162 -2226 0
-2163 -2227 0
-2164 -2228 0
-2161 -2613 0
-2162 -2614 0
-2163 -2615 0
-2164 -2616 0
-2161 -2693 0
-2162 -2694 0
-2163 -2695 0
-2164 -2696 0
-2161 -2969 0
-2162 -2970 0
-2163 -2971 0
-2164 -2972 0
-2165 -2169 0
-2166 -2170 0
-2167 -2171 0
-2168 -2172 0
-2165 -2173 0
-2166 -2174 0
-2167 -2175 0
-2168 -2176 0
-2165 -2177 0
-2166 -2178 0
-2167 -2179 0
-2168 -2180 0
-2165 -2241 0
-2166 -2242 0
-2167 -2243 0
-2168 -2244 0
-2165 -2389 0
-2166 -2390 0
-2167 -2391 0
-2168 -2392 0
-2165 -2633 0
-2166 -2634 0
-2167 -2635 0
-2168 -2636 0
-2165 -2881 0
-2166 -2882 0
-2167 -2883 0
-2168 -2884 0
-2165 -2937 0
-2166 -2938 0
-2167 -2939 0
-2168 -2940 0
-2165 -2949 0
-2166 -2950 0
-2167 -2951 0
-2168 -2952 0
-2169 -2469 0
-2170 -2470 0
-2171 -2471 0
-2172 -2472 0
-2169 -2637 0
-2170 -2638 0
-2171 -2639 0
-2172 -2640 0
-2173 -2177 0
-2174 -2178 0
-2175 -2179 0
-2176 -2180 0
-2173 -2341 0
-2174 -2342 0
-2175 -2343 0
-2176 -2344 0
-2173 -2473 0
-2174 -2474 0
-2175 -2475 0
-2176 -2476 0
-2173 -2941 0
-2174 -2942 0
-2175 -2943 0
-2176 -2944 0
-2173 -2953 0
-2174 -2954 0
-2175 -2955 0
-2176 -2956 0
-2177 -2289 0
-2178 -2290 0
-2179 -2291 0
-2180 -2292 0
-2177 -2397 0
-2178 -2398 0
-2179 -2399 0
-2180 -2400 0
-2177 -2601 0
-2178 -2602 0
-2179 -2603 0
-2180 -2604 0
-2177 -2957 0
-2178 -2958 0
-2179 -2959 0
-2180 -2960 0
-2181 -2193 0
-2182 -2194 0
-2183 -2195 0
-2184 -2196 0
-2181 -2213 0
-2182 -2214 0
-2183 -2215 0
-2184 -2216 0
-2181 -2217 0
-2182 -2218 0
-2183 -2219 0
-2184 -2220 0
-2181 -2497 0
-2182 -2498 0
-2183 -2499 0
-2184 -2500 0
-2185 -2193 0
-2186 -2194 0
-2187 -2195 0
-2188 -2196 0
-2185 -2201 0
-2186 -2202 0
-2187 -2203 0
-2188 -2204 0
-2185 -2933 0
-2186 -2934 0
-2187 -2935 0
-2188 -2936 0
-2189 -2193 0
-2190 -2194 0
-2191 -2195 0
-2192 -2196 0
-2189 -2205 0
-2190 -2206 0
-2191 -2207 0
-2192 -2208 0
-2189 -2245 0
-2190 -2246 0
-2191 -2247 0
-2192 -2248 0
-2189 -2493 0
-2190 -2494 0
-2191 -2495 0
-2192 -2496 0
-2189 -2889 0
-2190 -2890 0
-2191 -2891 0
-2192 -2892 0
-2189 -2937 0
-2190 -2938 0
-2191 -2939 0
-2192 -2940 0
-2193 -2197 0
-2194 -2198 0
-2195 -2199 0
-2196 -2200 0
-2193 -2209 0
-2194 -2210 0
-2195 -2211 0
-2196 -2212 0
-2193 -2229 0
-2194 -2230 0
-2195 -2231 0
-2196 -2232 0
-2193 -2233 0
-2194 -2234 0
-2195 -2235 0
-2196 -2236 0
-2193 -2245 0
-2194 -2246 0
-2195 -2247 0
-2196 -2248 0
-2193 -2401 0
-2194 -2402 0
-2195 -2403 0
-2196 -2404 0
-2193 -2477 0
-2194 -2478 0
-2195 -2479 0
-2196 -2480 0
-2193 -2933 0
-2194 -2934 0
-2195 -2935 0
-2196 -2936 0
-2193 -2941 0
-2194 -2942 0
-2195 -2943 0
-2196 -2944 0
-2197 -2237 0
-2198 -2238 0
-2199 -2239 0
-2200 -2240 0
-2197 -2249 0
-2198 -2250 0
-2199 -2251 0
-2200 -2252 0
-2197 -2593 0
-2198 -2594 0
-2199 -2595 0
-2200 -2596 0
-2197 -2713 0
-2198 -2714 0
-2199 -2715 0
-2200 -2716 0
-2201 -2209 0
-2202 -2210 0
-2203 -2211 0
-2204 -2212 0
-2201 -2425 0
-2202 -2426 0
-2203 -2427 0
-2204 -2428 0
-2201 -2597 0
-2202 -2598 0
-2203 -2599 0
-2204 -2600 0
-2201 -2945 0
-2202 -2946 0
-2203 -2947 0
-2204 -2948 0
-2205 -2209 0
-2206 -2210 0
-2207 -2211 0
-2208 -2212 0
-2205 -2321 0
-2206 -2322 0
-2207 -2323 0
-2208 -2324 0
-2205 -2429 0
-2206 -2430 0
-2207 -2431 0
-2208 -2432 0
-2205 -2893 0
-2206 -2894 0
-2207 -2895 0
-2208 -2896 0
-2205 -2949 0
-2206 -2950 0
-2207 -2951 0
-2208 -2952 0
-2209 -2433 0
-2210 -2434 0
-2211 -2435 0
-2212 -2436 0
-2209 -2601 0
-2210 -2602 0
-2211 -2603 0
-2212 -2604 0
-2209 -2945 0
-2210 -2946 0
-2211 -2947 0
-2212 -2948 0
-2209 -2953 0
-2210 -2954 0
-2211 -2955 0
-2212 -2956 0
-2213 -2217 0
-2214 -2218 0
-2215 -2219 0
-2216 -2220 0
-2213 -2221 0
-2214 -2222 0
-2215 -2223 0
-2216 -2224 0
-2213 -2229 0
-2214 -2230 0
-2215 -2231 0
-2216 -2232 0
-2213 -2973 0
-2214 -2974 0
-2215 -2975 0
-2216 -2976 0
-2217 -2225 0
-2218 -2226 0
-2219 -2227 0
-2220 -2228 0
-2217 -2233 0
-2218 -2234 0
-2219 -2235 0
-2220 -2236 0
-2217 -2533 0
-2218 -2534 0
-2219 -2535 0
-2220 -2536 0
-2217 -2789 0
-2218 -2790 0
-2219 -2791 0
-2220 -2792 0
-2217 -2977 0
-2218 -2978 0
-2219 -2979 0
-2220 -2980 0
-2221 -2225 0
-2222 -2226 0
-2223 -2227 0
-2224 -2228 0
-2221 -2269 0
-2222 -2270 0
-2223 -2271 0
-2224 -2272 0
-2221 -2673 0
-2222 -2674 0
-2223 -2675 0
-2224 -2676 0
-2225 -2237 0
-2226 -2238 0
-2227 -2239 0
-2228 -2240 0
-2225 -2241 0
-2226 -2242 0
-2227 -2243 0
-2228 -2244 0
-2225 -2261 0
-2226 -2262 0
-2227 -2263 0
-2228 -2264 0
-2225 -2277 0
-2226 -2278 0
-2227 -2279 0
-2228 -2280 0
-2225 -2477 0
-2226 -2478 0
-2227 -2479 0
-2228 -2480 0
-2225 -2525 0
-2226 -2526 0
-2227 -2527 0
-2228 -2528 0
-2225 -2621 0
-2226 -2622 0
-2227 -2623 0
-2228 -2624 0
-2225 -2721 0
-2226 -2722 0
-2227 -2723 0
-2228 -2724 0
-2229 -2233 0
-2230 -2234 0
-2231 -2235 0
-2232 -2236 0
-2233 -2237 0
-2234 -2238 0
-2235 -2239 0
-2236 -2240 0
-2233 -2417 0
-2234 -2418 0
-2235 -2419 0
-2236 -2420 0
-2233 -2537 0
-2234 -2538 0
-2235 -2539 0
-2236 -2540 0
-2233 -2797 0
-2234 -2798 0
-2235 -2799 0
-2236 -2800 0
-2237 -2453 0
-2238 -2454 0
-2239 -2455 0
-2240 -2456 0
-2237 -2545 0
-2238 -2546 0
-2239 -2547 0
-2240 -2548 0
-2237 -2637 0
-2238 -2638 0
-2239 -2639 0
-2240 -2640 0
-2241 -2289 0
-2242 -2290 0
-2243 -2291 0
-2244 -2292 0
-2241 -2645 0
-2242 -2646 0
-2243 -2647 0
-2244 -2648 0
-2241 -2801 0
-2242 -2802 0
-2243 -2803 0
-2244 -2804 0
-2241 -2897 0
-2242 -2898 0
-2243 -2899 0
-2244 -2900 0
-2245 -2249 0
-2246 -2250 0
-2247 -2251 0
-2248 -2252 0
-2245 -2309 0
-2246 -2310 0
-2247 -2311 0
-2248 -2312 0
-2245 -2421 0
-2246 -2422 0
-2247 -2423 0
-2248 -2424 0
-2245 -2505 0
-2246 -2506 0
-2247 -2507 0
-2248 -2508 0
-2245 -2905 0
-2246 -2906 0
-2247 -2907 0
-2248 -2908 0
-2245 -2957 0
-2246 -2958 0
-2247 -2959 0
-2248 -2960 0
-2249 -2309 0
-2250 -2310 0
-2251 -2311 0
-2252 -2312 0
-2253 -2257 0
-2254 -2258 0
-2255 -2259 0
-2256 -2260 0
-2253 -2265 0
-2254 -2266 0
-2255 -2267 0
-2256 -2268 0
-2253 -2293 0
-2254 -2294 0
-2255 -2295 0
-2256 -2296 0
-2253 -2649 0
-2254 -2650 0
-2255 -2651 0
-2256 -2652 0
-2253 -2805 0
-2254 -2806 0
-2255 -2807 0
-2256 -2808 0
-2253 -2933 0
-2254 -2934 0
-2255 -2935 0
-2256 -2936 0
-2257 -2281 0
-2258 -2282 0
-2259 -2283 0
-2260 -2284 0
-2257 -2297 0
-2258 -2298 0
-2259 -2299 0
-2260 -2300 0
-2257 -2653 0
-2258 -2654 0
-2259 -2655 0
-2260 -2656 0
-2257 -2941 0
-2258 -2942 0
-2259 -2943 0
-2260 -2944 0
-2261 -2277 0
-2262 -2278 0
-2263 -2279 0
-2264 -2280 0
-2261 -2505 0
-2262 -2506 0
-2263 -2507 0
-2264 -2508 0
-2261 -2765 0
-2262 -2766 0
-2263 -2767 0
-2264 -2768 0
-2265 -2269 0
-2266 -2270 0
-2267 -2271 0
-2268 -2272 0
-2265 -2273 0
-2266 -2274 0
-2267 -2275 0
-2268 -2276 0
-2265 -2281 0
-2266 -2282 0
-2267 -2283 0
-2268 -2284 0
-2265 -2285 0
-2266 -2286 0
-2267 -2287 0
-2268 -2288 0
-2265 -2301 0
-2266 -2302 0
-2267 -2303 0
-2268 -2304 0
-2265 -2525 0
-2266 -2526 0
-2267 -2527 0
-2268 -2528 0
-2265 -2945 0
-2266 -2946 0
-2267 -2947 0
-2268 -2948 0
-2269 -2277 0
-2270 -2278 0
-2271 -2279 0
-2272 -2280 0
-2269 -2285 0
-2270 -2286 0
-2271 -2287 0
-2272 -2288 0
-2269 -2461 0
-2270 -2462 0
-2271 -2463 0
-2272 -2464 0
-2269 -2681 0
-2270 -2682 0
-2271 -2683 0
-2272 -2684 0
-2269 -2753 0
-2270 -2754 0
-2271 -2755 0
-2272 -2756 0
-2273 -2277 0
-2274 -2278 0
-2275 -2279 0
-2276 -2280 0
-2273 -2289 0
-2274 -2290 0
-2275 -2291 0
-2276 -2292 0
-2273 -2301 0
-2274 -2302 0
-2275 -2303 0
-2276 -2304 0
-2273 -2577 0
-2274 -2578 0
-2275 -2579 0
-2276 -2580 0
-2277 -2289 0
-2278 -2290 0
-2279 -2291 0
-2280 -2292 0
-2277 -2465 0
-2278 -2466 0
-2279 -2467 0
-2280 -2468 0
-2277 -2665 0
-2278 -2666 0
-2279 -2667 0
-2280 -2668 0
-2277 -2757 0
-2278 -2758 0
-2279 -2759 0
-2280 -2760 0
-2277 -2813 0
-2278 -2814 0
-2279 -2815 0
-2280 -2816 0
-2281 -2733 0
-2282 -2734 0
-2283 -2735 0
-2284 -2736 0
-2281 -2953 0
-2282 -2954 0
-2283 -2955 0
-2284 -2956 0
-2285 -2289 0
-2286 -2290 0
-2287 -2291 0
-2288 -2292 0
-2285 -2305 0
-2286 -2306 0
-2287 -2307 0
-2288 -2308 0
-2285 -2553 0
-2286 -2554 0
-2287 -2555 0
-2288 -2556 0
-2285 -2769 0
-2286 -2770 0
-2287 -2771 0
-2288 -2772 0
-2289 -2305 0
-2290 -2306 0
-2291 -2307 0
-2292 -2308 0
-2289 -2385 0
-2290 -2386 0
-2291 -2387 0
-2292 -2388 0
-2289 -2517 0
-2290 -2518 0
-2291 -2519 0
-2292 -2520 0
-2289 -2669 0
-2290 -2670 0
-2291 -2671 0
-2292 -2672 0
-2289 -2773 0
-2290 -2774 0
-2291 -2775 0
-2292 -2776 0
-2289 -2833 0
-2290 -2834 0
-2291 -2835 0
-2292 -2836 0
-2289 -2961 0
-2290 -2962 0
-2291 -2963 0
-2292 -2964 0
-2293 -2297 0
-2294 -2298 0
-2295 -2299 0
-2296 -2300 0
-2293 -2301 0
-2294 -2302 0
-2295 -2303 0
-2296 -2304 0
-2293 -2833 0
-2294 -2834 0
-2295 -2835 0
-2296 -2836 0
-2301 -2305 0
-2302 -2306 0
-2303 -2307 0
-2304 -2308 0
-2301 -2537 0
-2302 -2538 0
-2303 -2539 0
-2304 -2540 0
-2301 -2849 0
-2302 -2850 0
-2303 -2851 0
-2304 -2852 0
-2305 -2561 0
-2306 -2562 0
-2307 -2563 0
-2308 -2564 0
-2305 -2765 0
-2306 -2766 0
-2307 -2767 0
-2308 -2768 0
-2309 -2313 0
-2310 -2314 0
-2311 -2315 0
-2312 -2316 0
-2309 -2509 0
-2310 -2510 0
-2311 -2511 0
-2312 -2512 0
-2309 -2861 0
-2310 -2862 0
-2311 -2863 0
-2312 -2864 0
-2309 -2961 0
-2310 -2962 0
-2311 -2963 0
-2312 -2964 0
-2313 -2513 0
-2314 -2514 0
-2315 -2515 0
-2316 -2516 0
-2313 -2865 0
-2314 -2866 0
-2315 -2867 0
-2316 -2868 0
-2313 -2961 0
-2314 -2962 0
-2315 -2963 0
-2316 -2964 0
-2317 -2529 0
-2318 -2530 0
-2319 -2531 0
-2320 -2532 0
-2317 -2873 0
-2318 -2874 0
-2319 -2875 0
-2320 -2876 0
-2321 -2325 0
-2322 -2326 0
-2323 -2327 0
-2324 -2328 0
-2321 -2329 0
-2322 -2330 0
-2323 -2331 0
-2324 -2332 0
-2321 -2333 0
-2322 -2334 0
-2323 -2335 0
-2324 -2336 0
-2321 -2401 0
-2322 -2402 0
-2323 -2403 0
-2324 -2404 0
-2321 -2497 0
-2322 -2498 0
-2323 -2499 0
-2324 -2500 0
-2321 -2709 0
-2322 -2710 0
-2323 -2711 0
-2324 -2712 0
-2321 -2965 0
-2322 -2966 0
-2323 -2967 0
-2324 -2968 0
-2325 -2333 0
-2326 -2334 0
-2327 -2335 0
-2328 -2336 0
-2325 -2405 0
-2326 -2406 0
-2327 -2407 0
-2328 -2408 0
-2325 -2505 0
-2326 -2506 0
-2327 -2507 0
-2328 -2508 0
-2325 -2589 0
-2326 -2590 0
-2327 -2591 0
-2328 -2592 0
-2325 -2793 0
-2326 -2794 0
-2327 -2795 0
-2328 -2796 0
-2325 -2969 0
-2326 -2970 0
-2327 -2971 0
-2328 -2972 0
-2329 -2409 0
-2330 -2410 0
-2331 -2411 0
-2332 -2412 0
-2329 -2713 0
-2330 -2714 0
-2331 -2715 0
-2332 -2716 0
-2329 -2965 0
-2330 -2966 0
-2331 -2967 0
-2332 -2968 0
-2333 -2417 0
-2334 -2418 0
-2335 -2419 0
-2336 -2420 0
-2333 -2533 0
-2334 -2534 0
-2335 -2535 0
-2336 -2536 0
-2337 -2341 0
-2338 -2342 0
-2339 -2343 0
-2340 -2344 0
-2337 -2373 0
-2338 -2374 0
-2339 -2375 0
-2340 -2376 0
-2337 -2377 0
-2338 -2378 0
-2339 -2379 0
-2340 -2380 0
-2337 -2629 0
-2338 -2630 0
-2339 -2631 0
-2340 -2632 0
-2337 -2693 0
-2338 -2694 0
-2339 -2695 0
-2340 -2696 0
-2337 -2973 0
-2338 -2974 0
-2339 -2975 0
-2340 -2976 0
-2341 -2345 0
-2342 -2346 0
-2343 -2347 0
-2344 -2348 0
-2341 -2397 0
-2342 -2398 0
-2343 -2399 0
-2344 -2400 0
-2341 -2549 0
-2342 -2550 0
-2343 -2551 0
-2344 -2552 0
-2341 -2717 0
-2342 -2718 0
-2343 -2719 0
-2344 -2720 0
-2341 -2785 0
-2342 -2786 0
-2343 -2787 0
-2344 -2788 0
-2341 -2973 0
-2342 -2974 0
-2343 -2975 0
-2344 -2976 0
-2345 -2561 0
-2346 -2562 0
-2347 -2563 0
-2348 -2564 0
-2345 -2793 0
-2346 -2794 0
-2347 -2795 0
-2348 -2796 0
-2345 -2945 0
-2346 -2946 0
-2347 -2947 0
-2348 -2948 0
-2349 -2353 0
-2350 -2354 0
-2351 -2355 0
-2352 -2356 0
-2349 -2357 0
-2350 -2358 0
-2351 -2359 0
-2352 -2360 0
-2349 -2373 0
-2350 -2374 0
-2351 -2375 0
-2352 -2376 0
-2349 -2881 0
-2350 -2882 0
-2351 -2883 0
-2352 -2884 0
-2353 -2361 0
-2354 -2362 0
-2355 -2363 0
-2356 -2364 0
-2353 -2381 0
-2354 -2382 0
-2355 -2383 0
-2356 -2384 0
-2353 -2585 0
-2354 -2586 0
-2355 -2587 0
-2356 -2588 0
-2353 -2821 0
-2354 -2822 0
-2355 -2823 0
-2356 -2824 0
-2357 -2361 0
-2358 -2362 0
-2359 -2363 0
-2360 -2364 0
-2357 -2365 0
-2358 -2366 0
-2359 -2367 0
-2360 -2368 0
-2357 -2389 0
-2358 -2390 0
-2359 -2391 0
-2360 -2392 0
-2357 -2441 0
-2358 -2442 0
-2359 -2443 0
-2360 -2444 0
-2357 -2825 0
-2358 -2826 0
-2359 -2827 0
-2360 -2828 0
-2361 -2369 0
-2362 -2370 0
-2363 -2371 0
-2364 -2372 0
-2361 -2393 0
-2362 -2394 0
-2363 -2395 0
-2364 -2396 0
-2361 -2441 0
-2362 -2442 0
-2363 -2443 0
-2364 -2444 0
-2361 -2705 0
-2362 -2706 0
-2363 -2707 0
-2364 -2708 0
-2361 -2833 0
-2362 -2834 0
-2363 -2835 0
-2364 -2836 0
-2361 -2969 0
-2362 -2970 0
-2363 -2971 0
-2364 -2972 0
-2365 -2369 0
-2366 -2370 0
-2367 -2371 0
-2368 -2372 0
-2365 -2449 0
-2366 -2450 0
-2367 -2451 0
-2368 -2452 0
-2365 -2529 0
-2366 -2530 0
-2367 -2531 0
-2368 -2532 0
-2369 -2449 0
-2370 -2450 0
-2371 -2451 0
-2372 -2452 0
-2369 -2541 0
-2370 -2542 0
-2371 -2543 0
-2372 -2544 0
-2369 -2713 0
-2370 -2714 0
-2371 -2715 0
-2372 -2716 0
-2369 -2845 0
-2370 -2846 0
-2371 -2847 0
-2372 -2848 0
-2369 -2969 0
-2370 -2970 0
-2371 -2971 0
-2372 -2972 0
-2373 -2377 0
-2374 -2378 0
-2375 -2379 0
-2376 -2380 0
-2373 -2381 0
-2374 -2382 0
-2375 -2383 0
-2376 -2384 0
-2373 -2389 0
-2374 -2390 0
-2375 -2391 0
-2376 -2392 0
-2373 -2397 0
-2374 -2398 0
-2375 -2399 0
-2376 -2400 0
-2373 -2621 0
-2374 -2622 0
-2375 -2623 0
-2376 -2624 0
-2373 -2985 0
-2374 -2986 0
-2375 -2987 0
-2376 -2988 0
-2377 -2385 0
-2378 -2386 0
-2379 -2387 0
-2380 -2388 0
-2377 -2825 0
-2378 -2826 0
-2379 -2827 0
-2380 -2828 0
-2377 -2989 0
-2378 -2990 0
-2379 -2991 0
-2380 -2992 0
-2381 -2385 0
-2382 -2386 0
-2383 -2387 0
-2384 -2388 0
-2381 -2393 0
-2382 -2394 0
-2383 -2395 0
-2384 -2396 0
-2381 -2465 0
-2382 -2466 0
-2383 -2467 0
-2384 -2468 0
-2381 -2593 0
-2382 -2594 0
-2383 -2595 0
-2384 -2596 0
-2381 -2829 0
-2382 -2830 0
-2383 -2831 0
-2384 -2832 0
-2385 -2833 0
-2386 -2834 0
-2387 -2835 0
-2388 -2836 0
-2389 -2393 0
-2390 -2394 0
-2391 -2395 0
-2392 -2396 0
-2397 -2461 0
-2398 -2462 0
-2399 -2463 0
-2400 -2464 0
-2397 -2601 0
-2398 -2602 0
-2399 -2603 0
-2400 -2604 0
-2397 -2761 0
-2398 -2762 0
-2399 -2763 0
-2400 -2764 0
-2397 -2985 0
-2398 -2986 0
-2399 -2987 0
-2400 -2988 0
-2401 -2405 0
-2402 -2406 0
-2403 -2407 0
-2404 -2408 0
-2401 -2409 0
-2402 -2410 0
-2403 -2411 0
-2404 -2412 0
-2401 -2417 0
-2402 -2418 0
-2403 -2419 0
-2404 -2420 0
-2401 -2421 0
-2402 -2422 0
-2403 -2423 0
-2404 -2424 0
-2401 -2425 0
-2402 -2426 0
-2403 -2427 0
-2404 -2428 0
-2401 -2973 0
-2402 -2974 0
-2403 -2975 0
-2404 -2976 0
-2405 -2413 0
-2406 -2414 0
-2407 -2415 0
-2408 -2416 0
-2405 -2417 0
-2406 -2418 0
-2407 -2419 0
-2408 -2420 0
-2405 -2977 0
-2406 -2978 0
-2407 -2979 0
-2408 -2980 0
-2409 -2413 0
-2410 -2414 0
-2411 -2415 0
-2412 -2416 0
-2409 -2429 0
-2410 -2430 0
-2411 -2431 0
-2412 -2432 0
-2409 -2433 0
-2410 -2434 0
-2411 -2435 0
-2412 -2436 0
-2409 -2973 0
-2410 -2974 0
-2411 -2975 0
-2412 -2976 0
-2413 -2477 0
-2414 -2478 0
-2415 -2479 0
-2416 -2480 0
-2413 -2977 0
-2414 -2978 0
-2415 -2979 0
-2416 -2980 0
-2417 -2893 0
-2418 -2894 0
-2419 -2895 0
-2420 -2896 0
-2417 -2981 0
-2418 -2982 0
-2419 -2983 0
-2420 -2984 0
-2421 -2425 0
-2422 -2426 0
-2423 -2427 0
-2424 -2428 0
-2421 -2429 0
-2422 -2430 0
-2423 -2431 0
-2424 -2432 0
-2421 -2985 0
-2422 -2986 0
-2423 -2987 0
-2424 -2988 0
-2425 -2433 0
-2426 -2434 0
-2427 -2435 0
-2428 -2436 0
-2425 -2597 0
-2426 -2598 0
-2427 -2599 0
-2428 -2600 0
-2425 -2665 0
-2426 -2666 0
-2427 -2667 0
-2428 -2668 0
-2425 -2989 0
-2426 -2990 0
-2427 -2991 0
-2428 -2992 0
-2429 -2433 0
-2430 -2434 0
-2431 -2435 0
-2432 -2436 0
-2429 -2497 0
-2430 -2498 0
-2431 -2499 0
-2432 -2500 0
-2429 -2985 0
-2430 -2986 0
-2431 -2987 0
-2432 -2988 0
-2433 -2437 0
-2434 -2438 0
-2435 -2439 0
-2436 -2440 0
-2433 -2601 0
-2434 -2602 0
-2435 -2603 0
-2436 -2604 0
-2433 -2989 0
-2434 -2990 0
-2435 -2991 0
-2436 -2992 0
-2437 -2605 0
-2438 -2606 0
-2439 -2607 0
-2440 -2608 0
-2437 -2745 0
-2438 -2746 0
-2439 -2747 0
-2440 -2748 0
-2437 -2873 0
-2438 -2874 0
-2439 -2875 0
-2440 -2876 0
-2441 -2449 0
-2442 -2450 0
-2443 -2451 0
-2444 -2452 0
-2441 -2685 0
-2442 -2686 0
-2443 -2687 0
-2444 -2688 0
-2441 -2757 0
-2442 -2758 0
-2443 -2759 0
-2444 -2760 0
-2441 -2877 0
-2442 -2878 0
-2443 -2879 0
-2444 -2880 0
-2441 -2977 0
-2442 -2978 0
-2443 -2979 0
-2444 -2980 0
-2445 -2449 0
-2446 -2450 0
-2447 -2451 0
-2448 -2452 0
-2445 -2537 0
-2446 -2538 0
-2447 -2539 0
-2448 -2540 0
-2445 -2625 0
-2446 -2626 0
-2447 -2627 0
-2448 -2628 0
-2445 -2677 0
-2446 -2678 0
-2447 -2679 0
-2448 -2680 0
-2445 -2861 0
-2446 -2862 0
-2447 -2863 0
-2448 -2864 0
-2445 -2973 0
-2446 -2974 0
-2447 -2975 0
-2448 -2976 0
-2449 -2453 0
-2450 -2454 0
-2451 -2455 0
-2452 -2456 0
-2449 -2457 0
-2450 -2458 0
-2451 -2459 0
-2452 -2460 0
-2449 -2521 0
-2450 -2522 0
-2451 -2523 0
-2452 -2524 0
-2449 -2581 0
-2450 -2582 0
-2451 -2583 0
-2452 -2584 0
-2449 -2633 0
-2450 -2634 0
-2451 -2635 0
-2452 -2636 0
-2449 -2913 0
-2450 -2914 0
-2451 -2915 0
-2452 -2916 0
-2449 -2977 0
-2450 -2978 0
-2451 -2979 0
-2452 -2980 0
-2453 -2637 0
-2454 -2638 0
-2455 -2639 0
-2456 -2640 0
-2453 -2689 0
-2454 -2690 0
-2455 -2691 0
-2456 -2692 0
-2457 -2545 0
-2458 -2546 0
-2459 -2547 0
-2460 -2548 0
-2457 -2773 0
-2458 -2774 0
-2459 -2775 0
-2460 -2776 0
-2461 -2465 0
-2462 -2466 0
-2463 -2467 0
-2464 -2468 0
-2461 -2469 0
-2462 -2470 0
-2463 -2471 0
-2464 -2472 0
-2461 -2821 0
-2462 -2822 0
-2463 -2823 0
-2464 -2824 0
-2465 -2785 0
-2466 -2786 0
-2467 -2787 0
-2468 -2788 0
-2465 -2993 0
-2466 -2994 0
-2467 -2995 0
-2468 -2996 0
-2469 -2473 0
-2470 -2474 0
-2471 -2475 0
-2472 -2476 0
-2469 -2549 0
-2470 -2550 0
-2471 -2551 0
-2472 -2552 0
-2469 -2553 0
-2470 -2554 0
-2471 -2555 0
-2472 -2556 0
-2469 -2833 0
-2470 -2834 0
-2471 -2835 0
-2472 -2836 0
-2473 -2561 0
-2474 -2562 0
-2475 -2563 0
-2476 -2564 0
-2473 -2569 0
-2474 -2570 0
-2475 -2571 0
-2476 -2572 0
-2473 -2845 0
-2474 -2846 0
-2475 -2847 0
-2476 -2848 0
-2477 -2505 0
-2478 -2506 0
-2479 -2507 0
-2480 -2508 0
-2481 -2557 0
-2482 -2558 0
-2483 -2559 0
-2484 -2560 0
-2481 -2561 0
-2482 -2562 0
-2483 -2563 0
-2484 -2564 0
-2481 -2889 0
-2482 -2890 0
-2483 -2891 0
-2484 -2892 0
-2481 -2973 0
-2482 -2974 0
-2483 -2975 0
-2484 -2976 0
-2485 -2489 0
-2486 -2490 0
-2487 -2491 0
-2488 -2492 0
-2485 -2501 0
-2486 -2502 0
-2487 -2503 0
-2488 -2504 0
-2485 -2509 0
-2486 -2510 0
-2487 -2511 0
-2488 -2512 0
-2489 -2505 0
-2490 -2506 0
-2491 -2507 0
-2492 -2508 0
-2489 -2509 0
-2490 -2510 0
-2491 -2511 0
-2492 -2512 0
-2489 -2993 0
-2490 -2994 0
-2491 -2995 0
-2492 -2996 0
-2493 -2497 0
-2494 -2498 0
-2495 -2499 0
-2496 -2500 0
-2493 -2501 0
-2494 -2502 0
-2495 -2503 0
-2496 -2504 0
-2493 -2529 0
-2494 -2530 0
-2495 -2531 0
-2496 -2532 0
-2493 -2705 0
-2494 -2706 0
-2495 -2707 0
-2496 -2708 0
-2493 -2973 0
-2494 -2974 0
-2495 -2975 0
-2496 -2976 0
-2497 -2505 0
-2498 -2506 0
-2499 -2507 0
-2500 -2508 0
-2497 -2533 0
-2498 -2534 0
-2499 -2535 0
-2500 -2536 0
-2497 -2861 0
-2498 -2862 0
-2499 -2863 0
-2500 -2864 0
-2501 -2505 0
-2502 -2506 0
-2503 -2507 0
-2504 -2508 0
-2501 -2513 0
-2502 -2514 0
-2503 -2515 0
-2504 -2516 0
-2501 -2529 0
-2502 -2530 0
-2503 -2531 0
-2504 -2532 0
-2501 -2585 0
-2502 -2586 0
-2503 -2587 0
-2504 -2588 0
-2501 -2901 0
-2502 -2902 0
-2503 -2903 0
-2504 -2904 0
-2501 -2977 0
-2502 -2978 0
-2503 -2979 0
-2504 -2980 0
-2505 -2513 0
-2506 -2514 0
-2507 -2515 0
-2508 -2516 0
-2505 -2533 0
-2506 -2534 0
-2507 -2535 0
-2508 -2536 0
-2505 -2733 0
-2506 -2734 0
-2507 -2735 0
-2508 -2736 0
-2505 -2905 0
-2506 -2906 0
-2507 -2907 0
-2508 -2908 0
-2505 -2993 0
-2506 -2994 0
-2507 -2995 0
-2508 -2996 0
-2505 -2997 0
-2506 -2998 0
-2507 -2999 0
-2508 -3000 0
-2509 -2513 0
-2510 -2514 0
-2511 -2515 0
-2512 -2516 0
-2513 -2517 0
-2514 -2518 0
-2515 -2519 0
-2516 -2520 0
-2513 -2557 0
-2514 -2558 0
-2515 -2559 0
-2516 -2560 0
-2513 -2593 0
-2514 -2594 0
-2515 -2595 0
-2516 -2596 0
-2513 -2741 0
-2514 -2742 0
-2515 -2743 0
-2516 -2744 0
-2513 -2937 0
-2514 -2938 0
-2515 -2939 0
-2516 -2940 0
-2517 -2561 0
-2518 -2562 0
-2519 -2563 0
-2520 -2564 0
-2517 -2669 0
-2518 -2670 0
-2519 -2671 0
-2520 -2672 0
-2517 -2941 0
-2518 -2942 0
-2519 -2943 0
-2520 -2944 0
-2521 -2545 0
-2522 -2546 0
-2523 -2547 0
-2524 -2548 0
-2521 -2573 0
-2522 -2574 0
-2523 -2575 0
-2524 -2576 0
-2521 -2673 0
-2522 -2674 0
-2523 -2675 0
-2524 -2676 0
-2525 -2545 0
-2526 -2546 0
-2527 -2547 0
-2528 -2548 0
-2525 -2553 0
-2526 -2554 0
-2527 -2555 0
-2528 -2556 0
-2525 -2817 0
-2526 -2818 0
-2527 -2819 0
-2528 -2820 0
-2529 -2533 0
-2530 -2534 0
-2531 -2535 0
-2532 -2536 0
-2529 -2537 0
-2530 -2538 0
-2531 -2539 0
-2532 -2540 0
-2529 -2541 0
-2530 -2542 0
-2531 -2543 0
-2532 -2544 0
-2529 -2557 0
-2530 -2558 0
-2531 -2559 0
-2532 -2560 0
-2529 -2581 0
-2530 -2582 0
-2531 -2583 0
-2532 -2584 0
-2529 -2609 0
-2530 -2610 0
-2531 -2611 0
-2532 -2612 0
-2529 -2949 0
-2530 -2950 0
-2531 -2951 0
-2532 -2952 0
-2529 -2981 0
-2530 -2982 0
-2531 -2983 0
-2532 -2984 0
-2533 -2557 0
-2534 -2558 0
-2535 -2559 0
-2536 -2560 0
-2533 -2753 0
-2534 -2754 0
-2535 -2755 0
-2536 -2756 0
-2537 -2545 0
-2538 -2546 0
-2539 -2547 0
-2540 -2548 0
-2537 -2561 0
-2538 -2562 0
-2539 -2563 0
-2540 -2564 0
-2537 -2825 0
-2538 -2826 0
-2539 -2827 0
-2540 -2828 0
-2537 -2953 0
-2538 -2954 0
-2539 -2955 0
-2540 -2956 0
-2541 -2545 0
-2542 -2546 0
-2543 -2547 0
-2544 -2548 0
-2541 -2577 0
-2542 -2578 0
-2543 -2579 0
-2544 -2580 0
-2541 -2581 0
-2542 -2582 0
-2543 -2583 0
-2544 -2584 0
-2541 -2685 0
-2542 -2686 0
-2543 -2687 0
-2544 -2688 0
-2541 -2713 0
-2542 -2714 0
-2543 -2715 0
-2544 -2716 0
-2541 -2829 0
-2542 -2830 0
-2543 -2831 0
-2544 -2832 0
-2541 -2925 0
-2542 -2926 0
-2543 -2927 0
-2544 -2928 0
-2545 -2565 0
-2546 -2566 0
-2547 -2567 0
-2548 -2568 0
-2545 -2569 0
-2546 -2570 0
-2547 -2571 0
-2548 -2572 0
-2545 -2577 0
-2546 -2578 0
-2547 -2579 0
-2548 -2580 0
-2545 -2689 0
-2546 -2690 0
-2547 -2691 0
-2548 -2692 0
-2545 -2697 0
-2546 -2698 0
-2547 -2699 0
-2548 -2700 0
-2545 -2833 0
-2546 -2834 0
-2547 -2835 0
-2548 -2836 0
-2549 -2553 0
-2550 -2554 0
-2551 -2555 0
-2552 -2556 0
-2549 -2561 0
-2550 -2562 0
-2551 -2563 0
-2552 -2564 0
-2549 -2877 0
-2550 -2878 0
-2551 -2879 0
-2552 -2880 0
-2553 -2569 0
-2554 -2570 0
-2555 -2571 0
-2556 -2572 0
-2553 -2921 0
-2554 -2922 0
-2555 -2923 0
-2556 -2924 0
-2557 -2561 0
-2558 -2562 0
-2559 -2563 0
-2560 -2564 0
-2557 -2629 0
-2558 -2630 0
-2559 -2631 0
-2560 -2632 0
-2557 -2769 0
-2558 -2770 0
-2559 -2771 0
-2560 -2772 0
-2557 -2985 0
-2558 -2986 0
-2559 -2987 0
-2560 -2988 0
-2561 -2569 0
-2562 -2570 0
-2563 -2571 0
-2564 -2572 0
-2561 -2729 0
-2562 -2730 0
-2563 -2731 0
-2564 -2732 0
-2561 -2905 0
-2562 -2906 0
-2563 -2907 0
-2564 -2908 0
-2561 -2989 0
-2562 -2990 0
-2563 -2991 0
-2564 -2992 0
-2565 -2569 0
-2566 -2570 0
-2567 -2571 0
-2568 -2572 0
-2565 -2853 0
-2566 -2854 0
-2567 -2855 0
-2568 -2856 0
-2565 -2909 0
-2566 -2910 0
-2567 -2911 0
-2568 -2912 0
-2569 -2929 0
-2570 -2930 0
-2571 -2931 0
-2572 -2932 0
-2573 -2577 0
-2574 -2578 0
-2575 -2579 0
-2576 -2580 0
-2573 -2861 0
-2574 -2862 0
-2575 -2863 0
-2576 -2864 0
-2573 -2993 0
-2574 -2994 0
-2575 -2995 0
-2576 -2996 0
-2577 -2737 0
-2578 -2738 0
-2579 -2739 0
-2580 -2740 0
-2577 -2869 0
-2578 -2870 0
-2579 -2871 0
-2580 -2872 0
-2581 -2673 0
-2582 -2674 0
-2583 -2675 0
-2584 -2676 0
-2585 -2589 0
-2586 -2590 0
-2587 -2591 0
-2588 -2592 0
-2585 -2593 0
-2586 -2594 0
-2587 -2595 0
-2588 -2596 0
-2585 -2609 0
-2586 -2610 0
-2587 -2611 0
-2588 -2612 0
-2585 -2613 0
-2586 -2614 0
-2587 -2615 0
-2588 -2616 0
-2585 -2933 0
-2586 -2934 0
-2587 -2935 0
-2588 -2936 0
-2589 -2605 0
-2590 -2606 0
-2591 -2607 0
-2592 -2608 0
-2589 -2733 0
-2590 -2734 0
-2591 -2735 0
-2592 -2736 0
-2589 -2881 0
-2590 -2882 0
-2591 -2883 0
-2592 -2884 0
-2589 -2945 0
-2590 -2946 0
-2591 -2947 0
-2592 -2948 0
-2593 -2605 0
-2594 -2606 0
-2595 -2607 0
-2596 -2608 0
-2593 -2629 0
-2594 -2630 0
-2595 -2631 0
-2596 -2632 0
-2593 -2637 0
-2594 -2638 0
-2595 -2639 0
-2596 -2640 0
-2593 -2805 0
-2594 -2806 0
-2595 -2807 0
-2596 -2808 0
-2593 -2937 0
-2594 -2938 0
-2595 -2939 0
-2596 -2940 0
-2597 -2601 0
-2598 -2602 0
-2599 -2603 0
-2600 -2604 0
-2597 -2785 0
-2598 -2786 0
-2599 -2787 0
-2600 -2788 0
-2601 -2605 0
-2602 -2606 0
-2603 -2607 0
-2604 -2608 0
-2601 -2669 0
-2602 -2670 0
-2603 -2671 0
-2604 -2672 0
-2601 -2789 0
-2602 -2790 0
-2603 -2791 0
-2604 -2792 0
-2601 -2901 0
-2602 -2902 0
-2603 -2903 0
-2604 -2904 0
-2605 -2645 0
-2606 -2646 0
-2607 -2647 0
-2608 -2648 0
-2605 -2669 0
-2606 -2670 0
-2607 -2671 0
-2608 -2672 0
-2605 -2745 0
-2606 -2746 0
-2607 -2747 0
-2608 -2748 0
-2605 -2909 0
-2606 -2910 0
-2607 -2911 0
-2608 -2912 0
-2605 -2949 0
-2606 -2950 0
-2607 -2951 0
-2608 -2952 0
-2605 -2965 0
-2606 -2966 0
-2607 -2967 0
-2608 -2968 0
-2609 -2613 0
-2610 -2614 0
-2611 -2615 0
-2612 -2616 0
-2609 -2617 0
-2610 -2618 0
-2611 -2619 0
-2612 -2620 0
-2609 -2625 0
-2610 -2626 0
-2611 -2627 0
-2612 -2628 0
-2609 -2629 0
-2610 -2630 0
-2611 -2631 0
-2612 -2632 0
-2609 -2649 0
-2610 -2650 0
-2611 -2651 0
-2612 -2652 0
-2609 -2673 0
-2610 -2674 0
-2611 -2675 0
-2612 -2676 0
-2609 -2749 0
-2610 -2750 0
-2611 -2751 0
-2612 -2752 0
-2609 -2965 0
-2610 -2966 0
-2611 -2967 0
-2612 -2968 0
-2613 -2633 0
-2614 -2634 0
-2615 -2635 0
-2616 -2636 0
-2613 -2637 0
-2614 -2638 0
-2615 -2639 0
-2616 -2640 0
-2613 -2969 0
-2614 -2970 0
-2615 -2971 0
-2616 -2972 0
-2617 -2653 0
-2618 -2654 0
-2619 -2655 0
-2620 -2656 0
-2617 -2677 0
-2618 -2678 0
-2619 -2679 0
-2620 -2680 0
-2621 -2637 0
-2622 -2638 0
-2623 -2639 0
-2624 -2640 0
-2621 -2817 0
-2622 -2818 0
-2623 -2819 0
-2624 -2820 0
-2625 -2629 0
-2626 -2630 0
-2627 -2631 0
-2628 -2632 0
-2625 -2633 0
-2626 -2634 0
-2627 -2635 0
-2628 -2636 0
-2625 -2657 0
-2626 -2658 0
-2627 -2659 0
-2628 -2660 0
-2625 -2801 0
-2626 -2802 0
-2627 -2803 0
-2628 -2804 0
-2629 -2637 0
-2630 -2638 0
-2631 -2639 0
-2632 -2640 0
-2629 -2693 0
-2630 -2694 0
-2631 -2695 0
-2632 -2696 0
-2633 -2637 0
-2634 -2638 0
-2635 -2639 0
-2636 -2640 0
-2637 -2641 0
-2638 -2642 0
-2639 -2643 0
-2640 -2644 0
-2637 -2645 0
-2638 -2646 0
-2639 -2647 0
-2640 -2648 0
-2637 -2833 0
-2638 -2834 0
-2639 -2835 0
-2640 -2836 0
-2637 -2889 0
-2638 -2890 0
-2639 -2891 0
-2640 -2892 0
-2637 -2993 0
-2638 -2994 0
-2639 -2995 0
-2640 -2996 0
-2641 -2721 0
-2642 -2722 0
-2643 -2723 0
-2644 -2724 0
-2641 -2841 0
-2642 -2842 0
-2643 -2843 0
-2644 -2844 0
-2645 -2701 0
-2646 -2702 0
-2647 -2703 0
-2648 -2704 0
-2645 -2777 0
-2646 -2778 0
-2647 -2779 0
-2648 -2780 0
-2645 -2797 0
-2646 -2798 0
-2647 -2799 0
-2648 -2800 0
-2645 -2849 0
-2646 -2850 0
-2647 -2851 0
-2648 -2852 0
-2645 -2893 0
-2646 -2894 0
-2647 -2895 0
-2648 -2896 0
-2649 -2653 0
-2650 -2654 0
-2651 -2655 0
-2652 -2656 0
-2649 -2657 0
-2650 -2658 0
-2651 -2659 0
-2652 -2660 0
-2649 -2681 0
-2650 -2682 0
-2651 -2683 0
-2652 -2684 0
-2649 -2813 0
-2650 -2814 0
-2651 -2815 0
-2652 -2816 0
-2653 -2661 0
-2654 -2662 0
-2655 -2663 0
-2656 -2664 0
-2653 -2689 0
-2654 -2690 0
-2655 -2691 0
-2656 -2692 0
-2653 -2753 0
-2654 -2754 0
-2655 -2755 0
-2656 -2756 0
-2657 -2661 0
-2658 -2662 0
-2659 -2663 0
-2660 -2664 0
-2657 -2833 0
-2658 -2834 0
-2659 -2835 0
-2660 -2836 0
-2661 -2769 0
-2662 -2770 0
-2663 -2771 0
-2664 -2772 0
-2661 -2957 0
-2662 -2958 0
-2663 -2959 0
-2664 -2960 0
-2665 -2669 0
-2666 -2670 0
-2667 -2671 0
-2668 -2672 0
-2665 -2785 0
-2666 -2786 0
-2667 -2787 0
-2668 -2788 0
-2669 -2973 0
-2670 -2974 0
-2671 -2975 0
-2672 -2976 0
-2673 -2677 0
-2674 -2678 0
-2675 -2679 0
-2676 -2680 0
-2673 -2681 0
-2674 -2682 0
-2675 -2683 0
-2676 -2684 0
-2677 -2685 0
-2678 -2686 0
-2679 -2687 0
-2680 -2688 0
-2677 -2689 0
-2678 -2690 0
-2679 -2691 0
-2680 -2692 0
-2677 -2801 0
-2678 -2802 0
-2679 -2803 0
-2680 -2804 0
-2681 -2689 0
-2682 -2690 0
-2683 -2691 0
-2684 -2692 0
-2681 -2821 0
-2682 -2822 0
-2683 -2823 0
-2684 -2824 0
-2685 -2689 0
-2686 -2690 0
-2687 -2691 0
-2688 -2692 0
-2685 -2757 0
-2686 -2758 0
-2687 -2759 0
-2688 -2760 0
-2685 -2829 0
-2686 -2830 0
-2687 -2831 0
-2688 -2832 0
-2685 -2865 0
-2686 -2866 0
-2687 -2867 0
-2688 -2868 0
-2689 -2833 0
-2690 -2834 0
-2691 -2835 0
-2692 -2836 0
-2693 -2701 0
-2694 -2702 0
-2695 -2703 0
-2696 -2704 0
-2693 -2721 0
-2694 -2722 0
-2695 -2723 0
-2696 -2724 0
-2697 -2701 0
-2698 -2702 0
-2699 -2703 0
-2700 -2704 0
-2697 -2717 0
-2698 -2718 0
-2699 -2719 0
-2700 -2720 0
-2697 -2833 0
-2698 -2834 0
-2699 -2835 0
-2700 -2836 0
-2701 -2721 0
-2702 -2722 0
-2703 -2723 0
-2704 -2724 0
-2701 -2837 0
-2702 -2838 0
-2703 -2839 0
-2704 -2840 0
-2705 -2713 0
-2706 -2714 0
-2707 -2715 0
-2708 -2716 0
-2705 -2733 0
-2706 -2734 0
-2707 -2735 0
-2708 -2736 0
-2705 -2973 0
-2706 -2974 0
-2707 -2975 0
-2708 -2976 0
-2709 -2713 0
-2710 -2714 0
-2711 -2715 0
-2712 -2716 0
-2709 -2861 0
-2710 -2862 0
-2711 -2863 0
-2712 -2864 0
-2713 -2737 0
-2714 -2738 0
-2715 -2739 0
-2716 -2740 0
-2713 -2865 0
-2714 -2866 0
-2715 -2867 0
-2716 -2868 0
-2713 -2937 0
-2714 -2938 0
-2715 -2939 0
-2716 -2940 0
-2717 -2721 0
-2718 -2722 0
-2719 -2723 0
-2720 -2724 0
-2717 -2725 0
-2718 -2726 0
-2719 -2727 0
-2720 -2728 0
-2717 -2761 0
-2718 -2762 0
-2719 -2763 0
-2720 -2764 0
-2717 -2877 0
-2718 -2878 0
-2719 -2879 0
-2720 -2880 0
-2717 -2925 0
-2718 -2926 0
-2719 -2927 0
-2720 -2928 0
-2721 -2729 0
-2722 -2730 0
-2723 -2731 0
-2724 -2732 0
-2721 -2765 0
-2722 -2766 0
-2723 -2767 0
-2724 -2768 0
-2721 -2981 0
-2722 -2982 0
-2723 -2983 0
-2724 -2984 0
-2725 -2729 0
-2726 -2730 0
-2727 -2731 0
-2728 -2732 0
-2725 -2773 0
-2726 -2774 0
-2727 -2775 0
-2728 -2776 0
-2725 -2929 0
-2726 -2930 0
-2727 -2931 0
-2728 -2932 0
-2725 -2977 0
-2726 -2978 0
-2727 -2979 0
-2728 -2980 0
-2729 -2777 0
-2730 -2778 0
-2731 -2779 0
-2732 -2780 0
-2733 -2737 0
-2734 -2738 0
-2735 -2739 0
-2736 -2740 0
-2733 -2741 0
-2734 -2742 0
-2735 -2743 0
-2736 -2744 0
-2733 -2745 0
-2734 -2746 0
-2735 -2747 0
-2736 -2748 0
-2733 -2753 0
-2734 -2754 0
-2735 -2755 0
-2736 -2756 0
-2733 -2757 0
-2734 -2758 0
-2735 -2759 0
-2736 -2760 0
-2733 -2881 0
-2734 -2882 0
-2735 -2883 0
-2736 -2884 0
-2733 -2989 0
-2734 -2990 0
-2735 -2991 0
-2736 -2992 0
-2737 -2869 0
-2738 -2870 0
-2739 -2871 0
-2740 -2872 0
-2737 -2885 0
-2738 -2886 0
-2739 -2887 0
-2740 -2888 0
-2737 -2957 0
-2738 -2958 0
-2739 -2959 0
-2740 -2960 0
-2741 -2745 0
-2742 -2746 0
-2743 -2747 0
-2744 -2748 0
-2741 -2769 0
-2742 -2770 0
-2743 -2771 0
-2744 -2772 0
-2741 -2773 0
-2742 -2774 0
-2743 -2775 0
-2744 -2776 0
-2741 -2805 0
-2742 -2806 0
-2743 -2807 0
-2744 -2808 0
-2745 -2777 0
-2746 -2778 0
-2747 -2779 0
-2748 -2780 0
-2745 -2961 0
-2746 -2962 0
-2747 -2963 0
-2748 -2964 0
-2749 -2753 0
-2750 -2754 0
-2751 -2755 0
-2752 -2756 0
-2749 -3001 0
-2750 -3002 0
-2751 -3003 0
-2752 -3004 0
-2753 -2757 0
-2754 -2758 0
-2755 -2759 0
-2756 -2760 0
-2753 -2769 0
-2754 -2770 0
-2755 -2771 0
-2756 -2772 0
-2757 -2773 0
-2758 -2774 0
-2759 -2775 0
-2760 -2776 0
-2757 -2777 0
-2758 -2778 0
-2759 -2779 0
-2760 -2780 0
-2757 -2813 0
-2758 -2814 0
-2759 -2815 0
-2760 -2816 0
-2761 -2765 0
-2762 -2766 0
-2763 -2767 0
-2764 -2768 0
-2761 -2773 0
-2762 -2774 0
-2763 -2775 0
-2764 -2776 0
-2761 -2821 0
-2762 -2822 0
-2763 -2823 0
-2764 -2824 0
-2761 -2901 0
-2762 -2902 0
-2763 -2903 0
-2764 -2904 0
-2765 -2777 0
-2766 -2778 0
-2767 -2779 0
-2768 -2780 0
-2765 -2905 0
-2766 -2906 0
-2767 -2907 0
-2768 -2908 0
-2769 -2773 0
-2770 -2774 0
-2771 -2775 0
-2772 -2776 0
-2769 -2921 0
-2770 -2922 0
-2771 -2923 0
-2772 -2924 0
-2769 -2985 0
-2770 -2986 0
-2771 -2987 0
-2772 -2988 0
-2773 -2777 0
-2774 -2778 0
-2775 -2779 0
-2776 -2780 0
-2773 -2833 0
-2774 -2834 0
-2775 -2835 0
-2776 -2836 0
-2777 -2837 0
-2778 -2838 0
-2779 -2839 0
-2780 -2840 0
-2781 -2833 0
-2782 -2834 0
-2783 -2835 0
-2784 -2836 0
-2781 -2965 0
-2782 -2966 0
-2783 -2967 0
-2784 -2968 0
-2785 -2789 0
-2786 -2790 0
-2787 -2791 0
-2788 -2792 0
-2785 -2793 0
-2786 -2794 0
-2787 -2795 0
-2788 -2796 0
-2789 -2797 0
-2790 -2798 0
-2791 -2799 0
-2792 -2800 0
-2789 -2977 0
-2790 -2978 0
-2791 -2979 0
-2792 -2980 0
-2793 -2797 0
-2794 -2798 0
-2795 -2799 0
-2796 -2800 0
-2793 -2905 0
-2794 -2906 0
-2795 -2907 0
-2796 -2908 0
-2793 -2945 0
-2794 -2946 0
-2795 -2947 0
-2796 -2948 0
-2797 -2893 0
-2798 -2894 0
-2799 -2895 0
-2800 -2896 0
-2797 -2953 0
-2798 -2954 0
-2799 -2955 0
-2800 -2956 0
-2801 -2829 0
-2802 -2830 0
-2803 -2831 0
-2804 -2832 0
-2801 -2833 0
-2802 -2834 0
-2803 -2835 0
-2804 -2836 0
-2805 -2809 0
-2806 -2810 0
-2807 -2811 0
-2808 -2812 0
-2805 -2833 0
-2806 -2834 0
-2807 -2835 0
-2808 -2836 0
-2809 -2833 0
-2810 -2834 0
-2811 -2835 0
-2812 -2836 0
-2809 -2897 0
-2810 -2898 0
-2811 -2899 0
-2812 -2900 0
-2813 -2833 0
-2814 -2834 0
-2815 -2835 0
-2816 -2836 0
-2813 -2837 0
-2814 -2838 0
-2815 -2839 0
-2816 -2840 0
-2817 -2833 0
-2818 -2834 0
-2819 -2835 0
-2820 -2836 0
-2821 -2833 0
-2822 -2834 0
-2823 -2835 0
-2824 -2836 0
-2821 -2933 0
-2822 -2934 0
-2823 -2935 0
-2824 -2936 0
-2825 -2833 0
-2826 -2834 0
-2827 -2835 0
-2828 -2836 0
-2825 -2877 0
-2826 -2878 0
-2827 -2879 0
-2828 -2880 0
-2829 -2833 0
-2830 -2834 0
-2831 -2835 0
-2832 -2836 0
-2829 -2937 0
-2830 -2938 0
-2831 -2939 0
-2832 -2940 0
-2833 -2837 0
-2834 -2838 0
-2835 -2839 0
-2836 -2840 0
-2833 -2841 0
-2834 -2842 0
-2835 -2843 0
-2836 -2844 0
-2833 -2845 0
-2834 -2846 0
-2835 -2847 0
-2836 -2848 0
-2833 -2849 0
-2834 -2850 0
-2835 -2851 0
-2836 -2852 0
-2833 -2853 0
-2834 -2854 0
-2835 -2855 0
-2836 -2856 0
-2833 -2857 0
-2834 -2858 0
-2835 -2859 0
-2836 -2860 0
-2833 -2877 0
-2834 -2878 0
-2835 -2879 0
-2836 -2880 0
-2833 -2917 0
-2834 -2918 0
-2835 -2919 0
-2836 -2920 0
-2833 -2941 0
-2834 -2942 0
-2835 -2943 0
-2836 -2944 0
-2833 -2973 0
-2834 -2974 0
-2835 -2975 0
-2836 -2976 0
-2833 -2993 0
-2834 -2994 0
-2835 -2995 0
-2836 -2996 0
-2833 -3001 0
-2834 -3002 0
-2835 -3003 0
-2836 -3004 0
-2833 -5833 0
-2834 -5834 0
-2835 -5835 0
-2836 -5836 0
-2845 -2925 0
-2846 -2926 0
-2847 -2927 0
-2848 -2928 0
-2849 -2953 0
-2850 -2954 0
-2851 -2955 0
-2852 -2956 0
-2857 -2981 0
-2858 -2982 0
-2859 -2983 0
-2860 -2984 0
-2861 -2865 0
-2862 -2866 0
-2863 -2867 0
-2864 -2868 0
-2861 -2869 0
-2862 -2870 0
-2863 -2871 0
-2864 -2872 0
-2861 -3001 0
-2862 -3002 0
-2863 -3003 0
-2864 -3004 0
-2865 -2873 0
-2866 -2874 0
-2867 -2875 0
-2868 -2876 0
-2865 -2937 0
-2866 -2938 0
-2867 -2939 0
-2868 -2940 0
-2865 -3001 0
-2866 -3002 0
-2867 -3003 0
-2868 -3004 0
-2869 -2873 0
-2870 -2874 0
-2871 -2875 0
-2872 -2876 0
-2869 -2985 0
-2870 -2986 0
-2871 -2987 0
-2872 -2988 0
-2873 -2949 0
-2874 -2950 0
-2875 -2951 0
-2876 -2952 0
-2881 -2885 0
-2882 -2886 0
-2883 -2887 0
-2884 -2888 0
-2881 -2897 0
-2882 -2898 0
-2883 -2899 0
-2884 -2900 0
-2885 -2901 0
-2886 -2902 0
-2887 -2903 0
-2888 -2904 0
-2885 -2909 0
-2886 -2910 0
-2887 -2911 0
-2888 -2912 0
-2885 -2957 0
-2886 -2958 0
-2887 -2959 0
-2888 -2960 0
-2885 -2969 0
-2886 -2970 0
-2887 -2971 0
-2888 -2972 0
-2889 -2893 0
-2890 -2894 0
-2891 -2895 0
-2892 -2896 0
-2889 -2905 0
-2890 -2906 0
-2891 -2907 0
-2892 -2908 0
-2889 -2973 0
-2890 -2974 0
-2891 -2975 0
-2892 -2976 0
-2897 -2909 0
-2898 -2910 0
-2899 -2911 0
-2900 -2912 0
-2897 -2917 0
-2898 -2918 0
-2899 -2919 0
-2900 -2920 0
-2901 -2905 0
-2902 -2906 0
-2903 -2907 0
-2904 -2908 0
-2901 -2909 0
-2902 -2910 0
-2903 -2911 0
-2904 -2912 0
-2901 -2933 0
-2902 -2934 0
-2903 -2935 0
-2904 -2936 0
-2901 -2977 0
-2902 -2978 0
-2903 -2979 0
-2904 -2980 0
-2905 -2989 0
-2906 -2990 0
-2907 -2991 0
-2908 -2992 0
-2909 -2913 0
-2910 -2914 0
-2911 -2915 0
-2912 -2916 0
-2909 -2925 0
-2910 -2926 0
-2911 -2927 0
-2912 -2928 0
-2909 -2961 0
-2910 -2962 0
-2911 -2963 0
-2912 -2964 0
-2913 -2929 0
-2914 -2930 0
-2915 -2931 0
-2916 -2932 0
-2917 -2921 0
-2918 -2922 0
-2919 -2923 0
-2920 -2924 0
-2917 -2925 0
-2918 -2926 0
-2919 -2927 0
-2920 -2928 0
-2917 -2973 0
-2918 -2974 0
-2919 -2975 0
-2920 -2976 0
-2921 -2929 0
-2922 -2930 0
-2923 -2931 0
-2924 -2932 0
-2925 -2929 0
-2926 -2930 0
-2927 -2931 0
-2928 -2932 0
-2933 -2941 0
-2934 -2942 0
-2935 -2943 0
-2936 -2944 0
-2933 -2945 0
-2934 -2946 0
-2935 -2947 0
-2936 -2948 0
-2937 -2941 0
-2938 -2942 0
-2939 -2943 0
-2940 -2944 0
-2937 -2949 0
-2938 -2950 0
-2939 -2951 0
-2940 -2952 0
-2937 -2957 0
-2938 -2958 0
-2939 -2959 0
-2940 -2960 0
-2941 -2953 0
-2942 -2954 0
-2943 -2955 0
-2944 -2956 0
-2941 -2957 0
-2942 -2958 0
-2943 -2959 0
-2944 -2960 0
-2941 -2973 0
-2942 -2974 0
-2943 -2975 0
-2944 -2976 0
-2945 -2953 0
-2946 -2954 0
-2947 -2955 0
-2948 -2956 0
-2945 -2989 0
-2946 -2990 0
-2947 -2991 0
-2948 -2992 0
-2949 -2953 0
-2950 -2954 0
-2951 -2955 0
-2952 -2956 0
-2949 -2965 0
-2950 -2966 0
-2951 -2967 0
-2952 -2968 0
-2957 -2961 0
-2958 -2962 0
-2959 -2963 0
-2960 -2964 0
-2957 -2985 0
-2958 -2986 0
-2959 -2987 0
-2960 -2988 0
-2957 -2997 0
-2958 -2998 0
-2959 -2999 0
-2960 -3000 0
-2961 -3001 0
-2962 -3002 0
-2963 -3003 0
-2964 -3004 0
-2965 -2969 0
-2966 -2970 0
-2967 -2971 0
-2968 -2972 0
-2965 -2973 0
-2966 -2974 0
-2967 -2975 0
-2968 -2976 0
-2969 -2977 0
-2970 -2978 0
-2971 -2979 0
-2972 -2980 0
-2969 -2997 0
-2970 -2998 0
-2971 -2999 0
-2972 -3000 0
-2973 -2977 0
-2974 -2978 0
-2975 -2979 0
-2976 -2980 0
-2973 -2981 0
-2974 -2982 0
-2975 -2983 0
-2976 -2984 0
-2973 -2985 0
-2974 -2986 0
-2975 -2987 0
-2976 -2988 0
-2973 -2989 0
-2974 -2990 0
-2975 -2991 0
-2976 -2992 0
-2977 -2981 0
-2978 -2982 0
-2979 -2983 0
-2980 -2984 0
-2985 -2989 0
-2986 -2990 0
-2987 -2991 0
-2988 -2992 0
-2993 -2997 0
-2994 -2998 0
-2995 -2999 0
-2996 -3000 0
-3005 -3009 0
-3006 -3010 0
-3007 -3011 0
-3008 -3012 0
-3005 -3125 0
-3006 -3126 0
-3007 -3127 0
-3008 -3128 0
-3005 -3177 0
-3006 -3178 0
-3007 -3179 0
-3008 -3180 0
-3005 -3373 0
-3006 -3374 0
-3007 -3375 0
-3008 -3376 0
-3005 -3585 0
-3006 -3586 0
-3007 -3587 0
-3008 -3588 0
-3009 -3013 0
-3010 -3014 0
-3011 -3015 0
-3012 -3016 0
-3009 -3029 0
-3010 -3030 0
-3011 -3031 0
-3012 -3032 0
-3009 -3261 0
-3010 -3262 0
-3011 -3263 0
-3012 -3264 0
-3009 -3373 0
-3010 -3374 0
-3011 -3375 0
-3012 -3376 0
-3009 -3377 0
-3010 -3378 0
-3011 -3379 0
-3012 -3380 0
-3009 -3421 0
-3010 -3422 0
-3011 -3423 0
-3012 -3424 0
-3009 -3461 0
-3010 -3462 0
-3011 -3463 0
-3012 -3464 0
-3009 -3593 0
-3010 -3594 0
-3011 -3595 0
-3012 -3596 0
-3013 -3101 0
-3014 -3102 0
-3015 -3103 0
-3016 -3104 0
-3013 -3121 0
-3014 -3122 0
-3015 -3123 0
-3016 -3124 0
-3013 -3181 0
-3014 -3182 0
-3015 -3183 0
-3016 -3184 0
-3013 -3381 0
-3014 -3382 0
-3015 -3383 0
-3016 -3384 0
-3013 -3385 0
-3014 -3386 0
-3015 -3387 0
-3016 -3388 0
-3013 -3461 0
-3014 -3462 0
-3015 -3463 0
-3016 -3464 0
-3013 -3489 0
-3014 -3490 0
-3015 -3491 0
-3016 -3492 0
-3013 -3597 0
-3014 -3598 0
-3015 -3599 0
-3016 -3600 0
-3017 -3021 0
-3018 -3022 0
-3019 -3023 0
-3020 -3024 0
-3017 -3049 0
-3018 -3050 0
-3019 -3051 0
-3020 -3052 0
-3017 -3201 0
-3018 -3202 0
-3019 -3203 0
-3020 -3204 0
-3017 -3341 0
-3018 -3342 0
-3019 -3343 0
-3020 -3344 0
-3017 -3425 0
-3018 -3426 0
-3019 -3427 0
-3020 -3428 0
-3017 -3533 0
-3018 -3534 0
-3019 -3535 0
-3020 -3536 0
-3017 -3697 0
-3018 -3698 0
-3019 -3699 0
-3020 -3700 0
-3021 -3025 0
-3022 -3026 0
-3023 -3027 0
-3024 -3028 0
-3021 -3169 0
-3022 -3170 0
-3023 -3171 0
-3024 -3172 0
-3021 -3345 0
-3022 -3346 0
-3023 -3347 0
-3024 -3348 0
-3021 -3429 0
-3022 -3430 0
-3023 -3431 0
-3024 -3432 0
-3021 -3461 0
-3022 -3462 0
-3023 -3463 0
-3024 -3464 0
-3021 -3533 0
-3022 -3534 0
-3023 -3535 0
-3024 -3536 0
-3021 -3537 0
-3022 -3538 0
-3023 -3539 0
-3024 -3540 0
-3021 -3709 0
-3022 -3710 0
-3023 -3711 0
-3024 -3712 0
-3025 -3045 0
-3026 -3046 0
-3027 -3047 0
-3028 -3048 0
-3025 -3165 0
-3026 -3166 0
-3027 -3167 0
-3028 -3168 0
-3025 -3353 0
-3026 -3354 0
-3027 -3355 0
-3028 -3356 0
-3025 -3461 0
-3026 -3462 0
-3027 -3463 0
-3028 -3464 0
-3025 -3485 0
-3026 -3486 0
-3027 -3487 0
-3028 -3488 0
-3025 -3541 0
-3026 -3542 0
-3027 -3543 0
-3028 -3544 0
-3025 -3545 0
-3026 -3546 0
-3027 -3547 0
-3028 -3548 0
-3029 -3033 0
-3030 -3034 0
-3031 -3035 0
-3032 -3036 0
-3029 -3037 0
-3030 -3038 0
-3031 -3039 0
-3032 -3040 0
-3029 -3425 0
-3030 -3426 0
-3031 -3427 0
-3032 -3428 0
-3029 -3609 0
-3030 -3610 0
-3031 -3611 0
-3032 -3612 0
-3029 -3665 0
-3030 -3666 0
-3031 -3667 0
-3032 -3668 0
-3029 -3673 0
-3030 -3674 0
-3031 -3675 0
-3032 -3676 0
-3029 -3785 0
-3030 -3786 0
-3031 -3787 0
-3032 -3788 0
-3033 -3093 0
-3034 -3094 0
-3035 -3095 0
-3036 -3096 0
-3033 -3613 0
-3034 -3614 0
-3035 -3615 0
-3036 -3616 0
-3033 -3617 0
-3034 -3618 0
-3035 -3619 0
-3036 -3620 0
-3033 -3681 0
-3034 -3682 0
-3035 -3683 0
-3036 -3684 0
-3037 -3073 0
-3038 -3074 0
-3039 -3075 0
-3040 -3076 0
-3037 -3225 0
-3038 -3226 0
-3039 -3227 0
-3040 -3228 0
-3037 -3293 0
-3038 -3294 0
-3039 -3295 0
-3040 -3296 0
-3037 -3653 0
-3038 -3654 0
-3039 -3655 0
-3040 -3656 0
-3037 -3693 0
-3038 -3694 0
-3039 -3695 0
-3040 -3696 0
-3037 -3713 0
-3038 -3714 0
-3039 -3715 0
-3040 -3716 0
-3037 -3849 0
-3038 -3850 0
-3039 -3851 0
-3040 -3852 0
-3041 -3045 0
-3042 -3046 0
-3043 -3047 0
-3044 -3048 0
-3041 -3053 0
-3042 -3054 0
-3043 -3055 0
-3044 -3056 0
-3041 -3057 0
-3042 -3058 0
-3043 -3059 0
-3044 -3060 0
-3041 -3313 0
-3042 -3314 0
-3043 -3315 0
-3044 -3316 0
-3041 -3369 0
-3042 -3370 0
-3043 -3371 0
-3044 -3372 0
-3041 -3605 0
-3042 -3606 0
-3043 -3607 0
-3044 -3608 0
-3041 -3717 0
-3042 -3718 0
-3043 -3719 0
-3044 -3720 0
-3041 -3745 0
-3042 -3746 0
-3043 -3747 0
-3044 -3748 0
-3041 -3749 0
-3042 -3750 0
-3043 -3751 0
-3044 -3752 0
-3041 -3949 0
-3042 -3950 0
-3043 -3951 0
-3044 -3952 0
-3045 -3137 0
-3046 -3138 0
-3047 -3139 0
-3048 -3140 0
-3045 -3185 0
-3046 -3186 0
-3047 -3187 0
-3048 -3188 0
-3045 -3269 0
-3046 -3270 0
-3047 -3271 0
-3048 -3272 0
-3045 -3617 0
-3046 -3618 0
-3047 -3619 0
-3048 -3620 0
-3045 -3621 0
-3046 -3622 0
-3047 -3623 0
-3048 -3624 0
-3045 -3721 0
-3046 -3722 0
-3047 -3723 0
-3048 -3724 0
-3045 -3753 0
-3046 -3754 0
-3047 -3755 0
-3048 -3756 0
-3049 -3053 0
-3050 -3054 0
-3051 -3055 0
-3052 -3056 0
-3049 -3193 0
-3050 -3194 0
-3051 -3195 0
-3052 -3196 0
-3049 -3401 0
-3050 -3402 0
-3051 -3403 0
-3052 -3404 0
-3049 -3669 0
-3050 -3670 0
-3051 -3671 0
-3052 -3672 0
-3049 -3757 0
-3050 -3758 0
-3051 -3759 0
-3052 -3760 0
-3049 -3793 0
-3050 -3794 0
-3051 -3795 0
-3052 -3796 0
-3049 -3797 0
-3050 -3798 0
-3051 -3799 0
-3052 -3800 0
-3053 -3057 0
-3054 -3058 0
-3055 -3059 0
-3056 -3060 0
-3053 -3061 0
-3054 -3062 0
-3055 -3063 0
-3056 -3064 0
-3053 -3125 0
-3054 -3126 0
-3055 -3127 0
-3056 -3128 0
-3053 -3461 0
-3054 -3462 0
-3055 -3463 0
-3056 -3464 0
-3053 -3685 0
-3054 -3686 0
-3055 -3687 0
-3056 -3688 0
-3053 -3761 0
-3054 -3762 0
-3055 -3763 0
-3056 -3764 0
-3053 -3777 0
-3054 -3778 0
-3055 -3779 0
-3056 -3780 0
-3053 -3861 0
-3054 -3862 0
-3055 -3863 0
-3056 -3864 0
-3053 -3873 0
-3054 -3874 0
-3055 -3875 0
-3056 -3876 0
-3053 -4061 0
-3054 -4062 0
-3055 -4063 0
-3056 -4064 0
-3057 -3129 0
-3058 -3130 0
-3059 -3131 0
-3060 -3132 0
-3057 -3213 0
-3058 -3214 0
-3059 -3215 0
-3060 -3216 0
-3057 -3349 0
-3058 -3350 0
-3059 -3351 0
-3060 -3352 0
-3057 -3477 0
-3058 -3478 0
-3059 -3479 0
-3060 -3480 0
-3057 -3769 0
-3058 -3770 0
-3059 -3771 0
-3060 -3772 0
-3057 -3781 0
-3058 -3782 0
-3059 -3783 0
-3060 -3784 0
-3057 -3865 0
-3058 -3866 0
-3059 -3867 0
-3060 -3868 0
-3057 -3877 0
-3058 -3878 0
-3059 -3879 0
-3060 -3880 0
-3061 -3089 0
-3062 -3090 0
-3063 -3091 0
-3064 -3092 0
-3061 -3225 0
-3062 -3226 0
-3063 -3227 0
-3064 -3228 0
-3061 -3489 0
-3062 -3490 0
-3063 -3491 0
-3064 -3492 0
-3061 -3881 0
-3062 -3882 0
-3063 -3883 0
-3064 -3884 0
-3061 -3885 0
-3062 -3886 0
-3063 -3887 0
-3064 -3888 0
-3065 -3069 0
-3066 -3070 0
-3067 -3071 0
-3068 -3072 0
-3065 -3077 0
-3066 -3078 0
-3067 -3079 0
-3068 -3080 0
-3065 -3769 0
-3066 -3770 0
-3067 -3771 0
-3068 -3772 0
-3065 -3925 0
-3066 -3926 0
-3067 -3927 0
-3068 -3928 0
-3065 -3937 0
-3066 -3938 0
-3067 -3939 0
-3068 -3940 0
-3069 -3081 0
-3070 -3082 0
-3071 -3083 0
-3072 -3084 0
-3069 -3085 0
-3070 -3086 0
-3071 -3087 0
-3072 -3088 0
-3069 -3089 0
-3070 -3090 0
-3071 -3091 0
-3072 -3092 0
-3069 -3261 0
-3070 -3262 0
-3071 -3263 0
-3072 -3264 0
-3069 -3413 0
-3070 -3414 0
-3071 -3415 0
-3072 -3416 0
-3069 -3441 0
-3070 -3442 0
-3071 -3443 0
-3072 -3444 0
-3069 -3941 0
-3070 -3942 0
-3071 -3943 0
-3072 -3944 0
-3073 -3085 0
-3074 -3086 0
-3075 -3087 0
-3076 -3088 0
-3073 -3445 0
-3074 -3446 0
-3075 -3447 0
-3076 -3448 0
-3073 -3957 0
-3074 -3958 0
-3075 -3959 0
-3076 -3960 0
-3073 -3973 0
-3074 -3974 0
-3075 -3975 0
-3076 -3976 0
-3073 -4165 0
-3074 -4166 0
-3075 -4167 0
-3076 -4168 0
-3077 -3085 0
-3078 -3086 0
-3079 -3087 0
-3080 -3088 0
-3077 -3121 0
-3078 -3122 0
-3079 -3123 0
-3080 -3124 0
-3077 -3201 0
-3078 -3202 0
-3079 -3203 0
-3080 -3204 0
-3077 -3449 0
-3078 -3450 0
-3079 -3451 0
-3080 -3452 0
-3077 -3497 0
-3078 -3498 0
-3079 -3499 0
-3080 -3500 0
-3077 -3961 0
-3078 -3962 0
-3079 -3963 0
-3080 -3964 0
-3077 -3981 0
-3078 -3982 0
-3079 -3983 0
-3080 -3984 0
-3081 -3085 0
-3082 -3086 0
-3083 -3087 0
-3084 -3088 0
-3081 -3093 0
-3082 -3094 0
-3083 -3095 0
-3084 -3096 0
-3081 -3101 0
-3082 -3102 0
-3083 -3103 0
-3084 -3104 0
-3081 -3209 0
-3082 -3210 0
-3083 -3211 0
-3084 -3212 0
-3081 -3289 0
-3082 -3290 0
-3083 -3291 0
-3084 -3292 0
-3081 -3457 0
-3082 -3458 0
-3083 -3459 0
-3084 -3460 0
-3081 -3561 0
-3082 -3562 0
-3083 -3563 0
-3084 -3564 0
-3081 -3985 0
-3082 -3986 0
-3083 -3987 0
-3084 -3988 0
-3085 -3097 0
-3086 -3098 0
-3087 -3099 0
-3088 -3100 0
-3085 -3105 0
-3086 -3106 0
-3087 -3107 0
-3088 -3108 0
-3085 -3177 0
-3086 -3178 0
-3087 -3179 0
-3088 -3180 0
-3085 -3333 0
-3086 -3334 0
-3087 -3335 0
-3088 -3336 0
-3085 -3461 0
-3086 -3462 0
-3087 -3463 0
-3088 -3464 0
-3085 -3565 0
-3086 -3566 0
-3087 -3567 0
-3088 -3568 0
-3085 -3965 0
-3086 -3966 0
-3087 -3967 0
-3088 -3968 0
-3085 -3989 0
-3086 -3990 0
-3087 -3991 0
-3088 -3992 0
-3089 -3093 0
-3090 -3094 0
-3091 -3095 0
-3092 -3096 0
-3089 -3097 0
-3090 -3098 0
-3091 -3099 0
-3092 -3100 0
-3089 -3293 0
-3090 -3294 0
-3091 -3295 0
-3092 -3296 0
-3089 -3581 0
-3090 -3582 0
-3091 -3583 0
-3092 -3584 0
-3089 -4009 0
-3090 -4010 0
-3091 -4011 0
-3092 -4012 0
-3089 -4201 0
-3090 -4202 0
-3091 -4203 0
-3092 -4204 0
-3093 -3097 0
-3094 -3098 0
-3095 -3099 0
-3096 -3100 0
-3093 -3101 0
-3094 -3102 0
-3095 -3103 0
-3096 -3104 0
-3093 -3109 0
-3094 -3110 0
-3095 -3111 0
-3096 -3112 0
-3093 -3113 0
-3094 -3114 0
-3095 -3115 0
-3096 -3116 0
-3093 -3169 0
-3094 -3170 0
-3095 -3171 0
-3096 -3172 0
-3093 -3189 0
-3094 -3190 0
-3095 -3191 0
-3096 -3192 0
-3093 -3321 0
-3094 -3322 0
-3095 -3323 0
-3096 -3324 0
-3093 -3805 0
-3094 -3806 0
-3095 -3807 0
-3096 -3808 0
-3093 -3913 0
-3094 -3914 0
-3095 -3915 0
-3096 -3916 0
-3093 -3921 0
-3094 -3922 0
-3095 -3923 0
-3096 -3924 0
-3093 -4017 0
-3094 -4018 0
-3095 -4019 0
-3096 -4020 0
-3093 -4057 0
-3094 -4058 0
-3095 -4059 0
-3096 -4060 0
-3093 -4241 0
-3094 -4242 0
-3095 -4243 0
-3096 -4244 0
-3097 -3105 0
-3098 -3106 0
-3099 -3107 0
-3100 -3108 0
-3097 -3349 0
-3098 -3350 0
-3099 -3351 0
-3100 -3352 0
-3097 -3513 0
-3098 -3514 0
-3099 -3515 0
-3100 -3516 0
-3097 -3809 0
-3098 -3810 0
-3099 -3811 0
-3100 -3812 0
-3097 -4013 0
-3098 -4014 0
-3099 -4015 0
-3100 -4016 0
-3097 -4021 0
-3098 -4022 0
-3099 -4023 0
-3100 -4024 0
-3097 -4245 0
-3098 -4246 0
-3099 -4247 0
-3100 -4248 0
-3101 -3105 0
-3102 -3106 0
-3103 -3107 0
-3104 -3108 0
-3101 -3133 0
-3102 -3134 0
-3103 -3135 0
-3104 -3136 0
-3101 -3173 0
-3102 -3174 0
-3103 -3175 0
-3104 -3176 0
-3101 -3329 0
-3102 -3330 0
-3103 -3331 0
-3104 -3332 0
-3101 -3437 0
-3102 -3438 0
-3103 -3439 0
-3104 -3440 0
-3101 -3597 0
-3102 -3598 0
-3103 -3599 0
-3104 -3600 0
-3101 -3601 0
-3102 -3602 0
-3103 -3603 0
-3104 -3604 0
-3101 -3813 0
-3102 -3814 0
-3103 -3815 0
-3104 -3816 0
-3101 -4025 0
-3102 -4026 0
-3103 -4027 0
-3104 -4028 0
-3101 -4061 0
-3102 -4062 0
-3103 -4063 0
-3104 -4064 0
-3105 -3233 0
-3106 -3234 0
-3107 -3235 0
-3108 -3236 0
-3105 -3517 0
-3106 -3518 0
-3107 -3519 0
-3108 -3520 0
-3105 -3605 0
-3106 -3606 0
-3107 -3607 0
-3108 -3608 0
-3105 -3817 0
-3106 -3818 0
-3107 -3819 0
-3108 -3820 0
-3105 -4029 0
-3106 -4030 0
-3107 -4031 0
-3108 -4032 0
-3105 -4065 0
-3106 -4066 0
-3107 -4067 0
-3108 -4068 0
-3109 -3325 0
-3110 -3326 0
-3111 -3327 0
-3112 -3328 0
-3109 -3461 0
-3110 -3462 0
-3111 -3463 0
-3112 -3464 0
-3109 -3825 0
-3110 -3826 0
-3111 -3827 0
-3112 -3828 0
-3109 -3917 0
-3110 -3918 0
-3111 -3919 0
-3112 -3920 0
-3109 -4017 0
-3110 -4018 0
-3111 -4019 0
-3112 -4020 0
-3109 -4069 0
-3110 -4070 0
-3111 -4071 0
-3112 -4072 0
-3113 -3149 0
-3114 -3150 0
-3115 -3151 0
-3116 -3152 0
-3113 -3205 0
-3114 -3206 0
-3115 -3207 0
-3116 -3208 0
-3113 -3229 0
-3114 -3230 0
-3115 -3231 0
-3116 -3232 0
-3113 -3521 0
-3114 -3522 0
-3115 -3523 0
-3116 -3524 0
-3113 -3893 0
-3114 -3894 0
-3115 -3895 0
-3116 -3896 0
-3113 -3997 0
-3114 -3998 0
-3115 -3999 0
-3116 -4000 0
-3113 -4045 0
-3114 -4046 0
-3115 -4047 0
-3116 -4048 0
-3117 -3121 0
-3118 -3122 0
-3119 -3123 0
-3120 -3124 0
-3117 -4085 0
-3118 -4086 0
-3119 -4087 0
-3120 -4088 0
-3117 -4097 0
-3118 -4098 0
-3119 -4099 0
-3120 -4100 0
-3117 -4149 0
-3118 -4150 0
-3119 -4151 0
-3120 -4152 0
-3117 -4313 0
-3118 -4314 0
-3119 -4315 0
-3120 -4316 0
-3121 -3437 0
-3122 -3438 0
-3123 -3439 0
-3124 -3440 0
-3121 -3717 0
-3122 -3718 0
-3123 -3719 0
-3124 -3720 0
-3121 -4089 0
-3122 -4090 0
-3123 -4091 0
-3124 -4092 0
-3121 -4101 0
-3122 -4102 0
-3123 -4103 0
-3124 -4104 0
-3121 -4157 0
-3122 -4158 0
-3123 -4159 0
-3124 -4160 0
-3125 -3129 0
-3126 -3130 0
-3127 -3131 0
-3128 -3132 0
-3125 -3721 0
-3126 -3722 0
-3127 -3723 0
-3128 -3724 0
-3125 -4109 0
-3126 -4110 0
-3127 -4111 0
-3128 -4112 0
-3125 -4185 0
-3126 -4186 0
-3127 -4187 0
-3128 -4188 0
-3125 -4353 0
-3126 -4354 0
-3127 -4355 0
-3128 -4356 0
-3129 -3133 0
-3130 -3134 0
-3131 -3135 0
-3132 -3136 0
-3129 -3137 0
-3130 -3138 0
-3131 -3139 0
-3132 -3140 0
-3129 -3153 0
-3130 -3154 0
-3131 -3155 0
-3132 -3156 0
-3129 -3213 0
-3130 -3214 0
-3131 -3215 0
-3132 -3216 0
-3129 -3249 0
-3130 -3250 0
-3131 -3251 0
-3132 -3252 0
-3129 -3613 0
-3130 -3614 0
-3131 -3615 0
-3132 -3616 0
-3129 -3925 0
-3130 -3926 0
-3131 -3927 0
-3132 -3928 0
-3129 -4117 0
-3130 -4118 0
-3131 -4119 0
-3132 -4120 0
-3129 -4197 0
-3130 -4198 0
-3131 -4199 0
-3132 -4200 0
-3133 -3141 0
-3134 -3142 0
-3135 -3143 0
-3136 -3144 0
-3133 -3153 0
-3134 -3154 0
-3135 -3155 0
-3136 -3156 0
-3133 -3217 0
-3134 -3218 0
-3135 -3219 0
-3136 -3220 0
-3133 -3373 0
-3134 -3374 0
-3135 -3375 0
-3136 -3376 0
-3133 -3389 0
-3134 -3390 0
-3135 -3391 0
-3136 -3392 0
-3133 -3601 0
-3134 -3602 0
-3135 -3603 0
-3136 -3604 0
-3133 -4121 0
-3134 -4122 0
-3135 -4123 0
-3136 -4124 0
-3133 -4169 0
-3134 -4170 0
-3135 -4171 0
-3136 -4172 0
-3133 -4201 0
-3134 -4202 0
-3135 -4203 0
-3136 -4204 0
-3137 -3141 0
-3138 -3142 0
-3139 -3143 0
-3140 -3144 0
-3137 -3161 0
-3138 -3162 0
-3139 -3163 0
-3140 -3164 0
-3137 -3221 0
-3138 -3222 0
-3139 -3223 0
-3140 -3224 0
-3137 -3305 0
-3138 -3306 0
-3139 -3307 0
-3140 -3308 0
-3137 -3393 0
-3138 -3394 0
-3139 -3395 0
-3140 -3396 0
-3137 -3617 0
-3138 -3618 0
-3139 -3619 0
-3140 -3620 0
-3137 -3937 0
-3138 -3938 0
-3139 -3939 0
-3140 -3940 0
-3137 -4117 0
-3138 -4118 0
-3139 -4119 0
-3140 -4120 0
-3137 -4213 0
-3138 -4214 0
-3139 -4215 0
-3140 -4216 0
-3141 -3161 0
-3142 -3162 0
-3143 -3163 0
-3144 -3164 0
-3141 -3189 0
-3142 -3190 0
-3143 -3191 0
-3144 -3192 0
-3141 -3377 0
-3142 -3378 0
-3143 -3379 0
-3144 -3380 0
-3141 -3397 0
-3142 -3398 0
-3143 -3399 0
-3144 -3400 0
-3141 -3569 0
-3142 -3570 0
-3143 -3571 0
-3144 -3572 0
-3141 -3941 0
-3142 -3942 0
-3143 -3943 0
-3144 -3944 0
-3141 -4121 0
-3142 -4122 0
-3143 -4123 0
-3144 -4124 0
-3141 -4173 0
-3142 -4174 0
-3143 -4175 0
-3144 -4176 0
-3141 -4217 0
-3142 -4218 0
-3143 -4219 0
-3144 -4220 0
-3145 -3157 0
-3146 -3158 0
-3147 -3159 0
-3148 -3160 0
-3145 -3161 0
-3146 -3162 0
-3147 -3163 0
-3148 -3164 0
-3145 -3201 0
-3146 -3202 0
-3147 -3203 0
-3148 -3204 0
-3145 -3401 0
-3146 -3402 0
-3147 -3403 0
-3148 -3404 0
-3145 -3633 0
-3146 -3634 0
-3147 -3635 0
-3148 -3636 0
-3145 -3989 0
-3146 -3990 0
-3147 -3991 0
-3148 -3992 0
-3149 -3153 0
-3150 -3154 0
-3151 -3155 0
-3152 -3156 0
-3149 -3157 0
-3150 -3158 0
-3151 -3159 0
-3152 -3160 0
-3149 -3273 0
-3150 -3274 0
-3151 -3275 0
-3152 -3276 0
-3149 -3297 0
-3150 -3298 0
-3151 -3299 0
-3152 -3300 0
-3149 -3433 0
-3150 -3434 0
-3151 -3435 0
-3152 -3436 0
-3149 -4013 0
-3150 -4014 0
-3151 -4015 0
-3152 -4016 0
-3149 -4085 0
-3150 -4086 0
-3151 -4087 0
-3152 -4088 0
-3149 -4129 0
-3150 -4130 0
-3151 -4131 0
-3152 -4132 0
-3153 -3161 0
-3154 -3162 0
-3155 -3163 0
-3156 -3164 0
-3153 -3277 0
-3154 -3278 0
-3155 -3279 0
-3156 -3280 0
-3153 -3641 0
-3154 -3642 0
-3155 -3643 0
-3156 -3644 0
-3153 -3737 0
-3154 -3738 0
-3155 -3739 0
-3156 -3740 0
-3153 -3745 0
-3154 -3746 0
-3155 -3747 0
-3156 -3748 0
-3153 -4089 0
-3154 -4090 0
-3155 -4091 0
-3156 -4092 0
-3153 -4133 0
-3154 -4134 0
-3155 -4135 0
-3156 -4136 0
-3153 -4261 0
-3154 -4262 0
-3155 -4263 0
-3156 -4264 0
-3153 -4269 0
-3154 -4270 0
-3155 -4271 0
-3156 -4272 0
-3157 -3161 0
-3158 -3162 0
-3159 -3163 0
-3160 -3164 0
-3157 -3169 0
-3158 -3170 0
-3159 -3171 0
-3160 -3172 0
-3157 -3309 0
-3158 -3310 0
-3159 -3311 0
-3160 -3312 0
-3157 -3453 0
-3158 -3454 0
-3159 -3455 0
-3160 -3456 0
-3157 -3541 0
-3158 -3542 0
-3159 -3543 0
-3160 -3544 0
-3157 -3625 0
-3158 -3626 0
-3159 -3627 0
-3160 -3628 0
-3157 -4021 0
-3158 -4022 0
-3159 -4023 0
-3160 -4024 0
-3157 -4097 0
-3158 -4098 0
-3159 -4099 0
-3160 -4100 0
-3157 -4105 0
-3158 -4106 0
-3159 -4107 0
-3160 -4108 0
-3157 -4129 0
-3158 -4130 0
-3159 -4131 0
-3160 -4132 0
-3157 -4137 0
-3158 -4138 0
-3159 -4139 0
-3160 -4140 0
-3157 -4441 0
-3158 -4442 0
-3159 -4443 0
-3160 -4444 0
-3161 -3173 0
-3162 -3174 0
-3163 -3175 0
-3164 -3176 0
-3161 -3229 0
-3162 -3230 0
-3163 -3231 0
-3164 -3232 0
-3161 -3281 0
-3162 -3282 0
-3163 -3283 0
-3164 -3284 0
-3161 -3461 0
-3162 -3462 0
-3163 -3463 0
-3164 -3464 0
-3161 -3649 0
-3162 -3650 0
-3163 -3651 0
-3164 -3652 0
-3161 -3657 0
-3162 -3658 0
-3163 -3659 0
-3164 -3660 0
-3161 -3749 0
-3162 -3750 0
-3163 -3751 0
-3164 -3752 0
-3161 -4029 0
-3162 -4030 0
-3163 -4031 0
-3164 -4032 0
-3161 -4033 0
-3162 -4034 0
-3163 -4035 0
-3164 -4036 0
-3161 -4101 0
-3162 -4102 0
-3163 -4103 0
-3164 -4104 0
-3161 -4133 0
-3162 -4134 0
-3163 -4135 0
-3164 -4136 0
-3161 -4141 0
-3162 -4142 0
-3163 -4143 0
-3164 -4144 0
-3161 -4265 0
-3162 -4266 0
-3163 -4267 0
-3164 -4268 0
-3161 -4273 0
-3162 -4274 0
-3163 -4275 0
-3164 -4276 0
-3165 -3269 0
-3166 -3270 0
-3167 -3271 0
-3168 -3272 0
-3165 -4065 0
-3166 -4066 0
-3167 -4067 0
-3168 -4068 0
-3165 -4157 0
-3166 -4158 0
-3167 -4159 0
-3168 -4160 0
-3165 -4261 0
-3166 -4262 0
-3167 -4263 0
-3168 -4264 0
-3165 -4265 0
-3166 -4266 0
-3167 -4267 0
-3168 -4268 0
-3169 -3173 0
-3170 -3174 0
-3171 -3175 0
-3172 -3176 0
-3169 -3321 0
-3170 -3322 0
-3171 -3323 0
-3172 -3324 0
-3169 -3345 0
-3170 -3346 0
-3171 -3347 0
-3172 -3348 0
-3169 -3693 0
-3170 -3694 0
-3171 -3695 0
-3172 -3696 0
-3169 -3853 0
-3170 -3854 0
-3171 -3855 0
-3172 -3856 0
-3169 -3869 0
-3170 -3870 0
-3171 -3871 0
-3172 -3872 0
-3169 -4221 0
-3170 -4222 0
-3171 -4223 0
-3172 -4224 0
-3169 -4237 0
-3170 -4238 0
-3171 -4239 0
-3172 -4240 0
-3169 -4277 0
-3170 -4278 0
-3171 -4279 0
-3172 -4280 0
-3169 -4501 0
-3170 -4502 0
-3171 -4503 0
-3172 -4504 0
-3173 -3217 0
-3174 -3218 0
-3175 -3219 0
-3176 -3220 0
-3173 -3553 0
-3174 -3554 0
-3175 -3555 0
-3176 -3556 0
-3173 -3857 0
-3174 -3858 0
-3175 -3859 0
-3176 -3860 0
-3173 -3873 0
-3174 -3874 0
-3175 -3875 0
-3176 -3876 0
-3177 -3585 0
-3178 -3586 0
-3179 -3587 0
-3180 -3588 0
-3177 -3721 0
-3178 -3722 0
-3179 -3723 0
-3180 -3724 0
-3177 -4285 0
-3178 -4286 0
-3179 -4287 0
-3180 -4288 0
-3177 -4301 0
-3178 -4302 0
-3179 -4303 0
-3180 -4304 0
-3177 -4313 0
-3178 -4314 0
-3179 -4315 0
-3180 -4316 0
-3181 -3189 0
-3182 -3190 0
-3183 -3191 0
-3184 -3192 0
-3181 -3301 0
-3182 -3302 0
-3183 -3303 0
-3184 -3304 0
-3181 -3601 0
-3182 -3602 0
-3183 -3603 0
-3184 -3604 0
-3181 -3717 0
-3182 -3718 0
-3183 -3719 0
-3184 -3720 0
-3181 -4329 0
-3182 -4330 0
-3183 -4331 0
-3184 -4332 0
-3181 -4529 0
-3182 -4530 0
-3183 -4531 0
-3184 -4532 0
-3185 -3205 0
-3186 -3206 0
-3187 -3207 0
-3188 -3208 0
-3185 -3393 0
-3186 -3394 0
-3187 -3395 0
-3188 -3396 0
-3185 -4145 0
-3186 -4146 0
-3187 -4147 0
-3188 -4148 0
-3185 -4345 0
-3186 -4346 0
-3187 -4347 0
-3188 -4348 0
-3185 -4365 0
-3186 -4366 0
-3187 -4367 0
-3188 -4368 0
-3189 -3229 0
-3190 -3230 0
-3191 -3231 0
-3192 -3232 0
-3189 -3233 0
-3190 -3234 0
-3191 -3235 0
-3192 -3236 0
-3189 -3345 0
-3190 -3346 0
-3191 -3347 0
-3192 -3348 0
-3189 -3397 0
-3190 -3398 0
-3191 -3399 0
-3192 -3400 0
-3189 -3609 0
-3190 -3610 0
-3191 -3611 0
-3192 -3612 0
-3189 -3769 0
-3190 -3770 0
-3191 -3771 0
-3192 -3772 0
-3189 -4177 0
-3190 -4178 0
-3191 -4179 0
-3192 -4180 0
-3189 -4393 0
-3190 -4394 0
-3191 -4395 0
-3192 -4396 0
-3189 -4477 0
-3190 -4478 0
-3191 -4479 0
-3192 -4480 0
-3193 -3205 0
-3194 -3206 0
-3195 -3207 0
-3196 -3208 0
-3193 -3241 0
-3194 -3242 0
-3195 -3243 0
-3196 -3244 0
-3193 -3357 0
-3194 -3358 0
-3195 -3359 0
-3196 -3360 0
-3193 -3417 0
-3194 -3418 0
-3195 -3419 0
-3196 -3420 0
-3193 -4397 0
-3194 -4398 0
-3195 -4399 0
-3196 -4400 0
-3193 -4405 0
-3194 -4406 0
-3195 -4407 0
-3196 -4408 0
-3193 -4621 0
-3194 -4622 0
-3195 -4623 0
-3196 -4624 0
-3197 -3201 0
-3198 -3202 0
-3199 -3203 0
-3200 -3204 0
-3197 -3205 0
-3198 -3206 0
-3199 -3207 0
-3200 -3208 0
-3197 -3225 0
-3198 -3226 0
-3199 -3227 0
-3200 -3228 0
-3197 -3429 0
-3198 -3430 0
-3199 -3431 0
-3200 -3432 0
-3197 -3689 0
-3198 -3690 0
-3199 -3691 0
-3200 -3692 0
-3197 -4221 0
-3198 -4222 0
-3199 -4223 0
-3200 -4224 0
-3197 -4309 0
-3198 -4310 0
-3199 -4311 0
-3200 -4312 0
-3197 -4417 0
-3198 -4418 0
-3199 -4419 0
-3200 -4420 0
-3197 -4625 0
-3198 -4626 0
-3199 -4627 0
-3200 -4628 0
-3201 -3209 0
-3202 -3210 0
-3203 -3211 0
-3204 -3212 0
-3201 -3229 0
-3202 -3230 0
-3203 -3231 0
-3204 -3232 0
-3201 -3401 0
-3202 -3402 0
-3203 -3403 0
-3204 -3404 0
-3201 -3697 0
-3202 -3698 0
-3203 -3699 0
-3204 -3700 0
-3201 -3821 0
-3202 -3822 0
-3203 -3823 0
-3204 -3824 0
-3201 -3845 0
-3202 -3846 0
-3203 -3847 0
-3204 -3848 0
-3201 -4229 0
-3202 -4230 0
-3203 -4231 0
-3204 -4232 0
-3201 -4313 0
-3202 -4314 0
-3203 -4315 0
-3204 -4316 0
-3201 -4421 0
-3202 -4422 0
-3203 -4423 0
-3204 -4424 0
-3205 -3209 0
-3206 -3210 0
-3207 -3211 0
-3208 -3212 0
-3205 -3245 0
-3206 -3246 0
-3207 -3247 0
-3208 -3248 0
-3205 -3273 0
-3206 -3274 0
-3207 -3275 0
-3208 -3276 0
-3205 -3461 0
-3206 -3462 0
-3207 -3463 0
-3208 -3464 0
-3205 -4237 0
-3206 -4238 0
-3207 -4239 0
-3208 -4240 0
-3205 -4309 0
-3206 -4310 0
-3207 -4311 0
-3208 -4312 0
-3205 -4429 0
-3206 -4430 0
-3207 -4431 0
-3208 -4432 0
-3205 -4433 0
-3206 -4434 0
-3207 -4435 0
-3208 -4436 0
-3209 -3245 0
-3210 -3246 0
-3211 -3247 0
-3212 -3248 0
-3209 -3289 0
-3210 -3290 0
-3211 -3291 0
-3212 -3292 0
-3209 -3477 0
-3210 -3478 0
-3211 -3479 0
-3212 -3480 0
-3209 -4245 0
-3210 -4246 0
-3211 -4247 0
-3212 -4248 0
-3209 -4313 0
-3210 -4314 0
-3211 -4315 0
-3212 -4316 0
-3209 -4441 0
-3210 -4442 0
-3211 -4443 0
-3212 -4444 0
-3213 -3217 0
-3214 -3218 0
-3215 -3219 0
-3216 -3220 0
-3213 -3221 0
-3214 -3222 0
-3215 -3223 0
-3216 -3224 0
-3213 -3229 0
-3214 -3230 0
-3215 -3231 0
-3216 -3232 0
-3213 -3421 0
-3214 -3422 0
-3215 -3423 0
-3216 -3424 0
-3213 -3533 0
-3214 -3534 0
-3215 -3535 0
-3216 -3536 0
-3213 -3665 0
-3214 -3666 0
-3215 -3667 0
-3216 -3668 0
-3213 -3981 0
-3214 -3982 0
-3215 -3983 0
-3216 -3984 0
-3213 -4337 0
-3214 -4338 0
-3215 -4339 0
-3216 -4340 0
-3213 -4357 0
-3214 -4358 0
-3215 -4359 0
-3216 -4360 0
-3213 -4445 0
-3214 -4446 0
-3215 -4447 0
-3216 -4448 0
-3213 -4485 0
-3214 -4486 0
-3215 -4487 0
-3216 -4488 0
-3217 -3233 0
-3218 -3234 0
-3219 -3235 0
-3220 -3236 0
-3217 -3341 0
-3218 -3342 0
-3219 -3343 0
-3220 -3344 0
-3217 -3373 0
-3218 -3374 0
-3219 -3375 0
-3220 -3376 0
-3217 -3669 0
-3218 -3670 0
-3219 -3671 0
-3220 -3672 0
-3217 -3873 0
-3218 -3874 0
-3219 -3875 0
-3220 -3876 0
-3217 -3989 0
-3218 -3990 0
-3219 -3991 0
-3220 -3992 0
-3217 -4341 0
-3218 -4342 0
-3219 -4343 0
-3220 -4344 0
-3217 -4361 0
-3218 -4362 0
-3219 -4363 0
-3220 -4364 0
-3217 -4449 0
-3218 -4450 0
-3219 -4451 0
-3220 -4452 0
-3217 -4493 0
-3218 -4494 0
-3219 -4495 0
-3220 -4496 0
-3217 -4657 0
-3218 -4658 0
-3219 -4659 0
-3220 -4660 0
-3221 -3237 0
-3222 -3238 0
-3223 -3239 0
-3224 -3240 0
-3221 -3537 0
-3222 -3538 0
-3223 -3539 0
-3224 -3540 0
-3221 -3889 0
-3222 -3890 0
-3223 -3891 0
-3224 -3892 0
-3221 -4257 0
-3222 -4258 0
-3223 -4259 0
-3224 -4260 0
-3221 -4377 0
-3222 -4378 0
-3223 -4379 0
-3224 -4380 0
-3221 -4445 0
-3222 -4446 0
-3223 -4447 0
-3224 -4448 0
-3221 -4497 0
-3222 -4498 0
-3223 -4499 0
-3224 -4500 0
-3225 -3229 0
-3226 -3230 0
-3227 -3231 0
-3228 -3232 0
-3225 -3293 0
-3226 -3294 0
-3227 -3295 0
-3228 -3296 0
-3225 -3445 0
-3226 -3446 0
-3227 -3447 0
-3228 -3448 0
-3225 -4001 0
-3226 -4002 0
-3227 -4003 0
-3228 -4004 0
-3225 -4453 0
-3226 -4454 0
-3227 -4455 0
-3228 -4456 0
-3225 -4673 0
-3226 -4674 0
-3227 -4675 0
-3228 -4676 0
-3229 -3233 0
-3230 -3234 0
-3231 -3235 0
-3232 -3236 0
-3229 -3237 0
-3230 -3238 0
-3231 -3239 0
-3232 -3240 0
-3229 -3297 0
-3230 -3298 0
-3231 -3299 0
-3232 -3300 0
-3229 -3461 0
-3230 -3462 0
-3231 -3463 0
-3232 -3464 0
-3229 -3673 0
-3230 -3674 0
-3231 -3675 0
-3232 -3676 0
-3229 -3801 0
-3230 -3802 0
-3231 -3803 0
-3232 -3804 0
-3229 -3893 0
-3230 -3894 0
-3231 -3895 0
-3232 -3896 0
-3229 -4005 0
-3230 -4006 0
-3231 -4007 0
-3232 -4008 0
-3229 -4385 0
-3230 -4386 0
-3231 -4387 0
-3232 -4388 0
-3229 -4457 0
-3230 -4458 0
-3231 -4459 0
-3232 -4460 0
-3229 -4485 0
-3230 -4486 0
-3231 -4487 0
-3232 -4488 0
-3229 -4685 0
-3230 -4686 0
-3231 -4687 0
-3232 -4688 0
-3233 -3381 0
-3234 -3382 0
-3235 -3383 0
-3236 -3384 0
-3233 -3473 0
-3234 -3474 0
-3235 -3475 0
-3236 -3476 0
-3233 -3653 0
-3234 -3654 0
-3235 -3655 0
-3236 -3656 0
-3233 -3677 0
-3234 -3678 0
-3235 -3679 0
-3236 -3680 0
-3233 -3817 0
-3234 -3818 0
-3235 -3819 0
-3236 -3820 0
-3233 -3885 0
-3234 -3886 0
-3235 -3887 0
-3236 -3888 0
-3233 -4009 0
-3234 -4010 0
-3235 -4011 0
-3236 -4012 0
-3233 -4461 0
-3234 -4462 0
-3235 -4463 0
-3236 -4464 0
-3233 -4493 0
-3234 -4494 0
-3235 -4495 0
-3236 -4496 0
-3233 -4689 0
-3234 -4690 0
-3235 -4691 0
-3236 -4692 0
-3237 -3309 0
-3238 -3310 0
-3239 -3311 0
-3240 -3312 0
-3237 -3481 0
-3238 -3482 0
-3239 -3483 0
-3240 -3484 0
-3237 -3897 0
-3238 -3898 0
-3239 -3899 0
-3240 -3900 0
-3237 -4389 0
-3238 -4390 0
-3239 -4391 0
-3240 -4392 0
-3237 -4457 0
-3238 -4458 0
-3239 -4459 0
-3240 -4460 0
-3237 -4497 0
-3238 -4498 0
-3239 -4499 0
-3240 -4500 0
-3241 -3245 0
-3242 -3246 0
-3243 -3247 0
-3244 -3248 0
-3241 -3693 0
-3242 -3694 0
-3243 -3695 0
-3244 -3696 0
-3241 -4481 0
-3242 -4482 0
-3243 -4483 0
-3244 -4484 0
-3241 -4493 0
-3242 -4494 0
-3243 -4495 0
-3244 -4496 0
-3245 -3493 0
-3246 -3494 0
-3247 -3495 0
-3248 -3496 0
-3245 -3557 0
-3246 -3558 0
-3247 -3559 0
-3248 -3560 0
-3245 -4057 0
-3246 -4058 0
-3247 -4059 0
-3248 -4060 0
-3245 -4465 0
-3246 -4466 0
-3247 -4467 0
-3248 -4468 0
-3245 -4501 0
-3246 -4502 0
-3247 -4503 0
-3248 -4504 0
-3249 -3253 0
-3250 -3254 0
-3251 -3255 0
-3252 -3256 0
-3249 -3269 0
-3250 -3270 0
-3251 -3271 0
-3252 -3272 0
-3249 -3277 0
-3250 -3278 0
-3251 -3279 0
-3252 -3280 0
-3249 -3421 0
-3250 -3422 0
-3251 -3423 0
-3252 -3424 0
-3249 -3561 0
-3250 -3562 0
-3251 -3563 0
-3252 -3564 0
-3249 -4289 0
-3250 -4290 0
-3251 -4291 0
-3252 -4292 0
-3249 -4505 0
-3250 -4506 0
-3251 -4507 0
-3252 -4508 0
-3249 -4509 0
-3250 -4510 0
-3251 -4511 0
-3252 -4512 0
-3249 -4585 0
-3250 -4586 0
-3251 -4587 0
-3252 -4588 0
-3253 -3257 0
-3254 -3258 0
-3255 -3259 0
-3256 -3260 0
-3253 -3285 0
-3254 -3286 0
-3255 -3287 0
-3256 -3288 0
-3253 -3289 0
-3254 -3290 0
-3255 -3291 0
-3256 -3292 0
-3253 -3329 0
-3254 -3330 0
-3255 -3331 0
-3256 -3332 0
-3253 -3461 0
-3254 -3462 0
-3255 -3463 0
-3256 -3464 0
-3253 -3721 0
-3254 -3722 0
-3255 -3723 0
-3256 -3724 0
-3253 -3921 0
-3254 -3922 0
-3255 -3923 0
-3256 -3924 0
-3253 -4297 0
-3254 -4298 0
-3255 -4299 0
-3256 -4300 0
-3253 -4517 0
-3254 -4518 0
-3255 -4519 0
-3256 -4520 0
-3253 -4529 0
-3254 -4530 0
-3255 -4531 0
-3256 -4532 0
-3253 -4585 0
-3254 -4586 0
-3255 -4587 0
-3256 -4588 0
-3257 -3465 0
-3258 -3466 0
-3259 -3467 0
-3260 -3468 0
-3257 -3581 0
-3258 -3582 0
-3259 -3583 0
-3260 -3584 0
-3257 -3781 0
-3258 -3782 0
-3259 -3783 0
-3260 -3784 0
-3257 -4521 0
-3258 -4522 0
-3259 -4523 0
-3260 -4524 0
-3257 -4533 0
-3258 -4534 0
-3259 -4535 0
-3260 -4536 0
-3261 -3265 0
-3262 -3266 0
-3263 -3267 0
-3264 -3268 0
-3261 -3277 0
-3262 -3278 0
-3263 -3279 0
-3264 -3280 0
-3261 -3293 0
-3262 -3294 0
-3263 -3295 0
-3264 -3296 0
-3261 -3425 0
-3262 -3426 0
-3263 -3427 0
-3264 -3428 0
-3261 -3625 0
-3262 -3626 0
-3263 -3627 0
-3264 -3628 0
-3261 -3929 0
-3262 -3930 0
-3263 -3931 0
-3264 -3932 0
-3261 -3957 0
-3262 -3958 0
-3263 -3959 0
-3264 -3960 0
-3261 -4341 0
-3262 -4342 0
-3263 -4343 0
-3264 -4344 0
-3261 -4541 0
-3262 -4542 0
-3263 -4543 0
-3264 -4544 0
-3261 -4613 0
-3262 -4614 0
-3263 -4615 0
-3264 -4616 0
-3261 -4757 0
-3262 -4758 0
-3263 -4759 0
-3264 -4760 0
-3265 -3281 0
-3266 -3282 0
-3267 -3283 0
-3268 -3284 0
-3265 -3301 0
-3266 -3302 0
-3267 -3303 0
-3268 -3304 0
-3265 -3429 0
-3266 -3430 0
-3267 -3431 0
-3268 -3432 0
-3265 -3637 0
-3266 -3638 0
-3267 -3639 0
-3268 -3640 0
-3265 -3973 0
-3266 -3974 0
-3267 -3975 0
-3268 -3976 0
-3265 -4541 0
-3266 -4542 0
-3267 -4543 0
-3268 -4544 0
-3265 -4617 0
-3266 -4618 0
-3267 -4619 0
-3268 -4620 0
-3265 -4765 0
-3266 -4766 0
-3267 -4767 0
-3268 -4768 0
-3269 -3277 0
-3270 -3278 0
-3271 -3279 0
-3272 -3280 0
-3269 -3285 0
-3270 -3286 0
-3271 -3287 0
-3272 -3288 0
-3269 -3621 0
-3270 -3622 0
-3271 -3623 0
-3272 -3624 0
-3269 -4357 0
-3270 -4358 0
-3271 -4359 0
-3272 -4360 0
-3269 -4545 0
-3270 -4546 0
-3271 -4547 0
-3272 -4548 0
-3273 -3277 0
-3274 -3278 0
-3275 -3279 0
-3276 -3280 0
-3273 -3313 0
-3274 -3314 0
-3275 -3315 0
-3276 -3316 0
-3273 -3433 0
-3274 -3434 0
-3275 -3435 0
-3276 -3436 0
-3273 -3565 0
-3274 -3566 0
-3275 -3567 0
-3276 -3568 0
-3273 -4549 0
-3274 -4550 0
-3275 -4551 0
-3276 -4552 0
-3277 -3281 0
-3278 -3282 0
-3279 -3283 0
-3280 -3284 0
-3277 -3289 0
-3278 -3290 0
-3279 -3291 0
-3280 -3292 0
-3277 -3313 0
-3278 -3314 0
-3279 -3315 0
-3280 -3316 0
-3277 -3333 0
-3278 -3334 0
-3279 -3335 0
-3280 -3336 0
-3277 -3569 0
-3278 -3570 0
-3279 -3571 0
-3280 -3572 0
-3277 -3629 0
-3278 -3630 0
-3279 -3631 0
-3280 -3632 0
-3277 -3757 0
-3278 -3758 0
-3279 -3759 0
-3280 -3760 0
-3277 -3945 0
-3278 -3946 0
-3279 -3947 0
-3280 -3948 0
-3277 -4361 0
-3278 -4362 0
-3279 -4363 0
-3280 -4364 0
-3277 -4553 0
-3278 -4554 0
-3279 -4555 0
-3280 -4556 0
-3277 -4621 0
-3278 -4622 0
-3279 -4623 0
-3280 -4624 0
-3281 -3317 0
-3282 -3318 0
-3283 -3319 0
-3284 -3320 0
-3281 -3461 0
-3282 -3462 0
-3283 -3463 0
-3284 -3464 0
-3281 -4553 0
-3282 -4554 0
-3283 -4555 0
-3284 -4556 0
-3285 -3289 0
-3286 -3290 0
-3287 -3291 0
-3288 -3292 0
-3285 -3337 0
-3286 -3338 0
-3287 -3339 0
-3288 -3340 0
-3285 -3361 0
-3286 -3362 0
-3287 -3363 0
-3288 -3364 0
-3285 -3525 0
-3286 -3526 0
-3287 -3527 0
-3288 -3528 0
-3285 -4385 0
-3286 -4386 0
-3287 -4387 0
-3288 -4388 0
-3285 -4557 0
-3286 -4558 0
-3287 -4559 0
-3288 -4560 0
-3289 -3529 0
-3290 -3530 0
-3291 -3531 0
-3292 -3532 0
-3289 -3733 0
-3290 -3734 0
-3291 -3735 0
-3292 -3736 0
-3289 -4561 0
-3290 -4562 0
-3291 -4563 0
-3292 -4564 0
-3289 -4621 0
-3290 -4622 0
-3291 -4623 0
-3292 -4624 0
-3293 -3297 0
-3294 -3298 0
-3295 -3299 0
-3296 -3300 0
-3293 -3301 0
-3294 -3302 0
-3295 -3303 0
-3296 -3304 0
-3293 -3313 0
-3294 -3314 0
-3295 -3315 0
-3296 -3316 0
-3293 -3321 0
-3294 -3322 0
-3295 -3323 0
-3296 -3324 0
-3293 -3341 0
-3294 -3342 0
-3295 -3343 0
-3296 -3344 0
-3293 -3861 0
-3294 -3862 0
-3295 -3863 0
-3296 -3864 0
-3293 -4097 0
-3294 -4098 0
-3295 -4099 0
-3296 -4100 0
-3293 -4513 0
-3294 -4514 0
-3295 -4515 0
-3296 -4516 0
-3293 -4565 0
-3294 -4566 0
-3295 -4567 0
-3296 -4568 0
-3293 -4633 0
-3294 -4634 0
-3295 -4635 0
-3296 -4636 0
-3293 -4637 0
-3294 -4638 0
-3295 -4639 0
-3296 -4640 0
-3293 -4821 0
-3294 -4822 0
-3295 -4823 0
-3296 -4824 0
-3297 -3309 0
-3298 -3310 0
-3299 -3311 0
-3300 -3312 0
-3297 -3341 0
-3298 -3342 0
-3299 -3343 0
-3300 -3344 0
-3297 -3565 0
-3298 -3566 0
-3299 -3567 0
-3300 -3568 0
-3297 -3765 0
-3298 -3766 0
-3299 -3767 0
-3300 -3768 0
-3297 -3865 0
-3298 -3866 0
-3299 -3867 0
-3300 -3868 0
-3297 -4005 0
-3298 -4006 0
-3299 -4007 0
-3300 -4008 0
-3297 -4013 0
-3298 -4014 0
-3299 -4015 0
-3300 -4016 0
-3297 -4521 0
-3298 -4522 0
-3299 -4523 0
-3300 -4524 0
-3297 -4569 0
-3298 -4570 0
-3299 -4571 0
-3300 -4572 0
-3297 -4837 0
-3298 -4838 0
-3299 -4839 0
-3300 -4840 0
-3301 -3309 0
-3302 -3310 0
-3303 -3311 0
-3304 -3312 0
-3301 -3317 0
-3302 -3318 0
-3303 -3319 0
-3304 -3320 0
-3301 -3325 0
-3302 -3326 0
-3303 -3327 0
-3304 -3328 0
-3301 -3345 0
-3302 -3346 0
-3303 -3347 0
-3304 -3348 0
-3301 -3873 0
-3302 -3874 0
-3303 -3875 0
-3304 -3876 0
-3301 -3933 0
-3302 -3934 0
-3303 -3935 0
-3304 -3936 0
-3301 -4525 0
-3302 -4526 0
-3303 -4527 0
-3304 -4528 0
-3301 -4565 0
-3302 -4566 0
-3303 -4567 0
-3304 -4568 0
-3301 -4645 0
-3302 -4646 0
-3303 -4647 0
-3304 -4648 0
-3301 -4857 0
-3302 -4858 0
-3303 -4859 0
-3304 -4860 0
-3305 -3309 0
-3306 -3310 0
-3307 -3311 0
-3308 -3312 0
-3305 -3537 0
-3306 -3538 0
-3307 -3539 0
-3308 -3540 0
-3305 -3573 0
-3306 -3574 0
-3307 -3575 0
-3308 -3576 0
-3305 -3937 0
-3306 -3938 0
-3307 -3939 0
-3308 -3940 0
-3305 -4017 0
-3306 -4018 0
-3307 -4019 0
-3308 -4020 0
-3305 -4393 0
-3306 -4394 0
-3307 -4395 0
-3308 -4396 0
-3305 -4529 0
-3306 -4530 0
-3307 -4531 0
-3308 -4532 0
-3309 -3345 0
-3310 -3346 0
-3311 -3347 0
-3312 -3348 0
-3309 -3577 0
-3310 -3578 0
-3311 -3579 0
-3312 -3580 0
-3309 -3877 0
-3310 -3878 0
-3311 -3879 0
-3312 -3880 0
-3309 -4021 0
-3310 -4022 0
-3311 -4023 0
-3312 -4024 0
-3309 -4533 0
-3310 -4534 0
-3311 -4535 0
-3312 -4536 0
-3309 -4569 0
-3310 -4570 0
-3311 -4571 0
-3312 -4572 0
-3309 -4873 0
-3310 -4874 0
-3311 -4875 0
-3312 -4876 0
-3313 -3317 0
-3314 -3318 0
-3315 -3319 0
-3316 -3320 0
-3313 -3349 0
-3314 -3350 0
-3315 -3351 0
-3316 -3352 0
-3313 -3605 0
-3314 -3606 0
-3315 -3607 0
-3316 -3608 0
-3313 -4105 0
-3314 -4106 0
-3315 -4107 0
-3316 -4108 0
-3313 -4397 0
-3314 -4398 0
-3315 -4399 0
-3316 -4400 0
-3313 -4513 0
-3314 -4514 0
-3315 -4515 0
-3316 -4516 0
-3313 -4573 0
-3314 -4574 0
-3315 -4575 0
-3316 -4576 0
-3313 -4877 0
-3314 -4878 0
-3315 -4879 0
-3316 -4880 0
-3317 -3353 0
-3318 -3354 0
-3319 -3355 0
-3320 -3356 0
-3317 -3513 0
-3318 -3514 0
-3319 -3515 0
-3320 -3516 0
-3317 -4405 0
-3318 -4406 0
-3319 -4407 0
-3320 -4408 0
-3317 -4525 0
-3318 -4526 0
-3319 -4527 0
-3320 -4528 0
-3317 -4573 0
-3318 -4574 0
-3319 -4575 0
-3320 -4576 0
-3317 -4881 0
-3318 -4882 0
-3319 -4883 0
-3320 -4884 0
-3321 -3325 0
-3322 -3326 0
-3323 -3327 0
-3324 -3328 0
-3321 -3609 0
-3322 -3610 0
-3323 -3611 0
-3324 -3612 0
-3321 -3953 0
-3322 -3954 0
-3323 -3955 0
-3324 -3956 0
-3321 -4577 0
-3322 -4578 0
-3323 -4579 0
-3324 -4580 0
-3321 -4669 0
-3322 -4670 0
-3323 -4671 0
-3324 -4672 0
-3321 -4893 0
-3322 -4894 0
-3323 -4895 0
-3324 -4896 0
-3325 -3969 0
-3326 -3970 0
-3327 -3971 0
-3328 -3972 0
-3325 -4417 0
-3326 -4418 0
-3327 -4419 0
-3328 -4420 0
-3325 -4577 0
-3326 -4578 0
-3327 -4579 0
-3328 -4580 0
-3325 -4901 0
-3326 -4902 0
-3327 -4903 0
-3328 -4904 0
-3329 -3337 0
-3330 -3338 0
-3331 -3339 0
-3332 -3340 0
-3329 -3389 0
-3330 -3390 0
-3331 -3391 0
-3332 -3392 0
-3329 -3553 0
-3330 -3554 0
-3331 -3555 0
-3332 -3556 0
-3329 -3681 0
-3330 -3682 0
-3331 -3683 0
-3332 -3684 0
-3329 -4593 0
-3330 -4594 0
-3331 -4595 0
-3332 -4596 0
-3329 -4605 0
-3330 -4606 0
-3331 -4607 0
-3332 -4608 0
-3333 -3349 0
-3334 -3350 0
-3335 -3351 0
-3336 -3352 0
-3333 -3549 0
-3334 -3550 0
-3335 -3551 0
-3336 -3552 0
-3333 -3585 0
-3334 -3586 0
-3335 -3587 0
-3336 -3588 0
-3333 -4061 0
-3334 -4062 0
-3335 -4063 0
-3336 -4064 0
-3333 -4169 0
-3334 -4170 0
-3335 -4171 0
-3336 -4172 0
-3333 -4657 0
-3334 -4658 0
-3335 -4659 0
-3336 -4660 0
-3337 -4185 0
-3338 -4186 0
-3339 -4187 0
-3340 -4188 0
-3337 -4661 0
-3338 -4662 0
-3339 -4663 0
-3340 -4664 0
-3337 -4673 0
-3338 -4674 0
-3339 -4675 0
-3340 -4676 0
-3341 -3345 0
-3342 -3346 0
-3343 -3347 0
-3344 -3348 0
-3341 -3349 0
-3342 -3350 0
-3343 -3351 0
-3344 -3352 0
-3341 -3669 0
-3342 -3670 0
-3343 -3671 0
-3344 -3672 0
-3341 -4229 0
-3342 -4230 0
-3343 -4231 0
-3344 -4232 0
-3341 -4597 0
-3342 -4598 0
-3343 -4599 0
-3344 -4600 0
-3341 -4693 0
-3342 -4694 0
-3343 -4695 0
-3344 -4696 0
-3341 -4965 0
-3342 -4966 0
-3343 -4967 0
-3344 -4968 0
-3345 -3353 0
-3346 -3354 0
-3347 -3355 0
-3348 -3356 0
-3345 -3609 0
-3346 -3610 0
-3347 -3611 0
-3348 -3612 0
-3345 -4609 0
-3346 -4610 0
-3347 -4611 0
-3348 -4612 0
-3345 -4693 0
-3346 -4694 0
-3347 -4695 0
-3348 -4696 0
-3345 -4973 0
-3346 -4974 0
-3347 -4975 0
-3348 -4976 0
-3349 -3353 0
-3350 -3354 0
-3351 -3355 0
-3352 -3356 0
-3349 -3613 0
-3350 -3614 0
-3351 -3615 0
-3352 -3616 0
-3349 -4245 0
-3350 -4246 0
-3351 -4247 0
-3352 -4248 0
-3349 -4481 0
-3350 -4482 0
-3351 -4483 0
-3352 -4484 0
-3349 -4597 0
-3350 -4598 0
-3351 -4599 0
-3352 -4600 0
-3349 -4697 0
-3350 -4698 0
-3351 -4699 0
-3352 -4700 0
-3353 -3617 0
-3354 -3618 0
-3355 -3619 0
-3356 -3620 0
-3353 -3889 0
-3354 -3890 0
-3355 -3891 0
-3356 -3892 0
-3353 -4065 0
-3354 -4066 0
-3355 -4067 0
-3356 -4068 0
-3353 -4253 0
-3354 -4254 0
-3355 -4255 0
-3356 -4256 0
-3353 -4493 0
-3354 -4494 0
-3355 -4495 0
-3356 -4496 0
-3353 -4609 0
-3354 -4610 0
-3355 -4611 0
-3356 -4612 0
-3353 -4697 0
-3354 -4698 0
-3355 -4699 0
-3356 -4700 0
-3357 -3361 0
-3358 -3362 0
-3359 -3363 0
-3360 -3364 0
-3357 -3365 0
-3358 -3366 0
-3359 -3367 0
-3360 -3368 0
-3357 -3717 0
-3358 -3718 0
-3359 -3719 0
-3360 -3720 0
-3357 -4513 0
-3358 -4514 0
-3359 -4515 0
-3360 -4516 0
-3357 -4705 0
-3358 -4706 0
-3359 -4707 0
-3360 -4708 0
-3357 -4989 0
-3358 -4990 0
-3359 -4991 0
-3360 -4992 0
-3361 -3369 0
-3362 -3370 0
-3363 -3371 0
-3364 -3372 0
-3361 -3625 0
-3362 -3626 0
-3363 -3627 0
-3364 -3628 0
-3361 -4521 0
-3362 -4522 0
-3363 -4523 0
-3364 -4524 0
-3361 -4709 0
-3362 -4710 0
-3363 -4711 0
-3364 -4712 0
-3365 -3369 0
-3366 -3370 0
-3367 -3371 0
-3368 -3372 0
-3365 -3445 0
-3366 -3446 0
-3367 -3447 0
-3368 -3448 0
-3365 -3461 0
-3366 -3462 0
-3367 -3463 0
-3368 -3464 0
-3365 -3945 0
-3366 -3946 0
-3367 -3947 0
-3368 -3948 0
-3365 -4525 0
-3366 -4526 0
-3367 -4527 0
-3368 -4528 0
-3365 -4705 0
-3366 -4706 0
-3367 -4707 0
-3368 -4708 0
-3365 -4713 0
-3366 -4714 0
-3367 -4715 0
-3368 -4716 0
-3365 -4993 0
-3366 -4994 0
-3367 -4995 0
-3368 -4996 0
-3369 -3461 0
-3370 -3462 0
-3371 -3463 0
-3372 -3464 0
-3369 -3477 0
-3370 -3478 0
-3371 -3479 0
-3372 -3480 0
-3369 -3637 0
-3370 -3638 0
-3371 -3639 0
-3372 -3640 0
-3369 -3949 0
-3370 -3950 0
-3371 -3951 0
-3372 -3952 0
-3369 -4105 0
-3370 -4106 0
-3371 -4107 0
-3372 -4108 0
-3369 -4533 0
-3370 -4534 0
-3371 -4535 0
-3372 -4536 0
-3369 -4709 0
-3370 -4710 0
-3371 -4711 0
-3372 -4712 0
-3369 -4717 0
-3370 -4718 0
-3371 -4719 0
-3372 -4720 0
-3373 -3377 0
-3374 -3378 0
-3375 -3379 0
-3376 -3380 0
-3373 -3381 0
-3374 -3382 0
-3375 -3383 0
-3376 -3384 0
-3373 -3905 0
-3374 -3906 0
-3375 -3907 0
-3376 -3908 0
-3373 -4109 0
-3374 -4110 0
-3375 -4111 0
-3376 -4112 0
-3373 -4285 0
-3374 -4286 0
-3375 -4287 0
-3376 -4288 0
-3373 -4785 0
-3374 -4786 0
-3375 -4787 0
-3376 -4788 0
-3373 -4821 0
-3374 -4822 0
-3375 -4823 0
-3376 -4824 0
-3373 -5021 0
-3374 -5022 0
-3375 -5023 0
-3376 -5024 0
-3377 -3385 0
-3378 -3386 0
-3379 -3387 0
-3380 -3388 0
-3377 -3609 0
-3378 -3610 0
-3379 -3611 0
-3380 -3612 0
-3377 -3909 0
-3378 -3910 0
-3379 -3911 0
-3380 -3912 0
-3377 -4081 0
-3378 -4082 0
-3379 -4083 0
-3380 -4084 0
-3377 -4541 0
-3378 -4542 0
-3379 -4543 0
-3380 -4544 0
-3377 -4789 0
-3378 -4790 0
-3379 -4791 0
-3380 -4792 0
-3377 -4857 0
-3378 -4858 0
-3379 -4859 0
-3380 -4860 0
-3377 -5029 0
-3378 -5030 0
-3379 -5031 0
-3380 -5032 0
-3381 -3385 0
-3382 -3386 0
-3383 -3387 0
-3384 -3388 0
-3381 -3653 0
-3382 -3654 0
-3383 -3655 0
-3384 -3656 0
-3381 -3725 0
-3382 -3726 0
-3383 -3727 0
-3384 -3728 0
-3381 -3913 0
-3382 -3914 0
-3383 -3915 0
-3384 -3916 0
-3381 -4089 0
-3382 -4090 0
-3383 -4091 0
-3384 -4092 0
-3381 -4721 0
-3382 -4722 0
-3383 -4723 0
-3384 -4724 0
-3381 -4821 0
-3382 -4822 0
-3383 -4823 0
-3384 -4824 0
-3381 -4885 0
-3382 -4886 0
-3383 -4887 0
-3384 -4888 0
-3385 -3917 0
-3386 -3918 0
-3387 -3919 0
-3388 -3920 0
-3385 -4025 0
-3386 -4026 0
-3387 -4027 0
-3388 -4028 0
-3385 -4101 0
-3386 -4102 0
-3387 -4103 0
-3388 -4104 0
-3385 -4721 0
-3386 -4722 0
-3387 -4723 0
-3388 -4724 0
-3385 -4857 0
-3386 -4858 0
-3387 -4859 0
-3388 -4860 0
-3385 -4889 0
-3386 -4890 0
-3387 -4891 0
-3388 -4892 0
-3389 -3397 0
-3390 -3398 0
-3391 -3399 0
-3392 -3400 0
-3389 -3441 0
-3390 -3442 0
-3391 -3443 0
-3392 -3444 0
-3389 -3669 0
-3390 -3670 0
-3391 -3671 0
-3392 -3672 0
-3389 -3905 0
-3390 -3906 0
-3391 -3907 0
-3392 -3908 0
-3389 -4741 0
-3390 -4742 0
-3391 -4743 0
-3392 -4744 0
-3393 -3397 0
-3394 -3398 0
-3395 -3399 0
-3396 -3400 0
-3393 -3449 0
-3394 -3450 0
-3395 -3451 0
-3396 -3452 0
-3393 -3461 0
-3394 -3462 0
-3395 -3463 0
-3396 -3464 0
-3393 -4581 0
-3394 -4582 0
-3395 -4583 0
-3396 -4584 0
-3393 -4737 0
-3394 -4738 0
-3395 -4739 0
-3396 -4740 0
-3393 -4745 0
-3394 -4746 0
-3395 -4747 0
-3396 -4748 0
-3397 -3461 0
-3398 -3462 0
-3399 -3463 0
-3400 -3464 0
-3397 -3473 0
-3398 -3474 0
-3399 -3475 0
-3400 -3476 0
-3397 -3909 0
-3398 -3910 0
-3399 -3911 0
-3400 -3912 0
-3397 -4741 0
-3398 -4742 0
-3399 -4743 0
-3400 -4744 0
-3397 -4749 0
-3398 -4750 0
-3399 -4751 0
-3400 -4752 0
-3401 -3405 0
-3402 -3406 0
-3403 -3407 0
-3404 -3408 0
-3401 -3453 0
-3402 -3454 0
-3403 -3455 0
-3404 -3456 0
-3401 -3461 0
-3402 -3462 0
-3403 -3463 0
-3404 -3464 0
-3401 -4589 0
-3402 -4590 0
-3403 -4591 0
-3404 -4592 0
-3401 -4753 0
-3402 -4754 0
-3403 -4755 0
-3404 -4756 0
-3401 -4761 0
-3402 -4762 0
-3403 -4763 0
-3404 -4764 0
-3405 -3461 0
-3406 -3462 0
-3407 -3463 0
-3408 -3464 0
-3405 -3469 0
-3406 -3470 0
-3407 -3471 0
-3408 -3472 0
-3405 -3661 0
-3406 -3662 0
-3407 -3663 0
-3408 -3664 0
-3405 -4165 0
-3406 -4166 0
-3407 -4167 0
-3408 -4168 0
-3405 -4293 0
-3406 -4294 0
-3407 -4295 0
-3408 -4296 0
-3405 -4757 0
-3406 -4758 0
-3407 -4759 0
-3408 -4760 0
-3405 -4765 0
-3406 -4766 0
-3407 -4767 0
-3408 -4768 0
-3409 -3413 0
-3410 -3414 0
-3411 -3415 0
-3412 -3416 0
-3409 -3685 0
-3410 -3686 0
-3411 -3687 0
-3412 -3688 0
-3409 -4297 0
-3410 -4298 0
-3411 -4299 0
-3412 -4300 0
-3409 -4769 0
-3410 -4770 0
-3411 -4771 0
-3412 -4772 0
-3413 -3417 0
-3414 -3418 0
-3415 -3419 0
-3416 -3420 0
-3413 -3457 0
-3414 -3458 0
-3415 -3459 0
-3416 -3460 0
-3413 -3461 0
-3414 -3462 0
-3415 -3463 0
-3416 -3464 0
-3413 -3929 0
-3414 -3930 0
-3415 -3931 0
-3416 -3932 0
-3413 -4193 0
-3414 -4194 0
-3415 -4195 0
-3416 -4196 0
-3413 -4769 0
-3414 -4770 0
-3415 -4771 0
-3416 -4772 0
-3413 -4777 0
-3414 -4778 0
-3415 -4779 0
-3416 -4780 0
-3417 -3461 0
-3418 -3462 0
-3419 -3463 0
-3420 -3464 0
-3417 -3465 0
-3418 -3466 0
-3419 -3467 0
-3420 -3468 0
-3417 -3717 0
-3418 -3718 0
-3419 -3719 0
-3420 -3720 0
-3417 -3933 0
-3418 -3934 0
-3419 -3935 0
-3420 -3936 0
-3417 -4773 0
-3418 -4774 0
-3419 -4775 0
-3420 -4776 0
-3417 -4781 0
-3418 -4782 0
-3419 -4783 0
-3420 -4784 0
-3417 -5065 0
-3418 -5066 0
-3419 -5067 0
-3420 -5068 0
-3421 -3461 0
-3422 -3462 0
-3423 -3463 0
-3424 -3464 0
-3421 -3665 0
-3422 -3666 0
-3423 -3667 0
-3424 -3668 0
-3421 -3797 0
-3422 -3798 0
-3423 -3799 0
-3424 -3800 0
-3421 -4305 0
-3422 -4306 0
-3423 -4307 0
-3424 -4308 0
-3421 -4785 0
-3422 -4786 0
-3423 -4787 0
-3424 -4788 0
-3421 -4789 0
-3422 -4790 0
-3423 -4791 0
-3424 -4792 0
-3421 -4949 0
-3422 -4950 0
-3423 -4951 0
-3424 -4952 0
-3425 -3429 0
-3426 -3430 0
-3427 -3431 0
-3428 -3432 0
-3425 -4793 0
-3426 -4794 0
-3427 -4795 0
-3428 -4796 0
-3425 -5069 0
-3426 -5070 0
-3427 -5071 0
-3428 -5072 0
-3429 -3461 0
-3430 -3462 0
-3431 -3463 0
-3432 -3464 0
-3429 -4049 0
-3430 -4050 0
-3431 -4051 0
-3432 -4052 0
-3429 -4221 0
-3430 -4222 0
-3431 -4223 0
-3432 -4224 0
-3429 -4725 0
-3430 -4726 0
-3431 -4727 0
-3432 -4728 0
-3429 -4793 0
-3430 -4794 0
-3431 -4795 0
-3432 -4796 0
-3429 -4797 0
-3430 -4798 0
-3431 -4799 0
-3432 -4800 0
-3429 -5073 0
-3430 -5074 0
-3431 -5075 0
-3432 -5076 0
-3433 -3453 0
-3434 -3454 0
-3435 -3455 0
-3436 -3456 0
-3433 -3765 0
-3434 -3766 0
-3435 -3767 0
-3436 -3768 0
-3433 -4813 0
-3434 -4814 0
-3435 -4815 0
-3436 -4816 0
-3437 -3469 0
-3438 -3470 0
-3439 -3471 0
-3440 -3472 0
-3437 -3509 0
-3438 -3510 0
-3439 -3511 0
-3440 -3512 0
-3437 -3813 0
-3438 -3814 0
-3439 -3815 0
-3440 -3816 0
-3437 -4325 0
-3438 -4326 0
-3439 -4327 0
-3440 -4328 0
-3437 -4829 0
-3438 -4830 0
-3439 -4831 0
-3440 -4832 0
-3441 -3473 0
-3442 -3474 0
-3443 -3475 0
-3444 -3476 0
-3441 -3957 0
-3442 -3958 0
-3443 -3959 0
-3444 -3960 0
-3441 -4193 0
-3442 -4194 0
-3443 -4195 0
-3444 -4196 0
-3441 -4833 0
-3442 -4834 0
-3443 -4835 0
-3444 -4836 0
-3445 -3461 0
-3446 -3462 0
-3447 -3463 0
-3448 -3464 0
-3445 -3553 0
-3446 -3554 0
-3447 -3555 0
-3448 -3556 0
-3445 -4805 0
-3446 -4806 0
-3447 -4807 0
-3448 -4808 0
-3445 -4841 0
-3446 -4842 0
-3447 -4843 0
-3448 -4844 0
-3445 -5089 0
-3446 -5090 0
-3447 -5091 0
-3448 -5092 0
-3449 -3461 0
-3450 -3462 0
-3451 -3463 0
-3452 -3464 0
-3449 -3525 0
-3450 -3526 0
-3451 -3527 0
-3452 -3528 0
-3449 -3821 0
-3450 -3822 0
-3451 -3823 0
-3452 -3824 0
-3449 -4233 0
-3450 -4234 0
-3451 -4235 0
-3452 -4236 0
-3449 -4601 0
-3450 -4602 0
-3451 -4603 0
-3452 -4604 0
-3449 -4809 0
-3450 -4810 0
-3451 -4811 0
-3452 -4812 0
-3449 -4845 0
-3450 -4846 0
-3451 -4847 0
-3452 -4848 0
-3453 -3461 0
-3454 -3462 0
-3455 -3463 0
-3456 -3464 0
-3453 -3513 0
-3454 -3514 0
-3455 -3515 0
-3456 -3516 0
-3453 -4057 0
-3454 -4058 0
-3455 -4059 0
-3456 -4060 0
-3453 -4149 0
-3454 -4150 0
-3455 -4151 0
-3456 -4152 0
-3453 -4813 0
-3454 -4814 0
-3455 -4815 0
-3456 -4816 0
-3453 -4849 0
-3454 -4850 0
-3455 -4851 0
-3456 -4852 0
-3457 -3461 0
-3458 -3462 0
-3459 -3463 0
-3460 -3464 0
-3457 -3501 0
-3458 -3502 0
-3459 -3503 0
-3460 -3504 0
-3457 -3561 0
-3458 -3562 0
-3459 -3563 0
-3460 -3564 0
-3457 -3701 0
-3458 -3702 0
-3459 -3703 0
-3460 -3704 0
-3457 -4153 0
-3458 -4154 0
-3459 -4155 0
-3460 -4156 0
-3457 -4605 0
-3458 -4606 0
-3459 -4607 0
-3460 -4608 0
-3457 -4817 0
-3458 -4818 0
-3459 -4819 0
-3460 -4820 0
-3457 -4853 0
-3458 -4854 0
-3459 -4855 0
-3460 -4856 0
-3461 -3465 0
-3462 -3466 0
-3463 -3467 0
-3464 -3468 0
-3461 -3469 0
-3462 -3470 0
-3463 -3471 0
-3464 -3472 0
-3461 -3473 0
-3462 -3474 0
-3463 -3475 0
-3464 -3476 0
-3461 -3477 0
-3462 -3478 0
-3463 -3479 0
-3464 -3480 0
-3461 -3481 0
-3462 -3482 0
-3463 -3483 0
-3464 -3484 0
-3461 -3485 0
-3462 -3486 0
-3463 -3487 0
-3464 -3488 0
-3461 -3489 0
-3462 -3490 0
-3463 -3491 0
-3464 -3492 0
-3461 -3501 0
-3462 -3502 0
-3463 -3503 0
-3464 -3504 0
-3461 -3505 0
-3462 -3506 0
-3463 -3507 0
-3464 -3508 0
-3461 -3513 0
-3462 -3514 0
-3463 -3515 0
-3464 -3516 0
-3461 -3517 0
-3462 -3518 0
-3463 -3519 0
-3464 -3520 0
-3461 -3525 0
-3462 -3526 0
-3463 -3527 0
-3464 -3528 0
-3461 -3529 0
-3462 -3530 0
-3463 -3531 0
-3464 -3532 0
-3461 -3553 0
-3462 -3554 0
-3463 -3555 0
-3464 -3556 0
-3461 -3557 0
-3462 -3558 0
-3463 -3559 0
-3464 -3560 0
-3461 -3565 0
-3462 -3566 0
-3463 -3567 0
-3464 -3568 0
-3461 -3673 0
-3462 -3674 0
-3463 -3675 0
-3464 -3676 0
-3461 -3705 0
-3462 -3706 0
-3463 -3707 0
-3464 -3708 0
-3461 -3721 0
-3462 -3722 0
-3463 -3723 0
-3464 -3724 0
-3461 -3773 0
-3462 -3774 0
-3463 -3775 0
-3464 -3776 0
-3461 -3825 0
-3462 -3826 0
-3463 -3827 0
-3464 -3828 0
-3461 -3969 0
-3462 -3970 0
-3463 -3971 0
-3464 -3972 0
-3461 -4061 0
-3462 -4062 0
-3463 -4063 0
-3464 -4064 0
-3461 -4157 0
-3462 -4158 0
-3463 -4159 0
-3464 -4160 0
-3461 -4205 0
-3462 -4206 0
-3463 -4207 0
-3464 -4208 0
-3461 -4237 0
-3462 -4238 0
-3463 -4239 0
-3464 -4240 0
-3461 -4317 0
-3462 -4318 0
-3463 -4319 0
-3464 -4320 0
-3461 -4329 0
-3462 -4330 0
-3463 -4331 0
-3464 -4332 0
-3461 -4609 0
-3462 -4610 0
-3463 -4611 0
-3464 -4612 0
-3461 -4613 0
-3462 -4614 0
-3463 -4615 0
-3464 -4616 0
-3461 -4725 0
-3462 -4726 0
-3463 -4727 0
-3464 -4728 0
-3461 -4733 0
-3462 -4734 0
-3463 -4735 0
-3464 -4736 0
-3461 -4821 0
-3462 -4822 0
-3463 -4823 0
-3464 -4824 0
-3461 -4857 0
-3462 -4858 0
-3463 -4859 0
-3464 -4860 0
-3461 -4949 0
-3462 -4950 0
-3463 -4951 0
-3464 -4952 0
-3461 -4957 0
-3462 -4958 0
-3463 -4959 0
-3464 -4960 0
-3461 -5093 0
-3462 -5094 0
-3463 -5095 0
-3464 -5096 0
-3465 -3505 0
-3466 -3506 0
-3467 -3507 0
-3468 -3508 0
-3465 -3829 0
-3466 -3830 0
-3467 -3831 0
-3468 -3832 0
-3465 -4065 0
-3466 -4066 0
-3467 -4067 0
-3468 -4068 0
-3465 -4825 0
-3466 -4826 0
-3467 -4827 0
-3468 -4828 0
-3465 -4861 0
-3466 -4862 0
-3467 -4863 0
-3468 -4864 0
-3469 -3517 0
-3470 -3518 0
-3471 -3519 0
-3472 -3520 0
-3469 -3569 0
-3470 -3570 0
-3471 -3571 0
-3472 -3572 0
-3469 -3833 0
-3470 -3834 0
-3471 -3835 0
-3472 -3836 0
-3469 -4333 0
-3470 -4334 0
-3471 -4335 0
-3472 -4336 0
-3469 -4829 0
-3470 -4830 0
-3471 -4831 0
-3472 -4832 0
-3469 -4865 0
-3470 -4866 0
-3471 -4867 0
-3472 -4868 0
-3473 -3529 0
-3474 -3530 0
-3475 -3531 0
-3476 -3532 0
-3473 -3677 0
-3474 -3678 0
-3475 -3679 0
-3476 -3680 0
-3473 -3725 0
-3474 -3726 0
-3475 -3727 0
-3476 -3728 0
-3473 -3973 0
-3474 -3974 0
-3475 -3975 0
-3476 -3976 0
-3473 -4209 0
-3474 -4210 0
-3475 -4211 0
-3476 -4212 0
-3473 -4833 0
-3474 -4834 0
-3475 -4835 0
-3476 -4836 0
-3473 -4869 0
-3474 -4870 0
-3475 -4871 0
-3476 -4872 0
-3477 -3557 0
-3478 -3558 0
-3479 -3559 0
-3480 -3560 0
-3477 -3981 0
-3478 -3982 0
-3479 -3983 0
-3480 -3984 0
-3477 -4213 0
-3478 -4214 0
-3479 -4215 0
-3480 -4216 0
-3477 -4245 0
-3478 -4246 0
-3479 -4247 0
-3480 -4248 0
-3477 -4837 0
-3478 -4838 0
-3479 -4839 0
-3480 -4840 0
-3477 -4873 0
-3478 -4874 0
-3479 -4875 0
-3480 -4876 0
-3481 -3577 0
-3482 -3578 0
-3483 -3579 0
-3484 -3580 0
-3481 -3729 0
-3482 -3730 0
-3483 -3731 0
-3484 -3732 0
-3481 -4073 0
-3482 -4074 0
-3483 -4075 0
-3484 -4076 0
-3481 -4249 0
-3482 -4250 0
-3483 -4251 0
-3484 -4252 0
-3481 -4617 0
-3482 -4618 0
-3483 -4619 0
-3484 -4620 0
-3481 -4857 0
-3482 -4858 0
-3483 -4859 0
-3484 -4860 0
-3485 -3681 0
-3486 -3682 0
-3487 -3683 0
-3488 -3684 0
-3485 -3841 0
-3486 -3842 0
-3487 -3843 0
-3488 -3844 0
-3485 -3993 0
-3486 -3994 0
-3487 -3995 0
-3488 -3996 0
-3485 -4621 0
-3486 -4622 0
-3487 -4623 0
-3488 -4624 0
-3485 -4733 0
-3486 -4734 0
-3487 -4735 0
-3488 -4736 0
-3485 -4877 0
-3486 -4878 0
-3487 -4879 0
-3488 -4880 0
-3485 -4881 0
-3486 -4882 0
-3487 -4883 0
-3488 -4884 0
-3489 -3581 0
-3490 -3582 0
-3491 -3583 0
-3492 -3584 0
-3489 -4001 0
-3490 -4002 0
-3491 -4003 0
-3492 -4004 0
-3489 -4885 0
-3490 -4886 0
-3491 -4887 0
-3492 -4888 0
-3489 -4889 0
-3490 -4890 0
-3491 -4891 0
-3492 -4892 0
-3489 -4957 0
-3490 -4958 0
-3491 -4959 0
-3492 -4960 0
-3493 -3497 0
-3494 -3498 0
-3495 -3499 0
-3496 -3500 0
-3493 -3501 0
-3494 -3502 0
-3495 -3503 0
-3496 -3504 0
-3493 -3785 0
-3494 -3786 0
-3495 -3787 0
-3496 -3788 0
-3493 -4345 0
-3494 -4346 0
-3495 -4347 0
-3496 -4348 0
-3493 -4893 0
-3494 -4894 0
-3495 -4895 0
-3496 -4896 0
-3497 -3505 0
-3498 -3506 0
-3499 -3507 0
-3500 -3508 0
-3497 -3845 0
-3498 -3846 0
-3499 -3847 0
-3500 -3848 0
-3497 -4233 0
-3498 -4234 0
-3499 -4235 0
-3500 -4236 0
-3497 -4349 0
-3498 -4350 0
-3499 -4351 0
-3500 -4352 0
-3497 -4897 0
-3498 -4898 0
-3499 -4899 0
-3500 -4900 0
-3501 -3505 0
-3502 -3506 0
-3503 -3507 0
-3504 -3508 0
-3501 -3589 0
-3502 -3590 0
-3503 -3591 0
-3504 -3592 0
-3501 -3789 0
-3502 -3790 0
-3503 -3791 0
-3504 -3792 0
-3501 -4161 0
-3502 -4162 0
-3503 -4163 0
-3504 -4164 0
-3501 -4365 0
-3502 -4366 0
-3503 -4367 0
-3504 -4368 0
-3501 -4625 0
-3502 -4626 0
-3503 -4627 0
-3504 -4628 0
-3501 -4893 0
-3502 -4894 0
-3503 -4895 0
-3504 -4896 0
-3501 -4901 0
-3502 -4902 0
-3503 -4903 0
-3504 -4904 0
-3505 -3853 0
-3506 -3854 0
-3507 -3855 0
-3508 -3856 0
-3505 -4369 0
-3506 -4370 0
-3507 -4371 0
-3508 -4372 0
-3505 -4629 0
-3506 -4630 0
-3507 -4631 0
-3508 -4632 0
-3505 -4897 0
-3506 -4898 0
-3507 -4899 0
-3508 -4900 0
-3505 -4905 0
-3506 -4906 0
-3507 -4907 0
-3508 -4908 0
-3509 -3517 0
-3510 -3518 0
-3511 -3519 0
-3512 -3520 0
-3509 -3777 0
-3510 -3778 0
-3511 -3779 0
-3512 -3780 0
-3509 -3881 0
-3510 -3882 0
-3511 -3883 0
-3512 -3884 0
-3509 -4385 0
-3510 -4386 0
-3511 -4387 0
-3512 -4388 0
-3509 -4913 0
-3510 -4914 0
-3511 -4915 0
-3512 -4916 0
-3513 -3517 0
-3514 -3518 0
-3515 -3519 0
-3516 -3520 0
-3513 -4189 0
-3514 -4190 0
-3515 -4191 0
-3516 -4192 0
-3513 -4637 0
-3514 -4638 0
-3515 -4639 0
-3516 -4640 0
-3513 -4909 0
-3514 -4910 0
-3515 -4911 0
-3516 -4912 0
-3513 -4917 0
-3514 -4918 0
-3515 -4919 0
-3516 -4920 0
-3513 -5133 0
-3514 -5134 0
-3515 -5135 0
-3516 -5136 0
-3517 -3605 0
-3518 -3606 0
-3519 -3607 0
-3520 -3608 0
-3517 -3885 0
-3518 -3886 0
-3519 -3887 0
-3520 -3888 0
-3517 -4389 0
-3518 -4390 0
-3519 -4391 0
-3520 -4392 0
-3517 -4641 0
-3518 -4642 0
-3519 -4643 0
-3520 -4644 0
-3517 -4913 0
-3518 -4914 0
-3519 -4915 0
-3520 -4916 0
-3517 -4921 0
-3518 -4922 0
-3519 -4923 0
-3520 -4924 0
-3521 -3525 0
-3522 -3526 0
-3523 -3527 0
-3524 -3528 0
-3521 -3801 0
-3522 -3802 0
-3523 -3803 0
-3524 -3804 0
-3521 -4665 0
-3522 -4666 0
-3523 -4667 0
-3524 -4668 0
-3521 -4925 0
-3522 -4926 0
-3523 -4927 0
-3524 -4928 0
-3525 -3529 0
-3526 -3530 0
-3527 -3531 0
-3528 -3532 0
-3525 -3625 0
-3526 -3626 0
-3527 -3627 0
-3528 -3628 0
-3525 -4677 0
-3526 -4678 0
-3527 -4679 0
-3528 -4680 0
-3525 -4925 0
-3526 -4926 0
-3527 -4927 0
-3528 -4928 0
-3525 -4933 0
-3526 -4934 0
-3527 -4935 0
-3528 -4936 0
-3529 -3713 0
-3530 -3714 0
-3531 -3715 0
-3532 -3716 0
-3529 -3733 0
-3530 -3734 0
-3531 -3735 0
-3532 -3736 0
-3529 -3837 0
-3530 -3838 0
-3531 -3839 0
-3532 -3840 0
-3529 -4405 0
-3530 -4406 0
-3531 -4407 0
-3532 -4408 0
-3529 -4929 0
-3530 -4930 0
-3531 -4931 0
-3532 -4932 0
-3529 -4937 0
-3530 -4938 0
-3531 -4939 0
-3532 -4940 0
-3533 -3537 0
-3534 -3538 0
-3535 -3539 0
-3536 -3540 0
-3533 -3541 0
-3534 -3542 0
-3535 -3543 0
-3536 -3544 0
-3533 -3797 0
-3534 -3798 0
-3535 -3799 0
-3536 -3800 0
-3533 -4421 0
-3534 -4422 0
-3535 -4423 0
-3536 -4424 0
-3533 -4693 0
-3534 -4694 0
-3535 -4695 0
-3536 -4696 0
-3533 -4793 0
-3534 -4794 0
-3535 -4795 0
-3536 -4796 0
-3533 -4821 0
-3534 -4822 0
-3535 -4823 0
-3536 -4824 0
-3533 -5149 0
-3534 -5150 0
-3535 -5151 0
-3536 -5152 0
-3537 -3545 0
-3538 -3546 0
-3539 -3547 0
-3540 -3548 0
-3537 -4257 0
-3538 -4258 0
-3539 -4259 0
-3540 -4260 0
-3537 -4277 0
-3538 -4278 0
-3539 -4279 0
-3540 -4280 0
-3537 -4797 0
-3538 -4798 0
-3539 -4799 0
-3540 -4800 0
-3537 -4857 0
-3538 -4858 0
-3539 -4859 0
-3540 -4860 0
-3541 -3545 0
-3542 -3546 0
-3543 -3547 0
-3544 -3548 0
-3541 -3645 0
-3542 -3646 0
-3543 -3647 0
-3544 -3648 0
-3541 -3877 0
-3542 -3878 0
-3543 -3879 0
-3544 -3880 0
-3541 -4057 0
-3542 -4058 0
-3543 -4059 0
-3544 -4060 0
-3541 -4261 0
-3542 -4262 0
-3543 -4263 0
-3544 -4264 0
-3541 -4441 0
-3542 -4442 0
-3543 -4443 0
-3544 -4444 0
-3541 -4697 0
-3542 -4698 0
-3543 -4699 0
-3544 -4700 0
-3541 -4821 0
-3542 -4822 0
-3543 -4823 0
-3544 -4824 0
-3541 -4877 0
-3542 -4878 0
-3543 -4879 0
-3544 -4880 0
-3541 -4941 0
-3542 -4942 0
-3543 -4943 0
-3544 -4944 0
-3545 -3753 0
-3546 -3754 0
-3547 -3755 0
-3548 -3756 0
-3545 -4069 0
-3546 -4070 0
-3547 -4071 0
-3548 -4072 0
-3545 -4265 0
-3546 -4266 0
-3547 -4267 0
-3548 -4268 0
-3545 -4701 0
-3546 -4702 0
-3547 -4703 0
-3548 -4704 0
-3545 -4857 0
-3546 -4858 0
-3547 -4859 0
-3548 -4860 0
-3545 -4881 0
-3546 -4882 0
-3547 -4883 0
-3548 -4884 0
-3545 -4941 0
-3546 -4942 0
-3547 -4943 0
-3548 -4944 0
-3549 -3557 0
-3550 -3558 0
-3551 -3559 0
-3552 -3560 0
-3549 -4281 0
-3550 -4282 0
-3551 -4283 0
-3552 -4284 0
-3549 -4469 0
-3550 -4470 0
-3551 -4471 0
-3552 -4472 0
-3549 -4965 0
-3550 -4966 0
-3551 -4967 0
-3552 -4968 0
-3553 -3557 0
-3554 -3558 0
-3555 -3559 0
-3556 -3560 0
-3553 -3669 0
-3554 -3670 0
-3555 -3671 0
-3556 -3672 0
-3553 -4473 0
-3554 -4474 0
-3555 -4475 0
-3556 -4476 0
-3553 -4961 0
-3554 -4962 0
-3555 -4963 0
-3556 -4964 0
-3553 -4969 0
-3554 -4970 0
-3555 -4971 0
-3556 -4972 0
-3557 -3785 0
-3558 -3786 0
-3559 -3787 0
-3560 -3788 0
-3557 -4477 0
-3558 -4478 0
-3559 -4479 0
-3560 -4480 0
-3557 -4965 0
-3558 -4966 0
-3559 -4967 0
-3560 -4968 0
-3557 -4973 0
-3558 -4974 0
-3559 -4975 0
-3560 -4976 0
-3561 -3565 0
-3562 -3566 0
-3563 -3567 0
-3564 -3568 0
-3561 -3573 0
-3562 -3574 0
-3563 -3575 0
-3564 -3576 0
-3561 -3589 0
-3562 -3590 0
-3563 -3591 0
-3564 -3592 0
-3561 -3601 0
-3562 -3602 0
-3563 -3603 0
-3564 -3604 0
-3561 -3621 0
-3562 -3622 0
-3563 -3623 0
-3564 -3624 0
-3561 -3629 0
-3562 -3630 0
-3563 -3631 0
-3564 -3632 0
-3561 -3797 0
-3562 -3798 0
-3563 -3799 0
-3564 -3800 0
-3561 -4289 0
-3562 -4290 0
-3563 -4291 0
-3564 -4292 0
-3561 -4741 0
-3562 -4742 0
-3563 -4743 0
-3564 -4744 0
-3561 -5001 0
-3562 -5002 0
-3563 -5003 0
-3564 -5004 0
-3565 -3569 0
-3566 -3570 0
-3567 -3571 0
-3568 -3572 0
-3565 -3577 0
-3566 -3578 0
-3567 -3579 0
-3568 -3580 0
-3565 -3581 0
-3566 -3582 0
-3567 -3583 0
-3568 -3584 0
-3565 -3589 0
-3566 -3590 0
-3567 -3591 0
-3568 -3592 0
-3565 -3605 0
-3566 -3606 0
-3567 -3607 0
-3568 -3608 0
-3565 -3625 0
-3566 -3626 0
-3567 -3627 0
-3568 -3628 0
-3565 -3669 0
-3566 -3670 0
-3567 -3671 0
-3568 -3672 0
-3565 -3765 0
-3566 -3766 0
-3567 -3767 0
-3568 -3768 0
-3565 -4077 0
-3566 -4078 0
-3567 -4079 0
-3568 -4080 0
-3565 -4169 0
-3566 -4170 0
-3567 -4171 0
-3568 -4172 0
-3565 -4329 0
-3566 -4330 0
-3567 -4331 0
-3568 -4332 0
-3565 -5005 0
-3566 -5006 0
-3567 -5007 0
-3568 -5008 0
-3565 -5197 0
-3566 -5198 0
-3567 -5199 0
-3568 -5200 0
-3569 -3593 0
-3570 -3594 0
-3571 -3595 0
-3572 -3596 0
-3569 -3605 0
-3570 -3606 0
-3571 -3607 0
-3572 -3608 0
-3569 -3769 0
-3570 -3770 0
-3571 -3771 0
-3572 -3772 0
-3569 -3941 0
-3570 -3942 0
-3571 -3943 0
-3572 -3944 0
-3569 -4081 0
-3570 -4082 0
-3571 -4083 0
-3572 -4084 0
-3569 -4333 0
-3570 -4334 0
-3571 -4335 0
-3572 -4336 0
-3569 -4361 0
-3570 -4362 0
-3571 -4363 0
-3572 -4364 0
-3569 -5009 0
-3570 -5010 0
-3571 -5011 0
-3572 -5012 0
-3569 -5065 0
-3570 -5066 0
-3571 -5067 0
-3572 -5068 0
-3573 -3577 0
-3574 -3578 0
-3575 -3579 0
-3576 -3580 0
-3573 -3633 0
-3574 -3634 0
-3575 -3635 0
-3576 -3636 0
-3573 -4293 0
-3574 -4294 0
-3575 -4295 0
-3576 -4296 0
-3573 -4381 0
-3574 -4382 0
-3575 -4383 0
-3576 -4384 0
-3573 -4749 0
-3574 -4750 0
-3575 -4751 0
-3576 -4752 0
-3573 -5001 0
-3574 -5002 0
-3575 -5003 0
-3576 -5004 0
-3577 -3637 0
-3578 -3638 0
-3579 -3639 0
-3580 -3640 0
-3577 -4173 0
-3578 -4174 0
-3579 -4175 0
-3580 -4176 0
-3577 -5005 0
-3578 -5006 0
-3579 -5007 0
-3580 -5008 0
-3581 -3677 0
-3582 -3678 0
-3583 -3679 0
-3584 -3680 0
-3581 -3829 0
-3582 -3830 0
-3583 -3831 0
-3584 -3832 0
-3581 -4097 0
-3582 -4098 0
-3583 -4099 0
-3584 -4100 0
-3581 -4201 0
-3582 -4202 0
-3583 -4203 0
-3584 -4204 0
-3581 -5017 0
-3582 -5018 0
-3583 -5019 0
-3584 -5020 0
-3585 -3593 0
-3586 -3594 0
-3587 -3595 0
-3588 -3596 0
-3585 -3613 0
-3586 -3614 0
-3587 -3615 0
-3588 -3616 0
-3585 -4353 0
-3586 -4354 0
-3587 -4355 0
-3588 -4356 0
-3585 -4505 0
-3586 -4506 0
-3587 -4507 0
-3588 -4508 0
-3585 -5021 0
-3586 -5022 0
-3587 -5023 0
-3588 -5024 0
-3585 -5085 0
-3586 -5086 0
-3587 -5087 0
-3588 -5088 0
-3589 -3593 0
-3590 -3594 0
-3591 -3595 0
-3592 -3596 0
-3589 -3617 0
-3590 -3618 0
-3591 -3619 0
-3592 -3620 0
-3589 -3725 0
-3590 -3726 0
-3591 -3727 0
-3592 -3728 0
-3589 -4105 0
-3590 -4106 0
-3591 -4107 0
-3592 -4108 0
-3589 -4301 0
-3590 -4302 0
-3591 -4303 0
-3592 -4304 0
-3589 -4365 0
-3590 -4366 0
-3591 -4367 0
-3592 -4368 0
-3589 -4753 0
-3590 -4754 0
-3591 -4755 0
-3592 -4756 0
-3589 -5025 0
-3590 -5026 0
-3591 -5027 0
-3592 -5028 0
-3593 -3597 0
-3594 -3598 0
-3595 -3599 0
-3596 -3600 0
-3593 -3617 0
-3594 -3618 0
-3595 -3619 0
-3596 -3620 0
-3593 -3785 0
-3594 -3786 0
-3595 -3787 0
-3596 -3788 0
-3593 -3985 0
-3594 -3986 0
-3595 -3987 0
-3596 -3988 0
-3593 -4373 0
-3594 -4374 0
-3595 -4375 0
-3596 -4376 0
-3593 -4509 0
-3594 -4510 0
-3595 -4511 0
-3596 -4512 0
-3593 -4757 0
-3594 -4758 0
-3595 -4759 0
-3596 -4760 0
-3593 -5021 0
-3594 -5022 0
-3595 -5023 0
-3596 -5024 0
-3593 -5029 0
-3594 -5030 0
-3595 -5031 0
-3596 -5032 0
-3593 -5093 0
-3594 -5094 0
-3595 -5095 0
-3596 -5096 0
-3597 -3857 0
-3598 -3858 0
-3599 -3859 0
-3600 -3860 0
-3597 -4529 0
-3598 -4530 0
-3599 -4531 0
-3600 -4532 0
-3597 -5093 0
-3598 -5094 0
-3599 -5095 0
-3600 -5096 0
-3601 -3605 0
-3602 -3606 0
-3603 -3607 0
-3604 -3608 0
-3601 -3617 0
-3602 -3618 0
-3603 -3619 0
-3604 -3620 0
-3601 -3641 0
-3602 -3642 0
-3603 -3643 0
-3604 -3644 0
-3601 -3645 0
-3602 -3646 0
-3603 -3647 0
-3604 -3648 0
-3601 -3873 0
-3602 -3874 0
-3603 -3875 0
-3604 -3876 0
-3601 -4109 0
-3602 -4110 0
-3603 -4111 0
-3604 -4112 0
-3601 -4325 0
-3602 -4326 0
-3603 -4327 0
-3604 -4328 0
-3601 -4529 0
-3602 -4530 0
-3603 -4531 0
-3604 -4532 0
-3601 -4769 0
-3602 -4770 0
-3603 -4771 0
-3604 -4772 0
-3601 -5033 0
-3602 -5034 0
-3603 -5035 0
-3604 -5036 0
-3605 -3617 0
-3606 -3618 0
-3607 -3619 0
-3608 -3620 0
-3605 -4009 0
-3606 -4010 0
-3607 -4011 0
-3608 -4012 0
-3605 -4113 0
-3606 -4114 0
-3607 -4115 0
-3608 -4116 0
-3605 -4533 0
-3606 -4534 0
-3607 -4535 0
-3608 -4536 0
-3605 -4773 0
-3606 -4774 0
-3607 -4775 0
-3608 -4776 0
-3605 -5037 0
-3606 -5038 0
-3607 -5039 0
-3608 -5040 0
-3605 -5237 0
-3606 -5238 0
-3607 -5239 0
-3608 -5240 0
-3609 -3617 0
-3610 -3618 0
-3611 -3619 0
-3612 -3620 0
-3609 -3653 0
-3610 -3654 0
-3611 -3655 0
-3612 -3656 0
-3609 -3909 0
-3610 -3910 0
-3611 -3911 0
-3612 -3912 0
-3609 -4125 0
-3610 -4126 0
-3611 -4127 0
-3612 -4128 0
-3609 -4337 0
-3610 -4338 0
-3611 -4339 0
-3612 -4340 0
-3609 -4793 0
-3610 -4794 0
-3611 -4795 0
-3612 -4796 0
-3609 -4977 0
-3610 -4978 0
-3611 -4979 0
-3612 -4980 0
-3609 -5097 0
-3610 -5098 0
-3611 -5099 0
-3612 -5100 0
-3609 -5117 0
-3610 -5118 0
-3611 -5119 0
-3612 -5120 0
-3609 -5241 0
-3610 -5242 0
-3611 -5243 0
-3612 -5244 0
-3613 -3617 0
-3614 -3618 0
-3615 -3619 0
-3616 -3620 0
-3613 -4801 0
-3614 -4802 0
-3615 -4803 0
-3616 -4804 0
-3613 -5041 0
-3614 -5042 0
-3615 -5043 0
-3616 -5044 0
-3613 -5129 0
-3614 -5130 0
-3615 -5131 0
-3616 -5132 0
-3617 -3657 0
-3618 -3658 0
-3619 -3659 0
-3620 -3660 0
-3617 -3889 0
-3618 -3890 0
-3619 -3891 0
-3620 -3892 0
-3617 -4017 0
-3618 -4018 0
-3619 -4019 0
-3620 -4020 0
-3617 -4357 0
-3618 -4358 0
-3619 -4359 0
-3620 -4360 0
-3617 -4537 0
-3618 -4538 0
-3619 -4539 0
-3620 -4540 0
-3617 -4821 0
-3618 -4822 0
-3619 -4823 0
-3620 -4824 0
-3617 -4977 0
-3618 -4978 0
-3619 -4979 0
-3620 -4980 0
-3617 -5041 0
-3618 -5042 0
-3619 -5043 0
-3620 -5044 0
-3617 -5045 0
-3618 -5046 0
-3619 -5047 0
-3620 -5048 0
-3617 -5105 0
-3618 -5106 0
-3619 -5107 0
-3620 -5108 0
-3617 -5133 0
-3618 -5134 0
-3619 -5135 0
-3620 -5136 0
-3621 -3625 0
-3622 -3626 0
-3623 -3627 0
-3624 -3628 0
-3621 -3629 0
-3622 -3630 0
-3623 -3631 0
-3624 -3632 0
-3621 -3633 0
-3622 -3634 0
-3623 -3635 0
-3624 -3636 0
-3621 -3641 0
-3622 -3642 0
-3623 -3643 0
-3624 -3644 0
-3621 -3689 0
-3622 -3690 0
-3623 -3691 0
-3624 -3692 0
-3621 -3697 0
-3622 -3698 0
-3623 -3699 0
-3624 -3700 0
-3621 -3937 0
-3622 -3938 0
-3623 -3939 0
-3624 -3940 0
-3621 -4145 0
-3622 -4146 0
-3623 -4147 0
-3624 -4148 0
-3621 -4429 0
-3622 -4430 0
-3623 -4431 0
-3624 -4432 0
-3621 -4821 0
-3622 -4822 0
-3623 -4823 0
-3624 -4824 0
-3621 -4981 0
-3622 -4982 0
-3623 -4983 0
-3624 -4984 0
-3621 -4989 0
-3622 -4990 0
-3623 -4991 0
-3624 -4992 0
-3621 -5049 0
-3622 -5050 0
-3623 -5051 0
-3624 -5052 0
-3625 -3637 0
-3626 -3638 0
-3627 -3639 0
-3628 -3640 0
-3625 -3693 0
-3626 -3694 0
-3627 -3695 0
-3628 -3696 0
-3625 -4149 0
-3626 -4150 0
-3627 -4151 0
-3628 -4152 0
-3625 -4261 0
-3626 -4262 0
-3627 -4263 0
-3628 -4264 0
-3625 -4825 0
-3626 -4826 0
-3627 -4827 0
-3628 -4828 0
-3625 -5053 0
-3626 -5054 0
-3627 -5055 0
-3628 -5056 0
-3625 -5249 0
-3626 -5250 0
-3627 -5251 0
-3628 -5252 0
-3629 -3645 0
-3630 -3646 0
-3631 -3647 0
-3632 -3648 0
-3629 -3805 0
-3630 -3806 0
-3631 -3807 0
-3632 -3808 0
-3629 -3941 0
-3630 -3942 0
-3631 -3943 0
-3632 -3944 0
-3629 -4401 0
-3630 -4402 0
-3631 -4403 0
-3632 -4404 0
-3629 -4833 0
-3630 -4834 0
-3631 -4835 0
-3632 -4836 0
-3629 -5057 0
-3630 -5058 0
-3631 -5059 0
-3632 -5060 0
-3633 -3637 0
-3634 -3638 0
-3635 -3639 0
-3636 -3640 0
-3633 -3649 0
-3634 -3650 0
-3635 -3651 0
-3636 -3652 0
-3633 -3701 0
-3634 -3702 0
-3635 -3703 0
-3636 -3704 0
-3633 -3709 0
-3634 -3710 0
-3635 -3711 0
-3636 -3712 0
-3633 -3821 0
-3634 -3822 0
-3635 -3823 0
-3636 -3824 0
-3633 -4433 0
-3634 -4434 0
-3635 -4435 0
-3636 -4436 0
-3633 -4857 0
-3634 -4858 0
-3635 -4859 0
-3636 -4860 0
-3633 -4985 0
-3634 -4986 0
-3635 -4987 0
-3636 -4988 0
-3633 -4993 0
-3634 -4994 0
-3635 -4995 0
-3636 -4996 0
-3633 -5049 0
-3634 -5050 0
-3635 -5051 0
-3636 -5052 0
-3637 -3705 0
-3638 -3706 0
-3639 -3707 0
-3640 -3708 0
-3637 -4265 0
-3638 -4266 0
-3639 -4267 0
-3640 -4268 0
-3637 -4861 0
-3638 -4862 0
-3639 -4863 0
-3640 -4864 0
-3637 -5053 0
-3638 -5054 0
-3639 -5055 0
-3640 -5056 0
-3641 -3645 0
-3642 -3646 0
-3643 -3647 0
-3644 -3648 0
-3641 -3649 0
-3642 -3650 0
-3643 -3651 0
-3644 -3652 0
-3641 -3745 0
-3642 -3746 0
-3643 -3747 0
-3644 -3748 0
-3641 -3945 0
-3642 -3946 0
-3643 -3947 0
-3644 -3948 0
-3641 -4185 0
-3642 -4186 0
-3643 -4187 0
-3644 -4188 0
-3641 -4557 0
-3642 -4558 0
-3643 -4559 0
-3644 -4560 0
-3641 -4913 0
-3642 -4914 0
-3643 -4915 0
-3644 -4916 0
-3641 -5061 0
-3642 -5062 0
-3643 -5063 0
-3644 -5064 0
-3645 -3657 0
-3646 -3658 0
-3647 -3659 0
-3648 -3660 0
-3645 -3881 0
-3646 -3882 0
-3647 -3883 0
-3648 -3884 0
-3645 -4193 0
-3646 -4194 0
-3647 -4195 0
-3648 -4196 0
-3645 -4561 0
-3646 -4562 0
-3647 -4563 0
-3648 -4564 0
-3649 -3749 0
-3650 -3750 0
-3651 -3751 0
-3652 -3752 0
-3649 -4205 0
-3650 -4206 0
-3651 -4207 0
-3652 -4208 0
-3649 -4921 0
-3650 -4922 0
-3651 -4923 0
-3652 -4924 0
-3649 -5061 0
-3650 -5062 0
-3651 -5063 0
-3652 -5064 0
-3653 -3657 0
-3654 -3658 0
-3655 -3659 0
-3656 -3660 0
-3653 -3973 0
-3654 -3974 0
-3655 -3975 0
-3656 -3976 0
-3653 -4221 0
-3654 -4222 0
-3655 -4223 0
-3656 -4224 0
-3653 -4453 0
-3654 -4454 0
-3655 -4455 0
-3656 -4456 0
-3653 -4565 0
-3654 -4566 0
-3655 -4567 0
-3656 -4568 0
-3653 -5145 0
-3654 -5146 0
-3655 -5147 0
-3656 -5148 0
-3653 -5157 0
-3654 -5158 0
-3655 -5159 0
-3656 -5160 0
-3653 -5289 0
-3654 -5290 0
-3655 -5291 0
-3656 -5292 0
-3657 -3893 0
-3658 -3894 0
-3659 -3895 0
-3660 -3896 0
-3657 -4029 0
-3658 -4030 0
-3659 -4031 0
-3660 -4032 0
-3657 -4237 0
-3658 -4238 0
-3659 -4239 0
-3660 -4240 0
-3657 -4573 0
-3658 -4574 0
-3659 -4575 0
-3660 -4576 0
-3657 -4929 0
-3658 -4930 0
-3659 -4931 0
-3660 -4932 0
-3661 -3673 0
-3662 -3674 0
-3663 -3675 0
-3664 -3676 0
-3661 -4465 0
-3662 -4466 0
-3663 -4467 0
-3664 -4468 0
-3661 -4581 0
-3662 -4582 0
-3663 -4583 0
-3664 -4584 0
-3661 -5069 0
-3662 -5070 0
-3663 -5071 0
-3664 -5072 0
-3661 -5073 0
-3662 -5074 0
-3663 -5075 0
-3664 -5076 0
-3665 -3669 0
-3666 -3670 0
-3667 -3671 0
-3668 -3672 0
-3665 -3673 0
-3666 -3674 0
-3667 -3675 0
-3668 -3676 0
-3665 -3693 0
-3666 -3694 0
-3667 -3695 0
-3668 -3696 0
-3665 -3761 0
-3666 -3762 0
-3667 -3763 0
-3668 -3764 0
-3665 -4189 0
-3666 -4190 0
-3667 -4191 0
-3668 -4192 0
-3665 -5097 0
-3666 -5098 0
-3667 -5099 0
-3668 -5100 0
-3669 -3677 0
-3670 -3678 0
-3671 -3679 0
-3672 -3680 0
-3669 -3693 0
-3670 -3694 0
-3671 -3695 0
-3672 -3696 0
-3669 -3905 0
-3670 -3906 0
-3671 -3907 0
-3672 -3908 0
-3669 -4473 0
-3670 -4474 0
-3671 -4475 0
-3672 -4476 0
-3669 -4589 0
-3670 -4590 0
-3671 -4591 0
-3672 -4592 0
-3669 -5101 0
-3670 -5102 0
-3671 -5103 0
-3672 -5104 0
-3673 -3677 0
-3674 -3678 0
-3675 -3679 0
-3676 -3680 0
-3673 -3681 0
-3674 -3682 0
-3675 -3683 0
-3676 -3684 0
-3673 -3713 0
-3674 -3714 0
-3675 -3715 0
-3676 -3716 0
-3673 -3765 0
-3674 -3766 0
-3675 -3767 0
-3676 -3768 0
-3673 -4281 0
-3674 -4282 0
-3675 -4283 0
-3676 -4284 0
-3673 -5109 0
-3674 -5110 0
-3675 -5111 0
-3676 -5112 0
-3673 -5117 0
-3674 -5118 0
-3675 -5119 0
-3676 -5120 0
-3677 -3713 0
-3678 -3714 0
-3679 -3715 0
-3680 -3716 0
-3677 -3913 0
-3678 -3914 0
-3679 -3915 0
-3680 -3916 0
-3677 -4221 0
-3678 -4222 0
-3679 -4223 0
-3680 -4224 0
-3677 -5113 0
-3678 -5114 0
-3679 -5115 0
-3680 -5116 0
-3677 -5125 0
-3678 -5126 0
-3679 -5127 0
-3680 -5128 0
-3681 -4233 0
-3682 -4234 0
-3683 -4235 0
-3684 -4236 0
-3681 -4953 0
-3682 -4954 0
-3683 -4955 0
-3684 -4956 0
-3681 -5129 0
-3682 -5130 0
-3683 -5131 0
-3684 -5132 0
-3681 -5133 0
-3682 -5134 0
-3683 -5135 0
-3684 -5136 0
-3685 -3689 0
-3686 -3690 0
-3687 -3691 0
-3688 -3692 0
-3685 -3693 0
-3686 -3694 0
-3687 -3695 0
-3688 -3696 0
-3685 -4613 0
-3686 -4614 0
-3687 -4615 0
-3688 -4616 0
-3685 -5137 0
-3686 -5138 0
-3687 -5139 0
-3688 -5140 0
-3689 -3693 0
-3690 -3694 0
-3691 -3695 0
-3692 -3696 0
-3689 -3697 0
-3690 -3698 0
-3691 -3699 0
-3692 -3700 0
-3689 -3701 0
-3690 -3702 0
-3691 -3703 0
-3692 -3704 0
-3689 -3793 0
-3690 -3794 0
-3691 -3795 0
-3692 -3796 0
-3689 -4049 0
-3690 -4050 0
-3691 -4051 0
-3692 -4052 0
-3689 -4625 0
-3690 -4626 0
-3691 -4627 0
-3692 -4628 0
-3689 -4961 0
-3690 -4962 0
-3691 -4963 0
-3692 -4964 0
-3689 -5077 0
-3690 -5078 0
-3691 -5079 0
-3692 -5080 0
-3689 -5141 0
-3690 -5142 0
-3691 -5143 0
-3692 -5144 0
-3693 -3705 0
-3694 -3706 0
-3695 -3707 0
-3696 -3708 0
-3693 -3713 0
-3694 -3714 0
-3695 -3715 0
-3696 -3716 0
-3693 -3953 0
-3694 -3954 0
-3695 -3955 0
-3696 -3956 0
-3693 -4629 0
-3694 -4630 0
-3695 -4631 0
-3696 -4632 0
-3693 -4633 0
-3694 -4634 0
-3695 -4635 0
-3696 -4636 0
-3693 -5081 0
-3694 -5082 0
-3695 -5083 0
-3696 -5084 0
-3693 -5145 0
-3694 -5146 0
-3695 -5147 0
-3696 -5148 0
-3693 -5309 0
-3694 -5310 0
-3695 -5311 0
-3696 -5312 0
-3697 -3709 0
-3698 -3710 0
-3699 -3711 0
-3700 -3712 0
-3697 -3813 0
-3698 -3814 0
-3699 -3815 0
-3700 -3816 0
-3697 -4269 0
-3698 -4270 0
-3699 -4271 0
-3700 -4272 0
-3697 -4965 0
-3698 -4966 0
-3699 -4967 0
-3700 -4968 0
-3697 -5069 0
-3698 -5070 0
-3699 -5071 0
-3700 -5072 0
-3697 -5085 0
-3698 -5086 0
-3699 -5087 0
-3700 -5088 0
-3697 -5149 0
-3698 -5150 0
-3699 -5151 0
-3700 -5152 0
-3701 -3705 0
-3702 -3706 0
-3703 -3707 0
-3704 -3708 0
-3701 -3709 0
-3702 -3710 0
-3703 -3711 0
-3704 -3712 0
-3701 -3797 0
-3702 -3798 0
-3703 -3799 0
-3704 -3800 0
-3701 -4053 0
-3702 -4054 0
-3703 -4055 0
-3704 -4056 0
-3701 -4969 0
-3702 -4970 0
-3703 -4971 0
-3704 -4972 0
-3701 -5089 0
-3702 -5090 0
-3703 -5091 0
-3704 -5092 0
-3701 -5141 0
-3702 -5142 0
-3703 -5143 0
-3704 -5144 0
-3705 -3969 0
-3706 -3970 0
-3707 -3971 0
-3708 -3972 0
-3705 -5145 0
-3706 -5146 0
-3707 -5147 0
-3708 -5148 0
-3705 -5313 0
-3706 -5314 0
-3707 -5315 0
-3708 -5316 0
-3709 -3833 0
-3710 -3834 0
-3711 -3835 0
-3712 -3836 0
-3709 -3977 0
-3710 -3978 0
-3711 -3979 0
-3712 -3980 0
-3709 -4273 0
-3710 -4274 0
-3711 -4275 0
-3712 -4276 0
-3709 -4501 0
-3710 -4502 0
-3711 -4503 0
-3712 -4504 0
-3709 -4973 0
-3710 -4974 0
-3711 -4975 0
-3712 -4976 0
-3709 -5073 0
-3710 -5074 0
-3711 -5075 0
-3712 -5076 0
-3709 -5093 0
-3710 -5094 0
-3711 -5095 0
-3712 -5096 0
-3709 -5149 0
-3710 -5150 0
-3711 -5151 0
-3712 -5152 0
-3713 -3809 0
-3714 -3810 0
-3715 -3811 0
-3716 -3812 0
-3713 -3997 0
-3714 -3998 0
-3715 -3999 0
-3716 -4000 0
-3713 -4637 0
-3714 -4638 0
-3715 -4639 0
-3716 -4640 0
-3713 -5153 0
-3714 -5154 0
-3715 -5155 0
-3716 -5156 0
-3713 -5157 0
-3714 -5158 0
-3715 -5159 0
-3716 -5160 0
-3717 -3721 0
-3718 -3722 0
-3719 -3723 0
-3720 -3724 0
-3717 -3761 0
-3718 -3762 0
-3719 -3763 0
-3720 -3764 0
-3717 -3769 0
-3718 -3770 0
-3719 -3771 0
-3720 -3772 0
-3717 -3933 0
-3718 -3934 0
-3719 -3935 0
-3720 -3936 0
-3717 -4325 0
-3718 -4326 0
-3719 -4327 0
-3720 -4328 0
-3717 -4513 0
-3718 -4514 0
-3719 -4515 0
-3720 -4516 0
-3717 -5161 0
-3718 -5162 0
-3719 -5163 0
-3720 -5164 0
-3717 -5325 0
-3718 -5326 0
-3719 -5327 0
-3720 -5328 0
-3721 -3725 0
-3722 -3726 0
-3723 -3727 0
-3724 -3728 0
-3721 -3729 0
-3722 -3730 0
-3723 -3731 0
-3724 -3732 0
-3721 -3733 0
-3722 -3734 0
-3723 -3735 0
-3724 -3736 0
-3721 -3785 0
-3722 -3786 0
-3723 -3787 0
-3724 -3788 0
-3721 -3969 0
-3722 -3970 0
-3723 -3971 0
-3724 -3972 0
-3721 -4093 0
-3722 -4094 0
-3723 -4095 0
-3724 -4096 0
-3721 -4353 0
-3722 -4354 0
-3723 -4355 0
-3724 -4356 0
-3721 -4977 0
-3722 -4978 0
-3723 -4979 0
-3724 -4980 0
-3721 -4981 0
-3722 -4982 0
-3723 -4983 0
-3724 -4984 0
-3721 -5165 0
-3722 -5166 0
-3723 -5167 0
-3724 -5168 0
-3721 -5189 0
-3722 -5190 0
-3723 -5191 0
-3724 -5192 0
-3721 -5205 0
-3722 -5206 0
-3723 -5207 0
-3724 -5208 0
-3725 -3733 0
-3726 -3734 0
-3727 -3735 0
-3728 -3736 0
-3725 -3913 0
-3726 -3914 0
-3727 -3915 0
-3728 -3916 0
-3725 -3973 0
-3726 -3974 0
-3727 -3975 0
-3728 -3976 0
-3725 -4105 0
-3726 -4106 0
-3727 -4107 0
-3728 -4108 0
-3725 -5173 0
-3726 -5174 0
-3727 -5175 0
-3728 -5176 0
-3725 -5193 0
-3726 -5194 0
-3727 -5195 0
-3728 -5196 0
-3725 -5209 0
-3726 -5210 0
-3727 -5211 0
-3728 -5212 0
-3729 -3741 0
-3730 -3742 0
-3731 -3743 0
-3732 -3744 0
-3729 -3789 0
-3730 -3790 0
-3731 -3791 0
-3732 -3792 0
-3729 -4373 0
-3730 -4374 0
-3731 -4375 0
-3732 -4376 0
-3729 -4985 0
-3730 -4986 0
-3731 -4987 0
-3732 -4988 0
-3729 -5165 0
-3730 -5166 0
-3731 -5167 0
-3732 -5168 0
-3733 -3737 0
-3734 -3738 0
-3735 -3739 0
-3736 -3740 0
-3733 -3741 0
-3734 -3742 0
-3735 -3743 0
-3736 -3744 0
-3733 -3849 0
-3734 -3850 0
-3735 -3851 0
-3736 -3852 0
-3733 -3997 0
-3734 -3998 0
-3735 -3999 0
-3736 -4000 0
-3733 -4101 0
-3734 -4102 0
-3735 -4103 0
-3736 -4104 0
-3733 -4309 0
-3734 -4310 0
-3735 -4311 0
-3736 -4312 0
-3733 -4705 0
-3734 -4706 0
-3735 -4707 0
-3736 -4708 0
-3733 -5177 0
-3734 -5178 0
-3735 -5179 0
-3736 -5180 0
-3733 -5245 0
-3734 -5246 0
-3735 -5247 0
-3736 -5248 0
-3737 -3849 0
-3738 -3850 0
-3739 -3851 0
-3740 -3852 0
-3737 -4041 0
-3738 -4042 0
-3739 -4043 0
-3740 -4044 0
-3737 -4313 0
-3738 -4314 0
-3739 -4315 0
-3740 -4316 0
-3737 -4557 0
-3738 -4558 0
-3739 -4559 0
-3740 -4560 0
-3737 -4709 0
-3738 -4710 0
-3739 -4711 0
-3740 -4712 0
-3737 -5249 0
-3738 -5250 0
-3739 -5251 0
-3740 -5252 0
-3741 -3857 0
-3742 -3858 0
-3743 -3859 0
-3744 -3860 0
-3741 -3901 0
-3742 -3902 0
-3743 -3903 0
-3744 -3904 0
-3741 -4001 0
-3742 -4002 0
-3743 -4003 0
-3744 -4004 0
-3741 -4437 0
-3742 -4438 0
-3743 -4439 0
-3744 -4440 0
-3741 -4713 0
-3742 -4714 0
-3743 -4715 0
-3744 -4716 0
-3741 -5177 0
-3742 -5178 0
-3743 -5179 0
-3744 -5180 0
-3745 -3749 0
-3746 -3750 0
-3747 -3751 0
-3748 -3752 0
-3745 -3861 0
-3746 -3862 0
-3747 -3863 0
-3748 -3864 0
-3745 -3865 0
-3746 -3866 0
-3747 -3867 0
-3748 -3868 0
-3745 -4321 0
-3746 -4322 0
-3747 -4323 0
-3748 -4324 0
-3745 -4709 0
-3746 -4710 0
-3747 -4711 0
-3748 -4712 0
-3749 -3753 0
-3750 -3754 0
-3751 -3755 0
-3752 -3756 0
-3749 -3873 0
-3750 -3874 0
-3751 -3875 0
-3752 -3876 0
-3749 -3877 0
-3750 -3878 0
-3751 -3879 0
-3752 -3880 0
-3749 -4005 0
-3750 -4006 0
-3751 -4007 0
-3752 -4008 0
-3749 -4329 0
-3750 -4330 0
-3751 -4331 0
-3752 -4332 0
-3749 -4573 0
-3750 -4574 0
-3751 -4575 0
-3752 -4576 0
-3749 -4717 0
-3750 -4718 0
-3751 -4719 0
-3752 -4720 0
-3749 -5037 0
-3750 -5038 0
-3751 -5039 0
-3752 -5040 0
-3749 -5161 0
-3750 -5162 0
-3751 -5163 0
-3752 -5164 0
-3749 -5369 0
-3750 -5370 0
-3751 -5371 0
-3752 -5372 0
-3753 -4365 0
-3754 -4366 0
-3755 -4367 0
-3756 -4368 0
-3753 -4545 0
-3754 -4546 0
-3755 -4547 0
-3756 -4548 0
-3753 -5045 0
-3754 -5046 0
-3755 -5047 0
-3756 -5048 0
-3753 -5049 0
-3754 -5050 0
-3755 -5051 0
-3756 -5052 0
-3753 -5165 0
-3754 -5166 0
-3755 -5167 0
-3756 -5168 0
-3757 -3777 0
-3758 -3778 0
-3759 -3779 0
-3760 -3780 0
-3757 -5185 0
-3758 -5186 0
-3759 -5187 0
-3760 -5188 0
-3757 -5193 0
-3758 -5194 0
-3759 -5195 0
-3760 -5196 0
-3761 -3769 0
-3762 -3770 0
-3763 -3771 0
-3764 -3772 0
-3761 -3777 0
-3762 -3778 0
-3763 -3779 0
-3764 -3780 0
-3761 -4189 0
-3762 -4190 0
-3763 -4191 0
-3764 -4192 0
-3761 -4725 0
-3762 -4726 0
-3763 -4727 0
-3764 -4728 0
-3761 -5217 0
-3762 -5218 0
-3763 -5219 0
-3764 -5220 0
-3761 -5405 0
-3762 -5406 0
-3763 -5407 0
-3764 -5408 0
-3765 -3769 0
-3766 -3770 0
-3767 -3771 0
-3768 -3772 0
-3765 -3809 0
-3766 -3810 0
-3767 -3811 0
-3768 -3812 0
-3765 -4469 0
-3766 -4470 0
-3767 -4471 0
-3768 -4472 0
-3765 -5221 0
-3766 -5222 0
-3767 -5223 0
-3768 -5224 0
-3769 -3773 0
-3770 -3774 0
-3771 -3775 0
-3772 -3776 0
-3769 -3781 0
-3770 -3782 0
-3771 -3783 0
-3772 -3784 0
-3769 -3785 0
-3770 -3786 0
-3771 -3787 0
-3772 -3788 0
-3769 -3801 0
-3770 -3802 0
-3771 -3803 0
-3772 -3804 0
-3769 -3817 0
-3770 -3818 0
-3771 -3819 0
-3772 -3820 0
-3769 -4177 0
-3770 -4178 0
-3771 -4179 0
-3772 -4180 0
-3769 -4337 0
-3770 -4338 0
-3771 -4339 0
-3772 -4340 0
-3769 -4597 0
-3770 -4598 0
-3771 -4599 0
-3772 -4600 0
-3769 -5225 0
-3770 -5226 0
-3771 -5227 0
-3772 -5228 0
-3773 -3789 0
-3774 -3790 0
-3775 -3791 0
-3776 -3792 0
-3773 -3837 0
-3774 -3838 0
-3775 -3839 0
-3776 -3840 0
-3773 -4181 0
-3774 -4182 0
-3775 -4183 0
-3776 -4184 0
-3773 -4609 0
-3774 -4610 0
-3775 -4611 0
-3776 -4612 0
-3773 -5225 0
-3774 -5226 0
-3775 -5227 0
-3776 -5228 0
-3777 -3781 0
-3778 -3782 0
-3779 -3783 0
-3780 -3784 0
-3777 -4193 0
-3778 -4194 0
-3779 -4195 0
-3780 -4196 0
-3777 -4733 0
-3778 -4734 0
-3779 -4735 0
-3780 -4736 0
-3777 -5233 0
-3778 -5234 0
-3779 -5235 0
-3780 -5236 0
-3781 -4065 0
-3782 -4066 0
-3783 -4067 0
-3784 -4068 0
-3781 -4201 0
-3782 -4202 0
-3783 -4203 0
-3784 -4204 0
-3781 -4357 0
-3782 -4358 0
-3783 -4359 0
-3784 -4360 0
-3781 -5237 0
-3782 -5238 0
-3783 -5239 0
-3784 -5240 0
-3785 -3789 0
-3786 -3790 0
-3787 -3791 0
-3788 -3792 0
-3785 -3849 0
-3786 -3850 0
-3787 -3851 0
-3788 -3852 0
-3785 -4225 0
-3786 -4226 0
-3787 -4227 0
-3788 -4228 0
-3785 -4385 0
-3786 -4386 0
-3787 -4387 0
-3788 -4388 0
-3785 -4737 0
-3786 -4738 0
-3787 -4739 0
-3788 -4740 0
-3785 -5069 0
-3786 -5070 0
-3787 -5071 0
-3788 -5072 0
-3785 -5241 0
-3786 -5242 0
-3787 -5243 0
-3788 -5244 0
-3789 -3857 0
-3790 -3858 0
-3791 -3859 0
-3792 -3860 0
-3789 -4389 0
-3790 -4390 0
-3791 -4391 0
-3792 -4392 0
-3789 -4745 0
-3790 -4746 0
-3791 -4747 0
-3792 -4748 0
-3789 -5073 0
-3790 -5074 0
-3791 -5075 0
-3792 -5076 0
-3789 -5241 0
-3790 -5242 0
-3791 -5243 0
-3792 -5244 0
-3793 -3797 0
-3794 -3798 0
-3795 -3799 0
-3796 -3800 0
-3793 -3805 0
-3794 -3806 0
-3795 -3807 0
-3796 -3808 0
-3793 -3861 0
-3794 -3862 0
-3795 -3863 0
-3796 -3864 0
-3793 -4397 0
-3794 -4398 0
-3795 -4399 0
-3796 -4400 0
-3793 -4753 0
-3794 -4754 0
-3795 -4755 0
-3796 -4756 0
-3793 -5185 0
-3794 -5186 0
-3795 -5187 0
-3796 -5188 0
-3793 -5253 0
-3794 -5254 0
-3795 -5255 0
-3796 -5256 0
-3797 -3825 0
-3798 -3826 0
-3799 -3827 0
-3800 -3828 0
-3797 -3869 0
-3798 -3870 0
-3799 -3871 0
-3800 -3872 0
-3797 -3873 0
-3798 -3874 0
-3799 -3875 0
-3800 -3876 0
-3797 -4405 0
-3798 -4406 0
-3799 -4407 0
-3800 -4408 0
-3797 -4761 0
-3798 -4762 0
-3799 -4763 0
-3800 -4764 0
-3797 -5101 0
-3798 -5102 0
-3799 -5103 0
-3800 -5104 0
-3797 -5181 0
-3798 -5182 0
-3799 -5183 0
-3800 -5184 0
-3797 -5193 0
-3798 -5194 0
-3799 -5195 0
-3800 -5196 0
-3797 -5253 0
-3798 -5254 0
-3799 -5255 0
-3800 -5256 0
-3797 -5257 0
-3798 -5258 0
-3799 -5259 0
-3800 -5260 0
-3801 -3817 0
-3802 -3818 0
-3803 -3819 0
-3804 -3820 0
-3801 -4157 0
-3802 -4158 0
-3803 -4159 0
-3804 -4160 0
-3801 -4665 0
-3802 -4666 0
-3803 -4667 0
-3804 -4668 0
-3801 -5261 0
-3802 -5262 0
-3803 -5263 0
-3804 -5264 0
-3805 -3809 0
-3806 -3810 0
-3807 -3811 0
-3808 -3812 0
-3805 -3813 0
-3806 -3814 0
-3807 -3815 0
-3808 -3816 0
-3805 -3825 0
-3806 -3826 0
-3807 -3827 0
-3808 -3828 0
-3805 -3845 0
-3806 -3846 0
-3807 -3847 0
-3808 -3848 0
-3805 -3881 0
-3806 -3882 0
-3807 -3883 0
-3808 -3884 0
-3805 -4177 0
-3806 -4178 0
-3807 -4179 0
-3808 -4180 0
-3805 -5113 0
-3806 -5114 0
-3807 -5115 0
-3808 -5116 0
-3805 -5201 0
-3806 -5202 0
-3807 -5203 0
-3808 -5204 0
-3805 -5265 0
-3806 -5266 0
-3807 -5267 0
-3808 -5268 0
-3809 -3817 0
-3810 -3818 0
-3811 -3819 0
-3812 -3820 0
-3809 -3829 0
-3810 -3830 0
-3811 -3831 0
-3812 -3832 0
-3809 -3845 0
-3810 -3846 0
-3811 -3847 0
-3812 -3848 0
-3809 -4085 0
-3810 -4086 0
-3811 -4087 0
-3812 -4088 0
-3809 -4481 0
-3810 -4482 0
-3811 -4483 0
-3812 -4484 0
-3809 -4637 0
-3810 -4638 0
-3811 -4639 0
-3812 -4640 0
-3809 -5269 0
-3810 -5270 0
-3811 -5271 0
-3812 -5272 0
-3813 -3817 0
-3814 -3818 0
-3815 -3819 0
-3816 -3820 0
-3813 -3833 0
-3814 -3834 0
-3815 -3835 0
-3816 -3836 0
-3813 -3849 0
-3814 -3850 0
-3815 -3851 0
-3816 -3852 0
-3813 -3881 0
-3814 -3882 0
-3815 -3883 0
-3816 -3884 0
-3813 -4269 0
-3814 -4270 0
-3815 -4271 0
-3816 -4272 0
-3813 -4769 0
-3814 -4770 0
-3815 -4771 0
-3816 -4772 0
-3813 -5273 0
-3814 -5274 0
-3815 -5275 0
-3816 -5276 0
-3817 -3837 0
-3818 -3838 0
-3819 -3839 0
-3820 -3840 0
-3817 -3849 0
-3818 -3850 0
-3819 -3851 0
-3820 -3852 0
-3817 -4089 0
-3818 -4090 0
-3819 -4091 0
-3820 -4092 0
-3817 -4641 0
-3818 -4642 0
-3819 -4643 0
-3820 -4644 0
-3817 -4773 0
-3818 -4774 0
-3819 -4775 0
-3820 -4776 0
-3817 -5277 0
-3818 -5278 0
-3819 -5279 0
-3820 -5280 0
-3821 -3825 0
-3822 -3826 0
-3823 -3827 0
-3824 -3828 0
-3821 -4669 0
-3822 -4670 0
-3823 -4671 0
-3824 -4672 0
-3821 -5117 0
-3822 -5118 0
-3823 -5119 0
-3824 -5120 0
-3821 -5205 0
-3822 -5206 0
-3823 -5207 0
-3824 -5208 0
-3825 -3829 0
-3826 -3830 0
-3827 -3831 0
-3828 -3832 0
-3825 -3833 0
-3826 -3834 0
-3827 -3835 0
-3828 -3836 0
-3825 -3841 0
-3826 -3842 0
-3827 -3843 0
-3828 -3844 0
-3825 -3853 0
-3826 -3854 0
-3827 -3855 0
-3828 -3856 0
-3825 -3885 0
-3826 -3886 0
-3827 -3887 0
-3828 -3888 0
-3825 -4093 0
-3826 -4094 0
-3827 -4095 0
-3828 -4096 0
-3825 -4181 0
-3826 -4182 0
-3827 -4183 0
-3828 -4184 0
-3825 -4417 0
-3826 -4418 0
-3827 -4419 0
-3828 -4420 0
-3825 -4489 0
-3826 -4490 0
-3827 -4491 0
-3828 -4492 0
-3825 -4613 0
-3826 -4614 0
-3827 -4615 0
-3828 -4616 0
-3825 -5125 0
-3826 -5126 0
-3827 -5127 0
-3828 -5128 0
-3825 -5209 0
-3826 -5210 0
-3827 -5211 0
-3828 -5212 0
-3825 -5265 0
-3826 -5266 0
-3827 -5267 0
-3828 -5268 0
-3825 -5281 0
-3826 -5282 0
-3827 -5283 0
-3828 -5284 0
-3829 -3837 0
-3830 -3838 0
-3831 -3839 0
-3832 -3840 0
-3829 -3853 0
-3830 -3854 0
-3831 -3855 0
-3832 -3856 0
-3829 -4097 0
-3830 -4098 0
-3831 -4099 0
-3832 -4100 0
-3829 -4493 0
-3830 -4494 0
-3831 -4495 0
-3832 -4496 0
-3829 -4645 0
-3830 -4646 0
-3831 -4647 0
-3832 -4648 0
-3829 -5269 0
-3830 -5270 0
-3831 -5271 0
-3832 -5272 0
-3829 -5437 0
-3830 -5438 0
-3831 -5439 0
-3832 -5440 0
-3833 -3837 0
-3834 -3838 0
-3835 -3839 0
-3836 -3840 0
-3833 -3857 0
-3834 -3858 0
-3835 -3859 0
-3836 -3860 0
-3833 -3885 0
-3834 -3886 0
-3835 -3887 0
-3836 -3888 0
-3833 -3941 0
-3834 -3942 0
-3835 -3943 0
-3836 -3944 0
-3833 -4273 0
-3834 -4274 0
-3835 -4275 0
-3836 -4276 0
-3833 -4681 0
-3834 -4682 0
-3835 -4683 0
-3836 -4684 0
-3833 -4777 0
-3834 -4778 0
-3835 -4779 0
-3836 -4780 0
-3833 -5273 0
-3834 -5274 0
-3835 -5275 0
-3836 -5276 0
-3837 -3857 0
-3838 -3858 0
-3839 -3859 0
-3840 -3860 0
-3837 -4101 0
-3838 -4102 0
-3839 -4103 0
-3840 -4104 0
-3837 -4649 0
-3838 -4650 0
-3839 -4651 0
-3840 -4652 0
-3837 -4781 0
-3838 -4782 0
-3839 -4783 0
-3840 -4784 0
-3837 -5277 0
-3838 -5278 0
-3839 -5279 0
-3840 -5280 0
-3841 -4217 0
-3842 -4218 0
-3843 -4219 0
-3844 -4220 0
-3841 -4433 0
-3842 -4434 0
-3843 -4435 0
-3844 -4436 0
-3841 -4621 0
-3842 -4622 0
-3843 -4623 0
-3844 -4624 0
-3841 -5209 0
-3842 -5210 0
-3843 -5211 0
-3844 -5212 0
-3845 -3849 0
-3846 -3850 0
-3847 -3851 0
-3848 -3852 0
-3845 -3853 0
-3846 -3854 0
-3847 -3855 0
-3848 -3856 0
-3845 -3893 0
-3846 -3894 0
-3847 -3895 0
-3848 -3896 0
-3845 -4229 0
-3846 -4230 0
-3847 -4231 0
-3848 -4232 0
-3845 -4669 0
-3846 -4670 0
-3847 -4671 0
-3848 -4672 0
-3845 -4813 0
-3846 -4814 0
-3847 -4815 0
-3848 -4816 0
-3845 -5285 0
-3846 -5286 0
-3847 -5287 0
-3848 -5288 0
-3849 -3857 0
-3850 -3858 0
-3851 -3859 0
-3852 -3860 0
-3849 -3893 0
-3850 -3894 0
-3851 -3895 0
-3852 -3896 0
-3849 -3965 0
-3850 -3966 0
-3851 -3967 0
-3852 -3968 0
-3849 -4165 0
-3850 -4166 0
-3851 -4167 0
-3852 -4168 0
-3849 -4465 0
-3850 -4466 0
-3851 -4467 0
-3852 -4468 0
-3849 -4673 0
-3850 -4674 0
-3851 -4675 0
-3852 -4676 0
-3849 -4821 0
-3850 -4822 0
-3851 -4823 0
-3852 -4824 0
-3849 -5289 0
-3850 -5290 0
-3851 -5291 0
-3852 -5292 0
-3849 -5309 0
-3850 -5310 0
-3851 -5311 0
-3852 -5312 0
-3853 -3857 0
-3854 -3858 0
-3855 -3859 0
-3856 -3860 0
-3853 -3897 0
-3854 -3898 0
-3855 -3899 0
-3856 -3900 0
-3853 -4501 0
-3854 -4502 0
-3855 -4503 0
-3856 -4504 0
-3853 -4629 0
-3854 -4630 0
-3855 -4631 0
-3856 -4632 0
-3853 -4849 0
-3854 -4850 0
-3855 -4851 0
-3856 -4852 0
-3853 -5285 0
-3854 -5286 0
-3855 -5287 0
-3856 -5288 0
-3857 -3897 0
-3858 -3898 0
-3859 -3899 0
-3860 -3900 0
-3857 -3989 0
-3858 -3990 0
-3859 -3991 0
-3860 -3992 0
-3857 -4857 0
-3858 -4858 0
-3859 -4859 0
-3860 -4860 0
-3857 -5289 0
-3858 -5290 0
-3859 -5291 0
-3860 -5292 0
-3857 -5313 0
-3858 -5314 0
-3859 -5315 0
-3860 -5316 0
-3861 -3865 0
-3862 -3866 0
-3863 -3867 0
-3864 -3868 0
-3861 -3873 0
-3862 -3874 0
-3863 -3875 0
-3864 -3876 0
-3861 -3881 0
-3862 -3882 0
-3863 -3883 0
-3864 -3884 0
-3861 -4821 0
-3862 -4822 0
-3863 -4823 0
-3864 -4824 0
-3861 -5293 0
-3862 -5294 0
-3863 -5295 0
-3864 -5296 0
-3865 -3877 0
-3866 -3878 0
-3867 -3879 0
-3868 -3880 0
-3865 -4169 0
-3866 -4170 0
-3867 -4171 0
-3868 -4172 0
-3865 -4469 0
-3866 -4470 0
-3867 -4471 0
-3868 -4472 0
-3865 -4837 0
-3866 -4838 0
-3867 -4839 0
-3868 -4840 0
-3869 -3873 0
-3870 -3874 0
-3871 -3875 0
-3872 -3876 0
-3869 -4633 0
-3870 -4634 0
-3871 -4635 0
-3872 -4636 0
-3869 -4849 0
-3870 -4850 0
-3871 -4851 0
-3872 -4852 0
-3869 -5213 0
-3870 -5214 0
-3871 -5215 0
-3872 -5216 0
-3869 -5229 0
-3870 -5230 0
-3871 -5231 0
-3872 -5232 0
-3869 -5445 0
-3870 -5446 0
-3871 -5447 0
-3872 -5448 0
-3873 -3877 0
-3874 -3878 0
-3875 -3879 0
-3876 -3880 0
-3873 -3885 0
-3874 -3886 0
-3875 -3887 0
-3876 -3888 0
-3873 -3889 0
-3874 -3890 0
-3875 -3891 0
-3876 -3892 0
-3873 -4109 0
-3874 -4110 0
-3875 -4111 0
-3876 -4112 0
-3873 -4473 0
-3874 -4474 0
-3875 -4475 0
-3876 -4476 0
-3873 -4857 0
-3874 -4858 0
-3875 -4859 0
-3876 -4860 0
-3873 -5137 0
-3874 -5138 0
-3875 -5139 0
-3876 -5140 0
-3873 -5217 0
-3874 -5218 0
-3875 -5219 0
-3876 -5220 0
-3873 -5233 0
-3874 -5234 0
-3875 -5235 0
-3876 -5236 0
-3873 -5293 0
-3874 -5294 0
-3875 -5295 0
-3876 -5296 0
-3873 -5297 0
-3874 -5298 0
-3875 -5299 0
-3876 -5300 0
-3873 -5317 0
-3874 -5318 0
-3875 -5319 0
-3876 -5320 0
-3873 -5449 0
-3874 -5450 0
-3875 -5451 0
-3876 -5452 0
-3877 -4117 0
-3878 -4118 0
-3879 -4119 0
-3880 -4120 0
-3877 -4173 0
-3878 -4174 0
-3879 -4175 0
-3880 -4176 0
-3877 -4445 0
-3878 -4446 0
-3879 -4447 0
-3880 -4448 0
-3877 -4477 0
-3878 -4478 0
-3879 -4479 0
-3880 -4480 0
-3877 -4697 0
-3878 -4698 0
-3879 -4699 0
-3880 -4700 0
-3877 -4873 0
-3878 -4874 0
-3879 -4875 0
-3880 -4876 0
-3877 -5225 0
-3878 -5226 0
-3879 -5227 0
-3880 -5228 0
-3877 -5237 0
-3878 -5238 0
-3879 -5239 0
-3880 -5240 0
-3881 -3885 0
-3882 -3886 0
-3883 -3887 0
-3884 -3888 0
-3881 -3893 0
-3882 -3894 0
-3883 -3895 0
-3884 -3896 0
-3881 -4193 0
-3882 -4194 0
-3883 -4195 0
-3884 -4196 0
-3881 -4885 0
-3882 -4886 0
-3883 -4887 0
-3884 -4888 0
-3881 -5301 0
-3882 -5302 0
-3883 -5303 0
-3884 -5304 0
-3885 -3897 0
-3886 -3898 0
-3887 -3899 0
-3888 -3900 0
-3885 -4009 0
-3886 -4010 0
-3887 -4011 0
-3888 -4012 0
-3885 -4209 0
-3886 -4210 0
-3887 -4211 0
-3888 -4212 0
-3885 -4453 0
-3886 -4454 0
-3887 -4455 0
-3888 -4456 0
-3885 -4641 0
-3886 -4642 0
-3887 -4643 0
-3888 -4644 0
-3885 -4889 0
-3886 -4890 0
-3887 -4891 0
-3888 -4892 0
-3885 -5301 0
-3886 -5302 0
-3887 -5303 0
-3888 -5304 0
-3885 -5317 0
-3886 -5318 0
-3887 -5319 0
-3888 -5320 0
-3885 -5457 0
-3886 -5458 0
-3887 -5459 0
-3888 -5460 0
-3889 -3897 0
-3890 -3898 0
-3891 -3899 0
-3892 -3900 0
-3889 -4277 0
-3890 -4278 0
-3891 -4279 0
-3892 -4280 0
-3889 -4905 0
-3890 -4906 0
-3891 -4907 0
-3892 -4908 0
-3889 -5145 0
-3890 -5146 0
-3891 -5147 0
-3892 -5148 0
-3893 -3897 0
-3894 -3898 0
-3895 -3899 0
-3896 -3900 0
-3893 -4013 0
-3894 -4014 0
-3895 -4015 0
-3896 -4016 0
-3893 -4237 0
-3894 -4238 0
-3895 -4239 0
-3896 -4240 0
-3893 -4665 0
-3894 -4666 0
-3895 -4667 0
-3896 -4668 0
-3893 -4909 0
-3894 -4910 0
-3895 -4911 0
-3896 -4912 0
-3893 -5153 0
-3894 -5154 0
-3895 -5155 0
-3896 -5156 0
-3893 -5305 0
-3894 -5306 0
-3895 -5307 0
-3896 -5308 0
-3897 -4021 0
-3898 -4022 0
-3899 -4023 0
-3900 -4024 0
-3897 -4249 0
-3898 -4250 0
-3899 -4251 0
-3900 -4252 0
-3897 -4677 0
-3898 -4678 0
-3899 -4679 0
-3900 -4680 0
-3897 -4917 0
-3898 -4918 0
-3899 -4919 0
-3900 -4920 0
-3897 -5157 0
-3898 -5158 0
-3899 -5159 0
-3900 -5160 0
-3897 -5305 0
-3898 -5306 0
-3899 -5307 0
-3900 -5308 0
-3901 -3973 0
-3902 -3974 0
-3903 -3975 0
-3904 -3976 0
-3901 -3989 0
-3902 -3990 0
-3903 -3991 0
-3904 -3992 0
-3901 -4097 0
-3902 -4098 0
-3903 -4099 0
-3904 -4100 0
-3901 -4553 0
-3902 -4554 0
-3903 -4555 0
-3904 -4556 0
-3901 -4713 0
-3902 -4714 0
-3903 -4715 0
-3904 -4716 0
-3905 -3909 0
-3906 -3910 0
-3907 -3911 0
-3908 -3912 0
-3905 -3913 0
-3906 -3914 0
-3907 -3915 0
-3908 -3916 0
-3905 -3953 0
-3906 -3954 0
-3907 -3955 0
-3908 -3956 0
-3905 -3957 0
-3906 -3958 0
-3907 -3959 0
-3908 -3960 0
-3905 -4349 0
-3906 -4350 0
-3907 -4351 0
-3908 -4352 0
-3905 -4513 0
-3906 -4514 0
-3907 -4515 0
-3908 -4516 0
-3905 -5337 0
-3906 -5338 0
-3907 -5339 0
-3908 -5340 0
-3905 -5401 0
-3906 -5402 0
-3907 -5403 0
-3908 -5404 0
-3909 -3917 0
-3910 -3918 0
-3911 -3919 0
-3912 -3920 0
-3909 -3969 0
-3910 -3970 0
-3911 -3971 0
-3912 -3972 0
-3909 -3973 0
-3910 -3974 0
-3911 -3975 0
-3912 -3976 0
-3909 -4369 0
-3910 -4370 0
-3911 -4371 0
-3912 -4372 0
-3909 -4525 0
-3910 -4526 0
-3911 -4527 0
-3912 -4528 0
-3909 -5181 0
-3910 -5182 0
-3911 -5183 0
-3912 -5184 0
-3909 -5337 0
-3910 -5338 0
-3911 -5339 0
-3912 -5340 0
-3909 -5409 0
-3910 -5410 0
-3911 -5411 0
-3912 -5412 0
-3913 -3917 0
-3914 -3918 0
-3915 -3919 0
-3916 -3920 0
-3913 -3921 0
-3914 -3922 0
-3915 -3923 0
-3916 -3924 0
-3913 -3997 0
-3914 -3998 0
-3915 -3999 0
-3916 -4000 0
-3913 -4221 0
-3914 -4222 0
-3915 -4223 0
-3916 -4224 0
-3913 -4593 0
-3914 -4594 0
-3915 -4595 0
-3916 -4596 0
-3913 -5341 0
-3914 -5342 0
-3915 -5343 0
-3916 -5344 0
-3913 -5401 0
-3914 -5402 0
-3915 -5403 0
-3916 -5404 0
-3917 -4001 0
-3918 -4002 0
-3919 -4003 0
-3920 -4004 0
-3917 -4605 0
-3918 -4606 0
-3919 -4607 0
-3920 -4608 0
-3917 -4725 0
-3918 -4726 0
-3919 -4727 0
-3920 -4728 0
-3917 -5341 0
-3918 -5342 0
-3919 -5343 0
-3920 -5344 0
-3917 -5409 0
-3918 -5410 0
-3919 -5411 0
-3920 -5412 0
-3921 -4237 0
-3922 -4238 0
-3923 -4239 0
-3924 -4240 0
-3921 -4729 0
-3922 -4730 0
-3923 -4731 0
-3924 -4732 0
-3921 -5201 0
-3922 -5202 0
-3923 -5203 0
-3924 -5204 0
-3921 -5345 0
-3922 -5346 0
-3923 -5347 0
-3924 -5348 0
-3925 -3937 0
-3926 -3938 0
-3927 -3939 0
-3928 -3940 0
-3925 -3961 0
-3926 -3962 0
-3927 -3963 0
-3928 -3964 0
-3925 -4289 0
-3926 -4290 0
-3927 -4291 0
-3928 -4292 0
-3925 -4801 0
-3926 -4802 0
-3927 -4803 0
-3928 -4804 0
-3925 -5353 0
-3926 -5354 0
-3927 -5355 0
-3928 -5356 0
-3929 -3933 0
-3930 -3934 0
-3931 -3935 0
-3932 -3936 0
-3929 -3937 0
-3930 -3938 0
-3931 -3939 0
-3932 -3940 0
-3929 -3945 0
-3930 -3946 0
-3931 -3947 0
-3932 -3948 0
-3929 -3969 0
-3930 -3970 0
-3931 -3971 0
-3932 -3972 0
-3929 -4049 0
-3930 -4050 0
-3931 -4051 0
-3932 -4052 0
-3929 -4805 0
-3930 -4806 0
-3931 -4807 0
-3932 -4808 0
-3929 -4985 0
-3930 -4986 0
-3931 -4987 0
-3932 -4988 0
-3929 -5217 0
-3930 -5218 0
-3931 -5219 0
-3932 -5220 0
-3929 -5349 0
-3930 -5350 0
-3931 -5351 0
-3932 -5352 0
-3929 -5357 0
-3930 -5358 0
-3931 -5359 0
-3932 -5360 0
-3929 -5501 0
-3930 -5502 0
-3931 -5503 0
-3932 -5504 0
-3933 -3969 0
-3934 -3970 0
-3935 -3971 0
-3936 -3972 0
-3933 -5505 0
-3934 -5506 0
-3935 -5507 0
-3936 -5508 0
-3937 -3941 0
-3938 -3942 0
-3939 -3943 0
-3940 -3944 0
-3937 -3949 0
-3938 -3950 0
-3939 -3951 0
-3940 -3952 0
-3937 -3977 0
-3938 -3978 0
-3939 -3979 0
-3940 -3980 0
-3937 -3981 0
-3938 -3982 0
-3939 -3983 0
-3940 -3984 0
-3937 -4005 0
-3938 -4006 0
-3939 -4007 0
-3940 -4008 0
-3937 -4033 0
-3938 -4034 0
-3939 -4035 0
-3940 -4036 0
-3937 -4049 0
-3938 -4050 0
-3939 -4051 0
-3940 -4052 0
-3937 -4257 0
-3938 -4258 0
-3939 -4259 0
-3940 -4260 0
-3937 -4293 0
-3938 -4294 0
-3939 -4295 0
-3940 -4296 0
-3937 -4581 0
-3938 -4582 0
-3939 -4583 0
-3940 -4584 0
-3937 -4821 0
-3938 -4822 0
-3939 -4823 0
-3940 -4824 0
-3937 -5225 0
-3938 -5226 0
-3939 -5227 0
-3940 -5228 0
-3937 -5325 0
-3938 -5326 0
-3939 -5327 0
-3940 -5328 0
-3937 -5353 0
-3938 -5354 0
-3939 -5355 0
-3940 -5356 0
-3937 -5361 0
-3938 -5362 0
-3939 -5363 0
-3940 -5364 0
-3941 -3985 0
-3942 -3986 0
-3943 -3987 0
-3944 -3988 0
-3941 -3989 0
-3942 -3990 0
-3943 -3991 0
-3944 -3992 0
-3941 -4009 0
-3942 -4010 0
-3943 -4011 0
-3944 -4012 0
-3941 -4033 0
-3942 -4034 0
-3943 -4035 0
-3944 -4036 0
-3941 -4177 0
-3942 -4178 0
-3943 -4179 0
-3944 -4180 0
-3941 -4413 0
-3942 -4414 0
-3943 -4415 0
-3944 -4416 0
-3941 -4541 0
-3942 -4542 0
-3943 -4543 0
-3944 -4544 0
-3941 -4777 0
-3942 -4778 0
-3943 -4779 0
-3944 -4780 0
-3941 -4833 0
-3942 -4834 0
-3943 -4835 0
-3944 -4836 0
-3945 -3949 0
-3946 -3950 0
-3947 -3951 0
-3948 -3952 0
-3945 -3993 0
-3946 -3994 0
-3947 -3995 0
-3948 -3996 0
-3945 -4061 0
-3946 -4062 0
-3947 -4063 0
-3948 -4064 0
-3945 -4185 0
-3946 -4186 0
-3947 -4187 0
-3948 -4188 0
-3945 -4333 0
-3946 -4334 0
-3947 -4335 0
-3948 -4336 0
-3945 -4401 0
-3946 -4402 0
-3947 -4403 0
-3948 -4404 0
-3945 -4993 0
-3946 -4994 0
-3947 -4995 0
-3948 -4996 0
-3945 -5233 0
-3946 -5234 0
-3947 -5235 0
-3948 -5236 0
-3945 -5365 0
-3946 -5366 0
-3947 -5367 0
-3948 -5368 0
-3949 -4061 0
-3950 -4062 0
-3951 -4063 0
-3952 -4064 0
-3949 -4197 0
-3950 -4198 0
-3951 -4199 0
-3952 -4200 0
-3949 -4265 0
-3950 -4266 0
-3951 -4267 0
-3952 -4268 0
-3949 -4409 0
-3950 -4410 0
-3951 -4411 0
-3952 -4412 0
-3949 -4545 0
-3950 -4546 0
-3951 -4547 0
-3952 -4548 0
-3949 -4585 0
-3950 -4586 0
-3951 -4587 0
-3952 -4588 0
-3949 -4877 0
-3950 -4878 0
-3951 -4879 0
-3952 -4880 0
-3949 -5237 0
-3950 -5238 0
-3951 -5239 0
-3952 -5240 0
-3949 -5325 0
-3950 -5326 0
-3951 -5327 0
-3952 -5328 0
-3949 -5369 0
-3950 -5370 0
-3951 -5371 0
-3952 -5372 0
-3953 -3957 0
-3954 -3958 0
-3955 -3959 0
-3956 -3960 0
-3953 -3961 0
-3954 -3962 0
-3955 -3963 0
-3956 -3964 0
-3953 -3969 0
-3954 -3970 0
-3955 -3971 0
-3956 -3972 0
-3953 -3997 0
-3954 -3998 0
-3955 -3999 0
-3956 -4000 0
-3953 -4337 0
-3954 -4338 0
-3955 -4339 0
-3956 -4340 0
-3953 -5373 0
-3954 -5374 0
-3955 -5375 0
-3956 -5376 0
-3953 -5421 0
-3954 -5422 0
-3955 -5423 0
-3956 -5424 0
-3953 -5509 0
-3954 -5510 0
-3955 -5511 0
-3956 -5512 0
-3957 -3965 0
-3958 -3966 0
-3959 -3967 0
-3960 -3968 0
-3957 -3973 0
-3958 -3974 0
-3959 -3975 0
-3960 -3976 0
-3957 -4341 0
-3958 -4342 0
-3959 -4343 0
-3960 -4344 0
-3957 -4805 0
-3958 -4806 0
-3959 -4807 0
-3960 -4808 0
-3957 -5377 0
-3958 -5378 0
-3959 -5379 0
-3960 -5380 0
-3957 -5425 0
-3958 -5426 0
-3959 -5427 0
-3960 -5428 0
-3961 -3965 0
-3962 -3966 0
-3963 -3967 0
-3964 -3968 0
-3961 -3981 0
-3962 -3982 0
-3963 -3983 0
-3964 -3984 0
-3961 -4089 0
-3962 -4090 0
-3963 -4091 0
-3964 -4092 0
-3961 -4301 0
-3962 -4302 0
-3963 -4303 0
-3964 -4304 0
-3961 -4809 0
-3962 -4810 0
-3963 -4811 0
-3964 -4812 0
-3961 -5381 0
-3962 -5382 0
-3963 -5383 0
-3964 -5384 0
-3965 -3989 0
-3966 -3990 0
-3967 -3991 0
-3968 -3992 0
-3965 -4013 0
-3966 -4014 0
-3967 -4015 0
-3968 -4016 0
-3965 -4821 0
-3966 -4822 0
-3967 -4823 0
-3968 -4824 0
-3965 -5385 0
-3966 -5386 0
-3967 -5387 0
-3968 -5388 0
-3969 -3973 0
-3970 -3974 0
-3971 -3975 0
-3972 -3976 0
-3969 -3981 0
-3970 -3982 0
-3971 -3983 0
-3972 -3984 0
-3969 -3993 0
-3970 -3994 0
-3971 -3995 0
-3972 -3996 0
-3969 -4001 0
-3970 -4002 0
-3971 -4003 0
-3972 -4004 0
-3969 -4077 0
-3970 -4078 0
-3971 -4079 0
-3972 -4080 0
-3969 -4417 0
-3970 -4418 0
-3971 -4419 0
-3972 -4420 0
-3969 -4653 0
-3970 -4654 0
-3971 -4655 0
-3972 -4656 0
-3969 -5373 0
-3970 -5374 0
-3971 -5375 0
-3972 -5376 0
-3969 -5389 0
-3970 -5390 0
-3971 -5391 0
-3972 -5392 0
-3969 -5429 0
-3970 -5430 0
-3971 -5431 0
-3972 -5432 0
-3969 -5513 0
-3970 -5514 0
-3971 -5515 0
-3972 -5516 0
-3973 -3989 0
-3974 -3990 0
-3975 -3991 0
-3976 -3992 0
-3973 -4221 0
-3974 -4222 0
-3975 -4223 0
-3976 -4224 0
-3973 -4841 0
-3974 -4842 0
-3975 -4843 0
-3976 -4844 0
-3973 -4997 0
-3974 -4998 0
-3975 -4999 0
-3976 -5000 0
-3973 -5377 0
-3974 -5378 0
-3975 -5379 0
-3976 -5380 0
-3973 -5433 0
-3974 -5434 0
-3975 -5435 0
-3976 -5436 0
-3973 -5517 0
-3974 -5518 0
-3975 -5519 0
-3976 -5520 0
-3977 -3981 0
-3978 -3982 0
-3979 -3983 0
-3980 -3984 0
-3977 -3985 0
-3978 -3986 0
-3979 -3987 0
-3980 -3988 0
-3977 -4037 0
-3978 -4038 0
-3979 -4039 0
-3980 -4040 0
-3977 -4557 0
-3978 -4558 0
-3979 -4559 0
-3980 -4560 0
-3977 -4893 0
-3978 -4894 0
-3979 -4895 0
-3980 -4896 0
-3977 -5241 0
-3978 -5242 0
-3979 -5243 0
-3980 -5244 0
-3981 -3989 0
-3982 -3990 0
-3983 -3991 0
-3984 -3992 0
-3981 -4041 0
-3982 -4042 0
-3983 -4043 0
-3984 -4044 0
-3981 -4101 0
-3982 -4102 0
-3983 -4103 0
-3984 -4104 0
-3981 -4305 0
-3982 -4306 0
-3983 -4307 0
-3984 -4308 0
-3981 -4421 0
-3982 -4422 0
-3983 -4423 0
-3984 -4424 0
-3981 -4845 0
-3982 -4846 0
-3983 -4847 0
-3984 -4848 0
-3981 -4897 0
-3982 -4898 0
-3983 -4899 0
-3984 -4900 0
-3981 -5381 0
-3982 -5382 0
-3983 -5383 0
-3984 -5384 0
-3981 -5393 0
-3982 -5394 0
-3983 -5395 0
-3984 -5396 0
-3985 -3989 0
-3986 -3990 0
-3987 -3991 0
-3988 -3992 0
-3985 -4017 0
-3986 -4018 0
-3987 -4019 0
-3988 -4020 0
-3985 -4025 0
-3986 -4026 0
-3987 -4027 0
-3988 -4028 0
-3985 -4037 0
-3986 -4038 0
-3987 -4039 0
-3988 -4040 0
-3985 -4225 0
-3986 -4226 0
-3987 -4227 0
-3988 -4228 0
-3985 -4441 0
-3986 -4442 0
-3987 -4443 0
-3988 -4444 0
-3985 -4561 0
-3986 -4562 0
-3987 -4563 0
-3988 -4564 0
-3985 -4757 0
-3986 -4758 0
-3987 -4759 0
-3988 -4760 0
-3985 -4853 0
-3986 -4854 0
-3987 -4855 0
-3988 -4856 0
-3985 -5001 0
-3986 -5002 0
-3987 -5003 0
-3988 -5004 0
-3989 -4021 0
-3990 -4022 0
-3991 -4023 0
-3992 -4024 0
-3989 -4029 0
-3990 -4030 0
-3991 -4031 0
-3992 -4032 0
-3989 -4041 0
-3990 -4042 0
-3991 -4043 0
-3992 -4044 0
-3989 -4229 0
-3990 -4230 0
-3991 -4231 0
-3992 -4232 0
-3989 -4285 0
-3990 -4286 0
-3991 -4287 0
-3992 -4288 0
-3989 -4589 0
-3990 -4590 0
-3991 -4591 0
-3992 -4592 0
-3989 -4657 0
-3990 -4658 0
-3991 -4659 0
-3992 -4660 0
-3989 -4857 0
-3990 -4858 0
-3991 -4859 0
-3992 -4860 0
-3989 -5005 0
-3990 -5006 0
-3991 -5007 0
-3992 -5008 0
-3989 -5385 0
-3990 -5386 0
-3991 -5387 0
-3992 -5388 0
-3989 -5437 0
-3990 -5438 0
-3991 -5439 0
-3992 -5440 0
-3993 -4233 0
-3994 -4234 0
-3995 -4235 0
-3996 -4236 0
-3993 -4377 0
-3994 -4378 0
-3995 -4379 0
-3996 -4380 0
-3993 -4433 0
-3994 -4434 0
-3995 -4435 0
-3996 -4436 0
-3993 -5245 0
-3994 -5246 0
-3995 -5247 0
-3996 -5248 0
-3997 -4001 0
-3998 -4002 0
-3999 -4003 0
-4000 -4004 0
-3997 -4085 0
-3998 -4086 0
-3999 -4087 0
-4000 -4088 0
-3997 -4309 0
-3998 -4310 0
-3999 -4311 0
-4000 -4312 0
-3997 -4661 0
-3998 -4662 0
-3999 -4663 0
-4000 -4664 0
-3997 -5397 0
-3998 -5398 0
-3999 -5399 0
-4000 -5400 0
-3997 -5421 0
-3998 -5422 0
-3999 -5423 0
-4000 -5424 0
-4001 -4097 0
-4002 -4098 0
-4003 -4099 0
-4004 -4100 0
-4001 -4673 0
-4002 -4674 0
-4003 -4675 0
-4004 -4676 0
-4001 -5013 0
-4002 -5014 0
-4003 -5015 0
-4004 -5016 0
-4001 -5397 0
-4002 -5398 0
-4003 -5399 0
-4004 -5400 0
-4001 -5429 0
-4002 -5430 0
-4003 -5431 0
-4004 -5432 0
-4005 -4009 0
-4006 -4010 0
-4007 -4011 0
-4008 -4012 0
-4005 -4329 0
-4006 -4330 0
-4007 -4331 0
-4008 -4332 0
-4005 -4909 0
-4006 -4910 0
-4007 -4911 0
-4008 -4912 0
-4005 -5333 0
-4006 -5334 0
-4007 -5335 0
-4008 -5336 0
-4005 -5541 0
-4006 -5542 0
-4007 -5543 0
-4008 -5544 0
-4009 -4017 0
-4010 -4018 0
-4011 -4019 0
-4012 -4020 0
-4009 -4021 0
-4010 -4022 0
-4011 -4023 0
-4012 -4024 0
-4009 -4565 0
-4010 -4566 0
-4011 -4567 0
-4012 -4568 0
-4009 -4773 0
-4010 -4774 0
-4011 -4775 0
-4012 -4776 0
-4009 -5017 0
-4010 -5018 0
-4011 -5019 0
-4012 -5020 0
-4009 -5545 0
-4010 -5546 0
-4011 -5547 0
-4012 -5548 0
-4013 -4021 0
-4014 -4022 0
-4015 -4023 0
-4016 -4024 0
-4013 -4909 0
-4014 -4910 0
-4015 -4911 0
-4016 -4912 0
-4017 -4021 0
-4018 -4022 0
-4019 -4023 0
-4020 -4024 0
-4017 -4025 0
-4018 -4026 0
-4019 -4027 0
-4020 -4028 0
-4017 -4045 0
-4018 -4046 0
-4019 -4047 0
-4020 -4048 0
-4017 -4277 0
-4018 -4278 0
-4019 -4279 0
-4020 -4280 0
-4017 -4381 0
-4018 -4382 0
-4019 -4383 0
-4020 -4384 0
-4017 -4393 0
-4018 -4394 0
-4019 -4395 0
-4020 -4396 0
-4017 -4577 0
-4018 -4578 0
-4019 -4579 0
-4020 -4580 0
-4017 -4821 0
-4018 -4822 0
-4019 -4823 0
-4020 -4824 0
-4017 -5265 0
-4018 -5266 0
-4019 -5267 0
-4020 -5268 0
-4017 -5341 0
-4018 -5342 0
-4019 -5343 0
-4020 -5344 0
-4017 -5345 0
-4018 -5346 0
-4019 -5347 0
-4020 -5348 0
-4017 -5445 0
-4018 -5446 0
-4019 -5447 0
-4020 -5448 0
-4017 -5565 0
-4018 -5566 0
-4019 -5567 0
-4020 -5568 0
-4021 -4029 0
-4022 -4030 0
-4023 -4031 0
-4024 -4032 0
-4021 -4697 0
-4022 -4698 0
-4023 -4699 0
-4024 -4700 0
-4021 -4825 0
-4022 -4826 0
-4023 -4827 0
-4024 -4828 0
-4021 -4917 0
-4022 -4918 0
-4023 -4919 0
-4024 -4920 0
-4021 -5269 0
-4022 -5270 0
-4023 -5271 0
-4024 -5272 0
-4021 -5569 0
-4022 -5570 0
-4023 -5571 0
-4024 -5572 0
-4025 -4029 0
-4026 -4030 0
-4027 -4031 0
-4028 -4032 0
-4025 -4121 0
-4026 -4122 0
-4027 -4123 0
-4028 -4124 0
-4025 -4605 0
-4026 -4606 0
-4027 -4607 0
-4028 -4608 0
-4025 -4829 0
-4026 -4830 0
-4027 -4831 0
-4028 -4832 0
-4025 -5033 0
-4026 -5034 0
-4027 -5035 0
-4028 -5036 0
-4025 -5273 0
-4026 -5274 0
-4027 -5275 0
-4028 -5276 0
-4025 -5449 0
-4026 -5450 0
-4027 -5451 0
-4028 -5452 0
-4025 -5457 0
-4026 -5458 0
-4027 -5459 0
-4028 -5460 0
-4029 -4461 0
-4030 -4462 0
-4031 -4463 0
-4032 -4464 0
-4029 -4609 0
-4030 -4610 0
-4031 -4611 0
-4032 -4612 0
-4029 -4921 0
-4030 -4922 0
-4031 -4923 0
-4032 -4924 0
-4029 -5037 0
-4030 -5038 0
-4031 -5039 0
-4032 -5040 0
-4029 -5277 0
-4030 -5278 0
-4031 -5279 0
-4032 -5280 0
-4029 -5453 0
-4030 -5454 0
-4031 -5455 0
-4032 -5456 0
-4033 -4037 0
-4034 -4038 0
-4035 -4039 0
-4036 -4040 0
-4033 -4041 0
-4034 -4042 0
-4035 -4043 0
-4036 -4044 0
-4033 -4613 0
-4034 -4614 0
-4035 -4615 0
-4036 -4616 0
-4033 -4929 0
-4034 -4930 0
-4035 -4931 0
-4036 -4932 0
-4033 -5277 0
-4034 -5278 0
-4035 -5279 0
-4036 -5280 0
-4037 -4041 0
-4038 -4042 0
-4039 -4043 0
-4040 -4044 0
-4037 -4045 0
-4038 -4046 0
-4039 -4047 0
-4040 -4048 0
-4037 -4425 0
-4038 -4426 0
-4039 -4427 0
-4040 -4428 0
-4037 -4625 0
-4038 -4626 0
-4039 -4627 0
-4040 -4628 0
-4037 -5049 0
-4038 -5050 0
-4039 -5051 0
-4040 -5052 0
-4037 -5289 0
-4038 -5290 0
-4039 -5291 0
-4040 -5292 0
-4041 -4629 0
-4042 -4630 0
-4043 -4631 0
-4044 -4632 0
-4041 -4933 0
-4042 -4934 0
-4043 -4935 0
-4044 -4936 0
-4041 -5053 0
-4042 -5054 0
-4043 -5055 0
-4044 -5056 0
-4045 -4129 0
-4046 -4130 0
-4047 -4131 0
-4048 -4132 0
-4045 -4433 0
-4046 -4434 0
-4047 -4435 0
-4048 -4436 0
-4045 -4457 0
-4046 -4458 0
-4047 -4459 0
-4048 -4460 0
-4045 -4669 0
-4046 -4670 0
-4047 -4671 0
-4048 -4672 0
-4045 -4925 0
-4046 -4926 0
-4047 -4927 0
-4048 -4928 0
-4045 -5305 0
-4046 -5306 0
-4047 -5307 0
-4048 -5308 0
-4045 -5397 0
-4046 -5398 0
-4047 -5399 0
-4048 -5400 0
-4049 -4053 0
-4050 -4054 0
-4051 -4055 0
-4052 -4056 0
-4049 -4061 0
-4050 -4062 0
-4051 -4063 0
-4052 -4064 0
-4049 -4485 0
-4050 -4486 0
-4051 -4487 0
-4052 -4488 0
-4049 -4641 0
-4050 -4642 0
-4051 -4643 0
-4052 -4644 0
-4049 -4961 0
-4050 -4962 0
-4051 -4963 0
-4052 -4964 0
-4049 -5073 0
-4050 -5074 0
-4051 -5075 0
-4052 -5076 0
-4049 -5405 0
-4050 -5406 0
-4051 -5407 0
-4052 -5408 0
-4049 -5441 0
-4050 -5442 0
-4051 -5443 0
-4052 -5444 0
-4053 -4073 0
-4054 -4074 0
-4055 -4075 0
-4056 -4076 0
-4053 -4497 0
-4054 -4498 0
-4055 -4499 0
-4056 -4500 0
-4053 -4649 0
-4054 -4650 0
-4055 -4651 0
-4056 -4652 0
-4053 -4969 0
-4054 -4970 0
-4055 -4971 0
-4056 -4972 0
-4053 -5413 0
-4054 -5414 0
-4055 -5415 0
-4056 -5416 0
-4053 -5441 0
-4054 -5442 0
-4055 -5443 0
-4056 -5444 0
-4057 -4061 0
-4058 -4062 0
-4059 -4063 0
-4060 -4064 0
-4057 -4069 0
-4058 -4070 0
-4059 -4071 0
-4060 -4072 0
-4057 -4193 0
-4058 -4194 0
-4059 -4195 0
-4060 -4196 0
-4057 -4345 0
-4058 -4346 0
-4059 -4347 0
-4060 -4348 0
-4057 -4477 0
-4058 -4478 0
-4059 -4479 0
-4060 -4480 0
-4057 -4945 0
-4058 -4946 0
-4059 -4947 0
-4060 -4948 0
-4057 -5401 0
-4058 -5402 0
-4059 -5403 0
-4060 -5404 0
-4057 -5445 0
-4058 -5446 0
-4059 -5447 0
-4060 -5448 0
-4061 -4065 0
-4062 -4066 0
-4063 -4067 0
-4064 -4068 0
-4061 -4073 0
-4062 -4074 0
-4063 -4075 0
-4064 -4076 0
-4061 -4169 0
-4062 -4170 0
-4063 -4171 0
-4064 -4172 0
-4061 -4281 0
-4062 -4282 0
-4063 -4283 0
-4064 -4284 0
-4061 -4353 0
-4062 -4354 0
-4063 -4355 0
-4064 -4356 0
-4061 -4489 0
-4062 -4490 0
-4063 -4491 0
-4064 -4492 0
-4061 -4653 0
-4062 -4654 0
-4063 -4655 0
-4064 -4656 0
-4061 -5093 0
-4062 -5094 0
-4063 -5095 0
-4064 -5096 0
-4061 -5405 0
-4062 -5406 0
-4063 -5407 0
-4064 -5408 0
-4061 -5449 0
-4062 -5450 0
-4063 -5451 0
-4064 -5452 0
-4065 -4357 0
-4066 -4358 0
-4067 -4359 0
-4068 -4360 0
-4065 -4493 0
-4066 -4494 0
-4067 -4495 0
-4068 -4496 0
-4065 -5453 0
-4066 -5454 0
-4067 -5455 0
-4068 -5456 0
-4069 -4073 0
-4070 -4074 0
-4071 -4075 0
-4072 -4076 0
-4069 -4209 0
-4070 -4210 0
-4071 -4211 0
-4072 -4212 0
-4069 -4365 0
-4070 -4366 0
-4071 -4367 0
-4072 -4368 0
-4069 -4949 0
-4070 -4950 0
-4071 -4951 0
-4072 -4952 0
-4069 -5409 0
-4070 -5410 0
-4071 -5411 0
-4072 -5412 0
-4069 -5445 0
-4070 -5446 0
-4071 -5447 0
-4072 -5448 0
-4073 -4173 0
-4074 -4174 0
-4075 -4175 0
-4076 -4176 0
-4073 -4373 0
-4074 -4374 0
-4075 -4375 0
-4076 -4376 0
-4073 -5413 0
-4074 -5414 0
-4075 -5415 0
-4076 -5416 0
-4073 -5449 0
-4074 -5450 0
-4075 -5451 0
-4076 -5452 0
-4077 -4081 0
-4078 -4082 0
-4079 -4083 0
-4080 -4084 0
-4077 -4097 0
-4078 -4098 0
-4079 -4099 0
-4080 -4100 0
-4077 -4113 0
-4078 -4114 0
-4079 -4115 0
-4080 -4116 0
-4077 -4785 0
-4078 -4786 0
-4079 -4787 0
-4080 -4788 0
-4077 -5497 0
-4078 -5498 0
-4079 -5499 0
-4080 -5500 0
-4077 -5593 0
-4078 -5594 0
-4079 -5595 0
-4080 -5596 0
-4081 -4101 0
-4082 -4102 0
-4083 -4103 0
-4084 -4104 0
-4081 -4113 0
-4082 -4114 0
-4083 -4115 0
-4084 -4116 0
-4081 -4337 0
-4082 -4338 0
-4083 -4339 0
-4084 -4340 0
-4081 -4541 0
-4082 -4542 0
-4083 -4543 0
-4084 -4544 0
-4081 -5505 0
-4082 -5506 0
-4083 -5507 0
-4084 -5508 0
-4085 -4089 0
-4086 -4090 0
-4087 -4091 0
-4088 -4092 0
-4085 -4097 0
-4086 -4098 0
-4087 -4099 0
-4088 -4100 0
-4085 -4801 0
-4086 -4802 0
-4087 -4803 0
-4088 -4804 0
-4085 -5461 0
-4086 -5462 0
-4087 -5463 0
-4088 -5464 0
-4089 -4101 0
-4090 -4102 0
-4091 -4103 0
-4092 -4104 0
-4089 -5465 0
-4090 -5466 0
-4091 -5467 0
-4092 -5468 0
-4089 -5489 0
-4090 -5490 0
-4091 -5491 0
-4092 -5492 0
-4093 -4097 0
-4094 -4098 0
-4095 -4099 0
-4096 -4100 0
-4093 -4225 0
-4094 -4226 0
-4095 -4227 0
-4096 -4228 0
-4093 -4417 0
-4094 -4418 0
-4095 -4419 0
-4096 -4420 0
-4093 -4817 0
-4094 -4818 0
-4095 -4819 0
-4096 -4820 0
-4093 -4981 0
-4094 -4982 0
-4095 -4983 0
-4096 -4984 0
-4093 -5341 0
-4094 -5342 0
-4095 -5343 0
-4096 -5344 0
-4093 -5493 0
-4094 -5494 0
-4095 -5495 0
-4096 -5496 0
-4097 -4101 0
-4098 -4102 0
-4099 -4103 0
-4100 -4104 0
-4097 -4105 0
-4098 -4106 0
-4099 -4107 0
-4100 -4108 0
-4097 -4125 0
-4098 -4126 0
-4099 -4127 0
-4100 -4128 0
-4097 -4221 0
-4098 -4222 0
-4099 -4223 0
-4100 -4224 0
-4097 -4229 0
-4098 -4230 0
-4099 -4231 0
-4100 -4232 0
-4097 -4821 0
-4098 -4822 0
-4099 -4823 0
-4100 -4824 0
-4097 -5013 0
-4098 -5014 0
-4099 -5015 0
-4100 -5016 0
-4097 -5461 0
-4098 -5462 0
-4099 -5463 0
-4100 -5464 0
-4097 -5469 0
-4098 -5470 0
-4099 -5471 0
-4100 -5472 0
-4097 -5497 0
-4098 -5498 0
-4099 -5499 0
-4100 -5500 0
-4097 -5605 0
-4098 -5606 0
-4099 -5607 0
-4100 -5608 0
-4101 -4125 0
-4102 -4126 0
-4103 -4127 0
-4104 -4128 0
-4101 -4725 0
-4102 -4726 0
-4103 -4727 0
-4104 -4728 0
-4101 -4829 0
-4102 -4830 0
-4103 -4831 0
-4104 -4832 0
-4101 -5161 0
-4102 -5162 0
-4103 -5163 0
-4104 -5164 0
-4101 -5465 0
-4102 -5466 0
-4103 -5467 0
-4104 -5468 0
-4101 -5505 0
-4102 -5506 0
-4103 -5507 0
-4104 -5508 0
-4105 -4237 0
-4106 -4238 0
-4107 -4239 0
-4108 -4240 0
-4105 -4245 0
-4106 -4246 0
-4107 -4247 0
-4108 -4248 0
-4105 -4533 0
-4106 -4534 0
-4107 -4535 0
-4108 -4536 0
-4105 -4877 0
-4106 -4878 0
-4107 -4879 0
-4108 -4880 0
-4105 -5473 0
-4106 -5474 0
-4107 -5475 0
-4108 -5476 0
-4109 -4113 0
-4110 -4114 0
-4111 -4115 0
-4112 -4116 0
-4109 -4117 0
-4110 -4118 0
-4111 -4119 0
-4112 -4120 0
-4109 -5165 0
-4110 -5166 0
-4111 -5167 0
-4112 -5168 0
-4109 -5349 0
-4110 -5350 0
-4111 -5351 0
-4112 -5352 0
-4109 -5529 0
-4110 -5530 0
-4111 -5531 0
-4112 -5532 0
-4109 -5633 0
-4110 -5634 0
-4111 -5635 0
-4112 -5636 0
-4113 -4125 0
-4114 -4126 0
-4115 -4127 0
-4116 -4128 0
-4113 -4565 0
-4114 -4566 0
-4115 -4567 0
-4116 -4568 0
-4113 -5169 0
-4114 -5170 0
-4115 -5171 0
-4116 -5172 0
-4113 -5533 0
-4114 -5534 0
-4115 -5535 0
-4116 -5536 0
-4113 -5637 0
-4114 -5638 0
-4115 -5639 0
-4116 -5640 0
-4117 -4121 0
-4118 -4122 0
-4119 -4123 0
-4120 -4124 0
-4117 -4133 0
-4118 -4134 0
-4119 -4135 0
-4120 -4136 0
-4117 -4445 0
-4118 -4446 0
-4119 -4447 0
-4120 -4448 0
-4117 -4509 0
-4118 -4510 0
-4119 -4511 0
-4120 -4512 0
-4117 -4737 0
-4118 -4738 0
-4119 -4739 0
-4120 -4740 0
-4117 -5041 0
-4118 -5042 0
-4119 -5043 0
-4120 -5044 0
-4117 -5353 0
-4118 -5354 0
-4119 -5355 0
-4120 -5356 0
-4117 -5541 0
-4118 -5542 0
-4119 -5543 0
-4120 -5544 0
-4121 -4133 0
-4122 -4134 0
-4123 -4135 0
-4124 -4136 0
-4121 -4449 0
-4122 -4450 0
-4123 -4451 0
-4124 -4452 0
-4121 -4741 0
-4122 -4742 0
-4123 -4743 0
-4124 -4744 0
-4121 -5033 0
-4122 -5034 0
-4123 -5035 0
-4124 -5036 0
-4121 -5521 0
-4122 -5522 0
-4123 -5523 0
-4124 -5524 0
-4121 -5545 0
-4122 -5546 0
-4123 -5547 0
-4124 -5548 0
-4125 -4525 0
-4126 -4526 0
-4127 -4527 0
-4128 -4528 0
-4125 -4913 0
-4126 -4914 0
-4127 -4915 0
-4128 -4916 0
-4125 -5533 0
-4126 -5534 0
-4127 -5535 0
-4128 -5536 0
-4125 -5645 0
-4126 -5646 0
-4127 -5647 0
-4128 -5648 0
-4129 -4133 0
-4130 -4134 0
-4131 -4135 0
-4132 -4136 0
-4129 -4137 0
-4130 -4138 0
-4131 -4139 0
-4132 -4140 0
-4129 -4549 0
-4130 -4550 0
-4131 -4551 0
-4132 -4552 0
-4129 -4569 0
-4130 -4570 0
-4131 -4571 0
-4132 -4572 0
-4129 -4813 0
-4130 -4814 0
-4131 -4815 0
-4132 -4816 0
-4129 -5461 0
-4130 -5462 0
-4131 -5463 0
-4132 -5464 0
-4133 -4141 0
-4134 -4142 0
-4135 -4143 0
-4136 -4144 0
-4133 -4553 0
-4134 -4554 0
-4135 -4555 0
-4136 -4556 0
-4133 -4821 0
-4134 -4822 0
-4135 -4823 0
-4136 -4824 0
-4133 -5061 0
-4134 -5062 0
-4135 -5063 0
-4136 -5064 0
-4133 -5465 0
-4134 -5466 0
-4135 -5467 0
-4136 -5468 0
-4133 -5573 0
-4134 -5574 0
-4135 -5575 0
-4136 -5576 0
-4133 -5577 0
-4134 -5578 0
-4135 -5579 0
-4136 -5580 0
-4137 -4141 0
-4138 -4142 0
-4139 -4143 0
-4140 -4144 0
-4137 -4277 0
-4138 -4278 0
-4139 -4279 0
-4140 -4280 0
-4137 -4849 0
-4138 -4850 0
-4139 -4851 0
-4140 -4852 0
-4137 -4941 0
-4138 -4942 0
-4139 -4943 0
-4140 -4944 0
-4137 -5053 0
-4138 -5054 0
-4139 -5055 0
-4140 -5056 0
-4137 -5469 0
-4138 -5470 0
-4139 -5471 0
-4140 -5472 0
-4137 -5473 0
-4138 -5474 0
-4139 -5475 0
-4140 -5476 0
-4141 -4457 0
-4142 -4458 0
-4143 -4459 0
-4144 -4460 0
-4141 -4857 0
-4142 -4858 0
-4143 -4859 0
-4144 -4860 0
-4145 -4149 0
-4146 -4150 0
-4147 -4151 0
-4148 -4152 0
-4145 -4153 0
-4146 -4154 0
-4147 -4155 0
-4148 -4156 0
-4145 -4185 0
-4146 -4186 0
-4147 -4187 0
-4148 -4188 0
-4145 -4581 0
-4146 -4582 0
-4147 -4583 0
-4148 -4584 0
-4145 -5401 0
-4146 -5402 0
-4147 -5403 0
-4148 -5404 0
-4145 -5493 0
-4146 -5494 0
-4147 -5495 0
-4148 -5496 0
-4149 -4157 0
-4150 -4158 0
-4151 -4159 0
-4152 -4160 0
-4149 -4189 0
-4150 -4190 0
-4151 -4191 0
-4152 -4192 0
-4149 -4945 0
-4150 -4946 0
-4151 -4947 0
-4152 -4948 0
-4149 -5497 0
-4150 -5498 0
-4151 -5499 0
-4152 -5500 0
-4153 -4157 0
-4154 -4158 0
-4155 -4159 0
-4156 -4160 0
-4153 -4161 0
-4154 -4162 0
-4155 -4163 0
-4156 -4164 0
-4153 -4185 0
-4154 -4186 0
-4155 -4187 0
-4156 -4188 0
-4153 -4289 0
-4154 -4290 0
-4155 -4291 0
-4156 -4292 0
-4153 -5077 0
-4154 -5078 0
-4155 -5079 0
-4156 -5080 0
-4153 -5405 0
-4154 -5406 0
-4155 -5407 0
-4156 -5408 0
-4153 -5485 0
-4154 -5486 0
-4155 -5487 0
-4156 -5488 0
-4153 -5501 0
-4154 -5502 0
-4155 -5503 0
-4156 -5504 0
-4157 -4161 0
-4158 -4162 0
-4159 -4163 0
-4160 -4164 0
-4157 -4189 0
-4158 -4190 0
-4159 -4191 0
-4160 -4192 0
-4157 -4613 0
-4158 -4614 0
-4159 -4615 0
-4160 -4616 0
-4157 -5081 0
-4158 -5082 0
-4159 -5083 0
-4160 -5084 0
-4157 -5489 0
-4158 -5490 0
-4159 -5491 0
-4160 -5492 0
-4157 -5505 0
-4158 -5506 0
-4159 -5507 0
-4160 -5508 0
-4161 -4165 0
-4162 -4166 0
-4163 -4167 0
-4164 -4168 0
-4161 -4233 0
-4162 -4234 0
-4163 -4235 0
-4164 -4236 0
-4161 -4301 0
-4162 -4302 0
-4163 -4303 0
-4164 -4304 0
-4161 -4625 0
-4162 -4626 0
-4163 -4627 0
-4164 -4628 0
-4161 -5189 0
-4162 -5190 0
-4163 -5191 0
-4164 -5192 0
-4161 -5509 0
-4162 -5510 0
-4163 -5511 0
-4164 -5512 0
-4161 -5513 0
-4162 -5514 0
-4163 -5515 0
-4164 -5516 0
-4165 -4237 0
-4166 -4238 0
-4167 -4239 0
-4168 -4240 0
-4165 -4465 0
-4166 -4466 0
-4167 -4467 0
-4168 -4468 0
-4165 -5089 0
-4166 -5090 0
-4167 -5091 0
-4168 -5092 0
-4165 -5193 0
-4166 -5194 0
-4167 -5195 0
-4168 -5196 0
-4165 -5517 0
-4166 -5518 0
-4167 -5519 0
-4168 -5520 0
-4169 -4173 0
-4170 -4174 0
-4171 -4175 0
-4172 -4176 0
-4169 -4201 0
-4170 -4202 0
-4171 -4203 0
-4172 -4204 0
-4169 -4261 0
-4170 -4262 0
-4171 -4263 0
-4172 -4264 0
-4169 -4469 0
-4170 -4470 0
-4171 -4471 0
-4172 -4472 0
-4169 -4505 0
-4170 -4506 0
-4171 -4507 0
-4172 -4508 0
-4169 -4785 0
-4170 -4786 0
-4171 -4787 0
-4172 -4788 0
-4169 -5197 0
-4170 -5198 0
-4171 -5199 0
-4172 -5200 0
-4169 -5521 0
-4170 -5522 0
-4171 -5523 0
-4172 -5524 0
-4173 -4217 0
-4174 -4218 0
-4175 -4219 0
-4176 -4220 0
-4173 -4265 0
-4174 -4266 0
-4175 -4267 0
-4176 -4268 0
-4173 -4477 0
-4174 -4478 0
-4175 -4479 0
-4176 -4480 0
-4173 -4509 0
-4174 -4510 0
-4175 -4511 0
-4176 -4512 0
-4173 -4789 0
-4174 -4790 0
-4175 -4791 0
-4176 -4792 0
-4173 -5477 0
-4174 -5478 0
-4175 -5479 0
-4176 -5480 0
-4173 -5521 0
-4174 -5522 0
-4175 -5523 0
-4176 -5524 0
-4177 -4181 0
-4178 -4182 0
-4179 -4183 0
-4180 -4184 0
-4177 -4201 0
-4178 -4202 0
-4179 -4203 0
-4180 -4204 0
-4177 -4225 0
-4178 -4226 0
-4179 -4227 0
-4180 -4228 0
-4177 -4229 0
-4178 -4230 0
-4179 -4231 0
-4180 -4232 0
-4177 -4793 0
-4178 -4794 0
-4179 -4795 0
-4180 -4796 0
-4177 -5113 0
-4178 -5114 0
-4179 -5115 0
-4180 -5116 0
-4177 -5525 0
-4178 -5526 0
-4179 -5527 0
-4180 -5528 0
-4181 -4217 0
-4182 -4218 0
-4183 -4219 0
-4184 -4220 0
-4181 -4797 0
-4182 -4798 0
-4183 -4799 0
-4184 -4800 0
-4181 -5125 0
-4182 -5126 0
-4183 -5127 0
-4184 -5128 0
-4181 -5525 0
-4182 -5526 0
-4183 -5527 0
-4184 -5528 0
-4185 -4189 0
-4186 -4190 0
-4187 -4191 0
-4188 -4192 0
-4185 -4193 0
-4186 -4194 0
-4187 -4195 0
-4188 -4196 0
-4185 -4197 0
-4186 -4198 0
-4187 -4199 0
-4188 -4200 0
-4185 -4205 0
-4186 -4206 0
-4187 -4207 0
-4188 -4208 0
-4185 -4233 0
-4186 -4234 0
-4187 -4235 0
-4188 -4236 0
-4185 -4281 0
-4186 -4282 0
-4187 -4283 0
-4188 -4284 0
-4185 -4321 0
-4186 -4322 0
-4187 -4323 0
-4188 -4324 0
-4185 -5205 0
-4186 -5206 0
-4187 -5207 0
-4188 -5208 0
-4185 -5417 0
-4186 -5418 0
-4187 -5419 0
-4188 -5420 0
-4185 -5529 0
-4186 -5530 0
-4187 -5531 0
-4188 -5532 0
-4189 -4233 0
-4190 -4234 0
-4191 -4235 0
-4192 -4236 0
-4189 -4637 0
-4190 -4638 0
-4191 -4639 0
-4192 -4640 0
-4189 -5533 0
-4190 -5534 0
-4191 -5535 0
-4192 -5536 0
-4193 -4201 0
-4194 -4202 0
-4195 -4203 0
-4196 -4204 0
-4193 -4209 0
-4194 -4210 0
-4195 -4211 0
-4196 -4212 0
-4193 -4237 0
-4194 -4238 0
-4195 -4239 0
-4196 -4240 0
-4193 -4805 0
-4194 -4806 0
-4195 -4807 0
-4196 -4808 0
-4193 -5209 0
-4194 -5210 0
-4195 -5211 0
-4196 -5212 0
-4193 -5537 0
-4194 -5538 0
-4195 -5539 0
-4196 -5540 0
-4197 -4201 0
-4198 -4202 0
-4199 -4203 0
-4200 -4204 0
-4197 -4213 0
-4198 -4214 0
-4199 -4215 0
-4200 -4216 0
-4197 -4269 0
-4198 -4270 0
-4199 -4271 0
-4200 -4272 0
-4197 -4281 0
-4198 -4282 0
-4199 -4283 0
-4200 -4284 0
-4197 -4485 0
-4198 -4486 0
-4199 -4487 0
-4200 -4488 0
-4197 -4585 0
-4198 -4586 0
-4199 -4587 0
-4200 -4588 0
-4197 -4809 0
-4198 -4810 0
-4199 -4811 0
-4200 -4812 0
-4197 -5129 0
-4198 -5130 0
-4199 -5131 0
-4200 -5132 0
-4197 -5541 0
-4198 -5542 0
-4199 -5543 0
-4200 -5544 0
-4201 -4217 0
-4202 -4218 0
-4203 -4219 0
-4204 -4220 0
-4201 -4241 0
-4202 -4242 0
-4203 -4243 0
-4204 -4244 0
-4201 -4245 0
-4202 -4246 0
-4203 -4247 0
-4204 -4248 0
-4201 -4269 0
-4202 -4270 0
-4203 -4271 0
-4204 -4272 0
-4201 -4493 0
-4202 -4494 0
-4203 -4495 0
-4204 -4496 0
-4201 -4517 0
-4202 -4518 0
-4203 -4519 0
-4204 -4520 0
-4201 -4821 0
-4202 -4822 0
-4203 -4823 0
-4204 -4824 0
-4201 -5545 0
-4202 -5546 0
-4203 -5547 0
-4204 -5548 0
-4205 -4209 0
-4206 -4210 0
-4207 -4211 0
-4208 -4212 0
-4205 -4213 0
-4206 -4214 0
-4207 -4215 0
-4208 -4216 0
-4205 -4329 0
-4206 -4330 0
-4207 -4331 0
-4208 -4332 0
-4205 -5529 0
-4206 -5530 0
-4207 -5531 0
-4208 -5532 0
-4209 -4217 0
-4210 -4218 0
-4211 -4219 0
-4212 -4220 0
-4209 -4249 0
-4210 -4250 0
-4211 -4251 0
-4212 -4252 0
-4209 -4841 0
-4210 -4842 0
-4211 -4843 0
-4212 -4844 0
-4209 -5537 0
-4210 -5538 0
-4211 -5539 0
-4212 -5540 0
-4213 -4217 0
-4214 -4218 0
-4215 -4219 0
-4216 -4220 0
-4213 -4273 0
-4214 -4274 0
-4215 -4275 0
-4216 -4276 0
-4213 -4497 0
-4214 -4498 0
-4215 -4499 0
-4216 -4500 0
-4213 -4845 0
-4214 -4846 0
-4215 -4847 0
-4216 -4848 0
-4213 -5133 0
-4214 -5134 0
-4215 -5135 0
-4216 -5136 0
-4213 -5541 0
-4214 -5542 0
-4215 -5543 0
-4216 -5544 0
-4217 -4253 0
-4218 -4254 0
-4219 -4255 0
-4220 -4256 0
-4217 -4273 0
-4218 -4274 0
-4219 -4275 0
-4220 -4276 0
-4217 -4529 0
-4218 -4530 0
-4219 -4531 0
-4220 -4532 0
-4217 -4857 0
-4218 -4858 0
-4219 -4859 0
-4220 -4860 0
-4217 -5065 0
-4218 -5066 0
-4219 -5067 0
-4220 -5068 0
-4217 -5545 0
-4218 -5546 0
-4219 -5547 0
-4220 -5548 0
-4221 -4229 0
-4222 -4230 0
-4223 -4231 0
-4224 -4232 0
-4221 -4237 0
-4222 -4238 0
-4223 -4239 0
-4224 -4240 0
-4221 -4961 0
-4222 -4962 0
-4223 -4963 0
-4224 -4964 0
-4221 -5213 0
-4222 -5214 0
-4223 -5215 0
-4224 -5216 0
-4221 -5549 0
-4222 -5550 0
-4223 -5551 0
-4224 -5552 0
-4221 -5669 0
-4222 -5670 0
-4223 -5671 0
-4224 -5672 0
-4225 -4229 0
-4226 -4230 0
-4227 -4231 0
-4228 -4232 0
-4225 -4241 0
-4226 -4242 0
-4227 -4243 0
-4228 -4244 0
-4225 -4885 0
-4226 -4886 0
-4227 -4887 0
-4228 -4888 0
-4225 -5069 0
-4226 -5070 0
-4227 -5071 0
-4228 -5072 0
-4229 -4245 0
-4230 -4246 0
-4231 -4247 0
-4232 -4248 0
-4229 -4589 0
-4230 -4590 0
-4231 -4591 0
-4232 -4592 0
-4229 -4965 0
-4230 -4966 0
-4231 -4967 0
-4232 -4968 0
-4229 -5117 0
-4230 -5118 0
-4231 -5119 0
-4232 -5120 0
-4229 -5221 0
-4230 -5222 0
-4231 -5223 0
-4232 -5224 0
-4229 -5553 0
-4230 -5554 0
-4231 -5555 0
-4232 -5556 0
-4233 -4237 0
-4234 -4238 0
-4235 -4239 0
-4236 -4240 0
-4233 -4349 0
-4234 -4350 0
-4235 -4351 0
-4236 -4352 0
-4233 -4601 0
-4234 -4602 0
-4235 -4603 0
-4236 -4604 0
-4233 -4669 0
-4234 -4670 0
-4235 -4671 0
-4236 -4672 0
-4233 -5421 0
-4234 -5422 0
-4235 -5423 0
-4236 -5424 0
-4233 -5557 0
-4234 -5558 0
-4235 -5559 0
-4236 -5560 0
-4237 -4245 0
-4238 -4246 0
-4239 -4247 0
-4240 -4248 0
-4237 -4249 0
-4238 -4250 0
-4239 -4251 0
-4240 -4252 0
-4237 -4609 0
-4238 -4610 0
-4239 -4611 0
-4240 -4612 0
-4237 -5081 0
-4238 -5082 0
-4239 -5083 0
-4240 -5084 0
-4237 -5229 0
-4238 -5230 0
-4239 -5231 0
-4240 -5232 0
-4237 -5425 0
-4238 -5426 0
-4239 -5427 0
-4240 -5428 0
-4237 -5561 0
-4238 -5562 0
-4239 -5563 0
-4240 -5564 0
-4241 -4245 0
-4242 -4246 0
-4243 -4247 0
-4244 -4248 0
-4241 -4501 0
-4242 -4502 0
-4243 -4503 0
-4244 -4504 0
-4241 -4893 0
-4242 -4894 0
-4243 -4895 0
-4244 -4896 0
-4241 -5085 0
-4242 -5086 0
-4243 -5087 0
-4244 -5088 0
-4241 -5565 0
-4242 -5566 0
-4243 -5567 0
-4244 -5568 0
-4245 -4253 0
-4246 -4254 0
-4247 -4255 0
-4248 -4256 0
-4245 -4897 0
-4246 -4898 0
-4247 -4899 0
-4248 -4900 0
-4245 -5133 0
-4246 -5134 0
-4247 -5135 0
-4248 -5136 0
-4245 -5569 0
-4246 -5570 0
-4247 -5571 0
-4248 -5572 0
-4249 -4253 0
-4250 -4254 0
-4251 -4255 0
-4252 -4256 0
-4249 -5433 0
-4250 -5434 0
-4251 -5435 0
-4252 -5436 0
-4249 -5561 0
-4250 -5562 0
-4251 -5563 0
-4252 -5564 0
-4253 -4537 0
-4254 -4538 0
-4255 -4539 0
-4256 -4540 0
-4253 -4905 0
-4254 -4906 0
-4255 -4907 0
-4256 -4908 0
-4253 -5437 0
-4254 -5438 0
-4255 -5439 0
-4256 -5440 0
-4253 -5569 0
-4254 -5570 0
-4255 -5571 0
-4256 -5572 0
-4257 -4265 0
-4258 -4266 0
-4259 -4267 0
-4260 -4268 0
-4257 -5145 0
-4258 -5146 0
-4259 -5147 0
-4260 -5148 0
-4257 -5505 0
-4258 -5506 0
-4259 -5507 0
-4260 -5508 0
-4261 -4265 0
-4262 -4266 0
-4263 -4267 0
-4264 -4268 0
-4261 -4269 0
-4262 -4270 0
-4263 -4271 0
-4264 -4272 0
-4261 -4945 0
-4262 -4946 0
-4263 -4947 0
-4264 -4948 0
-4261 -5249 0
-4262 -5250 0
-4263 -5251 0
-4264 -5252 0
-4261 -5489 0
-4262 -5490 0
-4263 -5491 0
-4264 -5492 0
-4261 -5573 0
-4262 -5574 0
-4263 -5575 0
-4264 -5576 0
-4265 -4273 0
-4266 -4274 0
-4267 -4275 0
-4268 -4276 0
-4265 -4485 0
-4266 -4486 0
-4267 -4487 0
-4268 -4488 0
-4265 -4545 0
-4266 -4546 0
-4267 -4547 0
-4268 -4548 0
-4265 -4701 0
-4266 -4702 0
-4267 -4703 0
-4268 -4704 0
-4265 -4949 0
-4266 -4950 0
-4267 -4951 0
-4268 -4952 0
-4265 -5453 0
-4266 -5454 0
-4267 -5455 0
-4268 -5456 0
-4265 -5505 0
-4266 -5506 0
-4267 -5507 0
-4268 -5508 0
-4265 -5573 0
-4266 -5574 0
-4267 -5575 0
-4268 -5576 0
-4269 -4273 0
-4270 -4274 0
-4271 -4275 0
-4272 -4276 0
-4269 -4621 0
-4270 -4622 0
-4271 -4623 0
-4272 -4624 0
-4269 -4925 0
-4270 -4926 0
-4271 -4927 0
-4272 -4928 0
-4269 -4953 0
-4270 -4954 0
-4271 -4955 0
-4272 -4956 0
-4269 -5577 0
-4270 -5578 0
-4271 -5579 0
-4272 -5580 0
-4273 -4413 0
-4274 -4414 0
-4275 -4415 0
-4276 -4416 0
-4273 -4557 0
-4274 -4558 0
-4275 -4559 0
-4276 -4560 0
-4273 -4933 0
-4274 -4934 0
-4275 -4935 0
-4276 -4936 0
-4273 -4957 0
-4274 -4958 0
-4275 -4959 0
-4276 -4960 0
-4273 -5577 0
-4274 -5578 0
-4275 -5579 0
-4276 -5580 0
-4277 -4577 0
-4278 -4578 0
-4279 -4579 0
-4280 -4580 0
-4277 -5145 0
-4278 -5146 0
-4279 -5147 0
-4280 -5148 0
-4277 -5549 0
-4278 -5550 0
-4279 -5551 0
-4280 -5552 0
-4277 -5561 0
-4278 -5562 0
-4279 -5563 0
-4280 -5564 0
-4281 -4469 0
-4282 -4470 0
-4283 -4471 0
-4284 -4472 0
-4281 -5581 0
-4282 -5582 0
-4283 -5583 0
-4284 -5584 0
-4285 -5021 0
-4286 -5022 0
-4287 -5023 0
-4288 -5024 0
-4285 -5165 0
-4286 -5166 0
-4287 -5167 0
-4288 -5168 0
-4285 -5593 0
-4286 -5594 0
-4287 -5595 0
-4288 -5596 0
-4285 -5605 0
-4286 -5606 0
-4287 -5607 0
-4288 -5608 0
-4289 -4293 0
-4290 -4294 0
-4291 -4295 0
-4292 -4296 0
-4289 -4297 0
-4290 -4298 0
-4291 -4299 0
-4292 -4300 0
-4289 -4301 0
-4290 -4302 0
-4291 -4303 0
-4292 -4304 0
-4289 -4321 0
-4290 -4322 0
-4291 -4323 0
-4292 -4324 0
-4289 -4325 0
-4290 -4326 0
-4291 -4327 0
-4292 -4328 0
-4289 -5185 0
-4290 -5186 0
-4291 -5187 0
-4292 -5188 0
-4289 -5585 0
-4290 -5586 0
-4291 -5587 0
-4292 -5588 0
-4293 -4305 0
-4294 -4306 0
-4295 -4307 0
-4296 -4308 0
-4293 -4329 0
-4294 -4330 0
-4295 -4331 0
-4296 -4332 0
-4293 -4333 0
-4294 -4334 0
-4295 -4335 0
-4296 -4336 0
-4293 -4581 0
-4294 -4582 0
-4295 -4583 0
-4296 -4584 0
-4293 -5193 0
-4294 -5194 0
-4295 -5195 0
-4296 -5196 0
-4293 -5477 0
-4294 -5478 0
-4295 -5479 0
-4296 -5480 0
-4293 -5585 0
-4294 -5586 0
-4295 -5587 0
-4296 -5588 0
-4297 -4313 0
-4298 -4314 0
-4299 -4315 0
-4300 -4316 0
-4297 -4613 0
-4298 -4614 0
-4299 -4615 0
-4300 -4616 0
-4297 -4981 0
-4298 -4982 0
-4299 -4983 0
-4300 -4984 0
-4297 -5201 0
-4298 -5202 0
-4299 -5203 0
-4300 -5204 0
-4297 -5589 0
-4298 -5590 0
-4299 -5591 0
-4300 -5592 0
-4301 -4305 0
-4302 -4306 0
-4303 -4307 0
-4304 -4308 0
-4301 -4313 0
-4302 -4314 0
-4303 -4315 0
-4304 -4316 0
-4301 -4349 0
-4302 -4350 0
-4303 -4351 0
-4304 -4352 0
-4301 -4357 0
-4302 -4358 0
-4303 -4359 0
-4304 -4360 0
-4301 -4753 0
-4302 -4754 0
-4303 -4755 0
-4304 -4756 0
-4301 -5189 0
-4302 -5190 0
-4303 -5191 0
-4304 -5192 0
-4301 -5593 0
-4302 -5594 0
-4303 -5595 0
-4304 -5596 0
-4305 -4317 0
-4306 -4318 0
-4307 -4319 0
-4308 -4320 0
-4305 -4369 0
-4306 -4370 0
-4307 -4371 0
-4308 -4372 0
-4305 -4377 0
-4306 -4378 0
-4307 -4379 0
-4308 -4380 0
-4305 -4761 0
-4306 -4762 0
-4307 -4763 0
-4308 -4764 0
-4305 -5593 0
-4306 -5594 0
-4307 -5595 0
-4308 -5596 0
-4309 -4313 0
-4310 -4314 0
-4311 -4315 0
-4312 -4316 0
-4309 -4465 0
-4310 -4466 0
-4311 -4467 0
-4312 -4468 0
-4309 -4725 0
-4310 -4726 0
-4311 -4727 0
-4312 -4728 0
-4309 -5077 0
-4310 -5078 0
-4311 -5079 0
-4312 -5080 0
-4309 -5597 0
-4310 -5598 0
-4311 -5599 0
-4312 -5600 0
-4309 -5601 0
-4310 -5602 0
-4311 -5603 0
-4312 -5604 0
-4313 -4317 0
-4314 -4318 0
-4315 -4319 0
-4316 -4320 0
-4313 -4385 0
-4314 -4386 0
-4315 -4387 0
-4316 -4388 0
-4313 -4465 0
-4314 -4466 0
-4315 -4467 0
-4316 -4468 0
-4313 -4629 0
-4314 -4630 0
-4315 -4631 0
-4316 -4632 0
-4313 -5085 0
-4314 -5086 0
-4315 -5087 0
-4316 -5088 0
-4313 -5205 0
-4314 -5206 0
-4315 -5207 0
-4316 -5208 0
-4313 -5321 0
-4314 -5322 0
-4315 -5323 0
-4316 -5324 0
-4313 -5605 0
-4314 -5606 0
-4315 -5607 0
-4316 -5608 0
-4317 -4389 0
-4318 -4390 0
-4319 -4391 0
-4320 -4392 0
-4317 -5093 0
-4318 -5094 0
-4319 -5095 0
-4320 -5096 0
-4317 -5329 0
-4318 -5330 0
-4319 -5331 0
-4320 -5332 0
-4317 -5605 0
-4318 -5606 0
-4319 -5607 0
-4320 -5608 0
-4321 -4325 0
-4322 -4326 0
-4323 -4327 0
-4324 -4328 0
-4321 -4329 0
-4322 -4330 0
-4323 -4331 0
-4324 -4332 0
-4321 -4345 0
-4322 -4346 0
-4323 -4347 0
-4324 -4348 0
-4321 -4349 0
-4322 -4350 0
-4323 -4351 0
-4324 -4352 0
-4321 -4397 0
-4322 -4398 0
-4323 -4399 0
-4324 -4400 0
-4321 -4469 0
-4322 -4470 0
-4323 -4471 0
-4324 -4472 0
-4321 -4633 0
-4322 -4634 0
-4323 -4635 0
-4324 -4636 0
-4321 -5321 0
-4322 -5322 0
-4323 -5323 0
-4324 -5324 0
-4321 -5609 0
-4322 -5610 0
-4323 -5611 0
-4324 -5612 0
-4321 -5709 0
-4322 -5710 0
-4323 -5711 0
-4324 -5712 0
-4325 -4333 0
-4326 -4334 0
-4327 -4335 0
-4328 -4336 0
-4325 -4353 0
-4326 -4354 0
-4327 -4355 0
-4328 -4356 0
-4325 -4357 0
-4326 -4358 0
-4327 -4359 0
-4328 -4360 0
-4325 -4769 0
-4326 -4770 0
-4327 -4771 0
-4328 -4772 0
-4325 -5325 0
-4326 -5326 0
-4327 -5327 0
-4328 -5328 0
-4325 -5613 0
-4326 -5614 0
-4327 -5615 0
-4328 -5616 0
-4329 -4333 0
-4330 -4334 0
-4331 -4335 0
-4332 -4336 0
-4329 -4365 0
-4330 -4366 0
-4331 -4367 0
-4332 -4368 0
-4329 -4369 0
-4330 -4370 0
-4331 -4371 0
-4332 -4372 0
-4329 -4405 0
-4330 -4406 0
-4331 -4407 0
-4332 -4408 0
-4329 -4473 0
-4330 -4474 0
-4331 -4475 0
-4332 -4476 0
-4329 -4477 0
-4330 -4478 0
-4331 -4479 0
-4332 -4480 0
-4329 -5229 0
-4330 -5230 0
-4331 -5231 0
-4332 -5232 0
-4329 -5329 0
-4330 -5330 0
-4331 -5331 0
-4332 -5332 0
-4329 -5609 0
-4330 -5610 0
-4331 -5611 0
-4332 -5612 0
-4329 -5617 0
-4330 -5618 0
-4331 -5619 0
-4332 -5620 0
-4329 -5713 0
-4330 -5714 0
-4331 -5715 0
-4332 -5716 0
-4333 -4373 0
-4334 -4374 0
-4335 -4375 0
-4336 -4376 0
-4333 -4377 0
-4334 -4378 0
-4335 -4379 0
-4336 -4380 0
-4333 -4777 0
-4334 -4778 0
-4335 -4779 0
-4336 -4780 0
-4333 -5233 0
-4334 -5234 0
-4335 -5235 0
-4336 -5236 0
-4333 -5613 0
-4334 -5614 0
-4335 -5615 0
-4336 -5616 0
-4337 -4341 0
-4338 -4342 0
-4339 -4343 0
-4340 -4344 0
-4337 -4357 0
-4338 -4358 0
-4339 -4359 0
-4340 -4360 0
-4337 -4793 0
-4338 -4794 0
-4339 -4795 0
-4340 -4796 0
-4337 -5621 0
-4338 -5622 0
-4339 -5623 0
-4340 -5624 0
-4341 -4361 0
-4342 -4362 0
-4343 -4363 0
-4344 -4364 0
-4341 -4825 0
-4342 -4826 0
-4343 -4827 0
-4344 -4828 0
-4341 -5217 0
-4342 -5218 0
-4343 -5219 0
-4344 -5220 0
-4341 -5665 0
-4342 -5666 0
-4343 -5667 0
-4344 -5668 0
-4345 -4349 0
-4346 -4350 0
-4347 -4351 0
-4348 -4352 0
-4345 -4353 0
-4346 -4354 0
-4347 -4355 0
-4348 -4356 0
-4345 -4365 0
-4346 -4366 0
-4347 -4367 0
-4348 -4368 0
-4345 -4429 0
-4346 -4430 0
-4347 -4431 0
-4348 -4432 0
-4345 -4737 0
-4346 -4738 0
-4347 -4739 0
-4348 -4740 0
-4345 -5625 0
-4346 -5626 0
-4347 -5627 0
-4348 -5628 0
-4349 -4357 0
-4350 -4358 0
-4351 -4359 0
-4352 -4360 0
-4349 -4369 0
-4350 -4370 0
-4351 -4371 0
-4352 -4372 0
-4349 -4513 0
-4350 -4514 0
-4351 -4515 0
-4352 -4516 0
-4349 -4813 0
-4350 -4814 0
-4351 -4815 0
-4352 -4816 0
-4349 -5629 0
-4350 -5630 0
-4351 -5631 0
-4352 -5632 0
-4353 -4357 0
-4354 -4358 0
-4355 -4359 0
-4356 -4360 0
-4353 -4373 0
-4354 -4374 0
-4355 -4375 0
-4356 -4376 0
-4353 -4505 0
-4354 -4506 0
-4355 -4507 0
-4356 -4508 0
-4353 -4653 0
-4354 -4654 0
-4355 -4655 0
-4356 -4656 0
-4353 -4817 0
-4354 -4818 0
-4355 -4819 0
-4356 -4820 0
-4353 -5485 0
-4354 -5486 0
-4355 -5487 0
-4356 -5488 0
-4353 -5633 0
-4354 -5634 0
-4355 -5635 0
-4356 -5636 0
-4357 -4361 0
-4358 -4362 0
-4359 -4363 0
-4360 -4364 0
-4357 -4377 0
-4358 -4378 0
-4359 -4379 0
-4360 -4380 0
-4357 -4385 0
-4358 -4386 0
-4359 -4387 0
-4360 -4388 0
-4357 -4821 0
-4358 -4822 0
-4359 -4823 0
-4360 -4824 0
-4357 -5489 0
-4358 -5490 0
-4359 -5491 0
-4360 -5492 0
-4357 -5637 0
-4358 -5638 0
-4359 -5639 0
-4360 -5640 0
-4361 -4597 0
-4362 -4598 0
-4363 -4599 0
-4364 -4600 0
-4361 -4833 0
-4362 -4834 0
-4363 -4835 0
-4364 -4836 0
-4361 -5233 0
-4362 -5234 0
-4363 -5235 0
-4364 -5236 0
-4361 -5641 0
-4362 -5642 0
-4363 -5643 0
-4364 -5644 0
-4365 -4369 0
-4366 -4370 0
-4367 -4371 0
-4368 -4372 0
-4365 -4373 0
-4366 -4374 0
-4367 -4375 0
-4368 -4376 0
-4365 -4381 0
-4366 -4382 0
-4367 -4383 0
-4368 -4384 0
-4365 -4433 0
-4366 -4434 0
-4367 -4435 0
-4368 -4436 0
-4365 -4745 0
-4366 -4746 0
-4367 -4747 0
-4368 -4748 0
-4365 -5189 0
-4366 -5190 0
-4367 -5191 0
-4368 -5192 0
-4365 -5481 0
-4366 -5482 0
-4367 -5483 0
-4368 -5484 0
-4365 -5493 0
-4366 -5494 0
-4367 -5495 0
-4368 -5496 0
-4365 -5625 0
-4366 -5626 0
-4367 -5627 0
-4368 -5628 0
-4369 -4377 0
-4370 -4378 0
-4371 -4379 0
-4372 -4380 0
-4369 -4525 0
-4370 -4526 0
-4371 -4527 0
-4372 -4528 0
-4369 -4849 0
-4370 -4850 0
-4371 -4851 0
-4372 -4852 0
-4369 -5105 0
-4370 -5106 0
-4371 -5107 0
-4372 -5108 0
-4369 -5497 0
-4370 -5498 0
-4371 -5499 0
-4372 -5500 0
-4369 -5629 0
-4370 -5630 0
-4371 -5631 0
-4372 -5632 0
-4373 -4377 0
-4374 -4378 0
-4375 -4379 0
-4376 -4380 0
-4373 -4437 0
-4374 -4438 0
-4375 -4439 0
-4376 -4440 0
-4373 -4509 0
-4374 -4510 0
-4375 -4511 0
-4376 -4512 0
-4373 -4853 0
-4374 -4854 0
-4375 -4855 0
-4376 -4856 0
-4373 -5501 0
-4374 -5502 0
-4375 -5503 0
-4376 -5504 0
-4373 -5633 0
-4374 -5634 0
-4375 -5635 0
-4376 -5636 0
-4377 -4389 0
-4378 -4390 0
-4379 -4391 0
-4380 -4392 0
-4377 -4601 0
-4378 -4602 0
-4379 -4603 0
-4380 -4604 0
-4377 -4857 0
-4378 -4858 0
-4379 -4859 0
-4380 -4860 0
-4377 -5505 0
-4378 -5506 0
-4379 -5507 0
-4380 -5508 0
-4377 -5637 0
-4378 -5638 0
-4379 -5639 0
-4380 -5640 0
-4381 -4433 0
-4382 -4434 0
-4383 -4435 0
-4384 -4436 0
-4381 -4749 0
-4382 -4750 0
-4383 -4751 0
-4384 -4752 0
-4381 -5193 0
-4382 -5194 0
-4383 -5195 0
-4384 -5196 0
-4385 -4389 0
-4386 -4390 0
-4387 -4391 0
-4388 -4392 0
-4385 -4521 0
-4386 -4522 0
-4387 -4523 0
-4388 -4524 0
-4385 -4677 0
-4386 -4678 0
-4387 -4679 0
-4388 -4680 0
-4385 -4733 0
-4386 -4734 0
-4387 -4735 0
-4388 -4736 0
-4385 -4885 0
-4386 -4886 0
-4387 -4887 0
-4388 -4888 0
-4385 -5333 0
-4386 -5334 0
-4387 -5335 0
-4388 -5336 0
-4385 -5645 0
-4386 -5646 0
-4387 -5647 0
-4388 -5648 0
-4389 -4533 0
-4390 -4534 0
-4391 -4535 0
-4392 -4536 0
-4389 -4889 0
-4390 -4890 0
-4391 -4891 0
-4392 -4892 0
-4389 -5645 0
-4390 -5646 0
-4391 -5647 0
-4392 -5648 0
-4393 -4457 0
-4394 -4458 0
-4395 -4459 0
-4396 -4460 0
-4393 -4461 0
-4394 -4462 0
-4395 -4463 0
-4396 -4464 0
-4393 -4749 0
-4394 -4750 0
-4395 -4751 0
-4396 -4752 0
-4393 -5225 0
-4394 -5226 0
-4395 -5227 0
-4396 -5228 0
-4393 -5525 0
-4394 -5526 0
-4395 -5527 0
-4396 -5528 0
-4393 -5677 0
-4394 -5678 0
-4395 -5679 0
-4396 -5680 0
-4397 -4405 0
-4398 -4406 0
-4399 -4407 0
-4400 -4408 0
-4397 -4429 0
-4398 -4430 0
-4399 -4431 0
-4400 -4432 0
-4397 -4481 0
-4398 -4482 0
-4399 -4483 0
-4400 -4484 0
-4397 -4773 0
-4398 -4774 0
-4399 -4775 0
-4400 -4776 0
-4397 -5649 0
-4398 -5650 0
-4399 -5651 0
-4400 -5652 0
-4401 -4405 0
-4402 -4406 0
-4403 -4407 0
-4404 -4408 0
-4401 -4409 0
-4402 -4410 0
-4403 -4411 0
-4404 -4412 0
-4401 -4433 0
-4402 -4434 0
-4403 -4435 0
-4404 -4436 0
-4401 -4489 0
-4402 -4490 0
-4403 -4491 0
-4404 -4492 0
-4401 -4777 0
-4402 -4778 0
-4403 -4779 0
-4404 -4780 0
-4401 -5537 0
-4402 -5538 0
-4403 -5539 0
-4404 -5540 0
-4405 -4413 0
-4406 -4414 0
-4407 -4415 0
-4408 -4416 0
-4405 -4433 0
-4406 -4434 0
-4407 -4435 0
-4408 -4436 0
-4405 -4493 0
-4406 -4494 0
-4407 -4495 0
-4408 -4496 0
-4405 -4637 0
-4406 -4638 0
-4407 -4639 0
-4408 -4640 0
-4405 -4705 0
-4406 -4706 0
-4407 -4707 0
-4408 -4708 0
-4405 -4781 0
-4406 -4782 0
-4407 -4783 0
-4408 -4784 0
-4405 -5649 0
-4406 -5650 0
-4407 -5651 0
-4408 -5652 0
-4405 -5653 0
-4406 -5654 0
-4407 -5655 0
-4408 -5656 0
-4405 -5737 0
-4406 -5738 0
-4407 -5739 0
-4408 -5740 0
-4409 -4413 0
-4410 -4414 0
-4411 -4415 0
-4412 -4416 0
-4409 -4441 0
-4410 -4442 0
-4411 -4443 0
-4412 -4444 0
-4409 -4489 0
-4410 -4490 0
-4411 -4491 0
-4412 -4492 0
-4409 -4701 0
-4410 -4702 0
-4411 -4703 0
-4412 -4704 0
-4409 -5049 0
-4410 -5050 0
-4411 -5051 0
-4412 -5052 0
-4409 -5545 0
-4410 -5546 0
-4411 -5547 0
-4412 -5548 0
-4409 -5589 0
-4410 -5590 0
-4411 -5591 0
-4412 -5592 0
-4413 -4441 0
-4414 -4442 0
-4415 -4443 0
-4416 -4444 0
-4413 -4493 0
-4414 -4494 0
-4415 -4495 0
-4416 -4496 0
-4413 -4709 0
-4414 -4710 0
-4415 -4711 0
-4416 -4712 0
-4413 -5053 0
-4414 -5054 0
-4415 -5055 0
-4416 -5056 0
-4417 -4421 0
-4418 -4422 0
-4419 -4423 0
-4420 -4424 0
-4417 -4433 0
-4418 -4434 0
-4419 -4435 0
-4420 -4436 0
-4417 -4453 0
-4418 -4454 0
-4419 -4455 0
-4420 -4456 0
-4417 -4797 0
-4418 -4798 0
-4419 -4799 0
-4420 -4800 0
-4417 -5141 0
-4418 -5142 0
-4419 -5143 0
-4420 -5144 0
-4417 -5549 0
-4418 -5550 0
-4419 -5551 0
-4420 -5552 0
-4417 -5601 0
-4418 -5602 0
-4419 -5603 0
-4420 -5604 0
-4417 -5741 0
-4418 -5742 0
-4419 -5743 0
-4420 -5744 0
-4421 -4425 0
-4422 -4426 0
-4423 -4427 0
-4424 -4428 0
-4421 -4441 0
-4422 -4442 0
-4423 -4443 0
-4424 -4444 0
-4421 -4457 0
-4422 -4458 0
-4423 -4459 0
-4424 -4460 0
-4421 -4761 0
-4422 -4762 0
-4423 -4763 0
-4424 -4764 0
-4421 -5149 0
-4422 -5150 0
-4423 -5151 0
-4424 -5152 0
-4421 -5285 0
-4422 -5286 0
-4423 -5287 0
-4424 -5288 0
-4421 -5553 0
-4422 -5554 0
-4423 -5555 0
-4424 -5556 0
-4421 -5605 0
-4422 -5606 0
-4423 -5607 0
-4424 -5608 0
-4425 -4457 0
-4426 -4458 0
-4427 -4459 0
-4428 -4460 0
-4425 -4765 0
-4426 -4766 0
-4427 -4767 0
-4428 -4768 0
-4425 -5073 0
-4426 -5074 0
-4427 -5075 0
-4428 -5076 0
-4425 -5289 0
-4426 -5290 0
-4427 -5291 0
-4428 -5292 0
-4425 -5361 0
-4426 -5362 0
-4427 -5363 0
-4428 -5364 0
-4429 -4433 0
-4430 -4434 0
-4431 -4435 0
-4432 -4436 0
-4429 -4821 0
-4430 -4822 0
-4431 -4823 0
-4432 -4824 0
-4429 -5597 0
-4430 -5598 0
-4431 -5599 0
-4432 -5600 0
-4429 -5657 0
-4430 -5658 0
-4431 -5659 0
-4432 -5660 0
-4433 -4437 0
-4434 -4438 0
-4435 -4439 0
-4436 -4440 0
-4433 -4441 0
-4434 -4442 0
-4435 -4443 0
-4436 -4444 0
-4433 -4501 0
-4434 -4502 0
-4435 -4503 0
-4436 -4504 0
-4433 -4549 0
-4434 -4550 0
-4435 -4551 0
-4436 -4552 0
-4433 -4669 0
-4434 -4670 0
-4435 -4671 0
-4436 -4672 0
-4433 -4857 0
-4434 -4858 0
-4435 -4859 0
-4436 -4860 0
-4433 -5245 0
-4434 -5246 0
-4435 -5247 0
-4436 -5248 0
-4433 -5561 0
-4434 -5562 0
-4435 -5563 0
-4436 -5564 0
-4433 -5601 0
-4434 -5602 0
-4435 -5603 0
-4436 -5604 0
-4433 -5657 0
-4434 -5658 0
-4435 -5659 0
-4436 -5660 0
-4433 -5661 0
-4434 -5662 0
-4435 -5663 0
-4436 -5664 0
-4437 -4553 0
-4438 -4554 0
-4439 -4555 0
-4440 -4556 0
-4437 -4673 0
-4438 -4674 0
-4439 -4675 0
-4440 -4676 0
-4437 -4865 0
-4438 -4866 0
-4439 -4867 0
-4440 -4868 0
-4437 -5089 0
-4438 -5090 0
-4439 -5091 0
-4440 -5092 0
-4437 -5365 0
-4438 -5366 0
-4439 -5367 0
-4440 -5368 0
-4441 -4501 0
-4442 -4502 0
-4443 -4503 0
-4444 -4504 0
-4441 -4561 0
-4442 -4562 0
-4443 -4563 0
-4444 -4564 0
-4441 -4873 0
-4442 -4874 0
-4443 -4875 0
-4444 -4876 0
-4441 -5249 0
-4442 -5250 0
-4443 -5251 0
-4444 -5252 0
-4441 -5569 0
-4442 -5570 0
-4443 -5571 0
-4444 -5572 0
-4441 -5605 0
-4442 -5606 0
-4443 -5607 0
-4444 -5608 0
-4445 -4449 0
-4446 -4450 0
-4447 -4451 0
-4448 -4452 0
-4445 -4457 0
-4446 -4458 0
-4447 -4459 0
-4448 -4460 0
-4445 -4789 0
-4446 -4790 0
-4447 -4791 0
-4448 -4792 0
-4445 -5097 0
-4446 -5098 0
-4447 -5099 0
-4448 -5100 0
-4445 -5393 0
-4446 -5394 0
-4447 -5395 0
-4448 -5396 0
-4445 -5621 0
-4446 -5622 0
-4447 -5623 0
-4448 -5624 0
-4445 -5637 0
-4446 -5638 0
-4447 -5639 0
-4448 -5640 0
-4445 -5685 0
-4446 -5686 0
-4447 -5687 0
-4448 -5688 0
-4449 -4461 0
-4450 -4462 0
-4451 -4463 0
-4452 -4464 0
-4449 -4693 0
-4450 -4694 0
-4451 -4695 0
-4452 -4696 0
-4449 -5101 0
-4450 -5102 0
-4451 -5103 0
-4452 -5104 0
-4449 -5297 0
-4450 -5298 0
-4451 -5299 0
-4452 -5300 0
-4449 -5641 0
-4450 -5642 0
-4451 -5643 0
-4452 -5644 0
-4449 -5689 0
-4450 -5690 0
-4451 -5691 0
-4452 -5692 0
-4453 -4457 0
-4454 -4458 0
-4455 -4459 0
-4456 -4460 0
-4453 -4565 0
-4454 -4566 0
-4455 -4567 0
-4456 -4568 0
-4453 -4841 0
-4454 -4842 0
-4455 -4843 0
-4456 -4844 0
-4453 -5773 0
-4454 -5774 0
-4455 -5775 0
-4456 -5776 0
-4457 -4461 0
-4458 -4462 0
-4459 -4463 0
-4460 -4464 0
-4457 -4569 0
-4458 -4570 0
-4459 -4571 0
-4460 -4572 0
-4457 -4857 0
-4458 -4858 0
-4459 -4859 0
-4460 -4860 0
-4457 -5117 0
-4458 -5118 0
-4459 -5119 0
-4460 -5120 0
-4457 -5261 0
-4458 -5262 0
-4459 -5263 0
-4460 -5264 0
-4457 -5305 0
-4458 -5306 0
-4459 -5307 0
-4460 -5308 0
-4457 -5645 0
-4458 -5646 0
-4459 -5647 0
-4460 -5648 0
-4457 -5685 0
-4458 -5686 0
-4459 -5687 0
-4460 -5688 0
-4461 -4721 0
-4462 -4722 0
-4463 -4723 0
-4464 -4724 0
-4461 -4869 0
-4462 -4870 0
-4463 -4871 0
-4464 -4872 0
-4461 -5125 0
-4462 -5126 0
-4463 -5127 0
-4464 -5128 0
-4461 -5277 0
-4462 -5278 0
-4463 -5279 0
-4464 -5280 0
-4461 -5689 0
-4462 -5690 0
-4463 -5691 0
-4464 -5692 0
-4465 -5401 0
-4466 -5402 0
-4467 -5403 0
-4468 -5404 0
-4465 -5669 0
-4466 -5670 0
-4467 -5671 0
-4468 -5672 0
-4469 -4477 0
-4470 -4478 0
-4471 -4479 0
-4472 -4480 0
-4469 -4481 0
-4470 -4482 0
-4471 -4483 0
-4472 -4484 0
-4469 -5673 0
-4470 -5674 0
-4471 -5675 0
-4472 -5676 0
-4473 -4477 0
-4474 -4478 0
-4475 -4479 0
-4476 -4480 0
-4473 -5409 0
-4474 -5410 0
-4475 -5411 0
-4476 -5412 0
-4477 -4485 0
-4478 -4486 0
-4479 -4487 0
-4480 -4488 0
-4477 -4493 0
-4478 -4494 0
-4479 -4495 0
-4480 -4496 0
-4477 -4737 0
-4478 -4738 0
-4479 -4739 0
-4480 -4740 0
-4477 -5097 0
-4478 -5098 0
-4479 -5099 0
-4480 -5100 0
-4477 -5673 0
-4478 -5674 0
-4479 -5675 0
-4480 -5676 0
-4477 -5677 0
-4478 -5678 0
-4479 -5679 0
-4480 -5680 0
-4481 -4493 0
-4482 -4494 0
-4483 -4495 0
-4484 -4496 0
-4481 -4801 0
-4482 -4802 0
-4483 -4803 0
-4484 -4804 0
-4481 -5681 0
-4482 -5682 0
-4483 -5683 0
-4484 -5684 0
-4485 -4493 0
-4486 -4494 0
-4487 -4495 0
-4488 -4496 0
-4485 -4497 0
-4486 -4498 0
-4487 -4499 0
-4488 -4500 0
-4485 -4641 0
-4486 -4642 0
-4487 -4643 0
-4488 -4644 0
-4485 -4809 0
-4486 -4810 0
-4487 -4811 0
-4488 -4812 0
-4485 -4949 0
-4486 -4950 0
-4487 -4951 0
-4488 -4952 0
-4485 -5685 0
-4486 -5686 0
-4487 -5687 0
-4488 -5688 0
-4489 -4493 0
-4490 -4494 0
-4491 -4495 0
-4492 -4496 0
-4489 -4501 0
-4490 -4502 0
-4491 -4503 0
-4492 -4504 0
-4489 -4817 0
-4490 -4818 0
-4491 -4819 0
-4492 -4820 0
-4489 -5141 0
-4490 -5142 0
-4491 -5143 0
-4492 -5144 0
-4493 -4501 0
-4494 -4502 0
-4495 -4503 0
-4496 -4504 0
-4493 -4821 0
-4494 -4822 0
-4495 -4823 0
-4496 -4824 0
-4493 -5145 0
-4494 -5146 0
-4495 -5147 0
-4496 -5148 0
-4493 -5317 0
-4494 -5318 0
-4495 -5319 0
-4496 -5320 0
-4493 -5437 0
-4494 -5438 0
-4495 -5439 0
-4496 -5440 0
-4493 -5665 0
-4494 -5666 0
-4495 -5667 0
-4496 -5668 0
-4493 -5681 0
-4494 -5682 0
-4495 -5683 0
-4496 -5684 0
-4493 -5689 0
-4494 -5690 0
-4495 -5691 0
-4496 -5692 0
-4497 -4649 0
-4498 -4650 0
-4499 -4651 0
-4500 -4652 0
-4497 -4845 0
-4498 -4846 0
-4499 -4847 0
-4500 -4848 0
-4497 -5685 0
-4498 -5686 0
-4499 -5687 0
-4500 -5688 0
-4501 -4681 0
-4502 -4682 0
-4503 -4683 0
-4504 -4684 0
-4501 -4893 0
-4502 -4894 0
-4503 -4895 0
-4504 -4896 0
-4501 -4973 0
-4502 -4974 0
-4503 -4975 0
-4504 -4976 0
-4501 -5309 0
-4502 -5310 0
-4503 -5311 0
-4504 -5312 0
-4501 -5445 0
-4502 -5446 0
-4503 -5447 0
-4504 -5448 0
-4501 -5669 0
-4502 -5670 0
-4503 -5671 0
-4504 -5672 0
-4505 -4509 0
-4506 -4510 0
-4507 -4511 0
-4508 -4512 0
-4505 -4517 0
-4506 -4518 0
-4507 -4519 0
-4508 -4520 0
-4505 -4785 0
-4506 -4786 0
-4507 -4787 0
-4508 -4788 0
-4505 -5709 0
-4506 -5710 0
-4507 -5711 0
-4508 -5712 0
-4509 -4529 0
-4510 -4530 0
-4511 -4531 0
-4512 -4532 0
-4509 -4545 0
-4510 -4546 0
-4511 -4547 0
-4512 -4548 0
-4509 -4553 0
-4510 -4554 0
-4511 -4555 0
-4512 -4556 0
-4509 -4737 0
-4510 -4738 0
-4511 -4739 0
-4512 -4740 0
-4509 -4789 0
-4510 -4790 0
-4511 -4791 0
-4512 -4792 0
-4509 -5001 0
-4510 -5002 0
-4511 -5003 0
-4512 -5004 0
-4509 -5585 0
-4510 -5586 0
-4511 -5587 0
-4512 -5588 0
-4509 -5713 0
-4510 -5714 0
-4511 -5715 0
-4512 -5716 0
-4513 -4521 0
-4514 -4522 0
-4515 -4523 0
-4516 -4524 0
-4513 -4525 0
-4514 -4526 0
-4515 -4527 0
-4516 -4528 0
-4513 -4597 0
-4514 -4598 0
-4515 -4599 0
-4516 -4600 0
-4513 -5693 0
-4514 -5694 0
-4515 -5695 0
-4516 -5696 0
-4513 -5793 0
-4514 -5794 0
-4515 -5795 0
-4516 -5796 0
-4517 -4521 0
-4518 -4522 0
-4519 -4523 0
-4520 -4524 0
-4517 -4529 0
-4518 -4530 0
-4519 -4531 0
-4520 -4532 0
-4517 -4593 0
-4518 -4594 0
-4519 -4595 0
-4520 -4596 0
-4517 -4821 0
-4518 -4822 0
-4519 -4823 0
-4520 -4824 0
-4517 -5697 0
-4518 -5698 0
-4519 -5699 0
-4520 -5700 0
-4517 -5709 0
-4518 -5710 0
-4519 -5711 0
-4520 -5712 0
-4521 -4533 0
-4522 -4534 0
-4523 -4535 0
-4524 -4536 0
-4521 -4597 0
-4522 -4598 0
-4523 -4599 0
-4524 -4600 0
-4521 -4825 0
-4522 -4826 0
-4523 -4827 0
-4524 -4828 0
-4521 -5333 0
-4522 -5334 0
-4523 -5335 0
-4524 -5336 0
-4521 -5701 0
-4522 -5702 0
-4523 -5703 0
-4524 -5704 0
-4525 -4533 0
-4526 -4534 0
-4527 -4535 0
-4528 -4536 0
-4525 -4609 0
-4526 -4610 0
-4527 -4611 0
-4528 -4612 0
-4525 -5233 0
-4526 -5234 0
-4527 -5235 0
-4528 -5236 0
-4525 -5693 0
-4526 -5694 0
-4527 -5695 0
-4528 -5696 0
-4525 -5797 0
-4526 -5798 0
-4527 -5799 0
-4528 -5800 0
-4529 -4533 0
-4530 -4534 0
-4531 -4535 0
-4532 -4536 0
-4529 -4537 0
-4530 -4538 0
-4531 -4539 0
-4532 -4540 0
-4529 -4557 0
-4530 -4558 0
-4531 -4559 0
-4532 -4560 0
-4529 -4561 0
-4530 -4562 0
-4531 -4563 0
-4532 -4564 0
-4529 -4605 0
-4530 -4606 0
-4531 -4607 0
-4532 -4608 0
-4529 -4857 0
-4530 -4858 0
-4531 -4859 0
-4532 -4860 0
-4529 -5165 0
-4530 -5166 0
-4531 -5167 0
-4532 -5168 0
-4529 -5325 0
-4530 -5326 0
-4531 -5327 0
-4532 -5328 0
-4529 -5345 0
-4530 -5346 0
-4531 -5347 0
-4532 -5348 0
-4529 -5589 0
-4530 -5590 0
-4531 -5591 0
-4532 -5592 0
-4529 -5697 0
-4530 -5698 0
-4531 -5699 0
-4532 -5700 0
-4529 -5713 0
-4530 -5714 0
-4531 -5715 0
-4532 -5716 0
-4533 -4537 0
-4534 -4538 0
-4535 -4539 0
-4536 -4540 0
-4533 -4609 0
-4534 -4610 0
-4535 -4611 0
-4536 -4612 0
-4533 -4861 0
-4534 -4862 0
-4535 -4863 0
-4536 -4864 0
-4533 -5017 0
-4534 -5018 0
-4535 -5019 0
-4536 -5020 0
-4533 -5169 0
-4534 -5170 0
-4535 -5171 0
-4536 -5172 0
-4533 -5237 0
-4534 -5238 0
-4535 -5239 0
-4536 -5240 0
-4533 -5701 0
-4534 -5702 0
-4535 -5703 0
-4536 -5704 0
-4537 -4905 0
-4538 -4906 0
-4539 -4907 0
-4540 -4908 0
-4537 -5605 0
-4538 -5606 0
-4539 -5607 0
-4540 -5608 0
-4541 -4553 0
-4542 -4554 0
-4543 -4555 0
-4544 -4556 0
-4541 -4565 0
-4542 -4566 0
-4543 -4567 0
-4544 -4568 0
-4541 -4793 0
-4542 -4794 0
-4543 -4795 0
-4544 -4796 0
-4541 -5053 0
-4542 -5054 0
-4543 -5055 0
-4544 -5056 0
-4541 -5181 0
-4542 -5182 0
-4543 -5183 0
-4544 -5184 0
-4541 -5357 0
-4542 -5358 0
-4543 -5359 0
-4544 -5360 0
-4541 -5377 0
-4542 -5378 0
-4543 -5379 0
-4544 -5380 0
-4541 -5733 0
-4542 -5734 0
-4543 -5735 0
-4544 -5736 0
-4541 -5809 0
-4542 -5810 0
-4543 -5811 0
-4544 -5812 0
-4545 -4553 0
-4546 -4554 0
-4547 -4555 0
-4548 -4556 0
-4545 -4557 0
-4546 -4558 0
-4547 -4559 0
-4548 -4560 0
-4545 -4653 0
-4546 -4654 0
-4547 -4655 0
-4548 -4656 0
-4545 -4809 0
-4546 -4810 0
-4547 -4811 0
-4548 -4812 0
-4545 -5049 0
-4546 -5050 0
-4547 -5051 0
-4548 -5052 0
-4545 -5189 0
-4546 -5190 0
-4547 -5191 0
-4548 -5192 0
-4545 -5637 0
-4546 -5638 0
-4547 -5639 0
-4548 -5640 0
-4549 -4553 0
-4550 -4554 0
-4551 -4555 0
-4552 -4556 0
-4549 -4573 0
-4550 -4574 0
-4551 -4575 0
-4552 -4576 0
-4549 -4813 0
-4550 -4814 0
-4551 -4815 0
-4552 -4816 0
-4549 -5005 0
-4550 -5006 0
-4551 -5007 0
-4552 -5008 0
-4553 -4561 0
-4554 -4562 0
-4555 -4563 0
-4556 -4564 0
-4553 -4573 0
-4554 -4574 0
-4555 -4575 0
-4556 -4576 0
-4553 -4657 0
-4554 -4658 0
-4555 -4659 0
-4556 -4660 0
-4553 -4821 0
-4554 -4822 0
-4555 -4823 0
-4556 -4824 0
-4553 -5009 0
-4554 -5010 0
-4555 -5011 0
-4556 -5012 0
-4553 -5057 0
-4554 -5058 0
-4555 -5059 0
-4556 -5060 0
-4553 -5193 0
-4554 -5194 0
-4555 -5195 0
-4556 -5196 0
-4553 -5365 0
-4554 -5366 0
-4555 -5367 0
-4556 -5368 0
-4553 -5641 0
-4554 -5642 0
-4555 -5643 0
-4556 -5644 0
-4553 -5737 0
-4554 -5738 0
-4555 -5739 0
-4556 -5740 0
-4557 -4561 0
-4558 -4562 0
-4559 -4563 0
-4560 -4564 0
-4557 -4673 0
-4558 -4674 0
-4559 -4675 0
-4560 -4676 0
-4557 -4685 0
-4558 -4686 0
-4559 -4687 0
-4560 -4688 0
-4557 -4709 0
-4558 -4710 0
-4559 -4711 0
-4560 -4712 0
-4557 -4933 0
-4558 -4934 0
-4559 -4935 0
-4560 -4936 0
-4557 -4993 0
-4558 -4994 0
-4559 -4995 0
-4560 -4996 0
-4557 -5205 0
-4558 -5206 0
-4559 -5207 0
-4560 -5208 0
-4557 -5645 0
-4558 -5646 0
-4559 -5647 0
-4560 -5648 0
-4561 -4681 0
-4562 -4682 0
-4563 -4683 0
-4564 -4684 0
-4561 -4689 0
-4562 -4690 0
-4563 -4691 0
-4564 -4692 0
-4561 -4885 0
-4562 -4886 0
-4563 -4887 0
-4564 -4888 0
-4561 -4937 0
-4562 -4938 0
-4563 -4939 0
-4564 -4940 0
-4561 -5177 0
-4562 -5178 0
-4563 -5179 0
-4564 -5180 0
-4561 -5209 0
-4562 -5210 0
-4563 -5211 0
-4564 -5212 0
-4561 -5737 0
-4562 -5738 0
-4563 -5739 0
-4564 -5740 0
-4565 -4569 0
-4566 -4570 0
-4567 -4571 0
-4568 -4572 0
-4565 -4573 0
-4566 -4574 0
-4567 -4575 0
-4568 -4576 0
-4565 -4577 0
-4566 -4578 0
-4567 -4579 0
-4568 -4580 0
-4565 -4693 0
-4566 -4694 0
-4567 -4695 0
-4568 -4696 0
-4565 -4997 0
-4566 -4998 0
-4567 -4999 0
-4568 -5000 0
-4565 -5213 0
-4566 -5214 0
-4567 -5215 0
-4568 -5216 0
-4565 -5293 0
-4566 -5294 0
-4567 -5295 0
-4568 -5296 0
-4565 -5469 0
-4566 -5470 0
-4567 -5471 0
-4568 -5472 0
-4565 -5693 0
-4566 -5694 0
-4567 -5695 0
-4568 -5696 0
-4565 -5749 0
-4566 -5750 0
-4567 -5751 0
-4568 -5752 0
-4565 -5753 0
-4566 -5754 0
-4567 -5755 0
-4568 -5756 0
-4565 -5833 0
-4566 -5834 0
-4567 -5835 0
-4568 -5836 0
-4569 -4693 0
-4570 -4694 0
-4571 -4695 0
-4572 -4696 0
-4569 -5005 0
-4570 -5006 0
-4571 -5007 0
-4572 -5008 0
-4569 -5221 0
-4570 -5222 0
-4571 -5223 0
-4572 -5224 0
-4569 -5701 0
-4570 -5702 0
-4571 -5703 0
-4572 -5704 0
-4573 -4697 0
-4574 -4698 0
-4575 -4699 0
-4576 -4700 0
-4573 -4909 0
-4574 -4910 0
-4575 -4911 0
-4576 -4912 0
-4573 -5037 0
-4574 -5038 0
-4575 -5039 0
-4576 -5040 0
-4573 -5229 0
-4574 -5230 0
-4575 -5231 0
-4576 -5232 0
-4573 -5473 0
-4574 -5474 0
-4575 -5475 0
-4576 -5476 0
-4573 -5649 0
-4574 -5650 0
-4575 -5651 0
-4576 -5652 0
-4573 -5693 0
-4574 -5694 0
-4575 -5695 0
-4576 -5696 0
-4573 -5845 0
-4574 -5846 0
-4575 -5847 0
-4576 -5848 0
-4577 -5373 0
-4578 -5374 0
-4579 -5375 0
-4580 -5376 0
-4577 -5769 0
-4578 -5770 0
-4579 -5771 0
-4580 -5772 0
-4577 -5853 0
-4578 -5854 0
-4579 -5855 0
-4580 -5856 0
-4581 -4585 0
-4582 -4586 0
-4583 -4587 0
-4584 -4588 0
-4581 -4613 0
-4582 -4614 0
-4583 -4615 0
-4584 -4616 0
-4581 -5401 0
-4582 -5402 0
-4583 -5403 0
-4584 -5404 0
-4581 -5705 0
-4582 -5706 0
-4583 -5707 0
-4584 -5708 0
-4585 -4621 0
-4586 -4622 0
-4587 -4623 0
-4588 -4624 0
-4585 -4949 0
-4586 -4950 0
-4587 -4951 0
-4588 -4952 0
-4585 -5189 0
-4586 -5190 0
-4587 -5191 0
-4588 -5192 0
-4585 -5709 0
-4586 -5710 0
-4587 -5711 0
-4588 -5712 0
-4585 -5713 0
-4586 -5714 0
-4587 -5715 0
-4588 -5716 0
-4589 -4609 0
-4590 -4610 0
-4591 -4611 0
-4592 -4612 0
-4589 -4629 0
-4590 -4630 0
-4591 -4631 0
-4592 -4632 0
-4589 -5409 0
-4590 -5410 0
-4591 -5411 0
-4592 -5412 0
-4593 -4597 0
-4594 -4598 0
-4595 -4599 0
-4596 -4600 0
-4593 -4605 0
-4594 -4606 0
-4595 -4607 0
-4596 -4608 0
-4593 -4661 0
-4594 -4662 0
-4595 -4663 0
-4596 -4664 0
-4593 -4961 0
-4594 -4962 0
-4595 -4963 0
-4596 -4964 0
-4593 -5129 0
-4594 -5130 0
-4595 -5131 0
-4596 -5132 0
-4593 -5717 0
-4594 -5718 0
-4595 -5719 0
-4596 -5720 0
-4597 -4609 0
-4598 -4610 0
-4599 -4611 0
-4600 -4612 0
-4597 -4665 0
-4598 -4666 0
-4599 -4667 0
-4600 -4668 0
-4597 -5113 0
-4598 -5114 0
-4599 -5115 0
-4600 -5116 0
-4597 -5417 0
-4598 -5418 0
-4599 -5419 0
-4600 -5420 0
-4597 -5721 0
-4598 -5722 0
-4599 -5723 0
-4600 -5724 0
-4601 -4609 0
-4602 -4610 0
-4603 -4611 0
-4604 -4612 0
-4601 -4677 0
-4602 -4678 0
-4603 -4679 0
-4604 -4680 0
-4601 -5117 0
-4602 -5118 0
-4603 -5119 0
-4604 -5120 0
-4605 -4609 0
-4606 -4610 0
-4607 -4611 0
-4608 -4612 0
-4605 -4673 0
-4606 -4674 0
-4607 -4675 0
-4608 -4676 0
-4605 -4681 0
-4606 -4682 0
-4607 -4683 0
-4608 -4684 0
-4605 -4741 0
-4606 -4742 0
-4607 -4743 0
-4608 -4744 0
-4605 -4969 0
-4606 -4970 0
-4607 -4971 0
-4608 -4972 0
-4605 -5133 0
-4606 -5134 0
-4607 -5135 0
-4608 -5136 0
-4605 -5405 0
-4606 -5406 0
-4607 -5407 0
-4608 -5408 0
-4605 -5717 0
-4606 -5718 0
-4607 -5719 0
-4608 -5720 0
-4605 -5725 0
-4606 -5726 0
-4607 -5727 0
-4608 -5728 0
-4609 -4677 0
-4610 -4678 0
-4611 -4679 0
-4612 -4680 0
-4609 -4977 0
-4610 -4978 0
-4611 -4979 0
-4612 -4980 0
-4609 -5125 0
-4610 -5126 0
-4611 -5127 0
-4612 -5128 0
-4609 -5665 0
-4610 -5666 0
-4611 -5667 0
-4612 -5668 0
-4609 -5721 0
-4610 -5722 0
-4611 -5723 0
-4612 -5724 0
-4609 -5729 0
-4610 -5730 0
-4611 -5731 0
-4612 -5732 0
-4613 -4617 0
-4614 -4618 0
-4615 -4619 0
-4616 -4620 0
-4613 -4621 0
-4614 -4622 0
-4615 -4623 0
-4616 -4624 0
-4613 -4625 0
-4614 -4626 0
-4615 -4627 0
-4616 -4628 0
-4613 -4629 0
-4614 -4630 0
-4615 -4631 0
-4616 -4632 0
-4613 -4637 0
-4614 -4638 0
-4615 -4639 0
-4616 -4640 0
-4613 -4641 0
-4614 -4642 0
-4615 -4643 0
-4616 -4644 0
-4613 -4981 0
-4614 -4982 0
-4615 -4983 0
-4616 -4984 0
-4613 -5425 0
-4614 -5426 0
-4615 -5427 0
-4616 -5428 0
-4613 -5665 0
-4614 -5666 0
-4615 -5667 0
-4616 -5668 0
-4613 -5733 0
-4614 -5734 0
-4615 -5735 0
-4616 -5736 0
-4617 -4645 0
-4618 -4646 0
-4619 -4647 0
-4620 -4648 0
-4617 -4649 0
-4618 -4650 0
-4619 -4651 0
-4620 -4652 0
-4617 -4985 0
-4618 -4986 0
-4619 -4987 0
-4620 -4988 0
-4617 -5433 0
-4618 -5434 0
-4619 -5435 0
-4620 -5436 0
-4617 -5733 0
-4618 -5734 0
-4619 -5735 0
-4620 -5736 0
-4621 -4953 0
-4622 -4954 0
-4623 -4955 0
-4624 -4956 0
-4621 -4989 0
-4622 -4990 0
-4623 -4991 0
-4624 -4992 0
-4621 -5065 0
-4622 -5066 0
-4623 -5067 0
-4624 -5068 0
-4621 -5245 0
-4622 -5246 0
-4623 -5247 0
-4624 -5248 0
-4621 -5737 0
-4622 -5738 0
-4623 -5739 0
-4624 -5740 0
-4625 -4629 0
-4626 -4630 0
-4627 -4631 0
-4628 -4632 0
-4625 -4669 0
-4626 -4670 0
-4627 -4671 0
-4628 -4672 0
-4625 -4673 0
-4626 -4674 0
-4627 -4675 0
-4628 -4676 0
-4625 -4753 0
-4626 -4754 0
-4627 -4755 0
-4628 -4756 0
-4625 -5073 0
-4626 -5074 0
-4627 -5075 0
-4628 -5076 0
-4625 -5493 0
-4626 -5494 0
-4627 -5495 0
-4628 -5496 0
-4625 -5669 0
-4626 -5670 0
-4627 -5671 0
-4628 -5672 0
-4625 -5741 0
-4626 -5742 0
-4627 -5743 0
-4628 -5744 0
-4629 -4677 0
-4630 -4678 0
-4631 -4679 0
-4632 -4680 0
-4629 -5309 0
-4630 -5310 0
-4631 -5311 0
-4632 -5312 0
-4629 -5429 0
-4630 -5430 0
-4631 -5431 0
-4632 -5432 0
-4629 -5497 0
-4630 -5498 0
-4631 -5499 0
-4632 -5500 0
-4629 -5745 0
-4630 -5746 0
-4631 -5747 0
-4632 -5748 0
-4633 -4637 0
-4634 -4638 0
-4635 -4639 0
-4636 -4640 0
-4633 -5497 0
-4634 -5498 0
-4635 -5499 0
-4636 -5500 0
-4633 -5749 0
-4634 -5750 0
-4635 -5751 0
-4636 -5752 0
-4633 -5861 0
-4634 -5862 0
-4635 -5863 0
-4636 -5864 0
-4637 -4641 0
-4638 -4642 0
-4639 -4643 0
-4640 -4644 0
-4637 -4645 0
-4638 -4646 0
-4639 -4647 0
-4640 -4648 0
-4637 -4669 0
-4638 -4670 0
-4639 -4671 0
-4640 -4672 0
-4637 -5753 0
-4638 -5754 0
-4639 -5755 0
-4640 -5756 0
-4637 -5869 0
-4638 -5870 0
-4639 -5871 0
-4640 -5872 0
-4641 -4649 0
-4642 -4650 0
-4643 -4651 0
-4644 -4652 0
-4641 -4673 0
-4642 -4674 0
-4643 -4675 0
-4644 -4676 0
-4641 -4677 0
-4642 -4678 0
-4643 -4679 0
-4644 -4680 0
-4641 -4773 0
-4642 -4774 0
-4643 -4775 0
-4644 -4776 0
-4641 -5757 0
-4642 -5758 0
-4643 -5759 0
-4644 -5760 0
-4645 -4649 0
-4646 -4650 0
-4647 -4651 0
-4648 -4652 0
-4645 -5013 0
-4646 -5014 0
-4647 -5015 0
-4648 -5016 0
-4645 -5317 0
-4646 -5318 0
-4647 -5319 0
-4648 -5320 0
-4645 -5753 0
-4646 -5754 0
-4647 -5755 0
-4648 -5756 0
-4645 -5873 0
-4646 -5874 0
-4647 -5875 0
-4648 -5876 0
-4649 -4781 0
-4650 -4782 0
-4651 -4783 0
-4652 -4784 0
-4649 -5757 0
-4650 -5758 0
-4651 -5759 0
-4652 -5760 0
-4653 -4673 0
-4654 -4674 0
-4655 -4675 0
-4656 -4676 0
-4653 -4785 0
-4654 -4786 0
-4655 -4787 0
-4656 -4788 0
-4653 -5141 0
-4654 -5142 0
-4655 -5143 0
-4656 -5144 0
-4653 -5513 0
-4654 -5514 0
-4655 -5515 0
-4656 -5516 0
-4657 -4689 0
-4658 -4690 0
-4659 -4691 0
-4660 -4692 0
-4657 -4697 0
-4658 -4698 0
-4659 -4699 0
-4660 -4700 0
-4657 -4965 0
-4658 -4966 0
-4659 -4967 0
-4660 -4968 0
-4657 -5021 0
-4658 -5022 0
-4659 -5023 0
-4660 -5024 0
-4657 -5449 0
-4658 -5450 0
-4659 -5451 0
-4660 -5452 0
-4657 -5521 0
-4658 -5522 0
-4659 -5523 0
-4660 -5524 0
-4661 -4665 0
-4662 -4666 0
-4663 -4667 0
-4664 -4668 0
-4661 -4673 0
-4662 -4674 0
-4663 -4675 0
-4664 -4676 0
-4661 -4801 0
-4662 -4802 0
-4663 -4803 0
-4664 -4804 0
-4661 -5077 0
-4662 -5078 0
-4663 -5079 0
-4664 -5080 0
-4661 -5761 0
-4662 -5762 0
-4663 -5763 0
-4664 -5764 0
-4665 -4677 0
-4666 -4678 0
-4667 -4679 0
-4668 -4680 0
-4665 -5081 0
-4666 -5082 0
-4667 -5083 0
-4668 -5084 0
-4665 -5153 0
-4666 -5154 0
-4667 -5155 0
-4668 -5156 0
-4665 -5765 0
-4666 -5766 0
-4667 -5767 0
-4668 -5768 0
-4669 -4673 0
-4670 -4674 0
-4671 -4675 0
-4672 -4676 0
-4669 -4813 0
-4670 -4814 0
-4671 -4815 0
-4672 -4816 0
-4669 -5117 0
-4670 -5118 0
-4671 -5119 0
-4672 -5120 0
-4669 -5421 0
-4670 -5422 0
-4671 -5423 0
-4672 -5424 0
-4669 -5769 0
-4670 -5770 0
-4671 -5771 0
-4672 -5772 0
-4673 -4677 0
-4674 -4678 0
-4675 -4679 0
-4676 -4680 0
-4673 -4681 0
-4674 -4682 0
-4675 -4683 0
-4676 -4684 0
-4673 -4685 0
-4674 -4686 0
-4675 -4687 0
-4676 -4688 0
-4673 -4821 0
-4674 -4822 0
-4675 -4823 0
-4676 -4824 0
-4673 -5089 0
-4674 -5090 0
-4675 -5091 0
-4676 -5092 0
-4673 -5121 0
-4674 -5122 0
-4675 -5123 0
-4676 -5124 0
-4673 -5529 0
-4674 -5530 0
-4675 -5531 0
-4676 -5532 0
-4673 -5761 0
-4674 -5762 0
-4675 -5763 0
-4676 -5764 0
-4673 -5773 0
-4674 -5774 0
-4675 -5775 0
-4676 -5776 0
-4677 -4825 0
-4678 -4826 0
-4679 -4827 0
-4680 -4828 0
-4677 -5157 0
-4678 -5158 0
-4679 -5159 0
-4680 -5160 0
-4677 -5533 0
-4678 -5534 0
-4679 -5535 0
-4680 -5536 0
-4677 -5765 0
-4678 -5766 0
-4679 -5767 0
-4680 -5768 0
-4677 -5777 0
-4678 -5778 0
-4679 -5779 0
-4680 -5780 0
-4681 -4689 0
-4682 -4690 0
-4683 -4691 0
-4684 -4692 0
-4681 -4833 0
-4682 -4834 0
-4683 -4835 0
-4684 -4836 0
-4681 -5537 0
-4682 -5538 0
-4683 -5539 0
-4684 -5540 0
-4685 -4689 0
-4686 -4690 0
-4687 -4691 0
-4688 -4692 0
-4685 -4837 0
-4686 -4838 0
-4687 -4839 0
-4688 -4840 0
-4685 -5093 0
-4686 -5094 0
-4687 -5095 0
-4688 -5096 0
-4685 -5541 0
-4686 -5542 0
-4687 -5543 0
-4688 -5544 0
-4689 -5289 0
-4690 -5290 0
-4691 -5291 0
-4692 -5292 0
-4689 -5457 0
-4690 -5458 0
-4691 -5459 0
-4692 -5460 0
-4689 -5545 0
-4690 -5546 0
-4691 -5547 0
-4692 -5548 0
-4693 -4697 0
-4694 -4698 0
-4695 -4699 0
-4696 -4700 0
-4693 -5101 0
-4694 -5102 0
-4695 -5103 0
-4696 -5104 0
-4693 -5553 0
-4694 -5554 0
-4695 -5555 0
-4696 -5556 0
-4693 -5721 0
-4694 -5722 0
-4695 -5723 0
-4696 -5724 0
-4697 -5041 0
-4698 -5042 0
-4699 -5043 0
-4700 -5044 0
-4697 -5569 0
-4698 -5570 0
-4699 -5571 0
-4700 -5572 0
-4697 -5681 0
-4698 -5682 0
-4699 -5683 0
-4700 -5684 0
-4697 -5721 0
-4698 -5722 0
-4699 -5723 0
-4700 -5724 0
-4701 -5049 0
-4702 -5050 0
-4703 -5051 0
-4704 -5052 0
-4701 -5689 0
-4702 -5690 0
-4703 -5691 0
-4704 -5692 0
-4701 -5733 0
-4702 -5734 0
-4703 -5735 0
-4704 -5736 0
-4701 -5737 0
-4702 -5738 0
-4703 -5739 0
-4704 -5740 0
-4705 -4709 0
-4706 -4710 0
-4707 -4711 0
-4708 -4712 0
-4705 -4713 0
-4706 -4714 0
-4707 -4715 0
-4708 -4716 0
-4705 -4805 0
-4706 -4806 0
-4707 -4807 0
-4708 -4808 0
-4705 -4821 0
-4706 -4822 0
-4707 -4823 0
-4708 -4824 0
-4705 -5161 0
-4706 -5162 0
-4707 -5163 0
-4708 -5164 0
-4705 -5693 0
-4706 -5694 0
-4707 -5695 0
-4708 -5696 0
-4705 -5885 0
-4706 -5886 0
-4707 -5887 0
-4708 -5888 0
-4709 -4717 0
-4710 -4718 0
-4711 -4719 0
-4712 -4720 0
-4709 -4821 0
-4710 -4822 0
-4711 -4823 0
-4712 -4824 0
-4709 -4837 0
-4710 -4838 0
-4711 -4839 0
-4712 -4840 0
-4709 -5053 0
-4710 -5054 0
-4711 -5055 0
-4712 -5056 0
-4709 -5321 0
-4710 -5322 0
-4711 -5323 0
-4712 -5324 0
-4709 -5701 0
-4710 -5702 0
-4711 -5703 0
-4712 -5704 0
-4709 -5781 0
-4710 -5782 0
-4711 -5783 0
-4712 -5784 0
-4713 -4717 0
-4714 -4718 0
-4715 -4719 0
-4716 -4720 0
-4713 -4841 0
-4714 -4842 0
-4715 -4843 0
-4716 -4844 0
-4713 -4857 0
-4714 -4858 0
-4715 -4859 0
-4716 -4860 0
-4713 -5013 0
-4714 -5014 0
-4715 -5015 0
-4716 -5016 0
-4713 -5365 0
-4714 -5366 0
-4715 -5367 0
-4716 -5368 0
-4717 -4857 0
-4718 -4858 0
-4719 -4859 0
-4720 -4860 0
-4717 -4873 0
-4718 -4874 0
-4719 -4875 0
-4720 -4876 0
-4717 -5329 0
-4718 -5330 0
-4719 -5331 0
-4720 -5332 0
-4717 -5369 0
-4718 -5370 0
-4719 -5371 0
-4720 -5372 0
-4717 -5473 0
-4718 -5474 0
-4719 -5475 0
-4720 -5476 0
-4717 -5781 0
-4718 -5782 0
-4719 -5783 0
-4720 -5784 0
-4721 -5173 0
-4722 -5174 0
-4723 -5175 0
-4724 -5176 0
-4721 -5341 0
-4722 -5342 0
-4723 -5343 0
-4724 -5344 0
-4721 -5465 0
-4722 -5466 0
-4723 -5467 0
-4724 -5468 0
-4721 -5833 0
-4722 -5834 0
-4723 -5835 0
-4724 -5836 0
-4721 -5849 0
-4722 -5850 0
-4723 -5851 0
-4724 -5852 0
-4725 -4733 0
-4726 -4734 0
-4727 -4735 0
-4728 -4736 0
-4725 -5405 0
-4726 -5406 0
-4727 -5407 0
-4728 -5408 0
-4725 -5785 0
-4726 -5786 0
-4727 -5787 0
-4728 -5788 0
-4725 -5789 0
-4726 -5790 0
-4727 -5791 0
-4728 -5792 0
-4729 -4733 0
-4730 -4734 0
-4731 -4735 0
-4732 -4736 0
-4729 -5081 0
-4730 -5082 0
-4731 -5083 0
-4732 -5084 0
-4729 -5201 0
-4730 -5202 0
-4731 -5203 0
-4732 -5204 0
-4729 -5793 0
-4730 -5794 0
-4731 -5795 0
-4732 -5796 0
-4733 -5209 0
-4734 -5210 0
-4735 -5211 0
-4736 -5212 0
-4733 -5793 0
-4734 -5794 0
-4735 -5795 0
-4736 -5796 0
-4733 -5797 0
-4734 -5798 0
-4735 -5799 0
-4736 -5800 0
-4737 -4741 0
-4738 -4742 0
-4739 -4743 0
-4740 -4744 0
-4737 -4745 0
-4738 -4746 0
-4739 -4747 0
-4740 -4748 0
-4737 -4809 0
-4738 -4810 0
-4739 -4811 0
-4740 -4812 0
-4737 -4821 0
-4738 -4822 0
-4739 -4823 0
-4740 -4824 0
-4737 -5097 0
-4738 -5098 0
-4739 -5099 0
-4740 -5100 0
-4737 -5333 0
-4738 -5334 0
-4739 -5335 0
-4740 -5336 0
-4737 -5801 0
-4738 -5802 0
-4739 -5803 0
-4740 -5804 0
-4741 -4749 0
-4742 -4750 0
-4743 -4751 0
-4744 -4752 0
-4741 -4821 0
-4742 -4822 0
-4743 -4823 0
-4744 -4824 0
-4741 -4833 0
-4742 -4834 0
-4743 -4835 0
-4744 -4836 0
-4741 -5101 0
-4742 -5102 0
-4743 -5103 0
-4744 -5104 0
-4741 -5337 0
-4742 -5338 0
-4743 -5339 0
-4744 -5340 0
-4745 -4749 0
-4746 -4750 0
-4747 -4751 0
-4748 -4752 0
-4745 -4845 0
-4746 -4846 0
-4747 -4847 0
-4748 -4848 0
-4745 -4857 0
-4746 -4858 0
-4747 -4859 0
-4748 -4860 0
-4745 -5481 0
-4746 -5482 0
-4747 -5483 0
-4748 -5484 0
-4745 -5705 0
-4746 -5706 0
-4747 -5707 0
-4748 -5708 0
-4745 -5801 0
-4746 -5802 0
-4747 -5803 0
-4748 -5804 0
-4749 -4857 0
-4750 -4858 0
-4751 -4859 0
-4752 -4860 0
-4749 -4869 0
-4750 -4870 0
-4751 -4871 0
-4752 -4872 0
-4749 -5477 0
-4750 -5478 0
-4751 -5479 0
-4752 -5480 0
-4753 -4757 0
-4754 -4758 0
-4755 -4759 0
-4756 -4760 0
-4753 -4761 0
-4754 -4762 0
-4755 -4763 0
-4756 -4764 0
-4753 -4813 0
-4754 -4814 0
-4755 -4815 0
-4756 -4816 0
-4753 -4821 0
-4754 -4822 0
-4755 -4823 0
-4756 -4824 0
-4753 -5493 0
-4754 -5494 0
-4755 -5495 0
-4756 -5496 0
-4753 -5805 0
-4754 -5806 0
-4755 -5807 0
-4756 -5808 0
-4757 -4765 0
-4758 -4766 0
-4759 -4767 0
-4760 -4768 0
-4757 -4821 0
-4758 -4822 0
-4759 -4823 0
-4760 -4824 0
-4757 -4829 0
-4758 -4830 0
-4759 -4831 0
-4760 -4832 0
-4757 -5069 0
-4758 -5070 0
-4759 -5071 0
-4760 -5072 0
-4757 -5249 0
-4758 -5250 0
-4759 -5251 0
-4760 -5252 0
-4757 -5501 0
-4758 -5502 0
-4759 -5503 0
-4760 -5504 0
-4757 -5585 0
-4758 -5586 0
-4759 -5587 0
-4760 -5588 0
-4757 -5809 0
-4758 -5810 0
-4759 -5811 0
-4760 -5812 0
-4761 -4765 0
-4762 -4766 0
-4763 -4767 0
-4764 -4768 0
-4761 -4849 0
-4762 -4850 0
-4763 -4851 0
-4764 -4852 0
-4761 -4857 0
-4762 -4858 0
-4763 -4859 0
-4764 -4860 0
-4761 -5805 0
-4762 -5806 0
-4763 -5807 0
-4764 -5808 0
-4765 -4857 0
-4766 -4858 0
-4767 -4859 0
-4768 -4860 0
-4765 -4865 0
-4766 -4866 0
-4767 -4867 0
-4768 -4868 0
-4765 -5073 0
-4766 -5074 0
-4767 -5075 0
-4768 -5076 0
-4765 -5517 0
-4766 -5518 0
-4767 -5519 0
-4768 -5520 0
-4765 -5809 0
-4766 -5810 0
-4767 -5811 0
-4768 -5812 0
-4769 -4773 0
-4770 -4774 0
-4771 -4775 0
-4772 -4776 0
-4769 -4777 0
-4770 -4778 0
-4771 -4779 0
-4772 -4780 0
-4769 -4817 0
-4770 -4818 0
-4771 -4819 0
-4772 -4820 0
-4769 -4821 0
-4770 -4822 0
-4771 -4823 0
-4772 -4824 0
-4769 -5137 0
-4770 -5138 0
-4771 -5139 0
-4772 -5140 0
-4769 -5349 0
-4770 -5350 0
-4771 -5351 0
-4772 -5352 0
-4769 -5589 0
-4770 -5590 0
-4771 -5591 0
-4772 -5592 0
-4773 -4781 0
-4774 -4782 0
-4775 -4783 0
-4776 -4784 0
-4773 -4821 0
-4774 -4822 0
-4775 -4823 0
-4776 -4824 0
-4773 -4825 0
-4774 -4826 0
-4775 -4827 0
-4776 -4828 0
-4773 -5813 0
-4774 -5814 0
-4775 -5815 0
-4776 -5816 0
-4777 -4781 0
-4778 -4782 0
-4779 -4783 0
-4780 -4784 0
-4777 -4853 0
-4778 -4854 0
-4779 -4855 0
-4780 -4856 0
-4777 -4857 0
-4778 -4858 0
-4779 -4859 0
-4780 -4860 0
-4777 -5357 0
-4778 -5358 0
-4779 -5359 0
-4780 -5360 0
-4777 -5537 0
-4778 -5538 0
-4779 -5539 0
-4780 -5540 0
-4781 -4857 0
-4782 -4858 0
-4783 -4859 0
-4784 -4860 0
-4781 -4861 0
-4782 -4862 0
-4783 -4863 0
-4784 -4864 0
-4781 -5161 0
-4782 -5162 0
-4783 -5163 0
-4784 -5164 0
-4781 -5813 0
-4782 -5814 0
-4783 -5815 0
-4784 -5816 0
-4785 -4789 0
-4786 -4790 0
-4787 -4791 0
-4788 -4792 0
-4785 -4821 0
-4786 -4822 0
-4787 -4823 0
-4788 -4824 0
-4785 -5253 0
-4786 -5254 0
-4787 -5255 0
-4788 -5256 0
-4785 -5593 0
-4786 -5594 0
-4787 -5595 0
-4788 -5596 0
-4785 -5861 0
-4786 -5862 0
-4787 -5863 0
-4788 -5864 0
-4789 -4857 0
-4790 -4858 0
-4791 -4859 0
-4792 -4860 0
-4789 -5097 0
-4790 -5098 0
-4791 -5099 0
-4792 -5100 0
-4789 -5257 0
-4790 -5258 0
-4791 -5259 0
-4792 -5260 0
-4789 -5865 0
-4790 -5866 0
-4791 -5867 0
-4792 -5868 0
-4793 -4797 0
-4794 -4798 0
-4795 -4799 0
-4796 -4800 0
-4793 -4821 0
-4794 -4822 0
-4795 -4823 0
-4796 -4824 0
-4793 -5181 0
-4794 -5182 0
-4795 -5183 0
-4796 -5184 0
-4793 -5785 0
-4794 -5786 0
-4795 -5787 0
-4796 -5788 0
-4793 -5817 0
-4794 -5818 0
-4795 -5819 0
-4796 -5820 0
-4793 -5897 0
-4794 -5898 0
-4795 -5899 0
-4796 -5900 0
-4797 -4857 0
-4798 -4858 0
-4799 -4859 0
-4800 -4860 0
-4797 -5441 0
-4798 -5442 0
-4799 -5443 0
-4800 -5444 0
-4797 -5549 0
-4798 -5550 0
-4799 -5551 0
-4800 -5552 0
-4797 -5789 0
-4798 -5790 0
-4799 -5791 0
-4800 -5792 0
-4797 -5817 0
-4798 -5818 0
-4799 -5819 0
-4800 -5820 0
-4801 -4821 0
-4802 -4822 0
-4803 -4823 0
-4804 -4824 0
-4801 -5185 0
-4802 -5186 0
-4803 -5187 0
-4804 -5188 0
-4801 -5821 0
-4802 -5822 0
-4803 -5823 0
-4804 -5824 0
-4805 -4821 0
-4806 -4822 0
-4807 -4823 0
-4808 -4824 0
-4805 -4841 0
-4806 -4842 0
-4807 -4843 0
-4808 -4844 0
-4805 -4961 0
-4806 -4962 0
-4807 -4963 0
-4808 -4964 0
-4805 -5217 0
-4806 -5218 0
-4807 -5219 0
-4808 -5220 0
-4805 -5601 0
-4806 -5602 0
-4807 -5603 0
-4808 -5604 0
-4805 -5825 0
-4806 -5826 0
-4807 -5827 0
-4808 -5828 0
-4805 -5901 0
-4806 -5902 0
-4807 -5903 0
-4808 -5904 0
-4809 -4821 0
-4810 -4822 0
-4811 -4823 0
-4812 -4824 0
-4809 -4845 0
-4810 -4846 0
-4811 -4847 0
-4812 -4848 0
-4809 -4925 0
-4810 -4926 0
-4811 -4927 0
-4812 -4928 0
-4809 -5189 0
-4810 -5190 0
-4811 -5191 0
-4812 -5192 0
-4809 -5829 0
-4810 -5830 0
-4811 -5831 0
-4812 -5832 0
-4813 -4821 0
-4814 -4822 0
-4815 -4823 0
-4816 -4824 0
-4813 -4849 0
-4814 -4850 0
-4815 -4851 0
-4816 -4852 0
-4813 -4909 0
-4814 -4910 0
-4815 -4911 0
-4816 -4912 0
-4813 -5221 0
-4814 -5222 0
-4815 -5223 0
-4816 -5224 0
-4817 -4821 0
-4818 -4822 0
-4819 -4823 0
-4820 -4824 0
-4817 -4853 0
-4818 -4854 0
-4819 -4855 0
-4820 -4856 0
-4817 -4893 0
-4818 -4894 0
-4819 -4895 0
-4820 -4896 0
-4817 -5141 0
-4818 -5142 0
-4819 -5143 0
-4820 -5144 0
-4817 -5485 0
-4818 -5486 0
-4819 -5487 0
-4820 -5488 0
-4817 -5717 0
-4818 -5718 0
-4819 -5719 0
-4820 -5720 0
-4821 -4825 0
-4822 -4826 0
-4823 -4827 0
-4824 -4828 0
-4821 -4829 0
-4822 -4830 0
-4823 -4831 0
-4824 -4832 0
-4821 -4833 0
-4822 -4834 0
-4823 -4835 0
-4824 -4836 0
-4821 -4837 0
-4822 -4838 0
-4823 -4839 0
-4824 -4840 0
-4821 -4857 0
-4822 -4858 0
-4823 -4859 0
-4824 -4860 0
-4821 -4877 0
-4822 -4878 0
-4823 -4879 0
-4824 -4880 0
-4821 -4885 0
-4822 -4886 0
-4823 -4887 0
-4824 -4888 0
-4821 -4893 0
-4822 -4894 0
-4823 -4895 0
-4824 -4896 0
-4821 -4897 0
-4822 -4898 0
-4823 -4899 0
-4824 -4900 0
-4821 -4909 0
-4822 -4910 0
-4823 -4911 0
-4824 -4912 0
-4821 -4913 0
-4822 -4914 0
-4823 -4915 0
-4824 -4916 0
-4821 -4925 0
-4822 -4926 0
-4823 -4927 0
-4824 -4928 0
-4821 -4929 0
-4822 -4930 0
-4823 -4931 0
-4824 -4932 0
-4821 -4961 0
-4822 -4962 0
-4823 -4963 0
-4824 -4964 0
-4821 -4965 0
-4822 -4966 0
-4823 -4967 0
-4824 -4968 0
-4821 -5109 0
-4822 -5110 0
-4823 -5111 0
-4824 -5112 0
-4821 -5145 0
-4822 -5146 0
-4823 -5147 0
-4824 -5148 0
-4821 -5193 0
-4822 -5194 0
-4823 -5195 0
-4824 -5196 0
-4821 -5225 0
-4822 -5226 0
-4823 -5227 0
-4824 -5228 0
-4821 -5265 0
-4822 -5266 0
-4823 -5267 0
-4824 -5268 0
-4821 -5373 0
-4822 -5374 0
-4823 -5375 0
-4824 -5376 0
-4821 -5401 0
-4822 -5402 0
-4823 -5403 0
-4824 -5404 0
-4821 -5489 0
-4822 -5490 0
-4823 -5491 0
-4824 -5492 0
-4821 -5529 0
-4822 -5530 0
-4823 -5531 0
-4824 -5532 0
-4821 -5605 0
-4822 -5606 0
-4823 -5607 0
-4824 -5608 0
-4821 -5609 0
-4822 -5610 0
-4823 -5611 0
-4824 -5612 0
-4821 -5721 0
-4822 -5722 0
-4823 -5723 0
-4824 -5724 0
-4821 -5785 0
-4822 -5786 0
-4823 -5787 0
-4824 -5788 0
-4821 -5793 0
-4822 -5794 0
-4823 -5795 0
-4824 -5796 0
-4821 -5821 0
-4822 -5822 0
-4823 -5823 0
-4824 -5824 0
-4821 -5833 0
-4822 -5834 0
-4823 -5835 0
-4824 -5836 0
-4821 -5861 0
-4822 -5862 0
-4823 -5863 0
-4824 -5864 0
-4821 -5869 0
-4822 -5870 0
-4823 -5871 0
-4824 -5872 0
-4821 -5909 0
-4822 -5910 0
-4823 -5911 0
-4824 -5912 0
-4825 -4861 0
-4826 -4862 0
-4827 -4863 0
-4828 -4864 0
-4825 -4897 0
-4826 -4898 0
-4827 -4899 0
-4828 -4900 0
-4825 -5269 0
-4826 -5270 0
-4827 -5271 0
-4828 -5272 0
-4825 -5533 0
-4826 -5534 0
-4827 -5535 0
-4828 -5536 0
-4825 -5837 0
-4826 -5838 0
-4827 -5839 0
-4828 -5840 0
-4829 -4865 0
-4830 -4866 0
-4831 -4867 0
-4832 -4868 0
-4829 -4913 0
-4830 -4914 0
-4831 -4915 0
-4832 -4916 0
-4829 -5273 0
-4830 -5274 0
-4831 -5275 0
-4832 -5276 0
-4829 -5405 0
-4830 -5406 0
-4831 -5407 0
-4832 -5408 0
-4829 -5613 0
-4830 -5614 0
-4831 -5615 0
-4832 -5616 0
-4833 -4869 0
-4834 -4870 0
-4835 -4871 0
-4836 -4872 0
-4833 -4929 0
-4834 -4930 0
-4835 -4931 0
-4836 -4932 0
-4833 -5113 0
-4834 -5114 0
-4835 -5115 0
-4836 -5116 0
-4833 -5377 0
-4834 -5378 0
-4835 -5379 0
-4836 -5380 0
-4833 -5537 0
-4834 -5538 0
-4835 -5539 0
-4836 -5540 0
-4833 -5841 0
-4834 -5842 0
-4835 -5843 0
-4836 -5844 0
-4837 -4873 0
-4838 -4874 0
-4839 -4875 0
-4840 -4876 0
-4837 -4965 0
-4838 -4966 0
-4839 -4967 0
-4840 -4968 0
-4837 -5197 0
-4838 -5198 0
-4839 -5199 0
-4840 -5200 0
-4837 -5381 0
-4838 -5382 0
-4839 -5383 0
-4840 -5384 0
-4837 -5541 0
-4838 -5542 0
-4839 -5543 0
-4840 -5544 0
-4841 -4857 0
-4842 -4858 0
-4843 -4859 0
-4844 -4860 0
-4841 -4969 0
-4842 -4970 0
-4843 -4971 0
-4844 -4972 0
-4841 -4997 0
-4842 -4998 0
-4843 -4999 0
-4844 -5000 0
-4841 -5825 0
-4842 -5826 0
-4843 -5827 0
-4844 -5828 0
-4845 -4857 0
-4846 -4858 0
-4847 -4859 0
-4848 -4860 0
-4845 -4933 0
-4846 -4934 0
-4847 -4935 0
-4848 -4936 0
-4845 -5557 0
-4846 -5558 0
-4847 -5559 0
-4848 -5560 0
-4845 -5829 0
-4846 -5830 0
-4847 -5831 0
-4848 -5832 0
-4849 -4857 0
-4850 -4858 0
-4851 -4859 0
-4852 -4860 0
-4849 -4917 0
-4850 -4918 0
-4851 -4919 0
-4852 -4920 0
-4849 -5445 0
-4850 -5446 0
-4851 -5447 0
-4852 -5448 0
-4849 -5497 0
-4850 -5498 0
-4851 -5499 0
-4852 -5500 0
-4853 -4857 0
-4854 -4858 0
-4855 -4859 0
-4856 -4860 0
-4853 -4901 0
-4854 -4902 0
-4855 -4903 0
-4856 -4904 0
-4853 -5001 0
-4854 -5002 0
-4855 -5003 0
-4856 -5004 0
-4853 -5501 0
-4854 -5502 0
-4855 -5503 0
-4856 -5504 0
-4853 -5725 0
-4854 -5726 0
-4855 -5727 0
-4856 -5728 0
-4857 -4861 0
-4858 -4862 0
-4859 -4863 0
-4860 -4864 0
-4857 -4865 0
-4858 -4866 0
-4859 -4867 0
-4860 -4868 0
-4857 -4869 0
-4858 -4870 0
-4859 -4871 0
-4860 -4872 0
-4857 -4873 0
-4858 -4874 0
-4859 -4875 0
-4860 -4876 0
-4857 -4881 0
-4858 -4882 0
-4859 -4883 0
-4860 -4884 0
-4857 -4889 0
-4858 -4890 0
-4859 -4891 0
-4860 -4892 0
-4857 -4901 0
-4858 -4902 0
-4859 -4903 0
-4860 -4904 0
-4857 -4905 0
-4858 -4906 0
-4859 -4907 0
-4860 -4908 0
-4857 -4917 0
-4858 -4918 0
-4859 -4919 0
-4860 -4920 0
-4857 -4921 0
-4858 -4922 0
-4859 -4923 0
-4860 -4924 0
-4857 -4933 0
-4858 -4934 0
-4859 -4935 0
-4860 -4936 0
-4857 -4937 0
-4858 -4938 0
-4859 -4939 0
-4860 -4940 0
-4857 -4969 0
-4858 -4970 0
-4859 -4971 0
-4860 -4972 0
-4857 -4973 0
-4858 -4974 0
-4859 -4975 0
-4860 -4976 0
-4857 -5005 0
-4858 -5006 0
-4859 -5007 0
-4860 -5008 0
-4857 -5117 0
-4858 -5118 0
-4859 -5119 0
-4860 -5120 0
-4857 -5165 0
-4858 -5166 0
-4859 -5167 0
-4860 -5168 0
-4857 -5281 0
-4858 -5282 0
-4859 -5283 0
-4860 -5284 0
-4857 -5389 0
-4858 -5390 0
-4859 -5391 0
-4860 -5392 0
-4857 -5409 0
-4858 -5410 0
-4859 -5411 0
-4860 -5412 0
-4857 -5449 0
-4858 -5450 0
-4859 -5451 0
-4860 -5452 0
-4857 -5505 0
-4858 -5506 0
-4859 -5507 0
-4860 -5508 0
-4857 -5561 0
-4858 -5562 0
-4859 -5563 0
-4860 -5564 0
-4857 -5617 0
-4858 -5618 0
-4859 -5619 0
-4860 -5620 0
-4857 -5729 0
-4858 -5730 0
-4859 -5731 0
-4860 -5732 0
-4857 -5733 0
-4858 -5734 0
-4859 -5735 0
-4860 -5736 0
-4857 -5789 0
-4858 -5790 0
-4859 -5791 0
-4860 -5792 0
-4857 -5797 0
-4858 -5798 0
-4859 -5799 0
-4860 -5800 0
-4857 -5833 0
-4858 -5834 0
-4859 -5835 0
-4860 -5836 0
-4857 -5865 0
-4858 -5866 0
-4859 -5867 0
-4860 -5868 0
-4857 -5873 0
-4858 -5874 0
-4859 -5875 0
-4860 -5876 0
-4857 -5913 0
-4858 -5914 0
-4859 -5915 0
-4860 -5916 0
-4861 -4905 0
-4862 -4906 0
-4863 -4907 0
-4864 -4908 0
-4861 -5169 0
-4862 -5170 0
-4863 -5171 0
-4864 -5172 0
-4861 -5453 0
-4862 -5454 0
-4863 -5455 0
-4864 -5456 0
-4861 -5837 0
-4862 -5838 0
-4863 -5839 0
-4864 -5840 0
-4865 -4921 0
-4866 -4922 0
-4867 -4923 0
-4868 -4924 0
-4865 -5009 0
-4866 -5010 0
-4867 -5011 0
-4868 -5012 0
-4865 -5121 0
-4866 -5122 0
-4867 -5123 0
-4868 -5124 0
-4865 -5413 0
-4866 -5414 0
-4867 -5415 0
-4868 -5416 0
-4869 -4937 0
-4870 -4938 0
-4871 -4939 0
-4872 -4940 0
-4869 -5125 0
-4870 -5126 0
-4871 -5127 0
-4872 -5128 0
-4869 -5173 0
-4870 -5174 0
-4871 -5175 0
-4872 -5176 0
-4869 -5841 0
-4870 -5842 0
-4871 -5843 0
-4872 -5844 0
-4873 -4973 0
-4874 -4974 0
-4875 -4975 0
-4876 -4976 0
-4873 -5393 0
-4874 -5394 0
-4875 -5395 0
-4876 -5396 0
-4873 -5569 0
-4874 -5570 0
-4875 -5571 0
-4876 -5572 0
-4877 -4881 0
-4878 -4882 0
-4879 -4883 0
-4880 -4884 0
-4877 -5129 0
-4878 -5130 0
-4879 -5131 0
-4880 -5132 0
-4877 -5237 0
-4878 -5238 0
-4879 -5239 0
-4880 -5240 0
-4877 -5793 0
-4878 -5794 0
-4879 -5795 0
-4880 -5796 0
-4877 -5845 0
-4878 -5846 0
-4879 -5847 0
-4880 -5848 0
-4881 -5133 0
-4882 -5134 0
-4883 -5135 0
-4884 -5136 0
-4881 -5737 0
-4882 -5738 0
-4883 -5739 0
-4884 -5740 0
-4881 -5797 0
-4882 -5798 0
-4883 -5799 0
-4884 -5800 0
-4881 -5845 0
-4882 -5846 0
-4883 -5847 0
-4884 -5848 0
-4885 -4889 0
-4886 -4890 0
-4887 -4891 0
-4888 -4892 0
-4885 -5157 0
-4886 -5158 0
-4887 -5159 0
-4888 -5160 0
-4885 -5209 0
-4886 -5210 0
-4887 -5211 0
-4888 -5212 0
-4885 -5397 0
-4886 -5398 0
-4887 -5399 0
-4888 -5400 0
-4885 -5849 0
-4886 -5850 0
-4887 -5851 0
-4888 -5852 0
-4885 -5869 0
-4886 -5870 0
-4887 -5871 0
-4888 -5872 0
-4889 -5017 0
-4890 -5018 0
-4891 -5019 0
-4892 -5020 0
-4889 -5457 0
-4890 -5458 0
-4891 -5459 0
-4892 -5460 0
-4889 -5849 0
-4890 -5850 0
-4891 -5851 0
-4892 -5852 0
-4889 -5873 0
-4890 -5874 0
-4891 -5875 0
-4892 -5876 0
-4893 -4897 0
-4894 -4898 0
-4895 -4899 0
-4896 -4900 0
-4893 -4901 0
-4894 -4902 0
-4895 -4903 0
-4896 -4904 0
-4893 -5241 0
-4894 -5242 0
-4895 -5243 0
-4896 -5244 0
-4893 -5509 0
-4894 -5510 0
-4895 -5511 0
-4896 -5512 0
-4893 -5625 0
-4894 -5626 0
-4895 -5627 0
-4896 -5628 0
-4893 -5853 0
-4894 -5854 0
-4895 -5855 0
-4896 -5856 0
-4897 -4905 0
-4898 -4906 0
-4899 -4907 0
-4900 -4908 0
-4897 -5285 0
-4898 -5286 0
-4899 -5287 0
-4900 -5288 0
-4897 -5557 0
-4898 -5558 0
-4899 -5559 0
-4900 -5560 0
-4897 -5629 0
-4898 -5630 0
-4899 -5631 0
-4900 -5632 0
-4901 -4905 0
-4902 -4906 0
-4903 -4907 0
-4904 -4908 0
-4901 -5025 0
-4902 -5026 0
-4903 -5027 0
-4904 -5028 0
-4901 -5513 0
-4902 -5514 0
-4903 -5515 0
-4904 -5516 0
-4901 -5741 0
-4902 -5742 0
-4903 -5743 0
-4904 -5744 0
-4901 -5853 0
-4902 -5854 0
-4903 -5855 0
-4904 -5856 0
-4905 -5745 0
-4906 -5746 0
-4907 -5747 0
-4908 -5748 0
-4909 -4913 0
-4910 -4914 0
-4911 -4915 0
-4912 -4916 0
-4909 -4917 0
-4910 -4918 0
-4911 -4919 0
-4912 -4920 0
-4909 -5229 0
-4910 -5230 0
-4911 -5231 0
-4912 -5232 0
-4909 -5925 0
-4910 -5926 0
-4911 -5927 0
-4912 -5928 0
-4913 -4921 0
-4914 -4922 0
-4915 -4923 0
-4916 -4924 0
-4913 -5233 0
-4914 -5234 0
-4915 -5235 0
-4916 -5236 0
-4913 -5301 0
-4914 -5302 0
-4915 -5303 0
-4916 -5304 0
-4913 -5417 0
-4914 -5418 0
-4915 -5419 0
-4916 -5420 0
-4913 -5645 0
-4914 -5646 0
-4915 -5647 0
-4916 -5648 0
-4913 -5857 0
-4914 -5858 0
-4915 -5859 0
-4916 -5860 0
-4917 -4921 0
-4918 -4922 0
-4919 -4923 0
-4920 -4924 0
-4917 -5533 0
-4918 -5534 0
-4919 -5535 0
-4920 -5536 0
-4917 -5753 0
-4918 -5754 0
-4919 -5755 0
-4920 -5756 0
-4917 -5929 0
-4918 -5930 0
-4919 -5931 0
-4920 -5932 0
-4921 -5037 0
-4922 -5038 0
-4923 -5039 0
-4924 -5040 0
-4921 -5757 0
-4922 -5758 0
-4923 -5759 0
-4924 -5760 0
-4921 -5857 0
-4922 -5858 0
-4923 -5859 0
-4924 -5860 0
-4925 -4929 0
-4926 -4930 0
-4927 -4931 0
-4928 -4932 0
-4925 -4933 0
-4926 -4934 0
-4927 -4935 0
-4928 -4936 0
-4925 -5245 0
-4926 -5246 0
-4927 -5247 0
-4928 -5248 0
-4925 -5261 0
-4926 -5262 0
-4927 -5263 0
-4928 -5264 0
-4925 -5421 0
-4926 -5422 0
-4927 -5423 0
-4928 -5424 0
-4925 -5765 0
-4926 -5766 0
-4927 -5767 0
-4928 -5768 0
-4929 -4937 0
-4930 -4938 0
-4931 -4939 0
-4932 -4940 0
-4929 -5153 0
-4930 -5154 0
-4931 -5155 0
-4932 -5156 0
-4929 -5277 0
-4930 -5278 0
-4931 -5279 0
-4932 -5280 0
-4929 -5425 0
-4930 -5426 0
-4931 -5427 0
-4932 -5428 0
-4929 -5649 0
-4930 -5650 0
-4931 -5651 0
-4932 -5652 0
-4933 -4937 0
-4934 -4938 0
-4935 -4939 0
-4936 -4940 0
-4933 -5053 0
-4934 -5054 0
-4935 -5055 0
-4936 -5056 0
-4933 -5429 0
-4934 -5430 0
-4935 -5431 0
-4936 -5432 0
-4933 -5777 0
-4934 -5778 0
-4935 -5779 0
-4936 -5780 0
-4937 -5157 0
-4938 -5158 0
-4939 -5159 0
-4940 -5160 0
-4937 -5177 0
-4938 -5178 0
-4939 -5179 0
-4940 -5180 0
-4937 -5433 0
-4938 -5434 0
-4939 -5435 0
-4940 -5436 0
-4937 -5653 0
-4938 -5654 0
-4939 -5655 0
-4940 -5656 0
-4941 -5445 0
-4942 -5446 0
-4943 -5447 0
-4944 -5448 0
-4941 -5573 0
-4942 -5574 0
-4943 -5575 0
-4944 -5576 0
-4941 -5833 0
-4942 -5834 0
-4943 -5835 0
-4944 -5836 0
-4941 -5845 0
-4942 -5846 0
-4943 -5847 0
-4944 -5848 0
-4945 -4949 0
-4946 -4950 0
-4947 -4951 0
-4948 -4952 0
-4945 -4953 0
-4946 -4954 0
-4947 -4955 0
-4948 -4956 0
-4945 -5861 0
-4946 -5862 0
-4947 -5863 0
-4948 -5864 0
-4949 -4957 0
-4950 -4958 0
-4951 -4959 0
-4952 -4960 0
-4949 -5189 0
-4950 -5190 0
-4951 -5191 0
-4952 -5192 0
-4949 -5861 0
-4950 -5862 0
-4951 -5863 0
-4952 -5864 0
-4949 -5865 0
-4950 -5866 0
-4951 -5867 0
-4952 -5868 0
-4953 -4957 0
-4954 -4958 0
-4955 -4959 0
-4956 -4960 0
-4953 -5421 0
-4954 -5422 0
-4955 -5423 0
-4956 -5424 0
-4953 -5869 0
-4954 -5870 0
-4955 -5871 0
-4956 -5872 0
-4957 -5205 0
-4958 -5206 0
-4959 -5207 0
-4960 -5208 0
-4957 -5429 0
-4958 -5430 0
-4959 -5431 0
-4960 -5432 0
-4957 -5869 0
-4958 -5870 0
-4959 -5871 0
-4960 -5872 0
-4957 -5873 0
-4958 -5874 0
-4959 -5875 0
-4960 -5876 0
-4961 -4965 0
-4962 -4966 0
-4963 -4967 0
-4964 -4968 0
-4961 -4969 0
-4962 -4970 0
-4963 -4971 0
-4964 -4972 0
-4961 -5669 0
-4962 -5670 0
-4963 -5671 0
-4964 -5672 0
-4961 -5877 0
-4962 -5878 0
-4963 -5879 0
-4964 -5880 0
-4965 -4973 0
-4966 -4974 0
-4967 -4975 0
-4968 -4976 0
-4965 -5581 0
-4966 -5582 0
-4967 -5583 0
-4968 -5584 0
-4965 -5673 0
-4966 -5674 0
-4967 -5675 0
-4968 -5676 0
-4969 -4973 0
-4970 -4974 0
-4971 -4975 0
-4972 -4976 0
-4969 -5101 0
-4970 -5102 0
-4971 -5103 0
-4972 -5104 0
-4969 -5877 0
-4970 -5878 0
-4971 -5879 0
-4972 -5880 0
-4973 -5241 0
-4974 -5242 0
-4975 -5243 0
-4976 -5244 0
-4973 -5677 0
-4974 -5678 0
-4975 -5679 0
-4976 -5680 0
-4977 -5341 0
-4978 -5342 0
-4979 -5343 0
-4980 -5344 0
-4977 -5785 0
-4978 -5786 0
-4979 -5787 0
-4980 -5788 0
-4977 -5889 0
-4978 -5890 0
-4979 -5891 0
-4980 -5892 0
-4977 -5893 0
-4978 -5894 0
-4979 -5895 0
-4980 -5896 0
-4981 -4985 0
-4982 -4986 0
-4983 -4987 0
-4984 -4988 0
-4981 -4989 0
-4982 -4990 0
-4983 -4991 0
-4984 -4992 0
-4981 -5069 0
-4982 -5070 0
-4983 -5071 0
-4984 -5072 0
-4981 -5485 0
-4982 -5486 0
-4983 -5487 0
-4984 -5488 0
-4981 -5597 0
-4982 -5598 0
-4983 -5599 0
-4984 -5600 0
-4981 -5785 0
-4982 -5786 0
-4983 -5787 0
-4984 -5788 0
-4981 -5881 0
-4982 -5882 0
-4983 -5883 0
-4984 -5884 0
-4985 -4993 0
-4986 -4994 0
-4987 -4995 0
-4988 -4996 0
-4985 -5013 0
-4986 -5014 0
-4987 -5015 0
-4988 -5016 0
-4985 -5073 0
-4986 -5074 0
-4987 -5075 0
-4988 -5076 0
-4985 -5501 0
-4986 -5502 0
-4987 -5503 0
-4988 -5504 0
-4985 -5601 0
-4986 -5602 0
-4987 -5603 0
-4988 -5604 0
-4985 -5789 0
-4986 -5790 0
-4987 -5791 0
-4988 -5792 0
-4985 -5881 0
-4986 -5882 0
-4987 -5883 0
-4988 -5884 0
-4989 -4993 0
-4990 -4994 0
-4991 -4995 0
-4992 -4996 0
-4989 -5077 0
-4990 -5078 0
-4991 -5079 0
-4992 -5080 0
-4989 -5085 0
-4990 -5086 0
-4991 -5087 0
-4992 -5088 0
-4989 -5245 0
-4990 -5246 0
-4991 -5247 0
-4992 -5248 0
-4989 -5325 0
-4990 -5326 0
-4991 -5327 0
-4992 -5328 0
-4989 -5793 0
-4990 -5794 0
-4991 -5795 0
-4992 -5796 0
-4989 -5885 0
-4990 -5886 0
-4991 -5887 0
-4992 -5888 0
-4993 -5089 0
-4994 -5090 0
-4995 -5091 0
-4996 -5092 0
-4993 -5093 0
-4994 -5094 0
-4995 -5095 0
-4996 -5096 0
-4993 -5205 0
-4994 -5206 0
-4995 -5207 0
-4996 -5208 0
-4993 -5797 0
-4994 -5798 0
-4995 -5799 0
-4996 -5800 0
-4993 -5885 0
-4994 -5886 0
-4995 -5887 0
-4996 -5888 0
-4997 -5005 0
-4998 -5006 0
-4999 -5007 0
-5000 -5008 0
-4997 -5101 0
-4998 -5102 0
-4999 -5103 0
-5000 -5104 0
-4997 -5213 0
-4998 -5214 0
-4999 -5215 0
-5000 -5216 0
-4997 -5941 0
-4998 -5942 0
-4999 -5943 0
-5000 -5944 0
-5001 -5005 0
-5002 -5006 0
-5003 -5007 0
-5004 -5008 0
-5001 -5025 0
-5002 -5026 0
-5003 -5027 0
-5004 -5028 0
-5001 -5033 0
-5002 -5034 0
-5003 -5035 0
-5004 -5036 0
-5001 -5049 0
-5002 -5050 0
-5003 -5051 0
-5004 -5052 0
-5001 -5057 0
-5002 -5058 0
-5003 -5059 0
-5004 -5060 0
-5001 -5257 0
-5002 -5258 0
-5003 -5259 0
-5004 -5260 0
-5001 -5585 0
-5002 -5586 0
-5003 -5587 0
-5004 -5588 0
-5005 -5009 0
-5006 -5010 0
-5007 -5011 0
-5008 -5012 0
-5005 -5017 0
-5006 -5018 0
-5007 -5019 0
-5008 -5020 0
-5005 -5025 0
-5006 -5026 0
-5007 -5027 0
-5008 -5028 0
-5005 -5037 0
-5006 -5038 0
-5007 -5039 0
-5008 -5040 0
-5005 -5053 0
-5006 -5054 0
-5007 -5055 0
-5008 -5056 0
-5005 -5101 0
-5006 -5102 0
-5007 -5103 0
-5008 -5104 0
-5005 -5221 0
-5006 -5222 0
-5007 -5223 0
-5008 -5224 0
-5005 -5521 0
-5006 -5522 0
-5007 -5523 0
-5008 -5524 0
-5005 -5617 0
-5006 -5618 0
-5007 -5619 0
-5008 -5620 0
-5009 -5029 0
-5010 -5030 0
-5011 -5031 0
-5012 -5032 0
-5009 -5037 0
-5010 -5038 0
-5011 -5039 0
-5012 -5040 0
-5009 -5225 0
-5010 -5226 0
-5011 -5227 0
-5012 -5228 0
-5009 -5477 0
-5010 -5478 0
-5011 -5479 0
-5012 -5480 0
-5009 -5641 0
-5010 -5642 0
-5011 -5643 0
-5012 -5644 0
-5013 -5117 0
-5014 -5118 0
-5015 -5119 0
-5016 -5120 0
-5013 -5529 0
-5014 -5530 0
-5015 -5531 0
-5016 -5532 0
-5013 -5949 0
-5014 -5950 0
-5015 -5951 0
-5016 -5952 0
-5017 -5125 0
-5018 -5126 0
-5019 -5127 0
-5020 -5128 0
-5017 -5469 0
-5018 -5470 0
-5019 -5471 0
-5020 -5472 0
-5017 -5545 0
-5018 -5546 0
-5019 -5547 0
-5020 -5548 0
-5021 -5029 0
-5022 -5030 0
-5023 -5031 0
-5024 -5032 0
-5021 -5041 0
-5022 -5042 0
-5023 -5043 0
-5024 -5044 0
-5021 -5633 0
-5022 -5634 0
-5023 -5635 0
-5024 -5636 0
-5021 -5909 0
-5022 -5910 0
-5023 -5911 0
-5024 -5912 0
-5025 -5029 0
-5026 -5030 0
-5027 -5031 0
-5028 -5032 0
-5025 -5045 0
-5026 -5046 0
-5027 -5047 0
-5028 -5048 0
-5025 -5173 0
-5026 -5174 0
-5027 -5175 0
-5028 -5176 0
-5025 -5473 0
-5026 -5474 0
-5027 -5475 0
-5028 -5476 0
-5025 -5593 0
-5026 -5594 0
-5027 -5595 0
-5028 -5596 0
-5025 -5805 0
-5026 -5806 0
-5027 -5807 0
-5028 -5808 0
-5029 -5045 0
-5030 -5046 0
-5031 -5047 0
-5032 -5048 0
-5029 -5241 0
-5030 -5242 0
-5031 -5243 0
-5032 -5244 0
-5029 -5809 0
-5030 -5810 0
-5031 -5811 0
-5032 -5812 0
-5029 -5913 0
-5030 -5914 0
-5031 -5915 0
-5032 -5916 0
-5033 -5037 0
-5034 -5038 0
-5035 -5039 0
-5036 -5040 0
-5033 -5045 0
-5034 -5046 0
-5035 -5047 0
-5036 -5048 0
-5033 -5061 0
-5034 -5062 0
-5035 -5063 0
-5036 -5064 0
-5033 -5297 0
-5034 -5298 0
-5035 -5299 0
-5036 -5300 0
-5033 -5613 0
-5034 -5614 0
-5035 -5615 0
-5036 -5616 0
-5037 -5045 0
-5038 -5046 0
-5039 -5047 0
-5040 -5048 0
-5037 -5813 0
-5038 -5814 0
-5039 -5815 0
-5040 -5816 0
-5041 -5045 0
-5042 -5046 0
-5043 -5047 0
-5044 -5048 0
-5041 -5821 0
-5042 -5822 0
-5043 -5823 0
-5044 -5824 0
-5041 -5925 0
-5042 -5926 0
-5043 -5927 0
-5044 -5928 0
-5045 -5481 0
-5046 -5482 0
-5047 -5483 0
-5048 -5484 0
-5045 -5637 0
-5046 -5638 0
-5047 -5639 0
-5048 -5640 0
-5045 -5833 0
-5046 -5834 0
-5047 -5835 0
-5048 -5836 0
-5045 -5929 0
-5046 -5930 0
-5047 -5931 0
-5048 -5932 0
-5049 -5053 0
-5050 -5054 0
-5051 -5055 0
-5052 -5056 0
-5049 -5057 0
-5050 -5058 0
-5051 -5059 0
-5052 -5060 0
-5049 -5061 0
-5050 -5062 0
-5051 -5063 0
-5052 -5064 0
-5049 -5141 0
-5050 -5142 0
-5051 -5143 0
-5052 -5144 0
-5049 -5149 0
-5050 -5150 0
-5051 -5151 0
-5052 -5152 0
-5049 -5361 0
-5050 -5362 0
-5051 -5363 0
-5052 -5364 0
-5049 -5493 0
-5050 -5494 0
-5051 -5495 0
-5052 -5496 0
-5049 -5657 0
-5050 -5658 0
-5051 -5659 0
-5052 -5660 0
-5049 -5833 0
-5050 -5834 0
-5051 -5835 0
-5052 -5836 0
-5049 -5881 0
-5050 -5882 0
-5051 -5883 0
-5052 -5884 0
-5049 -5885 0
-5050 -5886 0
-5051 -5887 0
-5052 -5888 0
-5053 -5145 0
-5054 -5146 0
-5055 -5147 0
-5056 -5148 0
-5053 -5497 0
-5054 -5498 0
-5055 -5499 0
-5056 -5500 0
-5053 -5573 0
-5054 -5574 0
-5055 -5575 0
-5056 -5576 0
-5053 -5837 0
-5054 -5838 0
-5055 -5839 0
-5056 -5840 0
-5057 -5265 0
-5058 -5266 0
-5059 -5267 0
-5060 -5268 0
-5057 -5841 0
-5058 -5842 0
-5059 -5843 0
-5060 -5844 0
-5061 -5365 0
-5062 -5366 0
-5063 -5367 0
-5064 -5368 0
-5061 -5529 0
-5062 -5530 0
-5063 -5531 0
-5064 -5532 0
-5061 -5857 0
-5062 -5858 0
-5063 -5859 0
-5064 -5860 0
-5065 -5093 0
-5066 -5094 0
-5067 -5095 0
-5068 -5096 0
-5065 -5325 0
-5066 -5326 0
-5067 -5327 0
-5068 -5328 0
-5065 -5505 0
-5066 -5506 0
-5067 -5507 0
-5068 -5508 0
-5069 -5073 0
-5070 -5074 0
-5071 -5075 0
-5072 -5076 0
-5069 -5085 0
-5070 -5086 0
-5071 -5087 0
-5072 -5088 0
-5069 -5109 0
-5070 -5110 0
-5071 -5111 0
-5072 -5112 0
-5069 -5897 0
-5070 -5898 0
-5071 -5899 0
-5072 -5900 0
-5073 -5093 0
-5074 -5094 0
-5075 -5095 0
-5076 -5096 0
-5073 -5117 0
-5074 -5118 0
-5075 -5119 0
-5076 -5120 0
-5073 -5121 0
-5074 -5122 0
-5075 -5123 0
-5076 -5124 0
-5073 -5669 0
-5074 -5670 0
-5075 -5671 0
-5076 -5672 0
-5073 -5705 0
-5074 -5706 0
-5075 -5707 0
-5076 -5708 0
-5073 -5897 0
-5074 -5898 0
-5075 -5899 0
-5076 -5900 0
-5077 -5081 0
-5078 -5082 0
-5079 -5083 0
-5080 -5084 0
-5077 -5085 0
-5078 -5086 0
-5079 -5087 0
-5080 -5088 0
-5077 -5089 0
-5078 -5090 0
-5079 -5091 0
-5080 -5092 0
-5077 -5185 0
-5078 -5186 0
-5079 -5187 0
-5080 -5188 0
-5077 -5405 0
-5078 -5406 0
-5079 -5407 0
-5080 -5408 0
-5077 -5901 0
-5078 -5902 0
-5079 -5903 0
-5080 -5904 0
-5081 -5425 0
-5082 -5426 0
-5083 -5427 0
-5084 -5428 0
-5081 -5905 0
-5082 -5906 0
-5083 -5907 0
-5084 -5908 0
-5085 -5093 0
-5086 -5094 0
-5087 -5095 0
-5088 -5096 0
-5085 -5129 0
-5086 -5130 0
-5087 -5131 0
-5088 -5132 0
-5085 -5309 0
-5086 -5310 0
-5087 -5311 0
-5088 -5312 0
-5085 -5509 0
-5086 -5510 0
-5087 -5511 0
-5088 -5512 0
-5085 -5709 0
-5086 -5710 0
-5087 -5711 0
-5088 -5712 0
-5085 -5909 0
-5086 -5910 0
-5087 -5911 0
-5088 -5912 0
-5089 -5093 0
-5090 -5094 0
-5091 -5095 0
-5092 -5096 0
-5089 -5193 0
-5090 -5194 0
-5091 -5195 0
-5092 -5196 0
-5089 -5413 0
-5090 -5414 0
-5091 -5415 0
-5092 -5416 0
-5089 -5901 0
-5090 -5902 0
-5091 -5903 0
-5092 -5904 0
-5093 -5133 0
-5094 -5134 0
-5095 -5135 0
-5096 -5136 0
-5093 -5197 0
-5094 -5198 0
-5095 -5199 0
-5096 -5200 0
-5093 -5313 0
-5094 -5314 0
-5095 -5315 0
-5096 -5316 0
-5093 -5513 0
-5094 -5514 0
-5095 -5515 0
-5096 -5516 0
-5093 -5713 0
-5094 -5714 0
-5095 -5715 0
-5096 -5716 0
-5093 -5909 0
-5094 -5910 0
-5095 -5911 0
-5096 -5912 0
-5093 -5913 0
-5094 -5914 0
-5095 -5915 0
-5096 -5916 0
-5097 -5101 0
-5098 -5102 0
-5099 -5103 0
-5100 -5104 0
-5097 -5105 0
-5098 -5106 0
-5099 -5107 0
-5100 -5108 0
-5097 -5117 0
-5098 -5118 0
-5099 -5119 0
-5100 -5120 0
-5097 -5145 0
-5098 -5146 0
-5099 -5147 0
-5100 -5148 0
-5097 -5217 0
-5098 -5218 0
-5099 -5219 0
-5100 -5220 0
-5097 -5533 0
-5098 -5534 0
-5099 -5535 0
-5100 -5536 0
-5097 -5889 0
-5098 -5890 0
-5099 -5891 0
-5100 -5892 0
-5101 -5125 0
-5102 -5126 0
-5103 -5127 0
-5104 -5128 0
-5101 -5145 0
-5102 -5146 0
-5103 -5147 0
-5104 -5148 0
-5101 -5337 0
-5102 -5338 0
-5103 -5339 0
-5104 -5340 0
-5105 -5133 0
-5106 -5134 0
-5107 -5135 0
-5108 -5136 0
-5105 -5233 0
-5106 -5234 0
-5107 -5235 0
-5108 -5236 0
-5105 -5445 0
-5106 -5446 0
-5107 -5447 0
-5108 -5448 0
-5105 -5861 0
-5106 -5862 0
-5107 -5863 0
-5108 -5864 0
-5105 -5889 0
-5106 -5890 0
-5107 -5891 0
-5108 -5892 0
-5109 -5113 0
-5110 -5114 0
-5111 -5115 0
-5112 -5116 0
-5109 -5117 0
-5110 -5118 0
-5111 -5119 0
-5112 -5120 0
-5109 -5129 0
-5110 -5130 0
-5111 -5131 0
-5112 -5132 0
-5109 -5153 0
-5110 -5154 0
-5111 -5155 0
-5112 -5156 0
-5109 -5401 0
-5110 -5402 0
-5111 -5403 0
-5112 -5404 0
-5109 -5917 0
-5110 -5918 0
-5111 -5919 0
-5112 -5920 0
-5113 -5125 0
-5114 -5126 0
-5115 -5127 0
-5116 -5128 0
-5113 -5153 0
-5114 -5154 0
-5115 -5155 0
-5116 -5156 0
-5117 -5121 0
-5118 -5122 0
-5119 -5123 0
-5120 -5124 0
-5117 -5125 0
-5118 -5126 0
-5119 -5127 0
-5120 -5128 0
-5117 -5133 0
-5118 -5134 0
-5119 -5135 0
-5120 -5136 0
-5117 -5157 0
-5118 -5158 0
-5119 -5159 0
-5120 -5160 0
-5117 -5221 0
-5118 -5222 0
-5119 -5223 0
-5120 -5224 0
-5117 -5409 0
-5118 -5410 0
-5119 -5411 0
-5120 -5412 0
-5117 -5581 0
-5118 -5582 0
-5119 -5583 0
-5120 -5584 0
-5117 -5893 0
-5118 -5894 0
-5119 -5895 0
-5120 -5896 0
-5117 -5917 0
-5118 -5918 0
-5119 -5919 0
-5120 -5920 0
-5117 -5921 0
-5118 -5922 0
-5119 -5923 0
-5120 -5924 0
-5121 -5225 0
-5122 -5226 0
-5123 -5227 0
-5124 -5228 0
-5121 -5413 0
-5122 -5414 0
-5123 -5415 0
-5124 -5416 0
-5125 -5157 0
-5126 -5158 0
-5127 -5159 0
-5128 -5160 0
-5125 -5341 0
-5126 -5342 0
-5127 -5343 0
-5128 -5344 0
-5125 -5549 0
-5126 -5550 0
-5127 -5551 0
-5128 -5552 0
-5125 -5665 0
-5126 -5666 0
-5127 -5667 0
-5128 -5668 0
-5129 -5133 0
-5130 -5134 0
-5131 -5135 0
-5132 -5136 0
-5129 -5925 0
-5130 -5926 0
-5131 -5927 0
-5132 -5928 0
-5133 -5557 0
-5134 -5558 0
-5135 -5559 0
-5136 -5560 0
-5133 -5869 0
-5134 -5870 0
-5135 -5871 0
-5136 -5872 0
-5133 -5893 0
-5134 -5894 0
-5135 -5895 0
-5136 -5896 0
-5133 -5925 0
-5134 -5926 0
-5135 -5927 0
-5136 -5928 0
-5133 -5929 0
-5134 -5930 0
-5135 -5931 0
-5136 -5932 0
-5137 -5141 0
-5138 -5142 0
-5139 -5143 0
-5140 -5144 0
-5137 -5145 0
-5138 -5146 0
-5139 -5147 0
-5140 -5148 0
-5137 -5349 0
-5138 -5350 0
-5139 -5351 0
-5140 -5352 0
-5137 -5733 0
-5138 -5734 0
-5139 -5735 0
-5140 -5736 0
-5141 -5145 0
-5142 -5146 0
-5143 -5147 0
-5144 -5148 0
-5141 -5149 0
-5142 -5150 0
-5143 -5151 0
-5144 -5152 0
-5141 -5253 0
-5142 -5254 0
-5143 -5255 0
-5144 -5256 0
-5141 -5441 0
-5142 -5442 0
-5143 -5443 0
-5144 -5444 0
-5141 -5741 0
-5142 -5742 0
-5143 -5743 0
-5144 -5744 0
-5141 -5877 0
-5142 -5878 0
-5143 -5879 0
-5144 -5880 0
-5141 -5901 0
-5142 -5902 0
-5143 -5903 0
-5144 -5904 0
-5145 -5157 0
-5146 -5158 0
-5147 -5159 0
-5148 -5160 0
-5145 -5373 0
-5146 -5374 0
-5147 -5375 0
-5148 -5376 0
-5145 -5745 0
-5146 -5746 0
-5147 -5747 0
-5148 -5748 0
-5145 -5749 0
-5146 -5750 0
-5147 -5751 0
-5148 -5752 0
-5145 -5905 0
-5146 -5906 0
-5147 -5907 0
-5148 -5908 0
-5145 -5961 0
-5146 -5962 0
-5147 -5963 0
-5148 -5964 0
-5149 -5273 0
-5150 -5274 0
-5151 -5275 0
-5152 -5276 0
-5149 -5577 0
-5150 -5578 0
-5151 -5579 0
-5152 -5580 0
-5149 -5897 0
-5150 -5898 0
-5151 -5899 0
-5152 -5900 0
-5149 -5909 0
-5150 -5910 0
-5151 -5911 0
-5152 -5912 0
-5153 -5157 0
-5154 -5158 0
-5155 -5159 0
-5156 -5160 0
-5153 -5425 0
-5154 -5426 0
-5155 -5427 0
-5156 -5428 0
-5157 -5269 0
-5158 -5270 0
-5159 -5271 0
-5160 -5272 0
-5157 -5397 0
-5158 -5398 0
-5159 -5399 0
-5160 -5400 0
-5157 -5433 0
-5158 -5434 0
-5159 -5435 0
-5160 -5436 0
-5157 -5753 0
-5158 -5754 0
-5159 -5755 0
-5160 -5756 0
-5161 -5165 0
-5162 -5166 0
-5163 -5167 0
-5164 -5168 0
-5161 -5169 0
-5162 -5170 0
-5163 -5171 0
-5164 -5172 0
-5161 -5217 0
-5162 -5218 0
-5163 -5219 0
-5164 -5220 0
-5161 -5225 0
-5162 -5226 0
-5163 -5227 0
-5164 -5228 0
-5161 -5613 0
-5162 -5614 0
-5163 -5615 0
-5164 -5616 0
-5161 -5693 0
-5162 -5694 0
-5163 -5695 0
-5164 -5696 0
-5161 -5969 0
-5162 -5970 0
-5163 -5971 0
-5164 -5972 0
-5165 -5169 0
-5166 -5170 0
-5167 -5171 0
-5168 -5172 0
-5165 -5173 0
-5166 -5174 0
-5167 -5175 0
-5168 -5176 0
-5165 -5177 0
-5166 -5178 0
-5167 -5179 0
-5168 -5180 0
-5165 -5241 0
-5166 -5242 0
-5167 -5243 0
-5168 -5244 0
-5165 -5389 0
-5166 -5390 0
-5167 -5391 0
-5168 -5392 0
-5165 -5633 0
-5166 -5634 0
-5167 -5635 0
-5168 -5636 0
-5165 -5881 0
-5166 -5882 0
-5167 -5883 0
-5168 -5884 0
-5165 -5937 0
-5166 -5938 0
-5167 -5939 0
-5168 -5940 0
-5165 -5949 0
-5166 -5950 0
-5167 -5951 0
-5168 -5952 0
-5169 -5469 0
-5170 -5470 0
-5171 -5471 0
-5172 -5472 0
-5169 -5637 0
-5170 -5638 0
-5171 -5639 0
-5172 -5640 0
-5173 -5177 0
-5174 -5178 0
-5175 -5179 0
-5176 -5180 0
-5173 -5341 0
-5174 -5342 0
-5175 -5343 0
-5176 -5344 0
-5173 -5473 0
-5174 -5474 0
-5175 -5475 0
-5176 -5476 0
-5173 -5941 0
-5174 -5942 0
-5175 -5943 0
-5176 -5944 0
-5173 -5953 0
-5174 -5954 0
-5175 -5955 0
-5176 -5956 0
-5177 -5289 0
-5178 -5290 0
-5179 -5291 0
-5180 -5292 0
-5177 -5397 0
-5178 -5398 0
-5179 -5399 0
-5180 -5400 0
-5177 -5601 0
-5178 -5602 0
-5179 -5603 0
-5180 -5604 0
-5177 -5957 0
-5178 -5958 0
-5179 -5959 0
-5180 -5960 0
-5181 -5193 0
-5182 -5194 0
-5183 -5195 0
-5184 -5196 0
-5181 -5213 0
-5182 -5214 0
-5183 -5215 0
-5184 -5216 0
-5181 -5217 0
-5182 -5218 0
-5183 -5219 0
-5184 -5220 0
-5181 -5497 0
-5182 -5498 0
-5183 -5499 0
-5184 -5500 0
-5185 -5193 0
-5186 -5194 0
-5187 -5195 0
-5188 -5196 0
-5185 -5201 0
-5186 -5202 0
-5187 -5203 0
-5188 -5204 0
-5185 -5933 0
-5186 -5934 0
-5187 -5935 0
-5188 -5936 0
-5189 -5193 0
-5190 -5194 0
-5191 -5195 0
-5192 -5196 0
-5189 -5205 0
-5190 -5206 0
-5191 -5207 0
-5192 -5208 0
-5189 -5245 0
-5190 -5246 0
-5191 -5247 0
-5192 -5248 0
-5189 -5493 0
-5190 -5494 0
-5191 -5495 0
-5192 -5496 0
-5189 -5889 0
-5190 -5890 0
-5191 -5891 0
-5192 -5892 0
-5189 -5937 0
-5190 -5938 0
-5191 -5939 0
-5192 -5940 0
-5193 -5197 0
-5194 -5198 0
-5195 -5199 0
-5196 -5200 0
-5193 -5209 0
-5194 -5210 0
-5195 -5211 0
-5196 -5212 0
-5193 -5229 0
-5194 -5230 0
-5195 -5231 0
-5196 -5232 0
-5193 -5233 0
-5194 -5234 0
-5195 -5235 0
-5196 -5236 0
-5193 -5245 0
-5194 -5246 0
-5195 -5247 0
-5196 -5248 0
-5193 -5401 0
-5194 -5402 0
-5195 -5403 0
-5196 -5404 0
-5193 -5477 0
-5194 -5478 0
-5195 -5479 0
-5196 -5480 0
-5193 -5933 0
-5194 -5934 0
-5195 -5935 0
-5196 -5936 0
-5193 -5941 0
-5194 -5942 0
-5195 -5943 0
-5196 -5944 0
-5197 -5237 0
-5198 -5238 0
-5199 -5239 0
-5200 -5240 0
-5197 -5249 0
-5198 -5250 0
-5199 -5251 0
-5200 -5252 0
-5197 -5593 0
-5198 -5594 0
-5199 -5595 0
-5200 -5596 0
-5197 -5713 0
-5198 -5714 0
-5199 -5715 0
-5200 -5716 0
-5201 -5209 0
-5202 -5210 0
-5203 -5211 0
-5204 -5212 0
-5201 -5425 0
-5202 -5426 0
-5203 -5427 0
-5204 -5428 0
-5201 -5597 0
-5202 -5598 0
-5203 -5599 0
-5204 -5600 0
-5201 -5945 0
-5202 -5946 0
-5203 -5947 0
-5204 -5948 0
-5205 -5209 0
-5206 -5210 0
-5207 -5211 0
-5208 -5212 0
-5205 -5321 0
-5206 -5322 0
-5207 -5323 0
-5208 -5324 0
-5205 -5429 0
-5206 -5430 0
-5207 -5431 0
-5208 -5432 0
-5205 -5893 0
-5206 -5894 0
-5207 -5895 0
-5208 -5896 0
-5205 -5949 0
-5206 -5950 0
-5207 -5951 0
-5208 -5952 0
-5209 -5433 0
-5210 -5434 0
-5211 -5435 0
-5212 -5436 0
-5209 -5601 0
-5210 -5602 0
-5211 -5603 0
-5212 -5604 0
-5209 -5945 0
-5210 -5946 0
-5211 -5947 0
-5212 -5948 0
-5209 -5953 0
-5210 -5954 0
-5211 -5955 0
-5212 -5956 0
-5213 -5217 0
-5214 -5218 0
-5215 -5219 0
-5216 -5220 0
-5213 -5221 0
-5214 -5222 0
-5215 -5223 0
-5216 -5224 0
-5213 -5229 0
-5214 -5230 0
-5215 -5231 0
-5216 -5232 0
-5213 -5973 0
-5214 -5974 0
-5215 -5975 0
-5216 -5976 0
-5217 -5225 0
-5218 -5226 0
-5219 -5227 0
-5220 -5228 0
-5217 -5233 0
-5218 -5234 0
-5219 -5235 0
-5220 -5236 0
-5217 -5533 0
-5218 -5534 0
-5219 -5535 0
-5220 -5536 0
-5217 -5789 0
-5218 -5790 0
-5219 -5791 0
-5220 -5792 0
-5217 -5977 0
-5218 -5978 0
-5219 -5979 0
-5220 -5980 0
-5221 -5225 0
-5222 -5226 0
-5223 -5227 0
-5224 -5228 0
-5221 -5269 0
-5222 -5270 0
-5223 -5271 0
-5224 -5272 0
-5221 -5673 0
-5222 -5674 0
-5223 -5675 0
-5224 -5676 0
-5225 -5237 0
-5226 -5238 0
-5227 -5239 0
-5228 -5240 0
-5225 -5241 0
-5226 -5242 0
-5227 -5243 0
-5228 -5244 0
-5225 -5261 0
-5226 -5262 0
-5227 -5263 0
-5228 -5264 0
-5225 -5277 0
-5226 -5278 0
-5227 -5279 0
-5228 -5280 0
-5225 -5477 0
-5226 -5478 0
-5227 -5479 0
-5228 -5480 0
-5225 -5525 0
-5226 -5526 0
-5227 -5527 0
-5228 -5528 0
-5225 -5621 0
-5226 -5622 0
-5227 -5623 0
-5228 -5624 0
-5225 -5721 0
-5226 -5722 0
-5227 -5723 0
-5228 -5724 0
-5229 -5233 0
-5230 -5234 0
-5231 -5235 0
-5232 -5236 0
-5233 -5237 0
-5234 -5238 0
-5235 -5239 0
-5236 -5240 0
-5233 -5417 0
-5234 -5418 0
-5235 -5419 0
-5236 -5420 0
-5233 -5537 0
-5234 -5538 0
-5235 -5539 0
-5236 -5540 0
-5233 -5797 0
-5234 -5798 0
-5235 -5799 0
-5236 -5800 0
-5237 -5453 0
-5238 -5454 0
-5239 -5455 0
-5240 -5456 0
-5237 -5545 0
-5238 -5546 0
-5239 -5547 0
-5240 -5548 0
-5237 -5637 0
-5238 -5638 0
-5239 -5639 0
-5240 -5640 0
-5241 -5289 0
-5242 -5290 0
-5243 -5291 0
-5244 -5292 0
-5241 -5645 0
-5242 -5646 0
-5243 -5647 0
-5244 -5648 0
-5241 -5801 0
-5242 -5802 0
-5243 -5803 0
-5244 -5804 0
-5241 -5897 0
-5242 -5898 0
-5243 -5899 0
-5244 -5900 0
-5245 -5249 0
-5246 -5250 0
-5247 -5251 0
-5248 -5252 0
-5245 -5309 0
-5246 -5310 0
-5247 -5311 0
-5248 -5312 0
-5245 -5421 0
-5246 -5422 0
-5247 -5423 0
-5248 -5424 0
-5245 -5505 0
-5246 -5506 0
-5247 -5507 0
-5248 -5508 0
-5245 -5905 0
-5246 -5906 0
-5247 -5907 0
-5248 -5908 0
-5245 -5957 0
-5246 -5958 0
-5247 -5959 0
-5248 -5960 0
-5249 -5309 0
-5250 -5310 0
-5251 -5311 0
-5252 -5312 0
-5253 -5257 0
-5254 -5258 0
-5255 -5259 0
-5256 -5260 0
-5253 -5265 0
-5254 -5266 0
-5255 -5267 0
-5256 -5268 0
-5253 -5293 0
-5254 -5294 0
-5255 -5295 0
-5256 -5296 0
-5253 -5649 0
-5254 -5650 0
-5255 -5651 0
-5256 -5652 0
-5253 -5805 0
-5254 -5806 0
-5255 -5807 0
-5256 -5808 0
-5253 -5933 0
-5254 -5934 0
-5255 -5935 0
-5256 -5936 0
-5257 -5281 0
-5258 -5282 0
-5259 -5283 0
-5260 -5284 0
-5257 -5297 0
-5258 -5298 0
-5259 -5299 0
-5260 -5300 0
-5257 -5653 0
-5258 -5654 0
-5259 -5655 0
-5260 -5656 0
-5257 -5941 0
-5258 -5942 0
-5259 -5943 0
-5260 -5944 0
-5261 -5277 0
-5262 -5278 0
-5263 -5279 0
-5264 -5280 0
-5261 -5505 0
-5262 -5506 0
-5263 -5507 0
-5264 -5508 0
-5261 -5765 0
-5262 -5766 0
-5263 -5767 0
-5264 -5768 0
-5265 -5269 0
-5266 -5270 0
-5267 -5271 0
-5268 -5272 0
-5265 -5273 0
-5266 -5274 0
-5267 -5275 0
-5268 -5276 0
-5265 -5281 0
-5266 -5282 0
-5267 -5283 0
-5268 -5284 0
-5265 -5285 0
-5266 -5286 0
-5267 -5287 0
-5268 -5288 0
-5265 -5301 0
-5266 -5302 0
-5267 -5303 0
-5268 -5304 0
-5265 -5525 0
-5266 -5526 0
-5267 -5527 0
-5268 -5528 0
-5265 -5945 0
-5266 -5946 0
-5267 -5947 0
-5268 -5948 0
-5269 -5277 0
-5270 -5278 0
-5271 -5279 0
-5272 -5280 0
-5269 -5285 0
-5270 -5286 0
-5271 -5287 0
-5272 -5288 0
-5269 -5461 0
-5270 -5462 0
-5271 -5463 0
-5272 -5464 0
-5269 -5681 0
-5270 -5682 0
-5271 -5683 0
-5272 -5684 0
-5269 -5753 0
-5270 -5754 0
-5271 -5755 0
-5272 -5756 0
-5273 -5277 0
-5274 -5278 0
-5275 -5279 0
-5276 -5280 0
-5273 -5289 0
-5274 -5290 0
-5275 -5291 0
-5276 -5292 0
-5273 -5301 0
-5274 -5302 0
-5275 -5303 0
-5276 -5304 0
-5273 -5577 0
-5274 -5578 0
-5275 -5579 0
-5276 -5580 0
-5277 -5289 0
-5278 -5290 0
-5279 -5291 0
-5280 -5292 0
-5277 -5465 0
-5278 -5466 0
-5279 -5467 0
-5280 -5468 0
-5277 -5665 0
-5278 -5666 0
-5279 -5667 0
-5280 -5668 0
-5277 -5757 0
-5278 -5758 0
-5279 -5759 0
-5280 -5760 0
-5277 -5813 0
-5278 -5814 0
-5279 -5815 0
-5280 -5816 0
-5281 -5733 0
-5282 -5734 0
-5283 -5735 0
-5284 -5736 0
-5281 -5953 0
-5282 -5954 0
-5283 -5955 0
-5284 -5956 0
-5285 -5289 0
-5286 -5290 0
-5287 -5291 0
-5288 -5292 0
-5285 -5305 0
-5286 -5306 0
-5287 -5307 0
-5288 -5308 0
-5285 -5553 0
-5286 -5554 0
-5287 -5555 0
-5288 -5556 0
-5285 -5769 0
-5286 -5770 0
-5287 -5771 0
-5288 -5772 0
-5289 -5305 0
-5290 -5306 0
-5291 -5307 0
-5292 -5308 0
-5289 -5385 0
-5290 -5386 0
-5291 -5387 0
-5292 -5388 0
-5289 -5517 0
-5290 -5518 0
-5291 -5519 0
-5292 -5520 0
-5289 -5669 0
-5290 -5670 0
-5291 -5671 0
-5292 -5672 0
-5289 -5773 0
-5290 -5774 0
-5291 -5775 0
-5292 -5776 0
-5289 -5833 0
-5290 -5834 0
-5291 -5835 0
-5292 -5836 0
-5289 -5961 0
-5290 -5962 0
-5291 -5963 0
-5292 -5964 0
-5293 -5297 0
-5294 -5298 0
-5295 -5299 0
-5296 -5300 0
-5293 -5301 0
-5294 -5302 0
-5295 -5303 0
-5296 -5304 0
-5293 -5833 0
-5294 -5834 0
-5295 -5835 0
-5296 -5836 0
-5301 -5305 0
-5302 -5306 0
-5303 -5307 0
-5304 -5308 0
-5301 -5537 0
-5302 -5538 0
-5303 -5539 0
-5304 -5540 0
-5301 -5849 0
-5302 -5850 0
-5303 -5851 0
-5304 -5852 0
-5305 -5561 0
-5306 -5562 0
-5307 -5563 0
-5308 -5564 0
-5305 -5765 0
-5306 -5766 0
-5307 -5767 0
-5308 -5768 0
-5309 -5313 0
-5310 -5314 0
-5311 -5315 0
-5312 -5316 0
-5309 -5509 0
-5310 -5510 0
-5311 -5511 0
-5312 -5512 0
-5309 -5861 0
-5310 -5862 0
-5311 -5863 0
-5312 -5864 0
-5309 -5961 0
-5310 -5962 0
-5311 -5963 0
-5312 -5964 0
-5313 -5513 0
-5314 -5514 0
-5315 -5515 0
-5316 -5516 0
-5313 -5865 0
-5314 -5866 0
-5315 -5867 0
-5316 -5868 0
-5313 -5961 0
-5314 -5962 0
-5315 -5963 0
-5316 -5964 0
-5317 -5529 0
-5318 -5530 0
-5319 -5531 0
-5320 -5532 0
-5317 -5873 0
-5318 -5874 0
-5319 -5875 0
-5320 -5876 0
-5321 -5325 0
-5322 -5326 0
-5323 -5327 0
-5324 -5328 0
-5321 -5329 0
-5322 -5330 0
-5323 -5331 0
-5324 -5332 0
-5321 -5333 0
-5322 -5334 0
-5323 -5335 0
-5324 -5336 0
-5321 -5401 0
-5322 -5402 0
-5323 -5403 0
-5324 -5404 0
-5321 -5497 0
-5322 -5498 0
-5323 -5499 0
-5324 -5500 0
-5321 -5709 0
-5322 -5710 0
-5323 -5711 0
-5324 -5712 0
-5321 -5965 0
-5322 -5966 0
-5323 -5967 0
-5324 -5968 0
-5325 -5333 0
-5326 -5334 0
-5327 -5335 0
-5328 -5336 0
-5325 -5405 0
-5326 -5406 0
-5327 -5407 0
-5328 -5408 0
-5325 -5505 0
-5326 -5506 0
-5327 -5507 0
-5328 -5508 0
-5325 -5589 0
-5326 -5590 0
-5327 -5591 0
-5328 -5592 0
-5325 -5793 0
-5326 -5794 0
-5327 -5795 0
-5328 -5796 0
-5325 -5969 0
-5326 -5970 0
-5327 -5971 0
-5328 -5972 0
-5329 -5409 0
-5330 -5410 0
-5331 -5411 0
-5332 -5412 0
-5329 -5713 0
-5330 -5714 0
-5331 -5715 0
-5332 -5716 0
-5329 -5965 0
-5330 -5966 0
-5331 -5967 0
-5332 -5968 0
-5333 -5417 0
-5334 -5418 0
-5335 -5419 0
-5336 -5420 0
-5333 -5533 0
-5334 -5534 0
-5335 -5535 0
-5336 -5536 0
-5337 -5341 0
-5338 -5342 0
-5339 -5343 0
-5340 -5344 0
-5337 -5373 0
-5338 -5374 0
-5339 -5375 0
-5340 -5376 0
-5337 -5377 0
-5338 -5378 0
-5339 -5379 0
-5340 -5380 0
-5337 -5629 0
-5338 -5630 0
-5339 -5631 0
-5340 -5632 0
-5337 -5693 0
-5338 -5694 0
-5339 -5695 0
-5340 -5696 0
-5337 -5973 0
-5338 -5974 0
-5339 -5975 0
-5340 -5976 0
-5341 -5345 0
-5342 -5346 0
-5343 -5347 0
-5344 -5348 0
-5341 -5397 0
-5342 -5398 0
-5343 -5399 0
-5344 -5400 0
-5341 -5549 0
-5342 -5550 0
-5343 -5551 0
-5344 -5552 0
-5341 -5717 0
-5342 -5718 0
-5343 -5719 0
-5344 -5720 0
-5341 -5785 0
-5342 -5786 0
-5343 -5787 0
-5344 -5788 0
-5341 -5973 0
-5342 -5974 0
-5343 -5975 0
-5344 -5976 0
-5345 -5561 0
-5346 -5562 0
-5347 -5563 0
-5348 -5564 0
-5345 -5793 0
-5346 -5794 0
-5347 -5795 0
-5348 -5796 0
-5345 -5945 0
-5346 -5946 0
-5347 -5947 0
-5348 -5948 0
-5349 -5353 0
-5350 -5354 0
-5351 -5355 0
-5352 -5356 0
-5349 -5357 0
-5350 -5358 0
-5351 -5359 0
-5352 -5360 0
-5349 -5373 0
-5350 -5374 0
-5351 -5375 0
-5352 -5376 0
-5349 -5881 0
-5350 -5882 0
-5351 -5883 0
-5352 -5884 0
-5353 -5361 0
-5354 -5362 0
-5355 -5363 0
-5356 -5364 0
-5353 -5381 0
-5354 -5382 0
-5355 -5383 0
-5356 -5384 0
-5353 -5585 0
-5354 -5586 0
-5355 -5587 0
-5356 -5588 0
-5353 -5821 0
-5354 -5822 0
-5355 -5823 0
-5356 -5824 0
-5357 -5361 0
-5358 -5362 0
-5359 -5363 0
-5360 -5364 0
-5357 -5365 0
-5358 -5366 0
-5359 -5367 0
-5360 -5368 0
-5357 -5389 0
-5358 -5390 0
-5359 -5391 0
-5360 -5392 0
-5357 -5441 0
-5358 -5442 0
-5359 -5443 0
-5360 -5444 0
-5357 -5825 0
-5358 -5826 0
-5359 -5827 0
-5360 -5828 0
-5361 -5369 0
-5362 -5370 0
-5363 -5371 0
-5364 -5372 0
-5361 -5393 0
-5362 -5394 0
-5363 -5395 0
-5364 -5396 0
-5361 -5441 0
-5362 -5442 0
-5363 -5443 0
-5364 -5444 0
-5361 -5705 0
-5362 -5706 0
-5363 -5707 0
-5364 -5708 0
-5361 -5833 0
-5362 -5834 0
-5363 -5835 0
-5364 -5836 0
-5361 -5969 0
-5362 -5970 0
-5363 -5971 0
-5364 -5972 0
-5365 -5369 0
-5366 -5370 0
-5367 -5371 0
-5368 -5372 0
-5365 -5449 0
-5366 -5450 0
-5367 -5451 0
-5368 -5452 0
-5365 -5529 0
-5366 -5530 0
-5367 -5531 0
-5368 -5532 0
-5369 -5449 0
-5370 -5450 0
-5371 -5451 0
-5372 -5452 0
-5369 -5541 0
-5370 -5542 0
-5371 -5543 0
-5372 -5544 0
-5369 -5713 0
-5370 -5714 0
-5371 -5715 0
-5372 -5716 0
-5369 -5845 0
-5370 -5846 0
-5371 -5847 0
-5372 -5848 0
-5369 -5969 0
-5370 -5970 0
-5371 -5971 0
-5372 -5972 0
-5373 -5377 0
-5374 -5378 0
-5375 -5379 0
-5376 -5380 0
-5373 -5381 0
-5374 -5382 0
-5375 -5383 0
-5376 -5384 0
-5373 -5389 0
-5374 -5390 0
-5375 -5391 0
-5376 -5392 0
-5373 -5397 0
-5374 -5398 0
-5375 -5399 0
-5376 -5400 0
-5373 -5621 0
-5374 -5622 0
-5375 -5623 0
-5376 -5624 0
-5373 -5985 0
-5374 -5986 0
-5375 -5987 0
-5376 -5988 0
-5377 -5385 0
-5378 -5386 0
-5379 -5387 0
-5380 -5388 0
-5377 -5825 0
-5378 -5826 0
-5379 -5827 0
-5380 -5828 0
-5377 -5989 0
-5378 -5990 0
-5379 -5991 0
-5380 -5992 0
-5381 -5385 0
-5382 -5386 0
-5383 -5387 0
-5384 -5388 0
-5381 -5393 0
-5382 -5394 0
-5383 -5395 0
-5384 -5396 0
-5381 -5465 0
-5382 -5466 0
-5383 -5467 0
-5384 -5468 0
-5381 -5593 0
-5382 -5594 0
-5383 -5595 0
-5384 -5596 0
-5381 -5829 0
-5382 -5830 0
-5383 -5831 0
-5384 -5832 0
-5385 -5833 0
-5386 -5834 0
-5387 -5835 0
-5388 -5836 0
-5389 -5393 0
-5390 -5394 0
-5391 -5395 0
-5392 -5396 0
-5397 -5461 0
-5398 -5462 0
-5399 -5463 0
-5400 -5464 0
-5397 -5601 0
-5398 -5602 0
-5399 -5603 0
-5400 -5604 0
-5397 -5761 0
-5398 -5762 0
-5399 -5763 0
-5400 -5764 0
-5397 -5985 0
-5398 -5986 0
-5399 -5987 0
-5400 -5988 0
-5401 -5405 0
-5402 -5406 0
-5403 -5407 0
-5404 -5408 0
-5401 -5409 0
-5402 -5410 0
-5403 -5411 0
-5404 -5412 0
-5401 -5417 0
-5402 -5418 0
-5403 -5419 0
-5404 -5420 0
-5401 -5421 0
-5402 -5422 0
-5403 -5423 0
-5404 -5424 0
-5401 -5425 0
-5402 -5426 0
-5403 -5427 0
-5404 -5428 0
-5401 -5973 0
-5402 -5974 0
-5403 -5975 0
-5404 -5976 0
-5405 -5413 0
-5406 -5414 0
-5407 -5415 0
-5408 -5416 0
-5405 -5417 0
-5406 -5418 0
-5407 -5419 0
-5408 -5420 0
-5405 -5977 0
-5406 -5978 0
-5407 -5979 0
-5408 -5980 0
-5409 -5413 0
-5410 -5414 0
-5411 -5415 0
-5412 -5416 0
-5409 -5429 0
-5410 -5430 0
-5411 -5431 0
-5412 -5432 0
-5409 -5433 0
-5410 -5434 0
-5411 -5435 0
-5412 -5436 0
-5409 -5973 0
-5410 -5974 0
-5411 -5975 0
-5412 -5976 0
-5413 -5477 0
-5414 -5478 0
-5415 -5479 0
-5416 -5480 0
-5413 -5977 0
-5414 -5978 0
-5415 -5979 0
-5416 -5980 0
-5417 -5893 0
-5418 -5894 0
-5419 -5895 0
-5420 -5896 0
-5417 -5981 0
-5418 -5982 0
-5419 -5983 0
-5420 -5984 0
-5421 -5425 0
-5422 -5426 0
-5423 -5427 0
-5424 -5428 0
-5421 -5429 0
-5422 -5430 0
-5423 -5431 0
-5424 -5432 0
-5421 -5985 0
-5422 -5986 0
-5423 -5987 0
-5424 -5988 0
-5425 -5433 0
-5426 -5434 0
-5427 -5435 0
-5428 -5436 0
-5425 -5597 0
-5426 -5598 0
-5427 -5599 0
-5428 -5600 0
-5425 -5665 0
-5426 -5666 0
-5427 -5667 0
-5428 -5668 0
-5425 -5989 0
-5426 -5990 0
-5427 -5991 0
-5428 -5992 0
-5429 -5433 0
-5430 -5434 0
-5431 -5435 0
-5432 -5436 0
-5429 -5497 0
-5430 -5498 0
-5431 -5499 0
-5432 -5500 0
-5429 -5985 0
-5430 -5986 0
-5431 -5987 0
-5432 -5988 0
-5433 -5437 0
-5434 -5438 0
-5435 -5439 0
-5436 -5440 0
-5433 -5601 0
-5434 -5602 0
-5435 -5603 0
-5436 -5604 0
-5433 -5989 0
-5434 -5990 0
-5435 -5991 0
-5436 -5992 0
-5437 -5605 0
-5438 -5606 0
-5439 -5607 0
-5440 -5608 0
-5437 -5745 0
-5438 -5746 0
-5439 -5747 0
-5440 -5748 0
-5437 -5873 0
-5438 -5874 0
-5439 -5875 0
-5440 -5876 0
-5441 -5449 0
-5442 -5450 0
-5443 -5451 0
-5444 -5452 0
-5441 -5685 0
-5442 -5686 0
-5443 -5687 0
-5444 -5688 0
-5441 -5757 0
-5442 -5758 0
-5443 -5759 0
-5444 -5760 0
-5441 -5877 0
-5442 -5878 0
-5443 -5879 0
-5444 -5880 0
-5441 -5977 0
-5442 -5978 0
-5443 -5979 0
-5444 -5980 0
-5445 -5449 0
-5446 -5450 0
-5447 -5451 0
-5448 -5452 0
-5445 -5537 0
-5446 -5538 0
-5447 -5539 0
-5448 -5540 0
-5445 -5625 0
-5446 -5626 0
-5447 -5627 0
-5448 -5628 0
-5445 -5677 0
-5446 -5678 0
-5447 -5679 0
-5448 -5680 0
-5445 -5861 0
-5446 -5862 0
-5447 -5863 0
-5448 -5864 0
-5445 -5973 0
-5446 -5974 0
-5447 -5975 0
-5448 -5976 0
-5449 -5453 0
-5450 -5454 0
-5451 -5455 0
-5452 -5456 0
-5449 -5457 0
-5450 -5458 0
-5451 -5459 0
-5452 -5460 0
-5449 -5521 0
-5450 -5522 0
-5451 -5523 0
-5452 -5524 0
-5449 -5581 0
-5450 -5582 0
-5451 -5583 0
-5452 -5584 0
-5449 -5633 0
-5450 -5634 0
-5451 -5635 0
-5452 -5636 0
-5449 -5913 0
-5450 -5914 0
-5451 -5915 0
-5452 -5916 0
-5449 -5977 0
-5450 -5978 0
-5451 -5979 0
-5452 -5980 0
-5453 -5637 0
-5454 -5638 0
-5455 -5639 0
-5456 -5640 0
-5453 -5689 0
-5454 -5690 0
-5455 -5691 0
-5456 -5692 0
-5457 -5545 0
-5458 -5546 0
-5459 -5547 0
-5460 -5548 0
-5457 -5773 0
-5458 -5774 0
-5459 -5775 0
-5460 -5776 0
-5461 -5465 0
-5462 -5466 0
-5463 -5467 0
-5464 -5468 0
-5461 -5469 0
-5462 -5470 0
-5463 -5471 0
-5464 -5472 0
-5461 -5821 0
-5462 -5822 0
-5463 -5823 0
-5464 -5824 0
-5465 -5785 0
-5466 -5786 0
-5467 -5787 0
-5468 -5788 0
-5465 -5993 0
-5466 -5994 0
-5467 -5995 0
-5468 -5996 0
-5469 -5473 0
-5470 -5474 0
-5471 -5475 0
-5472 -5476 0
-5469 -5549 0
-5470 -5550 0
-5471 -5551 0
-5472 -5552 0
-5469 -5553 0
-5470 -5554 0
-5471 -5555 0
-5472 -5556 0
-5469 -5833 0
-5470 -5834 0
-5471 -5835 0
-5472 -5836 0
-5473 -5561 0
-5474 -5562 0
-5475 -5563 0
-5476 -5564 0
-5473 -5569 0
-5474 -5570 0
-5475 -5571 0
-5476 -5572 0
-5473 -5845 0
-5474 -5846 0
-5475 -5847 0
-5476 -5848 0
-5477 -5505 0
-5478 -5506 0
-5479 -5507 0
-5480 -5508 0
-5481 -5557 0
-5482 -5558 0
-5483 -5559 0
-5484 -5560 0
-5481 -5561 0
-5482 -5562 0
-5483 -5563 0
-5484 -5564 0
-5481 -5889 0
-5482 -5890 0
-5483 -5891 0
-5484 -5892 0
-5481 -5973 0
-5482 -5974 0
-5483 -5975 0
-5484 -5976 0
-5485 -5489 0
-5486 -5490 0
-5487 -5491 0
-5488 -5492 0
-5485 -5501 0
-5486 -5502 0
-5487 -5503 0
-5488 -5504 0
-5485 -5509 0
-5486 -5510 0
-5487 -5511 0
-5488 -5512 0
-5489 -5505 0
-5490 -5506 0
-5491 -5507 0
-5492 -5508 0
-5489 -5509 0
-5490 -5510 0
-5491 -5511 0
-5492 -5512 0
-5489 -5993 0
-5490 -5994 0
-5491 -5995 0
-5492 -5996 0
-5493 -5497 0
-5494 -5498 0
-5495 -5499 0
-5496 -5500 0
-5493 -5501 0
-5494 -5502 0
-5495 -5503 0
-5496 -5504 0
-5493 -5529 0
-5494 -5530 0
-5495 -5531 0
-5496 -5532 0
-5493 -5705 0
-5494 -5706 0
-5495 -5707 0
-5496 -5708 0
-5493 -5973 0
-5494 -5974 0
-5495 -5975 0
-5496 -5976 0
-5497 -5505 0
-5498 -5506 0
-5499 -5507 0
-5500 -5508 0
-5497 -5533 0
-5498 -5534 0
-5499 -5535 0
-5500 -5536 0
-5497 -5861 0
-5498 -5862 0
-5499 -5863 0
-5500 -5864 0
-5501 -5505 0
-5502 -5506 0
-5503 -5507 0
-5504 -5508 0
-5501 -5513 0
-5502 -5514 0
-5503 -5515 0
-5504 -5516 0
-5501 -5529 0
-5502 -5530 0
-5503 -5531 0
-5504 -5532 0
-5501 -5585 0
-5502 -5586 0
-5503 -5587 0
-5504 -5588 0
-5501 -5901 0
-5502 -5902 0
-5503 -5903 0
-5504 -5904 0
-5501 -5977 0
-5502 -5978 0
-5503 -5979 0
-5504 -5980 0
-5505 -5513 0
-5506 -5514 0
-5507 -5515 0
-5508 -5516 0
-5505 -5533 0
-5506 -5534 0
-5507 -5535 0
-5508 -5536 0
-5505 -5733 0
-5506 -5734 0
-5507 -5735 0
-5508 -5736 0
-5505 -5905 0
-5506 -5906 0
-5507 -5907 0
-5508 -5908 0
-5505 -5993 0
-5506 -5994 0
-5507 -5995 0
-5508 -5996 0
-5505 -5997 0
-5506 -5998 0
-5507 -5999 0
-5508 -6000 0
-5509 -5513 0
-5510 -5514 0
-5511 -5515 0
-5512 -5516 0
-5513 -5517 0
-5514 -5518 0
-5515 -5519 0
-5516 -5520 0
-5513 -5557 0
-5514 -5558 0
-5515 -5559 0
-5516 -5560 0
-5513 -5593 0
-5514 -5594 0
-5515 -5595 0
-5516 -5596 0
-5513 -5741 0
-5514 -5742 0
-5515 -5743 0
-5516 -5744 0
-5513 -5937 0
-5514 -5938 0
-5515 -5939 0
-5516 -5940 0
-5517 -5561 0
-5518 -5562 0
-5519 -5563 0
-5520 -5564 0
-5517 -5669 0
-5518 -5670 0
-5519 -5671 0
-5520 -5672 0
-5517 -5941 0
-5518 -5942 0
-5519 -5943 0
-5520 -5944 0
-5521 -5545 0
-5522 -5546 0
-5523 -5547 0
-5524 -5548 0
-5521 -5573 0
-5522 -5574 0
-5523 -5575 0
-5524 -5576 0
-5521 -5673 0
-5522 -5674 0
-5523 -5675 0
-5524 -5676 0
-5525 -5545 0
-5526 -5546 0
-5527 -5547 0
-5528 -5548 0
-5525 -5553 0
-5526 -5554 0
-5527 -5555 0
-5528 -5556 0
-5525 -5817 0
-5526 -5818 0
-5527 -5819 0
-5528 -5820 0
-5529 -5533 0
-5530 -5534 0
-5531 -5535 0
-5532 -5536 0
-5529 -5537 0
-5530 -5538 0
-5531 -5539 0
-5532 -5540 0
-5529 -5541 0
-5530 -5542 0
-5531 -5543 0
-5532 -5544 0
-5529 -5557 0
-5530 -5558 0
-5531 -5559 0
-5532 -5560 0
-5529 -5581 0
-5530 -5582 0
-5531 -5583 0
-5532 -5584 0
-5529 -5609 0
-5530 -5610 0
-5531 -5611 0
-5532 -5612 0
-5529 -5949 0
-5530 -5950 0
-5531 -5951 0
-5532 -5952 0
-5529 -5981 0
-5530 -5982 0
-5531 -5983 0
-5532 -5984 0
-5533 -5557 0
-5534 -5558 0
-5535 -5559 0
-5536 -5560 0
-5533 -5753 0
-5534 -5754 0
-5535 -5755 0
-5536 -5756 0
-5537 -5545 0
-5538 -5546 0
-5539 -5547 0
-5540 -5548 0
-5537 -5561 0
-5538 -5562 0
-5539 -5563 0
-5540 -5564 0
-5537 -5825 0
-5538 -5826 0
-5539 -5827 0
-5540 -5828 0
-5537 -5953 0
-5538 -5954 0
-5539 -5955 0
-5540 -5956 0
-5541 -5545 0
-5542 -5546 0
-5543 -5547 0
-5544 -5548 0
-5541 -5577 0
-5542 -5578 0
-5543 -5579 0
-5544 -5580 0
-5541 -5581 0
-5542 -5582 0
-5543 -5583 0
-5544 -5584 0
-5541 -5685 0
-5542 -5686 0
-5543 -5687 0
-5544 -5688 0
-5541 -5713 0
-5542 -5714 0
-5543 -5715 0
-5544 -5716 0
-5541 -5829 0
-5542 -5830 0
-5543 -5831 0
-5544 -5832 0
-5541 -5925 0
-5542 -5926 0
-5543 -5927 0
-5544 -5928 0
-5545 -5565 0
-5546 -5566 0
-5547 -5567 0
-5548 -5568 0
-5545 -5569 0
-5546 -5570 0
-5547 -5571 0
-5548 -5572 0
-5545 -5577 0
-5546 -5578 0
-5547 -5579 0
-5548 -5580 0
-5545 -5689 0
-5546 -5690 0
-5547 -5691 0
-5548 -5692 0
-5545 -5697 0
-5546 -5698 0
-5547 -5699 0
-5548 -5700 0
-5545 -5833 0
-5546 -5834 0
-5547 -5835 0
-5548 -5836 0
-5549 -5553 0
-5550 -5554 0
-5551 -5555 0
-5552 -5556 0
-5549 -5561 0
-5550 -5562 0
-5551 -5563 0
-5552 -5564 0
-5549 -5877 0
-5550 -5878 0
-5551 -5879 0
-5552 -5880 0
-5553 -5569 0
-5554 -5570 0
-5555 -5571 0
-5556 -5572 0
-5553 -5921 0
-5554 -5922 0
-5555 -5923 0
-5556 -5924 0
-5557 -5561 0
-5558 -5562 0
-5559 -5563 0
-5560 -5564 0
-5557 -5629 0
-5558 -5630 0
-5559 -5631 0
-5560 -5632 0
-5557 -5769 0
-5558 -5770 0
-5559 -5771 0
-5560 -5772 0
-5557 -5985 0
-5558 -5986 0
-5559 -5987 0
-5560 -5988 0
-5561 -5569 0
-5562 -5570 0
-5563 -5571 0
-5564 -5572 0
-5561 -5729 0
-5562 -5730 0
-5563 -5731 0
-5564 -5732 0
-5561 -5905 0
-5562 -5906 0
-5563 -5907 0
-5564 -5908 0
-5561 -5989 0
-5562 -5990 0
-5563 -5991 0
-5564 -5992 0
-5565 -5569 0
-5566 -5570 0
-5567 -5571 0
-5568 -5572 0
-5565 -5853 0
-5566 -5854 0
-5567 -5855 0
-5568 -5856 0
-5565 -5909 0
-5566 -5910 0
-5567 -5911 0
-5568 -5912 0
-5569 -5929 0
-5570 -5930 0
-5571 -5931 0
-5572 -5932 0
-5573 -5577 0
-5574 -5578 0
-5575 -5579 0
-5576 -5580 0
-5573 -5861 0
-5574 -5862 0
-5575 -5863 0
-5576 -5864 0
-5573 -5993 0
-5574 -5994 0
-5575 -5995 0
-5576 -5996 0
-5577 -5737 0
-5578 -5738 0
-5579 -5739 0
-5580 -5740 0
-5577 -5869 0
-5578 -5870 0
-5579 -5871 0
-5580 -5872 0
-5581 -5673 0
-5582 -5674 0
-5583 -5675 0
-5584 -5676 0
-5585 -5589 0
-5586 -5590 0
-5587 -5591 0
-5588 -5592 0
-5585 -5593 0
-5586 -5594 0
-5587 -5595 0
-5588 -5596 0
-5585 -5609 0
-5586 -5610 0
-5587 -5611 0
-5588 -5612 0
-5585 -5613 0
-5586 -5614 0
-5587 -5615 0
-5588 -5616 0
-5585 -5933 0
-5586 -5934 0
-5587 -5935 0
-5588 -5936 0
-5589 -5605 0
-5590 -5606 0
-5591 -5607 0
-5592 -5608 0
-5589 -5733 0
-5590 -5734 0
-5591 -5735 0
-5592 -5736 0
-5589 -5881 0
-5590 -5882 0
-5591 -5883 0
-5592 -5884 0
-5589 -5945 0
-5590 -5946 0
-5591 -5947 0
-5592 -5948 0
-5593 -5605 0
-5594 -5606 0
-5595 -5607 0
-5596 -5608 0
-5593 -5629 0
-5594 -5630 0
-5595 -5631 0
-5596 -5632 0
-5593 -5637 0
-5594 -5638 0
-5595 -5639 0
-5596 -5640 0
-5593 -5805 0
-5594 -5806 0
-5595 -5807 0
-5596 -5808 0
-5593 -5937 0
-5594 -5938 0
-5595 -5939 0
-5596 -5940 0
-5597 -5601 0
-5598 -5602 0
-5599 -5603 0
-5600 -5604 0
-5597 -5785 0
-5598 -5786 0
-5599 -5787 0
-5600 -5788 0
-5601 -5605 0
-5602 -5606 0
-5603 -5607 0
-5604 -5608 0
-5601 -5669 0
-5602 -5670 0
-5603 -5671 0
-5604 -5672 0
-5601 -5789 0
-5602 -5790 0
-5603 -5791 0
-5604 -5792 0
-5601 -5901 0
-5602 -5902 0
-5603 -5903 0
-5604 -5904 0
-5605 -5645 0
-5606 -5646 0
-5607 -5647 0
-5608 -5648 0
-5605 -5669 0
-5606 -5670 0
-5607 -5671 0
-5608 -5672 0
-5605 -5745 0
-5606 -5746 0
-5607 -5747 0
-5608 -5748 0
-5605 -5909 0
-5606 -5910 0
-5607 -5911 0
-5608 -5912 0
-5605 -5949 0
-5606 -5950 0
-5607 -5951 0
-5608 -5952 0
-5605 -5965 0
-5606 -5966 0
-5607 -5967 0
-5608 -5968 0
-5609 -5613 0
-5610 -5614 0
-5611 -5615 0
-5612 -5616 0
-5609 -5617 0
-5610 -5618 0
-5611 -5619 0
-5612 -5620 0
-5609 -5625 0
-5610 -5626 0
-5611 -5627 0
-5612 -5628 0
-5609 -5629 0
-5610 -5630 0
-5611 -5631 0
-5612 -5632 0
-5609 -5649 0
-5610 -5650 0
-5611 -5651 0
-5612 -5652 0
-5609 -5673 0
-5610 -5674 0
-5611 -5675 0
-5612 -5676 0
-5609 -5749 0
-5610 -5750 0
-5611 -5751 0
-5612 -5752 0
-5609 -5965 0
-5610 -5966 0
-5611 -5967 0
-5612 -5968 0
-5613 -5633 0
-5614 -5634 0
-5615 -5635 0
-5616 -5636 0
-5613 -5637 0
-5614 -5638 0
-5615 -5639 0
-5616 -5640 0
-5613 -5969 0
-5614 -5970 0
-5615 -5971 0
-5616 -5972 0
-5617 -5653 0
-5618 -5654 0
-5619 -5655 0
-5620 -5656 0
-5617 -5677 0
-5618 -5678 0
-5619 -5679 0
-5620 -5680 0
-5621 -5637 0
-5622 -5638 0
-5623 -5639 0
-5624 -5640 0
-5621 -5817 0
-5622 -5818 0
-5623 -5819 0
-5624 -5820 0
-5625 -5629 0
-5626 -5630 0
-5627 -5631 0
-5628 -5632 0
-5625 -5633 0
-5626 -5634 0
-5627 -5635 0
-5628 -5636 0
-5625 -5657 0
-5626 -5658 0
-5627 -5659 0
-5628 -5660 0
-5625 -5801 0
-5626 -5802 0
-5627 -5803 0
-5628 -5804 0
-5629 -5637 0
-5630 -5638 0
-5631 -5639 0
-5632 -5640 0
-5629 -5693 0
-5630 -5694 0
-5631 -5695 0
-5632 -5696 0
-5633 -5637 0
-5634 -5638 0
-5635 -5639 0
-5636 -5640 0
-5637 -5641 0
-5638 -5642 0
-5639 -5643 0
-5640 -5644 0
-5637 -5645 0
-5638 -5646 0
-5639 -5647 0
-5640 -5648 0
-5637 -5833 0
-5638 -5834 0
-5639 -5835 0
-5640 -5836 0
-5637 -5889 0
-5638 -5890 0
-5639 -5891 0
-5640 -5892 0
-5637 -5993 0
-5638 -5994 0
-5639 -5995 0
-5640 -5996 0
-5641 -5721 0
-5642 -5722 0
-5643 -5723 0
-5644 -5724 0
-5641 -5841 0
-5642 -5842 0
-5643 -5843 0
-5644 -5844 0
-5645 -5701 0
-5646 -5702 0
-5647 -5703 0
-5648 -5704 0
-5645 -5777 0
-5646 -5778 0
-5647 -5779 0
-5648 -5780 0
-5645 -5797 0
-5646 -5798 0
-5647 -5799 0
-5648 -5800 0
-5645 -5849 0
-5646 -5850 0
-5647 -5851 0
-5648 -5852 0
-5645 -5893 0
-5646 -5894 0
-5647 -5895 0
-5648 -5896 0
-5649 -5653 0
-5650 -5654 0
-5651 -5655 0
-5652 -5656 0
-5649 -5657 0
-5650 -5658 0
-5651 -5659 0
-5652 -5660 0
-5649 -5681 0
-5650 -5682 0
-5651 -5683 0
-5652 -5684 0
-5649 -5813 0
-5650 -5814 0
-5651 -5815 0
-5652 -5816 0
-5653 -5661 0
-5654 -5662 0
-5655 -5663 0
-5656 -5664 0
-5653 -5689 0
-5654 -5690 0
-5655 -5691 0
-5656 -5692 0
-5653 -5753 0
-5654 -5754 0
-5655 -5755 0
-5656 -5756 0
-5657 -5661 0
-5658 -5662 0
-5659 -5663 0
-5660 -5664 0
-5657 -5833 0
-5658 -5834 0
-5659 -5835 0
-5660 -5836 0
-5661 -5769 0
-5662 -5770 0
-5663 -5771 0
-5664 -5772 0
-5661 -5957 0
-5662 -5958 0
-5663 -5959 0
-5664 -5960 0
-5665 -5669 0
-5666 -5670 0
-5667 -5671 0
-5668 -5672 0
-5665 -5785 0
-5666 -5786 0
-5667 -5787 0
-5668 -5788 0
-5669 -5973 0
-5670 -5974 0
-5671 -5975 0
-5672 -5976 0
-5673 -5677 0
-5674 -5678 0
-5675 -5679 0
-5676 -5680 0
-5673 -5681 0
-5674 -5682 0
-5675 -5683 0
-5676 -5684 0
-5677 -5685 0
-5678 -5686 0
-5679 -5687 0
-5680 -5688 0
-5677 -5689 0
-5678 -5690 0
-5679 -5691 0
-5680 -5692 0
-5677 -5801 0
-5678 -5802 0
-5679 -5803 0
-5680 -5804 0
-5681 -5689 0
-5682 -5690 0
-5683 -5691 0
-5684 -5692 0
-5681 -5821 0
-5682 -5822 0
-5683 -5823 0
-5684 -5824 0
-5685 -5689 0
-5686 -5690 0
-5687 -5691 0
-5688 -5692 0
-5685 -5757 0
-5686 -5758 0
-5687 -5759 0
-5688 -5760 0
-5685 -5829 0
-5686 -5830 0
-5687 -5831 0
-5688 -5832 0
-5685 -5865 0
-5686 -5866 0
-5687 -5867 0
-5688 -5868 0
-5689 -5833 0
-5690 -5834 0
-5691 -5835 0
-5692 -5836 0
-5693 -5701 0
-5694 -5702 0
-5695 -5703 0
-5696 -5704 0
-5693 -5721 0
-5694 -5722 0
-5695 -5723 0
-5696 -5724 0
-5697 -5701 0
-5698 -5702 0
-5699 -5703 0
-5700 -5704 0
-5697 -5717 0
-5698 -5718 0
-5699 -5719 0
-5700 -5720 0
-5697 -5833 0
-5698 -5834 0
-5699 -5835 0
-5700 -5836 0
-5701 -5721 0
-5702 -5722 0
-5703 -5723 0
-5704 -5724 0
-5701 -5837 0
-5702 -5838 0
-5703 -5839 0
-5704 -5840 0
-5705 -5713 0
-5706 -5714 0
-5707 -5715 0
-5708 -5716 0
-5705 -5733 0
-5706 -5734 0
-5707 -5735 0
-5708 -5736 0
-5705 -5973 0
-5706 -5974 0
-5707 -5975 0
-5708 -5976 0
-5709 -5713 0
-5710 -5714 0
-5711 -5715 0
-5712 -5716 0
-5709 -5861 0
-5710 -5862 0
-5711 -5863 0
-5712 -5864 0
-5713 -5737 0
-5714 -5738 0
-5715 -5739 0
-5716 -5740 0
-5713 -5865 0
-5714 -5866 0
-5715 -5867 0
-5716 -5868 0
-5713 -5937 0
-5714 -5938 0
-5715 -5939 0
-5716 -5940 0
-5717 -5721 0
-5718 -5722 0
-5719 -5723 0
-5720 -5724 0
-5717 -5725 0
-5718 -5726 0
-5719 -5727 0
-5720 -5728 0
-5717 -5761 0
-5718 -5762 0
-5719 -5763 0
-5720 -5764 0
-5717 -5877 0
-5718 -5878 0
-5719 -5879 0
-5720 -5880 0
-5717 -5925 0
-5718 -5926 0
-5719 -5927 0
-5720 -5928 0
-5721 -5729 0
-5722 -5730 0
-5723 -5731 0
-5724 -5732 0
-5721 -5765 0
-5722 -5766 0
-5723 -5767 0
-5724 -5768 0
-5721 -5981 0
-5722 -5982 0
-5723 -5983 0
-5724 -5984 0
-5725 -5729 0
-5726 -5730 0
-5727 -5731 0
-5728 -5732 0
-5725 -5773 0
-5726 -5774 0
-5727 -5775 0
-5728 -5776 0
-5725 -5929 0
-5726 -5930 0
-5727 -5931 0
-5728 -5932 0
-5725 -5977 0
-5726 -5978 0
-5727 -5979 0
-5728 -5980 0
-5729 -5777 0
-5730 -5778 0
-5731 -5779 0
-5732 -5780 0
-5733 -5737 0
-5734 -5738 0
-5735 -5739 0
-5736 -5740 0
-5733 -5741 0
-5734 -5742 0
-5735 -5743 0
-5736 -5744 0
-5733 -5745 0
-5734 -5746 0
-5735 -5747 0
-5736 -5748 0
-5733 -5753 0
-5734 -5754 0
-5735 -5755 0
-5736 -5756 0
-5733 -5757 0
-5734 -5758 0
-5735 -5759 0
-5736 -5760 0
-5733 -5881 0
-5734 -5882 0
-5735 -5883 0
-5736 -5884 0
-5733 -5989 0
-5734 -5990 0
-5735 -5991 0
-5736 -5992 0
-5737 -5869 0
-5738 -5870 0
-5739 -5871 0
-5740 -5872 0
-5737 -5885 0
-5738 -5886 0
-5739 -5887 0
-5740 -5888 0
-5737 -5957 0
-5738 -5958 0
-5739 -5959 0
-5740 -5960 0
-5741 -5745 0
-5742 -5746 0
-5743 -5747 0
-5744 -5748 0
-5741 -5769 0
-5742 -5770 0
-5743 -5771 0
-5744 -5772 0
-5741 -5773 0
-5742 -5774 0
-5743 -5775 0
-5744 -5776 0
-5741 -5805 0
-5742 -5806 0
-5743 -5807 0
-5744 -5808 0
-5745 -5777 0
-5746 -5778 0
-5747 -5779 0
-5748 -5780 0
-5745 -5961 0
-5746 -5962 0
-5747 -5963 0
-5748 -5964 0
-5749 -5753 0
-5750 -5754 0
-5751 -5755 0
-5752 -5756 0
-5749 -6001 0
-5750 -6002 0
-5751 -6003 0
-5752 -6004 0
-5753 -5757 0
-5754 -5758 0
-5755 -5759 0
-5756 -5760 0
-5753 -5769 0
-5754 -5770 0
-5755 -5771 0
-5756 -5772 0
-5757 -5773 0
-5758 -5774 0
-5759 -5775 0
-5760 -5776 0
-5757 -5777 0
-5758 -5778 0
-5759 -5779 0
-5760 -5780 0
-5757 -5813 0
-5758 -5814 0
-5759 -5815 0
-5760 -5816 0
-5761 -5765 0
-5762 -5766 0
-5763 -5767 0
-5764 -5768 0
-5761 -5773 0
-5762 -5774 0
-5763 -5775 0
-5764 -5776 0
-5761 -5821 0
-5762 -5822 0
-5763 -5823 0
-5764 -5824 0
-5761 -5901 0
-5762 -5902 0
-5763 -5903 0
-5764 -5904 0
-5765 -5777 0
-5766 -5778 0
-5767 -5779 0
-5768 -5780 0
-5765 -5905 0
-5766 -5906 0
-5767 -5907 0
-5768 -5908 0
-5769 -5773 0
-5770 -5774 0
-5771 -5775 0
-5772 -5776 0
-5769 -5921 0
-5770 -5922 0
-5771 -5923 0
-5772 -5924 0
-5769 -5985 0
-5770 -5986 0
-5771 -5987 0
-5772 -5988 0
-5773 -5777 0
-5774 -5778 0
-5775 -5779 0
-5776 -5780 0
-5773 -5833 0
-5774 -5834 0
-5775 -5835 0
-5776 -5836 0
-5777 -5837 0
-5778 -5838 0
-5779 -5839 0
-5780 -5840 0
-5781 -5833 0
-5782 -5834 0
-5783 -5835 0
-5784 -5836 0
-5781 -5965 0
-5782 -5966 0
-5783 -5967 0
-5784 -5968 0
-5785 -5789 0
-5786 -5790 0
-5787 -5791 0
-5788 -5792 0
-5785 -5793 0
-5786 -5794 0
-5787 -5795 0
-5788 -5796 0
-5789 -5797 0
-5790 -5798 0
-5791 -5799 0
-5792 -5800 0
-5789 -5977 0
-5790 -5978 0
-5791 -5979 0
-5792 -5980 0
-5793 -5797 0
-5794 -5798 0
-5795 -5799 0
-5796 -5800 0
-5793 -5905 0
-5794 -5906 0
-5795 -5907 0
-5796 -5908 0
-5793 -5945 0
-5794 -5946 0
-5795 -5947 0
-5796 -5948 0
-5797 -5893 0
-5798 -5894 0
-5799 -5895 0
-5800 -5896 0
-5797 -5953 0
-5798 -5954 0
-5799 -5955 0
-5800 -5956 0
-5801 -5829 0
-5802 -5830 0
-5803 -5831 0
-5804 -5832 0
-5801 -5833 0
-5802 -5834 0
-5803 -5835 0
-5804 -5836 0
-5805 -5809 0
-5806 -5810 0
-5807 -5811 0
-5808 -5812 0
-5805 -5833 0
-5806 -5834 0
-5807 -5835 0
-5808 -5836 0
-5809 -5833 0
-5810 -5834 0
-5811 -5835 0
-5812 -5836 0
-5809 -5897 0
-5810 -5898 0
-5811 -5899 0
-5812 -5900 0
-5813 -5833 0
-5814 -5834 0
-5815 -5835 0
-5816 -5836 0
-5813 -5837 0
-5814 -5838 0
-5815 -5839 0
-5816 -5840 0
-5817 -5833 0
-5818 -5834 0
-5819 -5835 0
-5820 -5836 0
-5821 -5833 0
-5822 -5834 0
-5823 -5835 0
-5824 -5836 0
-5821 -5933 0
-5822 -5934 0
-5823 -5935 0
-5824 -5936 0
-5825 -5833 0
-5826 -5834 0
-5827 -5835 0
-5828 -5836 0
-5825 -5877 0
-5826 -5878 0
-5827 -5879 0
-5828 -5880 0
-5829 -5833 0
-5830 -5834 0
-5831 -5835 0
-5832 -5836 0
-5829 -5937 0
-5830 -5938 0
-5831 -5939 0
-5832 -5940 0
-5833 -5837 0
-5834 -5838 0
-5835 -5839 0
-5836 -5840 0
-5833 -5841 0
-5834 -5842 0
-5835 -5843 0
-5836 -5844 0
-5833 -5845 0
-5834 -5846 0
-5835 -5847 0
-5836 -5848 0
-5833 -5849 0
-5834 -5850 0
-5835 -5851 0
-5836 -5852 0
-5833 -5853 0
-5834 -5854 0
-5835 -5855 0
-5836 -5856 0
-5833 -5857 0
-5834 -5858 0
-5835 -5859 0
-5836 -5860 0
-5833 -5877 0
-5834 -5878 0
-5835 -5879 0
-5836 -5880 0
-5833 -5917 0
-5834 -5918 0
-5835 -5919 0
-5836 -5920 0
-5833 -5941 0
-5834 -5942 0
-5835 -5943 0
-5836 -5944 0
-5833 -5973 0
-5834 -5974 0
-5835 -5975 0
-5836 -5976 0
-5833 -5993 0
-5834 -5994 0
-5835 -5995 0
-5836 -5996 0
-5833 -6001 0
-5834 -6002 0
-5835 -6003 0
-5836 -6004 0
-5845 -5925 0
-5846 -5926 0
-5847 -5927 0
-5848 -5928 0
-5849 -5953 0
-5850 -5954 0
-5851 -5955 0
-5852 -5956 0
-5857 -5981 0
-5858 -5982 0
-5859 -5983 0
-5860 -5984 0
-5861 -5865 0
-5862 -5866 0
-5863 -5867 0
-5864 -5868 0
-5861 -5869 0
-5862 -5870 0
-5863 -5871 0
-5864 -5872 0
-5861 -6001 0
-5862 -6002 0
-5863 -6003 0
-5864 -6004 0
-5865 -5873 0
-5866 -5874 0
-5867 -5875 0
-5868 -5876 0
-5865 -5937 0
-5866 -5938 0
-5867 -5939 0
-5868 -5940 0
-5865 -6001 0
-5866 -6002 0
-5867 -6003 0
-5868 -6004 0
-5869 -5873 0
-5870 -5874 0
-5871 -5875 0
-5872 -5876 0
-5869 -5985 0
-5870 -5986 0
-5871 -5987 0
-5872 -5988 0
-5873 -5949 0
-5874 -5950 0
-5875 -5951 0
-5876 -5952 0
-5881 -5885 0
-5882 -5886 0
-5883 -5887 0
-5884 -5888 0
-5881 -5897 0
-5882 -5898 0
-5883 -5899 0
-5884 -5900 0
-5885 -5901 0
-5886 -5902 0
-5887 -5903 0
-5888 -5904 0
-5885 -5909 0
-5886 -5910 0
-5887 -5911 0
-5888 -5912 0
-5885 -5957 0
-5886 -5958 0
-5887 -5959 0
-5888 -5960 0
-5885 -5969 0
-5886 -5970 0
-5887 -5971 0
-5888 -5972 0
-5889 -5893 0
-5890 -5894 0
-5891 -5895 0
-5892 -5896 0
-5889 -5905 0
-5890 -5906 0
-5891 -5907 0
-5892 -5908 0
-5889 -5973 0
-5890 -5974 0
-5891 -5975 0
-5892 -5976 0
-5897 -5909 0
-5898 -5910 0
-5899 -5911 0
-5900 -5912 0
-5897 -5917 0
-5898 -5918 0
-5899 -5919 0
-5900 -5920 0
-5901 -5905 0
-5902 -5906 0
-5903 -5907 0
-5904 -5908 0
-5901 -5909 0
-5902 -5910 0
-5903 -5911 0
-5904 -5912 0
-5901 -5933 0
-5902 -5934 0
-5903 -5935 0
-5904 -5936 0
-5901 -5977 0
-5902 -5978 0
-5903 -5979 0
-5904 -5980 0
-5905 -5989 0
-5906 -5990 0
-5907 -5991 0
-5908 -5992 0
-5909 -5913 0
-5910 -5914 0
-5911 -5915 0
-5912 -5916 0
-5909 -5925 0
-5910 -5926 0
-5911 -5927 0
-5912 -5928 0
-5909 -5961 0
-5910 -5962 0
-5911 -5963 0
-5912 -5964 0
-5913 -5929 0
-5914 -5930 0
-5915 -5931 0
-5916 -5932 0
-5917 -5921 0
-5918 -5922 0
-5919 -5923 0
-5920 -5924 0
-5917 -5925 0
-5918 -5926 0
-5919 -5927 0
-5920 -5928 0
-5917 -5973 0
-5918 -5974 0
-5919 -5975 0
-5920 -5976 0
-5921 -5929 0
-5922 -5930 0
-5923 -5931 0
-5924 -5932 0
-5925 -5929 0
-5926 -5930 0
-5927 -5931 0
-5928 -5932 0
-5933 -5941 0
-5934 -5942 0
-5935 -5943 0
-5936 -5944 0
-5933 -5945 0
-5934 -5946 0
-5935 -5947 0
-5936 -5948 0
-5937 -5941 0
-5938 -5942 0
-5939 -5943 0
-5940 -5944 0
-5937 -5949 0
-5938 -5950 0
-5939 -5951 0
-5940 -5952 0
-5937 -5957 0
-5938 -5958 0
-5939 -5959 0
-5940 -5960 0
-5941 -5953 0
-5942 -5954 0
-5943 -5955 0
-5944 -5956 0
-5941 -5957 0
-5942 -5958 0
-5943 -5959 0
-5944 -5960 0
-5941 -5973 0
-5942 -5974 0
-5943 -5975 0
-5944 -5976 0
-5945 -5953 0
-5946 -5954 0
-5947 -5955 0
-5948 -5956 0
-5945 -5989 0
-5946 -5990 0
-5947 -5991 0
-5948 -5992 0
-5949 -5953 0
-5950 -5954 0
-5951 -5955 0
-5952 -5956 0
-5949 -5965 0
-5950 -5966 0
-5951 -5967 0
-5952 -5968 0
-5957 -5961 0
-5958 -5962 0
-5959 -5963 0
-5960 -5964 0
-5957 -5985 0
-5958 -5986 0
-5959 -5987 0
-5960 -5988 0
-5957 -5997 0
-5958 -5998 0
-5959 -5999 0
-5960 -6000 0
-5961 -6001 0
-5962 -6002 0
-5963 -6003 0
-5964 -6004 0
-5965 -5969 0
-5966 -5970 0
-5967 -5971 0
-5968 -5972 0
-5965 -5973 0
-5966 -5974 0
-5967 -5975 0
-5968 -5976 0
-5969 -5977 0
-5970 -5978 0
-5971 -5979 0
-5972 -5980 0
-5969 -5997 0
-5970 -5998 0
-5971 -5999 0
-5972 -6000 0
-5973 -5977 0
-5974 -5978 0
-5975 -5979 0
-5976 -5980 0
-5973 -5981 0
-5974 -5982 0
-5975 -5983 0
-5976 -5984 0
-5973 -5985 0
-5974 -5986 0
-5975 -5987 0
-5976 -5988 0
-5973 -5989 0
-5974 -5990 0
-5975 -5991 0
-5976 -5992 0
-5977 -5981 0
-5978 -5982 0
-5979 -5983 0
-5980 -5984 0
-5985 -5989 0
-5986 -5990 0
-5987 -5991 0
-5988 -5992 0
-5993 -5997 0
-5994 -5998 0
-5995 -5999 0
-5996 -6000 0
1 0
6 0
371 0
-433 2833 0
433 -2833 0
-434 2834 0
434 -2834 0
-435 2835 0
435 -2835 0
-436 2836 0
436 -2836 0
-433 5833 0
433 -5833 0
-434 5834 0
434 -5834 0
-435 5835 0
435 -5835 0
-436 5836 0
436 -5836 0
