1 1
2 2
3 3
4 3
5 1
6 5
7 3
8 4
9 2
10 5
11 4
12 1
13 3
14 2
15 4
16 1
17 4
18 2
19 1
20 4
21 3
22 4
23 3
24 5
25 2
26 3
27 4
28 1
29 5
30 4
31 2
32 3
33 1
34 5
35 2
36 1
37 5
38 3
39 2
40 4
41 2
42 3
43 5
44 1
45 4
46 1
47 3
48 2
49 3
50 5
51 4
52 5
53 4
54 3
55 2
56 1
57 5
58 5
59 2
60 2
61 5
62 4
63 2
64 1
65 3
66 3
67 5
68 3
69 3
70 4
71 5
72 5
73 4
74 2
75 1
76 5
77 4
78 5
79 3
80 4
81 2
82 5
83 1
84 2
85 2
86 1
87 5
88 1
89 5
90 4
91 3
92 2
93 4
94 4
95 3
96 3
97 5
98 2
99 4
100 1
101 1
102 4
103 2
104 3
105 2
106 3
107 2
108 5
109 4
110 2
111 4
112 1
113 5
114 4
115 5
116 3
117 1
118 1
119 4
120 5
121 4
122 3
123 2
124 2
125 5
126 1
127 5
128 1
129 4
130 3
131 1
132 1
133 4
134 3
135 1
136 5
137 4
138 5
139 5
140 4
141 4
142 3
143 4
144 2
145 3
146 5
147 4
148 5
149 1
150 1
151 4
152 4
153 2
154 1
155 3
156 4
157 3
158 3
159 1
160 3
161 2
162 5
163 3
164 2
165 5
166 5
167 3
168 2
169 3
170 3
171 2
172 1
173 3
174 4
175 3
176 4
177 1
178 2
179 2
180 1
181 4
182 1
183 5
184 5
185 2
186 1
187 3
188 2
189 3
190 2
191 1
192 4
193 5
194 3
195 2
196 4
197 4
198 2
199 3
200 1
201 3
202 2
203 5
204 3
205 4
206 1
207 4
208 2
209 1
210 4
211 4
212 3
213 3
214 5
215 2
216 3
217 5
218 1
219 4
220 2
221 3
222 3
223 4
224 2
225 3
226 2
227 3
228 5
229 1
230 1
231 1
232 5
233 2
234 5
235 3
236 5
237 5
238 4
239 2
240 5
241 4
242 2
243 4
244 2
245 5
246 3
247 1
248 5
249 2
250 2
251 1
252 5
253 1
254 2
255 4
256 1
257 3
258 2
259 1
260 4
261 2
262 4
263 3
264 5
265 1
266 2
267 3
268 5
269 4
270 5
271 2
272 2
273 1
274 5
275 4
276 2
277 4
278 2
279 3
280 1
281 1
282 4
283 3
284 5
285 1
286 3
287 2
288 3
289 3
290 1
291 4
292 5
293 4
294 3
295 2
296 4
297 2
298 1
299 1
300 1
301 1
302 3
303 2
304 4
305 3
306 5
307 5
308 2
309 2
310 1
311 1
312 2
313 2
314 4
315 1
316 3
317 2
318 1
319 1
320 5
321 5
322 2
323 5
324 2
325 5
326 4
327 1
328 1
329 5
330 2
331 4
332 3
333 5
334 4
335 3
336 2
337 3
338 1
339 2
340 4
341 2
342 5
343 3
344 1
345 1
346 5
347 3
348 3
349 4
350 1
351 5
352 5
353 2
354 3
355 4
356 5
357 3
358 2
359 1
360 3
361 3
362 5
363 4
364 1
365 3
366 4
367 1
368 3
369 2
370 4
371 3
372 3
373 5
374 1
375 5
376 2
377 1
378 4
379 4
380 5
381 2
382 1
383 4
384 4
385 5
386 4
387 2
388 3
389 3
390 2
391 5
392 5
393 1
394 2
395 2
396 5
397 1
398 3
399 5
400 3
401 4
402 3
403 5
404 1
405 5
406 3
407 4
408 3
409 2
410 2
411 3
412 4
413 5
414 3
415 1
416 5
417 2
418 4
419 4
420 1
421 5
422 4
423 1
424 5
425 4
426 2
427 2
428 3
429 5
430 4
431 4
432 4
433 3
434 2
435 3
436 3
437 4
438 2
439 1
440 2
441 1
442 5
443 3
444 3
445 4
446 4
447 1
448 3
449 1
450 5
451 3
452 2
453 3
454 2
455 2
456 1
457 1
458 2
459 3
460 5
461 4
462 2
463 3
464 1
465 1
466 2
467 3
468 2
469 1
470 2
471 5
472 1
473 1
474 3
475 5
476 2
477 1
478 2
479 1
480 4
481 3
482 3
483 4
484 2
485 3
486 1
487 2
488 2
489 3
490 1
491 2
492 3
493 5
494 4
495 5
496 5
497 1
498 1
499 4
500 2
501 3
502 4
503 4
504 2
505 3
506 4
507 4
508 3
509 3
510 5
511 2
512 1
513 4
514 1
515 2
516 1
517 3
518 5
519 2
520 5
521 4
522 1
523 3
524 2
525 1
526 4
527 3
528 5
529 4
530 5
531 2
532 3
533 5
534 2
535 2
536 3
537 1
538 2
539 4
540 5
541 5
542 1
543 5
544 4
545 1
546 2
547 3
548 5
549 4
550 3
551 2
552 1
553 5
554 2
555 5
556 2
557 5
558 4
559 2
560 2
561 2
562 5
563 3
564 4
565 5
566 5
567 4
568 2
569 3
570 3
571 1
572 5
573 4
574 3
575 1
576 2
577 4
578 4
579 1
580 1
581 5
582 5
583 3
584 5
585 2
586 3
587 5
588 5
589 3
590 1
591 2
592 3
593 1
594 3
595 1
596 4
597 5
598 4
599 3
600 3
601 5
602 5
603 4
604 2
605 3
606 5
607 2
608 4
609 4
610 1
611 5
612 2
613 5
614 4
615 3
616 2
617 4
618 5
619 2
620 5
621 2
622 1
623 3
624 2
625 5
626 2
627 2
628 5
629 4
630 3
631 3
632 1
633 4
634 2
635 1
636 1
637 2
638 4
639 1
640 2
641 4
642 3
643 4
644 4
645 4
646 3
647 5
648 2
649 4
650 5
651 2
652 1
653 1
654 3
655 5
656 4
657 1
658 1
659 3
660 5
661 2
662 5
663 3
664 5
665 4
666 1
667 3
668 1
669 4
670 4
671 3
672 3
673 1
674 2
675 4
676 3
677 1
678 2
679 4
680 2
681 5
682 3
683 1
684 2
685 4
686 1
687 2
688 1
689 3
690 2
691 2
692 5
693 3
694 2
695 4
696 1
697 2
698 3
699 4
700 1
701 4
702 3
703 1
704 2
705 5
706 4
707 3
708 5
709 4
710 2
711 4
712 1
713 3
714 3
715 5
716 1
717 3
718 5
719 1
720 5
721 3
722 2
723 5
724 4
725 1
726 4
727 2
728 1
729 3
730 5
731 5
732 3
733 3
734 2
735 2
736 2
737 1
738 3
739 4
740 5
741 5
742 3
743 1
744 2
745 3
746 1
747 4
748 4
749 1
750 5
751 1
752 3
753 5
754 2
755 1
756 3
757 5
758 2
759 2
760 1
761 5
762 3
763 2
764 1
765 2
766 4
767 3
768 3
769 5
770 5
771 5
772 2
773 1
774 4
775 3
776 3
777 4
778 3
779 4
780 5
781 2
782 2
783 4
784 2
785 4
786 4
787 3
788 3
789 5
790 1
791 2
792 3
793 5
794 5
795 2
796 1
797 4
798 1
799 3
800 5
801 2
802 4
803 5
804 4
805 4
806 1
807 2
808 1
809 4
810 5
811 4
812 4
813 2
814 4
815 1
816 4
817 5
818 2
819 1
820 4
821 4
822 2
823 5
824 2
825 1
826 4
827 5
828 1
829 2
830 5
831 3
832 4
833 1
834 3
835 1
836 2
837 4
838 1
839 3
840 2
841 4
842 5
843 1
844 2
845 1
846 4
847 2
848 1
849 5
850 4
851 1
852 3
853 3
854 2
855 4
856 3
857 1
858 4
859 5
860 4
861 3
862 4
863 3
864 2
865 1
866 5
867 1
868 5
869 5
870 1
871 1
872 3
873 5
874 5
875 2
876 1
877 3
878 5
879 2
880 4
881 2
882 5
883 1
884 2
885 1
886 1
887 1
888 2
889 2
890 2
891 5
892 5
893 3
894 1
895 4
896 1
897 2
898 4
899 5
900 5
901 4
902 3
903 2
904 5
905 5
906 4
907 1
908 4
909 5
910 1
911 4
912 3
913 1
914 2
915 3
916 2
917 4
918 3
919 1
920 5
921 3
922 2
923 3
924 1
925 1
926 5
927 3
928 1
929 1
930 4
931 5
932 4
933 1
934 3
935 5
936 2
937 4
938 4
939 3
940 2
941 4
942 1
943 1
944 3
945 5
946 5
947 3
948 1
949 1
950 3
951 2
952 1
953 1
954 2
955 4
956 4
957 1
958 2
959 4
960 1
961 3
962 2
963 3
964 5
965 2
966 1
967 1
968 2
969 4
970 2
971 4
972 5
973 3
974 3
975 5
976 5
977 3
978 2
979 2
980 1
981 2
982 5
983 1
984 2
985 5
986 2
987 3
988 5
989 1
990 5
991 3
992 5
993 1
994 4
995 1
996 5
997 3
998 2
999 1
1000 1
1001 1
1002 3
1003 5
1004 2
1005 1
1006 2
1007 1
1008 5
1009 3
1010 4
1011 1
1012 2
1013 3
1014 1
1015 1
1016 5
1017 3
1018 5
1019 3
1020 3
1021 5
1022 4
1023 3
1024 1
1025 2
1026 4
1027 1
1028 3
1029 2
1030 2
1031 5
1032 3
1033 4
1034 4
1035 1
1036 5
1037 4
1038 1
1039 5
1040 2
1041 2
1042 4
1043 3
1044 5
1045 1
1046 2
1047 4
1048 2
1049 4
1050 3
1051 5
1052 3
1053 5
1054 1
1055 5
1056 2
1057 4
1058 5
1059 1
1060 3
1061 1
1062 4
1063 2
1064 3
1065 1
1066 5
1067 3
1068 4
1069 1
1070 3
1071 3
1072 2
1073 4
1074 3
1075 5
1076 2
1077 5
1078 2
1079 2
1080 1
1081 5
1082 4
1083 3
1084 2
1085 5
1086 4
1087 2
1088 4
1089 2
1090 1
1091 2
1092 4
1093 5
1094 1
1095 3
1096 2
1097 3
1098 3
1099 3
1100 1
1101 2
1102 3
1103 4
1104 4
1105 2
1106 5
1107 5
1108 1
1109 2
1110 3
1111 4
1112 3
1113 2
1114 4
1115 2
1116 1
1117 5
1118 5
1119 5
1120 2
1121 3
1122 1
1123 3
1124 3
1125 4
1126 5
1127 4
1128 2
1129 5
1130 1
1131 2
1132 1
1133 3
1134 4
1135 3
1136 2
1137 1
1138 2
1139 1
1140 5
1141 3
1142 2
1143 3
1144 1
1145 1
1146 2
1147 5
1148 1
1149 2
1150 3
1151 4
1152 1
1153 4
1154 1
1155 2
1156 1
1157 2
1158 3
1159 3
1160 5
1161 1
1162 1
1163 2
1164 4
1165 5
1166 2
1167 5
1168 2
1169 1
1170 3
1171 1
1172 3
1173 2
1174 1
1175 3
1176 1
1177 2
1178 1
1179 1
1180 2
1181 4
1182 2
1183 5
1184 3
1185 5
1186 4
1187 3
1188 1
1189 1
1190 2
1191 4
1192 5
1193 4
1194 2
1195 3
1196 1
1197 3
1198 3
1199 5
1200 1
1201 4
1202 3
1203 3
1204 4
1205 2
1206 3
1207 1
1208 5
1209 5
1210 3
1211 4
1212 2
1213 5
1214 4
1215 3
1216 1
1217 2
1218 5
1219 4
1220 4
1221 5
1222 2
1223 3
1224 4
1225 5
1226 2
1227 3
1228 4
1229 1
1230 5
1231 1
1232 4
1233 5
1234 2
1235 3
1236 4
1237 4
1238 5
1239 4
1240 2
1241 4
1242 1
1243 2
1244 5
1245 1
1246 3
1247 2
1248 1
1249 4
1250 4
1251 1
1252 5
1253 3
1254 4
1255 2
1256 4
1257 3
1258 2
1259 4
1260 1
1261 4
1262 3
1263 2
1264 2
1265 5
1266 2
1267 2
1268 4
1269 4
1270 5
1271 1
1272 2
1273 3
1274 2
1275 5
1276 4
1277 2
1278 1
1279 4
1280 2
1281 2
1282 4
1283 1
1284 2
1285 4
1286 3
1287 5
1288 3
1289 3
1290 3
1291 5
1292 4
1293 5
1294 2
1295 2
1296 1
1297 4
1298 4
1299 2
1300 4
1301 5
1302 3
1303 1
1304 1
1305 4
1306 2
1307 3
1308 1
1309 5
1310 2
1311 2
1312 3
1313 1
1314 4
1315 3
1316 5
1317 3
1318 4
1319 2
1320 5
1321 1
1322 5
1323 2
1324 1
1325 1
1326 3
1327 5
1328 5
1329 4
1330 3
1331 3
1332 2
1333 5
1334 3
1335 1
1336 1
1337 3
1338 1
1339 4
1340 2
1341 5
1342 3
1343 1
1344 5
1345 3
1346 2
1347 4
1348 1
1349 3
1350 1
1351 5
1352 2
1353 5
1354 5
1355 2
1356 4
1357 5
1358 4
1359 2
1360 1
1361 1
1362 5
1363 3
1364 2
1365 3
1366 3
1367 4
1368 3
1369 1
1370 5
1371 3
1372 2
1373 4
1374 1
1375 2
1376 5
1377 1
1378 1
1379 5
1380 4
1381 3
1382 4
1383 3
1384 1
1385 4
1386 4
1387 1
1388 4
1389 2
1390 1
1391 5
1392 1
1393 5
1394 2
1395 4
1396 2
1397 3
1398 4
1399 2
1400 4
1401 1
1402 3
1403 2
1404 4
1405 1
1406 3
1407 5
1408 5
1409 1
1410 4
1411 3
1412 4
1413 3
1414 2
1415 5
1416 2
1417 1
1418 5
1419 3
1420 3
1421 4
1422 1
1423 5
1424 1
1425 5
1426 3
1427 2
1428 1
1429 3
1430 4
1431 2
1432 4
1433 3
1434 2
1435 2
1436 1
1437 2
1438 4
1439 2
1440 3
1441 5
1442 4
1443 1
1444 1
1445 5
1446 4
1447 4
1448 2
1449 1
1450 3
1451 1
1452 5
1453 2
1454 2
1455 4
1456 1
1457 4
1458 3
1459 5
1460 4
1461 1
1462 3
1463 2
1464 5
1465 1
1466 3
1467 5
1468 4
1469 1
1470 4
1471 3
1472 5
1473 2
1474 4
1475 5
1476 1
1477 2
1478 3
1479 3
1480 3
1481 1
1482 5
1483 4
1484 4
1485 5
1486 2
1487 1
1488 5
1489 3
1490 4
1491 1
1492 2
1493 1
1494 5
1495 3
1496 1
1497 5
1498 2
1499 3
1500 2
1501 2
1502 4
1503 3
1504 2
1505 5
1506 1
1507 5
1508 1
1509 2
1510 5
1511 2
1512 4
1513 5
1514 3
1515 1
1516 2
1517 4
1518 2
1519 4
1520 3
1521 2
1522 4
1523 2
1524 3
1525 1
1526 2
1527 3
1528 5
1529 1
1530 3
1531 1
1532 2
1533 4
1534 4
1535 5
1536 3
1537 1
1538 2
1539 4
1540 3
1541 4
1542 3
1543 4
1544 5
1545 3
1546 1
1547 1
1548 2
1549 2
1550 2
1551 5
1552 4
1553 5
1554 4
1555 2
1556 3
1557 1
1558 4
1559 2
1560 3
1561 1
1562 5
1563 4
1564 5
1565 2
1566 1
1567 4
1568 5
1569 1
1570 2
1571 3
1572 1
1573 5
1574 4
1575 2
1576 1
1577 4
1578 3
1579 3
1580 5
1581 4
1582 4
1583 2
1584 5
1585 2
1586 3
1587 5
1588 1
1589 2
1590 2
1591 3
1592 1
1593 3
1594 5
1595 3
1596 1
1597 2
1598 5
1599 4
1600 5
1601 2
1602 3
1603 1
1604 4
1605 1
1606 5
1607 4
1608 4
1609 2
1610 1
1611 5
1612 1
1613 4
1614 5
1615 4
1616 5
1617 4
1618 3
1619 4
1620 2
1621 5
1622 2
1623 3
1624 1
1625 5
1626 2
1627 1
1628 1
1629 3
1630 2
1631 5
1632 1
1633 3
1634 1
1635 2
1636 4
1637 5
1638 3
1639 4
1640 1
1641 5
1642 4
1643 3
1644 5
1645 2
1646 4
1647 4
1648 3
1649 5
1650 3
1651 2
1652 4
1653 1
1654 3
1655 4
1656 5
1657 3
1658 1
1659 4
1660 5
1661 2
1662 1
1663 3
1664 4
1665 5
1666 2
1667 3
1668 4
1669 4
1670 5
1671 5
1672 1
1673 4
1674 3
1675 5
1676 2
1677 2
1678 3
1679 3
1680 5
1681 2
1682 2
1683 5
1684 4
1685 1
1686 2
1687 3
1688 5
1689 2
1690 4
1691 4
1692 1
1693 4
1694 5
1695 1
1696 5
1697 5
1698 4
1699 1
1700 5
1701 4
1702 5
1703 1
1704 3
1705 5
1706 5
1707 4
1708 4
1709 3
1710 3
1711 2
1712 3
1713 5
1714 5
1715 5
1716 2
1717 3
1718 2
1719 2
1720 4
1721 1
1722 2
1723 3
1724 3
1725 1
1726 3
1727 3
1728 1
1729 1
1730 5
1731 5
1732 3
1733 5
1734 4
1735 1
1736 3
1737 3
1738 1
1739 3
1740 5
1741 2
1742 4
1743 1
1744 4
1745 5
1746 3
1747 2
1748 3
1749 3
1750 1
1751 5
1752 2
1753 5
1754 1
1755 2
1756 3
1757 2
1758 2
1759 3
1760 5
1761 1
1762 3
1763 5
1764 1
1765 1
1766 5
1767 3
1768 4
1769 2
1770 1
1771 1
1772 5
1773 4
1774 5
1775 1
1776 5
1777 4
1778 4
1779 4
1780 3
1781 5
1782 2
1783 3
1784 1
1785 1
1786 3
1787 4
1788 2
1789 4
1790 2
1791 2
1792 4
1793 1
1794 5
1795 5
1796 2
1797 1
1798 3
1799 2
1800 2
1801 3
1802 4
1803 4
1804 2
1805 1
1806 5
1807 2
1808 5
1809 3
1810 2
1811 4
1812 5
1813 1
1814 2
1815 5
1816 4
1817 2
1818 3
1819 5
1820 3
1821 4
1822 3
1823 5
1824 2
1825 2
1826 4
1827 3
1828 1
1829 2
1830 3
1831 1
1832 4
1833 5
1834 1
1835 4
1836 1
1837 3
1838 2
1839 4
1840 3
1841 1
1842 4
1843 5
1844 4
1845 4
1846 1
1847 1
1848 2
1849 3
1850 2
1851 5
1852 1
1853 3
1854 4
1855 3
1856 2
1857 4
1858 1
1859 5
1860 3
1861 2
1862 5
1863 3
1864 5
1865 4
1866 1
1867 5
1868 5
1869 3
1870 2
1871 4
1872 2
1873 1
1874 2
1875 5
1876 4
1877 3
1878 3
1879 5
1880 1
1881 2
1882 4
1883 1
1884 3
1885 2
1886 2
1887 1
1888 4
1889 5
1890 5
1891 2
1892 4
1893 2
1894 3
1895 1
1896 3
1897 1
1898 1
1899 4
1900 3
1901 5
1902 2
1903 5
1904 2
1905 3
1906 4
1907 3
1908 1
1909 5
1910 1
1911 2
1912 5
1913 2
1914 4
1915 3
1916 2
1917 1
1918 4
1919 5
1920 5
1921 1
1922 5
1923 5
1924 4
1925 3
1926 2
1927 2
1928 1
1929 4
1930 1
1931 2
1932 4
1933 3
1934 3
1935 1
1936 2
1937 1
1938 5
1939 4
1940 1
1941 5
1942 3
1943 5
1944 4
1945 2
1946 4
1947 4
1948 4
1949 3
1950 5
1951 4
1952 4
1953 2
1954 4
1955 1
1956 2
1957 4
1958 3
1959 5
1960 1
1961 2
1962 4
1963 1
1964 5
1965 5
1966 1
1967 1
1968 5
1969 2
1970 5
1971 5
1972 1
1973 3
1974 5
1975 4
1976 2
1977 3
1978 5
1979 1
1980 4
1981 2
1982 3
1983 1
1984 5
1985 3
1986 4
1987 5
1988 4
1989 5
1990 3
1991 1
1992 4
1993 4
1994 1
1995 3
1996 5
1997 4
1998 3
1999 1
2000 4
2001 1
2002 2
2003 3
2004 1
2005 2
2006 1
2007 2
2008 3
2009 3
2010 2
2011 2
2012 1
2013 3
2014 1
2015 2
2016 5
2017 3
2018 3
2019 4
2020 1
2021 2
2022 3
2023 5
2024 5
2025 2
2026 1
2027 2
2028 1
2029 5
2030 3
2031 2
2032 3
2033 2
2034 2
2035 4
2036 2
2037 4
2038 1
2039 2
2040 1
2041 4
2042 5
2043 3
2044 5
2045 1
2046 2
2047 1
2048 3
2049 2
2050 2
2051 1
2052 1
2053 2
2054 1
2055 1
2056 1
2057 1
2058 1
2059 5
2060 4
2061 1
2062 4
2063 2
2064 3
2065 4
2066 4
2067 3
2068 2
2069 4
2070 2
2071 2
2072 1
2073 3
2074 1
2075 4
2076 2
2077 3
2078 2
2079 4
2080 4
2081 5
2082 4
2083 4
2084 3
2085 1
2086 3
2087 2
2088 3
2089 1
2090 4
2091 1
2092 3
2093 4
2094 2
2095 1
2096 1
2097 2
2098 3
2099 2
2100 4
2101 3
2102 1
2103 1
2104 2
2105 5
2106 1
2107 1
2108 4
2109 3
2110 4
2111 3
2112 1
2113 2
2114 4
2115 3
2116 5
2117 3
2118 4
2119 1
2120 2
2121 4
2122 3
2123 2
2124 1
2125 2
2126 2
2127 1
2128 1
2129 2
2130 2
2131 1
