p cnf 7564 45054
1 2 3 4 0
5 6 7 8 0
9 10 11 12 0
13 14 15 16 0
17 18 19 20 0
21 22 23 24 0
25 26 27 28 0
29 30 31 32 0
33 34 35 36 0
37 38 39 40 0
41 42 43 44 0
45 46 47 48 0
49 50 51 52 0
53 54 55 56 0
57 58 59 60 0
61 62 63 64 0
65 66 67 68 0
69 70 71 72 0
73 74 75 76 0
77 78 79 80 0
81 82 83 84 0
85 86 87 88 0
89 90 91 92 0
93 94 95 96 0
97 98 99 100 0
101 102 103 104 0
105 106 107 108 0
109 110 111 112 0
113 114 115 116 0
117 118 119 120 0
121 122 123 124 0
125 126 127 128 0
129 130 131 132 0
133 134 135 136 0
137 138 139 140 0
141 142 143 144 0
145 146 147 148 0
149 150 151 152 0
153 154 155 156 0
157 158 159 160 0
161 162 163 164 0
165 166 167 168 0
169 170 171 172 0
173 174 175 176 0
177 178 179 180 0
181 182 183 184 0
185 186 187 188 0
189 190 191 192 0
193 194 195 196 0
197 198 199 200 0
201 202 203 204 0
205 206 207 208 0
209 210 211 212 0
213 214 215 216 0
217 218 219 220 0
221 222 223 224 0
225 226 227 228 0
229 230 231 232 0
233 234 235 236 0
237 238 239 240 0
241 242 243 244 0
245 246 247 248 0
249 250 251 252 0
253 254 255 256 0
257 258 259 260 0
261 262 263 264 0
265 266 267 268 0
269 270 271 272 0
273 274 275 276 0
277 278 279 280 0
281 282 283 284 0
285 286 287 288 0
289 290 291 292 0
293 294 295 296 0
297 298 299 300 0
301 302 303 304 0
305 306 307 308 0
309 310 311 312 0
313 314 315 316 0
317 318 319 320 0
321 322 323 324 0
325 326 327 328 0
329 330 331 332 0
333 334 335 336 0
337 338 339 340 0
341 342 343 344 0
345 346 347 348 0
349 350 351 352 0
353 354 355 356 0
357 358 359 360 0
361 362 363 364 0
365 366 367 368 0
369 370 371 372 0
373 374 375 376 0
377 378 379 380 0
381 382 383 384 0
385 386 387 388 0
389 390 391 392 0
393 394 395 396 0
397 398 399 400 0
401 402 403 404 0
405 406 407 408 0
409 410 411 412 0
413 414 415 416 0
417 418 419 420 0
421 422 423 424 0
425 426 427 428 0
429 430 431 432 0
433 434 435 436 0
437 438 439 440 0
441 442 443 444 0
445 446 447 448 0
449 450 451 452 0
453 454 455 456 0
457 458 459 460 0
461 462 463 464 0
465 466 467 468 0
469 470 471 472 0
473 474 475 476 0
477 478 479 480 0
481 482 483 484 0
485 486 487 488 0
489 490 491 492 0
493 494 495 496 0
497 498 499 500 0
501 502 503 504 0
505 506 507 508 0
509 510 511 512 0
513 514 515 516 0
517 518 519 520 0
521 522 523 524 0
525 526 527 528 0
529 530 531 532 0
533 534 535 536 0
537 538 539 540 0
541 542 543 544 0
545 546 547 548 0
549 550 551 552 0
553 554 555 556 0
557 558 559 560 0
561 562 563 564 0
565 566 567 568 0
569 570 571 572 0
573 574 575 576 0
577 578 579 580 0
581 582 583 584 0
585 586 587 588 0
589 590 591 592 0
593 594 595 596 0
597 598 599 600 0
601 602 603 604 0
605 606 607 608 0
609 610 611 612 0
613 614 615 616 0
617 618 619 620 0
621 622 623 624 0
625 626 627 628 0
629 630 631 632 0
633 634 635 636 0
637 638 639 640 0
641 642 643 644 0
645 646 647 648 0
649 650 651 652 0
653 654 655 656 0
657 658 659 660 0
661 662 663 664 0
665 666 667 668 0
669 670 671 672 0
673 674 675 676 0
677 678 679 680 0
681 682 683 684 0
685 686 687 688 0
689 690 691 692 0
693 694 695 696 0
697 698 699 700 0
701 702 703 704 0
705 706 707 708 0
709 710 711 712 0
713 714 715 716 0
717 718 719 720 0
721 722 723 724 0
725 726 727 728 0
729 730 731 732 0
733 734 735 736 0
737 738 739 740 0
741 742 743 744 0
745 746 747 748 0
749 750 751 752 0
753 754 755 756 0
757 758 759 760 0
761 762 763 764 0
765 766 767 768 0
769 770 771 772 0
773 774 775 776 0
777 778 779 780 0
781 782 783 784 0
785 786 787 788 0
789 790 791 792 0
793 794 795 796 0
797 798 799 800 0
801 802 803 804 0
805 806 807 808 0
809 810 811 812 0
813 814 815 816 0
817 818 819 820 0
821 822 823 824 0
825 826 827 828 0
829 830 831 832 0
833 834 835 836 0
837 838 839 840 0
841 842 843 844 0
845 846 847 848 0
849 850 851 852 0
853 854 855 856 0
857 858 859 860 0
861 862 863 864 0
865 866 867 868 0
869 870 871 872 0
873 874 875 876 0
877 878 879 880 0
881 882 883 884 0
885 886 887 888 0
889 890 891 892 0
893 894 895 896 0
897 898 899 900 0
901 902 903 904 0
905 906 907 908 0
909 910 911 912 0
913 914 915 916 0
917 918 919 920 0
921 922 923 924 0
925 926 927 928 0
929 930 931 932 0
933 934 935 936 0
937 938 939 940 0
941 942 943 944 0
945 946 947 948 0
949 950 951 952 0
953 954 955 956 0
957 958 959 960 0
961 962 963 964 0
965 966 967 968 0
969 970 971 972 0
973 974 975 976 0
977 978 979 980 0
981 982 983 984 0
985 986 987 988 0
989 990 991 992 0
993 994 995 996 0
997 998 999 1000 0
1001 1002 1003 1004 0
1005 1006 1007 1008 0
1009 1010 1011 1012 0
1013 1014 1015 1016 0
1017 1018 1019 1020 0
1021 1022 1023 1024 0
1025 1026 1027 1028 0
1029 1030 1031 1032 0
1033 1034 1035 1036 0
1037 1038 1039 1040 0
1041 1042 1043 1044 0
1045 1046 1047 1048 0
1049 1050 1051 1052 0
1053 1054 1055 1056 0
1057 1058 1059 1060 0
1061 1062 1063 1064 0
1065 1066 1067 1068 0
1069 1070 1071 1072 0
1073 1074 1075 1076 0
1077 1078 1079 1080 0
1081 1082 1083 1084 0
1085 1086 1087 1088 0
1089 1090 1091 1092 0
1093 1094 1095 1096 0
1097 1098 1099 1100 0
1101 1102 1103 1104 0
1105 1106 1107 1108 0
1109 1110 1111 1112 0
1113 1114 1115 1116 0
1117 1118 1119 1120 0
1121 1122 1123 1124 0
1125 1126 1127 1128 0
1129 1130 1131 1132 0
1133 1134 1135 1136 0
1137 1138 1139 1140 0
1141 1142 1143 1144 0
1145 1146 1147 1148 0
1149 1150 1151 1152 0
1153 1154 1155 1156 0
1157 1158 1159 1160 0
1161 1162 1163 1164 0
1165 1166 1167 1168 0
1169 1170 1171 1172 0
1173 1174 1175 1176 0
1177 1178 1179 1180 0
1181 1182 1183 1184 0
1185 1186 1187 1188 0
1189 1190 1191 1192 0
1193 1194 1195 1196 0
1197 1198 1199 1200 0
1201 1202 1203 1204 0
1205 1206 1207 1208 0
1209 1210 1211 1212 0
1213 1214 1215 1216 0
1217 1218 1219 1220 0
1221 1222 1223 1224 0
1225 1226 1227 1228 0
1229 1230 1231 1232 0
1233 1234 1235 1236 0
1237 1238 1239 1240 0
1241 1242 1243 1244 0
1245 1246 1247 1248 0
1249 1250 1251 1252 0
1253 1254 1255 1256 0
1257 1258 1259 1260 0
1261 1262 1263 1264 0
1265 1266 1267 1268 0
1269 1270 1271 1272 0
1273 1274 1275 1276 0
1277 1278 1279 1280 0
1281 1282 1283 1284 0
1285 1286 1287 1288 0
1289 1290 1291 1292 0
1293 1294 1295 1296 0
1297 1298 1299 1300 0
1301 1302 1303 1304 0
1305 1306 1307 1308 0
1309 1310 1311 1312 0
1313 1314 1315 1316 0
1317 1318 1319 1320 0
1321 1322 1323 1324 0
1325 1326 1327 1328 0
1329 1330 1331 1332 0
1333 1334 1335 1336 0
1337 1338 1339 1340 0
1341 1342 1343 1344 0
1345 1346 1347 1348 0
1349 1350 1351 1352 0
1353 1354 1355 1356 0
1357 1358 1359 1360 0
1361 1362 1363 1364 0
1365 1366 1367 1368 0
1369 1370 1371 1372 0
1373 1374 1375 1376 0
1377 1378 1379 1380 0
1381 1382 1383 1384 0
1385 1386 1387 1388 0
1389 1390 1391 1392 0
1393 1394 1395 1396 0
1397 1398 1399 1400 0
1401 1402 1403 1404 0
1405 1406 1407 1408 0
1409 1410 1411 1412 0
1413 1414 1415 1416 0
1417 1418 1419 1420 0
1421 1422 1423 1424 0
1425 1426 1427 1428 0
1429 1430 1431 1432 0
1433 1434 1435 1436 0
1437 1438 1439 1440 0
1441 1442 1443 1444 0
1445 1446 1447 1448 0
1449 1450 1451 1452 0
1453 1454 1455 1456 0
1457 1458 1459 1460 0
1461 1462 1463 1464 0
1465 1466 1467 1468 0
1469 1470 1471 1472 0
1473 1474 1475 1476 0
1477 1478 1479 1480 0
1481 1482 1483 1484 0
1485 1486 1487 1488 0
1489 1490 1491 1492 0
1493 1494 1495 1496 0
1497 1498 1499 1500 0
1501 1502 1503 1504 0
1505 1506 1507 1508 0
1509 1510 1511 1512 0
1513 1514 1515 1516 0
1517 1518 1519 1520 0
1521 1522 1523 1524 0
1525 1526 1527 1528 0
1529 1530 1531 1532 0
1533 1534 1535 1536 0
1537 1538 1539 1540 0
1541 1542 1543 1544 0
1545 1546 1547 1548 0
1549 1550 1551 1552 0
1553 1554 1555 1556 0
1557 1558 1559 1560 0
1561 1562 1563 1564 0
1565 1566 1567 1568 0
1569 1570 1571 1572 0
1573 1574 1575 1576 0
1577 1578 1579 1580 0
1581 1582 1583 1584 0
1585 1586 1587 1588 0
1589 1590 1591 1592 0
1593 1594 1595 1596 0
1597 1598 1599 1600 0
1601 1602 1603 1604 0
1605 1606 1607 1608 0
1609 1610 1611 1612 0
1613 1614 1615 1616 0
1617 1618 1619 1620 0
1621 1622 1623 1624 0
1625 1626 1627 1628 0
1629 1630 1631 1632 0
1633 1634 1635 1636 0
1637 1638 1639 1640 0
1641 1642 1643 1644 0
1645 1646 1647 1648 0
1649 1650 1651 1652 0
1653 1654 1655 1656 0
1657 1658 1659 1660 0
1661 1662 1663 1664 0
1665 1666 1667 1668 0
1669 1670 1671 1672 0
1673 1674 1675 1676 0
1677 1678 1679 1680 0
1681 1682 1683 1684 0
1685 1686 1687 1688 0
1689 1690 1691 1692 0
1693 1694 1695 1696 0
1697 1698 1699 1700 0
1701 1702 1703 1704 0
1705 1706 1707 1708 0
1709 1710 1711 1712 0
1713 1714 1715 1716 0
1717 1718 1719 1720 0
1721 1722 1723 1724 0
1725 1726 1727 1728 0
1729 1730 1731 1732 0
1733 1734 1735 1736 0
1737 1738 1739 1740 0
1741 1742 1743 1744 0
1745 1746 1747 1748 0
1749 1750 1751 1752 0
1753 1754 1755 1756 0
1757 1758 1759 1760 0
1761 1762 1763 1764 0
1765 1766 1767 1768 0
1769 1770 1771 1772 0
1773 1774 1775 1776 0
1777 1778 1779 1780 0
1781 1782 1783 1784 0
1785 1786 1787 1788 0
1789 1790 1791 1792 0
1793 1794 1795 1796 0
1797 1798 1799 1800 0
1801 1802 1803 1804 0
1805 1806 1807 1808 0
1809 1810 1811 1812 0
1813 1814 1815 1816 0
1817 1818 1819 1820 0
1821 1822 1823 1824 0
1825 1826 1827 1828 0
1829 1830 1831 1832 0
1833 1834 1835 1836 0
1837 1838 1839 1840 0
1841 1842 1843 1844 0
1845 1846 1847 1848 0
1849 1850 1851 1852 0
1853 1854 1855 1856 0
1857 1858 1859 1860 0
1861 1862 1863 1864 0
1865 1866 1867 1868 0
1869 1870 1871 1872 0
1873 1874 1875 1876 0
1877 1878 1879 1880 0
1881 1882 1883 1884 0
1885 1886 1887 1888 0
1889 1890 1891 1892 0
1893 1894 1895 1896 0
1897 1898 1899 1900 0
1901 1902 1903 1904 0
1905 1906 1907 1908 0
1909 1910 1911 1912 0
1913 1914 1915 1916 0
1917 1918 1919 1920 0
1921 1922 1923 1924 0
1925 1926 1927 1928 0
1929 1930 1931 1932 0
1933 1934 1935 1936 0
1937 1938 1939 1940 0
1941 1942 1943 1944 0
1945 1946 1947 1948 0
1949 1950 1951 1952 0
1953 1954 1955 1956 0
1957 1958 1959 1960 0
1961 1962 1963 1964 0
1965 1966 1967 1968 0
1969 1970 1971 1972 0
1973 1974 1975 1976 0
1977 1978 1979 1980 0
1981 1982 1983 1984 0
1985 1986 1987 1988 0
1989 1990 1991 1992 0
1993 1994 1995 1996 0
1997 1998 1999 2000 0
2001 2002 2003 2004 0
2005 2006 2007 2008 0
2009 2010 2011 2012 0
2013 2014 2015 2016 0
2017 2018 2019 2020 0
2021 2022 2023 2024 0
2025 2026 2027 2028 0
2029 2030 2031 2032 0
2033 2034 2035 2036 0
2037 2038 2039 2040 0
2041 2042 2043 2044 0
2045 2046 2047 2048 0
2049 2050 2051 2052 0
2053 2054 2055 2056 0
2057 2058 2059 2060 0
2061 2062 2063 2064 0
2065 2066 2067 2068 0
2069 2070 2071 2072 0
2073 2074 2075 2076 0
2077 2078 2079 2080 0
2081 2082 2083 2084 0
2085 2086 2087 2088 0
2089 2090 2091 2092 0
2093 2094 2095 2096 0
2097 2098 2099 2100 0
2101 2102 2103 2104 0
2105 2106 2107 2108 0
2109 2110 2111 2112 0
2113 2114 2115 2116 0
2117 2118 2119 2120 0
2121 2122 2123 2124 0
2125 2126 2127 2128 0
2129 2130 2131 2132 0
2133 2134 2135 2136 0
2137 2138 2139 2140 0
2141 2142 2143 2144 0
2145 2146 2147 2148 0
2149 2150 2151 2152 0
2153 2154 2155 2156 0
2157 2158 2159 2160 0
2161 2162 2163 2164 0
2165 2166 2167 2168 0
2169 2170 2171 2172 0
2173 2174 2175 2176 0
2177 2178 2179 2180 0
2181 2182 2183 2184 0
2185 2186 2187 2188 0
2189 2190 2191 2192 0
2193 2194 2195 2196 0
2197 2198 2199 2200 0
2201 2202 2203 2204 0
2205 2206 2207 2208 0
2209 2210 2211 2212 0
2213 2214 2215 2216 0
2217 2218 2219 2220 0
2221 2222 2223 2224 0
2225 2226 2227 2228 0
2229 2230 2231 2232 0
2233 2234 2235 2236 0
2237 2238 2239 2240 0
2241 2242 2243 2244 0
2245 2246 2247 2248 0
2249 2250 2251 2252 0
2253 2254 2255 2256 0
2257 2258 2259 2260 0
2261 2262 2263 2264 0
2265 2266 2267 2268 0
2269 2270 2271 2272 0
2273 2274 2275 2276 0
2277 2278 2279 2280 0
2281 2282 2283 2284 0
2285 2286 2287 2288 0
2289 2290 2291 2292 0
2293 2294 2295 2296 0
2297 2298 2299 2300 0
2301 2302 2303 2304 0
2305 2306 2307 2308 0
2309 2310 2311 2312 0
2313 2314 2315 2316 0
2317 2318 2319 2320 0
2321 2322 2323 2324 0
2325 2326 2327 2328 0
2329 2330 2331 2332 0
2333 2334 2335 2336 0
2337 2338 2339 2340 0
2341 2342 2343 2344 0
2345 2346 2347 2348 0
2349 2350 2351 2352 0
2353 2354 2355 2356 0
2357 2358 2359 2360 0
2361 2362 2363 2364 0
2365 2366 2367 2368 0
2369 2370 2371 2372 0
2373 2374 2375 2376 0
2377 2378 2379 2380 0
2381 2382 2383 2384 0
2385 2386 2387 2388 0
2389 2390 2391 2392 0
2393 2394 2395 2396 0
2397 2398 2399 2400 0
2401 2402 2403 2404 0
2405 2406 2407 2408 0
2409 2410 2411 2412 0
2413 2414 2415 2416 0
2417 2418 2419 2420 0
2421 2422 2423 2424 0
2425 2426 2427 2428 0
2429 2430 2431 2432 0
2433 2434 2435 2436 0
2437 2438 2439 2440 0
2441 2442 2443 2444 0
2445 2446 2447 2448 0
2449 2450 2451 2452 0
2453 2454 2455 2456 0
2457 2458 2459 2460 0
2461 2462 2463 2464 0
2465 2466 2467 2468 0
2469 2470 2471 2472 0
2473 2474 2475 2476 0
2477 2478 2479 2480 0
2481 2482 2483 2484 0
2485 2486 2487 2488 0
2489 2490 2491 2492 0
2493 2494 2495 2496 0
2497 2498 2499 2500 0
2501 2502 2503 2504 0
2505 2506 2507 2508 0
2509 2510 2511 2512 0
2513 2514 2515 2516 0
2517 2518 2519 2520 0
2521 2522 2523 2524 0
2525 2526 2527 2528 0
2529 2530 2531 2532 0
2533 2534 2535 2536 0
2537 2538 2539 2540 0
2541 2542 2543 2544 0
2545 2546 2547 2548 0
2549 2550 2551 2552 0
2553 2554 2555 2556 0
2557 2558 2559 2560 0
2561 2562 2563 2564 0
2565 2566 2567 2568 0
2569 2570 2571 2572 0
2573 2574 2575 2576 0
2577 2578 2579 2580 0
2581 2582 2583 2584 0
2585 2586 2587 2588 0
2589 2590 2591 2592 0
2593 2594 2595 2596 0
2597 2598 2599 2600 0
2601 2602 2603 2604 0
2605 2606 2607 2608 0
2609 2610 2611 2612 0
2613 2614 2615 2616 0
2617 2618 2619 2620 0
2621 2622 2623 2624 0
2625 2626 2627 2628 0
2629 2630 2631 2632 0
2633 2634 2635 2636 0
2637 2638 2639 2640 0
2641 2642 2643 2644 0
2645 2646 2647 2648 0
2649 2650 2651 2652 0
2653 2654 2655 2656 0
2657 2658 2659 2660 0
2661 2662 2663 2664 0
2665 2666 2667 2668 0
2669 2670 2671 2672 0
2673 2674 2675 2676 0
2677 2678 2679 2680 0
2681 2682 2683 2684 0
2685 2686 2687 2688 0
2689 2690 2691 2692 0
2693 2694 2695 2696 0
2697 2698 2699 2700 0
2701 2702 2703 2704 0
2705 2706 2707 2708 0
2709 2710 2711 2712 0
2713 2714 2715 2716 0
2717 2718 2719 2720 0
2721 2722 2723 2724 0
2725 2726 2727 2728 0
2729 2730 2731 2732 0
2733 2734 2735 2736 0
2737 2738 2739 2740 0
2741 2742 2743 2744 0
2745 2746 2747 2748 0
2749 2750 2751 2752 0
2753 2754 2755 2756 0
2757 2758 2759 2760 0
2761 2762 2763 2764 0
2765 2766 2767 2768 0
2769 2770 2771 2772 0
2773 2774 2775 2776 0
2777 2778 2779 2780 0
2781 2782 2783 2784 0
2785 2786 2787 2788 0
2789 2790 2791 2792 0
2793 2794 2795 2796 0
2797 2798 2799 2800 0
2801 2802 2803 2804 0
2805 2806 2807 2808 0
2809 2810 2811 2812 0
2813 2814 2815 2816 0
2817 2818 2819 2820 0
2821 2822 2823 2824 0
2825 2826 2827 2828 0
2829 2830 2831 2832 0
2833 2834 2835 2836 0
2837 2838 2839 2840 0
2841 2842 2843 2844 0
2845 2846 2847 2848 0
2849 2850 2851 2852 0
2853 2854 2855 2856 0
2857 2858 2859 2860 0
2861 2862 2863 2864 0
2865 2866 2867 2868 0
2869 2870 2871 2872 0
2873 2874 2875 2876 0
2877 2878 2879 2880 0
2881 2882 2883 2884 0
2885 2886 2887 2888 0
2889 2890 2891 2892 0
2893 2894 2895 2896 0
2897 2898 2899 2900 0
2901 2902 2903 2904 0
2905 2906 2907 2908 0
2909 2910 2911 2912 0
2913 2914 2915 2916 0
2917 2918 2919 2920 0
2921 2922 2923 2924 0
2925 2926 2927 2928 0
2929 2930 2931 2932 0
2933 2934 2935 2936 0
2937 2938 2939 2940 0
2941 2942 2943 2944 0
2945 2946 2947 2948 0
2949 2950 2951 2952 0
2953 2954 2955 2956 0
2957 2958 2959 2960 0
2961 2962 2963 2964 0
2965 2966 2967 2968 0
2969 2970 2971 2972 0
2973 2974 2975 2976 0
2977 2978 2979 2980 0
2981 2982 2983 2984 0
2985 2986 2987 2988 0
2989 2990 2991 2992 0
2993 2994 2995 2996 0
2997 2998 2999 3000 0
3001 3002 3003 3004 0
3005 3006 3007 3008 0
3009 3010 3011 3012 0
3013 3014 3015 3016 0
3017 3018 3019 3020 0
3021 3022 3023 3024 0
3025 3026 3027 3028 0
3029 3030 3031 3032 0
3033 3034 3035 3036 0
3037 3038 3039 3040 0
3041 3042 3043 3044 0
3045 3046 3047 3048 0
3049 3050 3051 3052 0
3053 3054 3055 3056 0
3057 3058 3059 3060 0
3061 3062 3063 3064 0
3065 3066 3067 3068 0
3069 3070 3071 3072 0
3073 3074 3075 3076 0
3077 3078 3079 3080 0
3081 3082 3083 3084 0
3085 3086 3087 3088 0
3089 3090 3091 3092 0
3093 3094 3095 3096 0
3097 3098 3099 3100 0
3101 3102 3103 3104 0
3105 3106 3107 3108 0
3109 3110 3111 3112 0
3113 3114 3115 3116 0
3117 3118 3119 3120 0
3121 3122 3123 3124 0
3125 3126 3127 3128 0
3129 3130 3131 3132 0
3133 3134 3135 3136 0
3137 3138 3139 3140 0
3141 3142 3143 3144 0
3145 3146 3147 3148 0
3149 3150 3151 3152 0
3153 3154 3155 3156 0
3157 3158 3159 3160 0
3161 3162 3163 3164 0
3165 3166 3167 3168 0
3169 3170 3171 3172 0
3173 3174 3175 3176 0
3177 3178 3179 3180 0
3181 3182 3183 3184 0
3185 3186 3187 3188 0
3189 3190 3191 3192 0
3193 3194 3195 3196 0
3197 3198 3199 3200 0
3201 3202 3203 3204 0
3205 3206 3207 3208 0
3209 3210 3211 3212 0
3213 3214 3215 3216 0
3217 3218 3219 3220 0
3221 3222 3223 3224 0
3225 3226 3227 3228 0
3229 3230 3231 3232 0
3233 3234 3235 3236 0
3237 3238 3239 3240 0
3241 3242 3243 3244 0
3245 3246 3247 3248 0
3249 3250 3251 3252 0
3253 3254 3255 3256 0
3257 3258 3259 3260 0
3261 3262 3263 3264 0
3265 3266 3267 3268 0
3269 3270 3271 3272 0
3273 3274 3275 3276 0
3277 3278 3279 3280 0
3281 3282 3283 3284 0
3285 3286 3287 3288 0
3289 3290 3291 3292 0
3293 3294 3295 3296 0
3297 3298 3299 3300 0
3301 3302 3303 3304 0
3305 3306 3307 3308 0
3309 3310 3311 3312 0
3313 3314 3315 3316 0
3317 3318 3319 3320 0
3321 3322 3323 3324 0
3325 3326 3327 3328 0
3329 3330 3331 3332 0
3333 3334 3335 3336 0
3337 3338 3339 3340 0
3341 3342 3343 3344 0
3345 3346 3347 3348 0
3349 3350 3351 3352 0
3353 3354 3355 3356 0
3357 3358 3359 3360 0
3361 3362 3363 3364 0
3365 3366 3367 3368 0
3369 3370 3371 3372 0
3373 3374 3375 3376 0
3377 3378 3379 3380 0
3381 3382 3383 3384 0
3385 3386 3387 3388 0
3389 3390 3391 3392 0
3393 3394 3395 3396 0
3397 3398 3399 3400 0
3401 3402 3403 3404 0
3405 3406 3407 3408 0
3409 3410 3411 3412 0
3413 3414 3415 3416 0
3417 3418 3419 3420 0
3421 3422 3423 3424 0
3425 3426 3427 3428 0
3429 3430 3431 3432 0
3433 3434 3435 3436 0
3437 3438 3439 3440 0
3441 3442 3443 3444 0
3445 3446 3447 3448 0
3449 3450 3451 3452 0
3453 3454 3455 3456 0
3457 3458 3459 3460 0
3461 3462 3463 3464 0
3465 3466 3467 3468 0
3469 3470 3471 3472 0
3473 3474 3475 3476 0
3477 3478 3479 3480 0
3481 3482 3483 3484 0
3485 3486 3487 3488 0
3489 3490 3491 3492 0
3493 3494 3495 3496 0
3497 3498 3499 3500 0
3501 3502 3503 3504 0
3505 3506 3507 3508 0
3509 3510 3511 3512 0
3513 3514 3515 3516 0
3517 3518 3519 3520 0
3521 3522 3523 3524 0
3525 3526 3527 3528 0
3529 3530 3531 3532 0
3533 3534 3535 3536 0
3537 3538 3539 3540 0
3541 3542 3543 3544 0
3545 3546 3547 3548 0
3549 3550 3551 3552 0
3553 3554 3555 3556 0
3557 3558 3559 3560 0
3561 3562 3563 3564 0
3565 3566 3567 3568 0
3569 3570 3571 3572 0
3573 3574 3575 3576 0
3577 3578 3579 3580 0
3581 3582 3583 3584 0
3585 3586 3587 3588 0
3589 3590 3591 3592 0
3593 3594 3595 3596 0
3597 3598 3599 3600 0
3601 3602 3603 3604 0
3605 3606 3607 3608 0
3609 3610 3611 3612 0
3613 3614 3615 3616 0
3617 3618 3619 3620 0
3621 3622 3623 3624 0
3625 3626 3627 3628 0
3629 3630 3631 3632 0
3633 3634 3635 3636 0
3637 3638 3639 3640 0
3641 3642 3643 3644 0
3645 3646 3647 3648 0
3649 3650 3651 3652 0
3653 3654 3655 3656 0
3657 3658 3659 3660 0
3661 3662 3663 3664 0
3665 3666 3667 3668 0
3669 3670 3671 3672 0
3673 3674 3675 3676 0
3677 3678 3679 3680 0
3681 3682 3683 3684 0
3685 3686 3687 3688 0
3689 3690 3691 3692 0
3693 3694 3695 3696 0
3697 3698 3699 3700 0
3701 3702 3703 3704 0
3705 3706 3707 3708 0
3709 3710 3711 3712 0
3713 3714 3715 3716 0
3717 3718 3719 3720 0
3721 3722 3723 3724 0
3725 3726 3727 3728 0
3729 3730 3731 3732 0
3733 3734 3735 3736 0
3737 3738 3739 3740 0
3741 3742 3743 3744 0
3745 3746 3747 3748 0
3749 3750 3751 3752 0
3753 3754 3755 3756 0
3757 3758 3759 3760 0
3761 3762 3763 3764 0
3765 3766 3767 3768 0
3769 3770 3771 3772 0
3773 3774 3775 3776 0
3777 3778 3779 3780 0
3781 3782 3783 3784 0
3785 3786 3787 3788 0
3789 3790 3791 3792 0
3793 3794 3795 3796 0
3797 3798 3799 3800 0
3801 3802 3803 3804 0
3805 3806 3807 3808 0
3809 3810 3811 3812 0
3813 3814 3815 3816 0
3817 3818 3819 3820 0
3821 3822 3823 3824 0
3825 3826 3827 3828 0
3829 3830 3831 3832 0
3833 3834 3835 3836 0
3837 3838 3839 3840 0
3841 3842 3843 3844 0
3845 3846 3847 3848 0
3849 3850 3851 3852 0
3853 3854 3855 3856 0
3857 3858 3859 3860 0
3861 3862 3863 3864 0
3865 3866 3867 3868 0
3869 3870 3871 3872 0
3873 3874 3875 3876 0
3877 3878 3879 3880 0
3881 3882 3883 3884 0
3885 3886 3887 3888 0
3889 3890 3891 3892 0
3893 3894 3895 3896 0
3897 3898 3899 3900 0
3901 3902 3903 3904 0
3905 3906 3907 3908 0
3909 3910 3911 3912 0
3913 3914 3915 3916 0
3917 3918 3919 3920 0
3921 3922 3923 3924 0
3925 3926 3927 3928 0
3929 3930 3931 3932 0
3933 3934 3935 3936 0
3937 3938 3939 3940 0
3941 3942 3943 3944 0
3945 3946 3947 3948 0
3949 3950 3951 3952 0
3953 3954 3955 3956 0
3957 3958 3959 3960 0
3961 3962 3963 3964 0
3965 3966 3967 3968 0
3969 3970 3971 3972 0
3973 3974 3975 3976 0
3977 3978 3979 3980 0
3981 3982 3983 3984 0
3985 3986 3987 3988 0
3989 3990 3991 3992 0
3993 3994 3995 3996 0
3997 3998 3999 4000 0
4001 4002 4003 4004 0
4005 4006 4007 4008 0
4009 4010 4011 4012 0
4013 4014 4015 4016 0
4017 4018 4019 4020 0
4021 4022 4023 4024 0
4025 4026 4027 4028 0
4029 4030 4031 4032 0
4033 4034 4035 4036 0
4037 4038 4039 4040 0
4041 4042 4043 4044 0
4045 4046 4047 4048 0
4049 4050 4051 4052 0
4053 4054 4055 4056 0
4057 4058 4059 4060 0
4061 4062 4063 4064 0
4065 4066 4067 4068 0
4069 4070 4071 4072 0
4073 4074 4075 4076 0
4077 4078 4079 4080 0
4081 4082 4083 4084 0
4085 4086 4087 4088 0
4089 4090 4091 4092 0
4093 4094 4095 4096 0
4097 4098 4099 4100 0
4101 4102 4103 4104 0
4105 4106 4107 4108 0
4109 4110 4111 4112 0
4113 4114 4115 4116 0
4117 4118 4119 4120 0
4121 4122 4123 4124 0
4125 4126 4127 4128 0
4129 4130 4131 4132 0
4133 4134 4135 4136 0
4137 4138 4139 4140 0
4141 4142 4143 4144 0
4145 4146 4147 4148 0
4149 4150 4151 4152 0
4153 4154 4155 4156 0
4157 4158 4159 4160 0
4161 4162 4163 4164 0
4165 4166 4167 4168 0
4169 4170 4171 4172 0
4173 4174 4175 4176 0
4177 4178 4179 4180 0
4181 4182 4183 4184 0
4185 4186 4187 4188 0
4189 4190 4191 4192 0
4193 4194 4195 4196 0
4197 4198 4199 4200 0
4201 4202 4203 4204 0
4205 4206 4207 4208 0
4209 4210 4211 4212 0
4213 4214 4215 4216 0
4217 4218 4219 4220 0
4221 4222 4223 4224 0
4225 4226 4227 4228 0
4229 4230 4231 4232 0
4233 4234 4235 4236 0
4237 4238 4239 4240 0
4241 4242 4243 4244 0
4245 4246 4247 4248 0
4249 4250 4251 4252 0
4253 4254 4255 4256 0
4257 4258 4259 4260 0
4261 4262 4263 4264 0
4265 4266 4267 4268 0
4269 4270 4271 4272 0
4273 4274 4275 4276 0
4277 4278 4279 4280 0
4281 4282 4283 4284 0
4285 4286 4287 4288 0
4289 4290 4291 4292 0
4293 4294 4295 4296 0
4297 4298 4299 4300 0
4301 4302 4303 4304 0
4305 4306 4307 4308 0
4309 4310 4311 4312 0
4313 4314 4315 4316 0
4317 4318 4319 4320 0
4321 4322 4323 4324 0
4325 4326 4327 4328 0
4329 4330 4331 4332 0
4333 4334 4335 4336 0
4337 4338 4339 4340 0
4341 4342 4343 4344 0
4345 4346 4347 4348 0
4349 4350 4351 4352 0
4353 4354 4355 4356 0
4357 4358 4359 4360 0
4361 4362 4363 4364 0
4365 4366 4367 4368 0
4369 4370 4371 4372 0
4373 4374 4375 4376 0
4377 4378 4379 4380 0
4381 4382 4383 4384 0
4385 4386 4387 4388 0
4389 4390 4391 4392 0
4393 4394 4395 4396 0
4397 4398 4399 4400 0
4401 4402 4403 4404 0
4405 4406 4407 4408 0
4409 4410 4411 4412 0
4413 4414 4415 4416 0
4417 4418 4419 4420 0
4421 4422 4423 4424 0
4425 4426 4427 4428 0
4429 4430 4431 4432 0
4433 4434 4435 4436 0
4437 4438 4439 4440 0
4441 4442 4443 4444 0
4445 4446 4447 4448 0
4449 4450 4451 4452 0
4453 4454 4455 4456 0
4457 4458 4459 4460 0
4461 4462 4463 4464 0
4465 4466 4467 4468 0
4469 4470 4471 4472 0
4473 4474 4475 4476 0
4477 4478 4479 4480 0
4481 4482 4483 4484 0
4485 4486 4487 4488 0
4489 4490 4491 4492 0
4493 4494 4495 4496 0
4497 4498 4499 4500 0
4501 4502 4503 4504 0
4505 4506 4507 4508 0
4509 4510 4511 4512 0
4513 4514 4515 4516 0
4517 4518 4519 4520 0
4521 4522 4523 4524 0
4525 4526 4527 4528 0
4529 4530 4531 4532 0
4533 4534 4535 4536 0
4537 4538 4539 4540 0
4541 4542 4543 4544 0
4545 4546 4547 4548 0
4549 4550 4551 4552 0
4553 4554 4555 4556 0
4557 4558 4559 4560 0
4561 4562 4563 4564 0
4565 4566 4567 4568 0
4569 4570 4571 4572 0
4573 4574 4575 4576 0
4577 4578 4579 4580 0
4581 4582 4583 4584 0
4585 4586 4587 4588 0
4589 4590 4591 4592 0
4593 4594 4595 4596 0
4597 4598 4599 4600 0
4601 4602 4603 4604 0
4605 4606 4607 4608 0
4609 4610 4611 4612 0
4613 4614 4615 4616 0
4617 4618 4619 4620 0
4621 4622 4623 4624 0
4625 4626 4627 4628 0
4629 4630 4631 4632 0
4633 4634 4635 4636 0
4637 4638 4639 4640 0
4641 4642 4643 4644 0
4645 4646 4647 4648 0
4649 4650 4651 4652 0
4653 4654 4655 4656 0
4657 4658 4659 4660 0
4661 4662 4663 4664 0
4665 4666 4667 4668 0
4669 4670 4671 4672 0
4673 4674 4675 4676 0
4677 4678 4679 4680 0
4681 4682 4683 4684 0
4685 4686 4687 4688 0
4689 4690 4691 4692 0
4693 4694 4695 4696 0
4697 4698 4699 4700 0
4701 4702 4703 4704 0
4705 4706 4707 4708 0
4709 4710 4711 4712 0
4713 4714 4715 4716 0
4717 4718 4719 4720 0
4721 4722 4723 4724 0
4725 4726 4727 4728 0
4729 4730 4731 4732 0
4733 4734 4735 4736 0
4737 4738 4739 4740 0
4741 4742 4743 4744 0
4745 4746 4747 4748 0
4749 4750 4751 4752 0
4753 4754 4755 4756 0
4757 4758 4759 4760 0
4761 4762 4763 4764 0
4765 4766 4767 4768 0
4769 4770 4771 4772 0
4773 4774 4775 4776 0
4777 4778 4779 4780 0
4781 4782 4783 4784 0
4785 4786 4787 4788 0
4789 4790 4791 4792 0
4793 4794 4795 4796 0
4797 4798 4799 4800 0
4801 4802 4803 4804 0
4805 4806 4807 4808 0
4809 4810 4811 4812 0
4813 4814 4815 4816 0
4817 4818 4819 4820 0
4821 4822 4823 4824 0
4825 4826 4827 4828 0
4829 4830 4831 4832 0
4833 4834 4835 4836 0
4837 4838 4839 4840 0
4841 4842 4843 4844 0
4845 4846 4847 4848 0
4849 4850 4851 4852 0
4853 4854 4855 4856 0
4857 4858 4859 4860 0
4861 4862 4863 4864 0
4865 4866 4867 4868 0
4869 4870 4871 4872 0
4873 4874 4875 4876 0
4877 4878 4879 4880 0
4881 4882 4883 4884 0
4885 4886 4887 4888 0
4889 4890 4891 4892 0
4893 4894 4895 4896 0
4897 4898 4899 4900 0
4901 4902 4903 4904 0
4905 4906 4907 4908 0
4909 4910 4911 4912 0
4913 4914 4915 4916 0
4917 4918 4919 4920 0
4921 4922 4923 4924 0
4925 4926 4927 4928 0
4929 4930 4931 4932 0
4933 4934 4935 4936 0
4937 4938 4939 4940 0
4941 4942 4943 4944 0
4945 4946 4947 4948 0
4949 4950 4951 4952 0
4953 4954 4955 4956 0
4957 4958 4959 4960 0
4961 4962 4963 4964 0
4965 4966 4967 4968 0
4969 4970 4971 4972 0
4973 4974 4975 4976 0
4977 4978 4979 4980 0
4981 4982 4983 4984 0
4985 4986 4987 4988 0
4989 4990 4991 4992 0
4993 4994 4995 4996 0
4997 4998 4999 5000 0
5001 5002 5003 5004 0
5005 5006 5007 5008 0
5009 5010 5011 5012 0
5013 5014 5015 5016 0
5017 5018 5019 5020 0
5021 5022 5023 5024 0
5025 5026 5027 5028 0
5029 5030 5031 5032 0
5033 5034 5035 5036 0
5037 5038 5039 5040 0
5041 5042 5043 5044 0
5045 5046 5047 5048 0
5049 5050 5051 5052 0
5053 5054 5055 5056 0
5057 5058 5059 5060 0
5061 5062 5063 5064 0
5065 5066 5067 5068 0
5069 5070 5071 5072 0
5073 5074 5075 5076 0
5077 5078 5079 5080 0
5081 5082 5083 5084 0
5085 5086 5087 5088 0
5089 5090 5091 5092 0
5093 5094 5095 5096 0
5097 5098 5099 5100 0
5101 5102 5103 5104 0
5105 5106 5107 5108 0
5109 5110 5111 5112 0
5113 5114 5115 5116 0
5117 5118 5119 5120 0
5121 5122 5123 5124 0
5125 5126 5127 5128 0
5129 5130 5131 5132 0
5133 5134 5135 5136 0
5137 5138 5139 5140 0
5141 5142 5143 5144 0
5145 5146 5147 5148 0
5149 5150 5151 5152 0
5153 5154 5155 5156 0
5157 5158 5159 5160 0
5161 5162 5163 5164 0
5165 5166 5167 5168 0
5169 5170 5171 5172 0
5173 5174 5175 5176 0
5177 5178 5179 5180 0
5181 5182 5183 5184 0
5185 5186 5187 5188 0
5189 5190 5191 5192 0
5193 5194 5195 5196 0
5197 5198 5199 5200 0
5201 5202 5203 5204 0
5205 5206 5207 5208 0
5209 5210 5211 5212 0
5213 5214 5215 5216 0
5217 5218 5219 5220 0
5221 5222 5223 5224 0
5225 5226 5227 5228 0
5229 5230 5231 5232 0
5233 5234 5235 5236 0
5237 5238 5239 5240 0
5241 5242 5243 5244 0
5245 5246 5247 5248 0
5249 5250 5251 5252 0
5253 5254 5255 5256 0
5257 5258 5259 5260 0
5261 5262 5263 5264 0
5265 5266 5267 5268 0
5269 5270 5271 5272 0
5273 5274 5275 5276 0
5277 5278 5279 5280 0
5281 5282 5283 5284 0
5285 5286 5287 5288 0
5289 5290 5291 5292 0
5293 5294 5295 5296 0
5297 5298 5299 5300 0
5301 5302 5303 5304 0
5305 5306 5307 5308 0
5309 5310 5311 5312 0
5313 5314 5315 5316 0
5317 5318 5319 5320 0
5321 5322 5323 5324 0
5325 5326 5327 5328 0
5329 5330 5331 5332 0
5333 5334 5335 5336 0
5337 5338 5339 5340 0
5341 5342 5343 5344 0
5345 5346 5347 5348 0
5349 5350 5351 5352 0
5353 5354 5355 5356 0
5357 5358 5359 5360 0
5361 5362 5363 5364 0
5365 5366 5367 5368 0
5369 5370 5371 5372 0
5373 5374 5375 5376 0
5377 5378 5379 5380 0
5381 5382 5383 5384 0
5385 5386 5387 5388 0
5389 5390 5391 5392 0
5393 5394 5395 5396 0
5397 5398 5399 5400 0
5401 5402 5403 5404 0
5405 5406 5407 5408 0
5409 5410 5411 5412 0
5413 5414 5415 5416 0
5417 5418 5419 5420 0
5421 5422 5423 5424 0
5425 5426 5427 5428 0
5429 5430 5431 5432 0
5433 5434 5435 5436 0
5437 5438 5439 5440 0
5441 5442 5443 5444 0
5445 5446 5447 5448 0
5449 5450 5451 5452 0
5453 5454 5455 5456 0
5457 5458 5459 5460 0
5461 5462 5463 5464 0
5465 5466 5467 5468 0
5469 5470 5471 5472 0
5473 5474 5475 5476 0
5477 5478 5479 5480 0
5481 5482 5483 5484 0
5485 5486 5487 5488 0
5489 5490 5491 5492 0
5493 5494 5495 5496 0
5497 5498 5499 5500 0
5501 5502 5503 5504 0
5505 5506 5507 5508 0
5509 5510 5511 5512 0
5513 5514 5515 5516 0
5517 5518 5519 5520 0
5521 5522 5523 5524 0
5525 5526 5527 5528 0
5529 5530 5531 5532 0
5533 5534 5535 5536 0
5537 5538 5539 5540 0
5541 5542 5543 5544 0
5545 5546 5547 5548 0
5549 5550 5551 5552 0
5553 5554 5555 5556 0
5557 5558 5559 5560 0
5561 5562 5563 5564 0
5565 5566 5567 5568 0
5569 5570 5571 5572 0
5573 5574 5575 5576 0
5577 5578 5579 5580 0
5581 5582 5583 5584 0
5585 5586 5587 5588 0
5589 5590 5591 5592 0
5593 5594 5595 5596 0
5597 5598 5599 5600 0
5601 5602 5603 5604 0
5605 5606 5607 5608 0
5609 5610 5611 5612 0
5613 5614 5615 5616 0
5617 5618 5619 5620 0
5621 5622 5623 5624 0
5625 5626 5627 5628 0
5629 5630 5631 5632 0
5633 5634 5635 5636 0
5637 5638 5639 5640 0
5641 5642 5643 5644 0
5645 5646 5647 5648 0
5649 5650 5651 5652 0
5653 5654 5655 5656 0
5657 5658 5659 5660 0
5661 5662 5663 5664 0
5665 5666 5667 5668 0
5669 5670 5671 5672 0
5673 5674 5675 5676 0
5677 5678 5679 5680 0
5681 5682 5683 5684 0
5685 5686 5687 5688 0
5689 5690 5691 5692 0
5693 5694 5695 5696 0
5697 5698 5699 5700 0
5701 5702 5703 5704 0
5705 5706 5707 5708 0
5709 5710 5711 5712 0
5713 5714 5715 5716 0
5717 5718 5719 5720 0
5721 5722 5723 5724 0
5725 5726 5727 5728 0
5729 5730 5731 5732 0
5733 5734 5735 5736 0
5737 5738 5739 5740 0
5741 5742 5743 5744 0
5745 5746 5747 5748 0
5749 5750 5751 5752 0
5753 5754 5755 5756 0
5757 5758 5759 5760 0
5761 5762 5763 5764 0
5765 5766 5767 5768 0
5769 5770 5771 5772 0
5773 5774 5775 5776 0
5777 5778 5779 5780 0
5781 5782 5783 5784 0
5785 5786 5787 5788 0
5789 5790 5791 5792 0
5793 5794 5795 5796 0
5797 5798 5799 5800 0
5801 5802 5803 5804 0
5805 5806 5807 5808 0
5809 5810 5811 5812 0
5813 5814 5815 5816 0
5817 5818 5819 5820 0
5821 5822 5823 5824 0
5825 5826 5827 5828 0
5829 5830 5831 5832 0
5833 5834 5835 5836 0
5837 5838 5839 5840 0
5841 5842 5843 5844 0
5845 5846 5847 5848 0
5849 5850 5851 5852 0
5853 5854 5855 5856 0
5857 5858 5859 5860 0
5861 5862 5863 5864 0
5865 5866 5867 5868 0
5869 5870 5871 5872 0
5873 5874 5875 5876 0
5877 5878 5879 5880 0
5881 5882 5883 5884 0
5885 5886 5887 5888 0
5889 5890 5891 5892 0
5893 5894 5895 5896 0
5897 5898 5899 5900 0
5901 5902 5903 5904 0
5905 5906 5907 5908 0
5909 5910 5911 5912 0
5913 5914 5915 5916 0
5917 5918 5919 5920 0
5921 5922 5923 5924 0
5925 5926 5927 5928 0
5929 5930 5931 5932 0
5933 5934 5935 5936 0
5937 5938 5939 5940 0
5941 5942 5943 5944 0
5945 5946 5947 5948 0
5949 5950 5951 5952 0
5953 5954 5955 5956 0
5957 5958 5959 5960 0
5961 5962 5963 5964 0
5965 5966 5967 5968 0
5969 5970 5971 5972 0
5973 5974 5975 5976 0
5977 5978 5979 5980 0
5981 5982 5983 5984 0
5985 5986 5987 5988 0
5989 5990 5991 5992 0
5993 5994 5995 5996 0
5997 5998 5999 6000 0
6001 6002 6003 6004 0
6005 6006 6007 6008 0
6009 6010 6011 6012 0
6013 6014 6015 6016 0
6017 6018 6019 6020 0
6021 6022 6023 6024 0
6025 6026 6027 6028 0
6029 6030 6031 6032 0
6033 6034 6035 6036 0
6037 6038 6039 6040 0
6041 6042 6043 6044 0
6045 6046 6047 6048 0
6049 6050 6051 6052 0
6053 6054 6055 6056 0
6057 6058 6059 6060 0
6061 6062 6063 6064 0
6065 6066 6067 6068 0
6069 6070 6071 6072 0
6073 6074 6075 6076 0
6077 6078 6079 6080 0
6081 6082 6083 6084 0
6085 6086 6087 6088 0
6089 6090 6091 6092 0
6093 6094 6095 6096 0
6097 6098 6099 6100 0
6101 6102 6103 6104 0
6105 6106 6107 6108 0
6109 6110 6111 6112 0
6113 6114 6115 6116 0
6117 6118 6119 6120 0
6121 6122 6123 6124 0
6125 6126 6127 6128 0
6129 6130 6131 6132 0
6133 6134 6135 6136 0
6137 6138 6139 6140 0
6141 6142 6143 6144 0
6145 6146 6147 6148 0
6149 6150 6151 6152 0
6153 6154 6155 6156 0
6157 6158 6159 6160 0
6161 6162 6163 6164 0
6165 6166 6167 6168 0
6169 6170 6171 6172 0
6173 6174 6175 6176 0
6177 6178 6179 6180 0
6181 6182 6183 6184 0
6185 6186 6187 6188 0
6189 6190 6191 6192 0
6193 6194 6195 6196 0
6197 6198 6199 6200 0
6201 6202 6203 6204 0
6205 6206 6207 6208 0
6209 6210 6211 6212 0
6213 6214 6215 6216 0
6217 6218 6219 6220 0
6221 6222 6223 6224 0
6225 6226 6227 6228 0
6229 6230 6231 6232 0
6233 6234 6235 6236 0
6237 6238 6239 6240 0
6241 6242 6243 6244 0
6245 6246 6247 6248 0
6249 6250 6251 6252 0
6253 6254 6255 6256 0
6257 6258 6259 6260 0
6261 6262 6263 6264 0
6265 6266 6267 6268 0
6269 6270 6271 6272 0
6273 6274 6275 6276 0
6277 6278 6279 6280 0
6281 6282 6283 6284 0
6285 6286 6287 6288 0
6289 6290 6291 6292 0
6293 6294 6295 6296 0
6297 6298 6299 6300 0
6301 6302 6303 6304 0
6305 6306 6307 6308 0
6309 6310 6311 6312 0
6313 6314 6315 6316 0
6317 6318 6319 6320 0
6321 6322 6323 6324 0
6325 6326 6327 6328 0
6329 6330 6331 6332 0
6333 6334 6335 6336 0
6337 6338 6339 6340 0
6341 6342 6343 6344 0
6345 6346 6347 6348 0
6349 6350 6351 6352 0
6353 6354 6355 6356 0
6357 6358 6359 6360 0
6361 6362 6363 6364 0
6365 6366 6367 6368 0
6369 6370 6371 6372 0
6373 6374 6375 6376 0
6377 6378 6379 6380 0
6381 6382 6383 6384 0
6385 6386 6387 6388 0
6389 6390 6391 6392 0
6393 6394 6395 6396 0
6397 6398 6399 6400 0
6401 6402 6403 6404 0
6405 6406 6407 6408 0
6409 6410 6411 6412 0
6413 6414 6415 6416 0
6417 6418 6419 6420 0
6421 6422 6423 6424 0
6425 6426 6427 6428 0
6429 6430 6431 6432 0
6433 6434 6435 6436 0
6437 6438 6439 6440 0
6441 6442 6443 6444 0
6445 6446 6447 6448 0
6449 6450 6451 6452 0
6453 6454 6455 6456 0
6457 6458 6459 6460 0
6461 6462 6463 6464 0
6465 6466 6467 6468 0
6469 6470 6471 6472 0
6473 6474 6475 6476 0
6477 6478 6479 6480 0
6481 6482 6483 6484 0
6485 6486 6487 6488 0
6489 6490 6491 6492 0
6493 6494 6495 6496 0
6497 6498 6499 6500 0
6501 6502 6503 6504 0
6505 6506 6507 6508 0
6509 6510 6511 6512 0
6513 6514 6515 6516 0
6517 6518 6519 6520 0
6521 6522 6523 6524 0
6525 6526 6527 6528 0
6529 6530 6531 6532 0
6533 6534 6535 6536 0
6537 6538 6539 6540 0
6541 6542 6543 6544 0
6545 6546 6547 6548 0
6549 6550 6551 6552 0
6553 6554 6555 6556 0
6557 6558 6559 6560 0
6561 6562 6563 6564 0
6565 6566 6567 6568 0
6569 6570 6571 6572 0
6573 6574 6575 6576 0
6577 6578 6579 6580 0
6581 6582 6583 6584 0
6585 6586 6587 6588 0
6589 6590 6591 6592 0
6593 6594 6595 6596 0
6597 6598 6599 6600 0
6601 6602 6603 6604 0
6605 6606 6607 6608 0
6609 6610 6611 6612 0
6613 6614 6615 6616 0
6617 6618 6619 6620 0
6621 6622 6623 6624 0
6625 6626 6627 6628 0
6629 6630 6631 6632 0
6633 6634 6635 6636 0
6637 6638 6639 6640 0
6641 6642 6643 6644 0
6645 6646 6647 6648 0
6649 6650 6651 6652 0
6653 6654 6655 6656 0
6657 6658 6659 6660 0
6661 6662 6663 6664 0
6665 6666 6667 6668 0
6669 6670 6671 6672 0
6673 6674 6675 6676 0
6677 6678 6679 6680 0
6681 6682 6683 6684 0
6685 6686 6687 6688 0
6689 6690 6691 6692 0
6693 6694 6695 6696 0
6697 6698 6699 6700 0
6701 6702 6703 6704 0
6705 6706 6707 6708 0
6709 6710 6711 6712 0
6713 6714 6715 6716 0
6717 6718 6719 6720 0
6721 6722 6723 6724 0
6725 6726 6727 6728 0
6729 6730 6731 6732 0
6733 6734 6735 6736 0
6737 6738 6739 6740 0
6741 6742 6743 6744 0
6745 6746 6747 6748 0
6749 6750 6751 6752 0
6753 6754 6755 6756 0
6757 6758 6759 6760 0
6761 6762 6763 6764 0
6765 6766 6767 6768 0
6769 6770 6771 6772 0
6773 6774 6775 6776 0
6777 6778 6779 6780 0
6781 6782 6783 6784 0
6785 6786 6787 6788 0
6789 6790 6791 6792 0
6793 6794 6795 6796 0
6797 6798 6799 6800 0
6801 6802 6803 6804 0
6805 6806 6807 6808 0
6809 6810 6811 6812 0
6813 6814 6815 6816 0
6817 6818 6819 6820 0
6821 6822 6823 6824 0
6825 6826 6827 6828 0
6829 6830 6831 6832 0
6833 6834 6835 6836 0
6837 6838 6839 6840 0
6841 6842 6843 6844 0
6845 6846 6847 6848 0
6849 6850 6851 6852 0
6853 6854 6855 6856 0
6857 6858 6859 6860 0
6861 6862 6863 6864 0
6865 6866 6867 6868 0
6869 6870 6871 6872 0
6873 6874 6875 6876 0
6877 6878 6879 6880 0
6881 6882 6883 6884 0
6885 6886 6887 6888 0
6889 6890 6891 6892 0
6893 6894 6895 6896 0
6897 6898 6899 6900 0
6901 6902 6903 6904 0
6905 6906 6907 6908 0
6909 6910 6911 6912 0
6913 6914 6915 6916 0
6917 6918 6919 6920 0
6921 6922 6923 6924 0
6925 6926 6927 6928 0
6929 6930 6931 6932 0
6933 6934 6935 6936 0
6937 6938 6939 6940 0
6941 6942 6943 6944 0
6945 6946 6947 6948 0
6949 6950 6951 6952 0
6953 6954 6955 6956 0
6957 6958 6959 6960 0
6961 6962 6963 6964 0
6965 6966 6967 6968 0
6969 6970 6971 6972 0
6973 6974 6975 6976 0
6977 6978 6979 6980 0
6981 6982 6983 6984 0
6985 6986 6987 6988 0
6989 6990 6991 6992 0
6993 6994 6995 6996 0
6997 6998 6999 7000 0
7001 7002 7003 7004 0
7005 7006 7007 7008 0
7009 7010 7011 7012 0
7013 7014 7015 7016 0
7017 7018 7019 7020 0
7021 7022 7023 7024 0
7025 7026 7027 7028 0
7029 7030 7031 7032 0
7033 7034 7035 7036 0
7037 7038 7039 7040 0
7041 7042 7043 7044 0
7045 7046 7047 7048 0
7049 7050 7051 7052 0
7053 7054 7055 7056 0
7057 7058 7059 7060 0
7061 7062 7063 7064 0
7065 7066 7067 7068 0
7069 7070 7071 7072 0
7073 7074 7075 7076 0
7077 7078 7079 7080 0
7081 7082 7083 7084 0
7085 7086 7087 7088 0
7089 7090 7091 7092 0
7093 7094 7095 7096 0
7097 7098 7099 7100 0
7101 7102 7103 7104 0
7105 7106 7107 7108 0
7109 7110 7111 7112 0
7113 7114 7115 7116 0
7117 7118 7119 7120 0
7121 7122 7123 7124 0
7125 7126 7127 7128 0
7129 7130 7131 7132 0
7133 7134 7135 7136 0
7137 7138 7139 7140 0
7141 7142 7143 7144 0
7145 7146 7147 7148 0
7149 7150 7151 7152 0
7153 7154 7155 7156 0
7157 7158 7159 7160 0
7161 7162 7163 7164 0
7165 7166 7167 7168 0
7169 7170 7171 7172 0
7173 7174 7175 7176 0
7177 7178 7179 7180 0
7181 7182 7183 7184 0
7185 7186 7187 7188 0
7189 7190 7191 7192 0
7193 7194 7195 7196 0
7197 7198 7199 7200 0
7201 7202 7203 7204 0
7205 7206 7207 7208 0
7209 7210 7211 7212 0
7213 7214 7215 7216 0
7217 7218 7219 7220 0
7221 7222 7223 7224 0
7225 7226 7227 7228 0
7229 7230 7231 7232 0
7233 7234 7235 7236 0
7237 7238 7239 7240 0
7241 7242 7243 7244 0
7245 7246 7247 7248 0
7249 7250 7251 7252 0
7253 7254 7255 7256 0
7257 7258 7259 7260 0
7261 7262 7263 7264 0
7265 7266 7267 7268 0
7269 7270 7271 7272 0
7273 7274 7275 7276 0
7277 7278 7279 7280 0
7281 7282 7283 7284 0
7285 7286 7287 7288 0
7289 7290 7291 7292 0
7293 7294 7295 7296 0
7297 7298 7299 7300 0
7301 7302 7303 7304 0
7305 7306 7307 7308 0
7309 7310 7311 7312 0
7313 7314 7315 7316 0
7317 7318 7319 7320 0
7321 7322 7323 7324 0
7325 7326 7327 7328 0
7329 7330 7331 7332 0
7333 7334 7335 7336 0
7337 7338 7339 7340 0
7341 7342 7343 7344 0
7345 7346 7347 7348 0
7349 7350 7351 7352 0
7353 7354 7355 7356 0
7357 7358 7359 7360 0
7361 7362 7363 7364 0
7365 7366 7367 7368 0
7369 7370 7371 7372 0
7373 7374 7375 7376 0
7377 7378 7379 7380 0
7381 7382 7383 7384 0
7385 7386 7387 7388 0
7389 7390 7391 7392 0
7393 7394 7395 7396 0
7397 7398 7399 7400 0
7401 7402 7403 7404 0
7405 7406 7407 7408 0
7409 7410 7411 7412 0
7413 7414 7415 7416 0
7417 7418 7419 7420 0
7421 7422 7423 7424 0
7425 7426 7427 7428 0
7429 7430 7431 7432 0
7433 7434 7435 7436 0
7437 7438 7439 7440 0
7441 7442 7443 7444 0
7445 7446 7447 7448 0
7449 7450 7451 7452 0
7453 7454 7455 7456 0
7457 7458 7459 7460 0
7461 7462 7463 7464 0
7465 7466 7467 7468 0
7469 7470 7471 7472 0
7473 7474 7475 7476 0
7477 7478 7479 7480 0
7481 7482 7483 7484 0
7485 7486 7487 7488 0
7489 7490 7491 7492 0
7493 7494 7495 7496 0
7497 7498 7499 7500 0
7501 7502 7503 7504 0
7505 7506 7507 7508 0
7509 7510 7511 7512 0
7513 7514 7515 7516 0
7517 7518 7519 7520 0
7521 7522 7523 7524 0
7525 7526 7527 7528 0
7529 7530 7531 7532 0
7533 7534 7535 7536 0
7537 7538 7539 7540 0
7541 7542 7543 7544 0
7545 7546 7547 7548 0
7549 7550 7551 7552 0
7553 7554 7555 7556 0
7557 7558 7559 7560 0
7561 7562 7563 7564 0
-1 -29 0
-2 -30 0
-3 -31 0
-4 -32 0
-1 -69 0
-2 -70 0
-3 -71 0
-4 -72 0
-1 -165 0
-2 -166 0
-3 -167 0
-4 -168 0
-1 -189 0
-2 -190 0
-3 -191 0
-4 -192 0
-1 -225 0
-2 -226 0
-3 -227 0
-4 -228 0
-1 -233 0
-2 -234 0
-3 -235 0
-4 -236 0
-1 -245 0
-2 -246 0
-3 -247 0
-4 -248 0
-1 -249 0
-2 -250 0
-3 -251 0
-4 -252 0
-5 -37 0
-6 -38 0
-7 -39 0
-8 -40 0
-5 -117 0
-6 -118 0
-7 -119 0
-8 -120 0
-5 -153 0
-6 -154 0
-7 -155 0
-8 -156 0
-5 -297 0
-6 -298 0
-7 -299 0
-8 -300 0
-5 -381 0
-6 -382 0
-7 -383 0
-8 -384 0
-5 -449 0
-6 -450 0
-7 -451 0
-8 -452 0
-5 -669 0
-6 -670 0
-7 -671 0
-8 -672 0
-9 -33 0
-10 -34 0
-11 -35 0
-12 -36 0
-9 -77 0
-10 -78 0
-11 -79 0
-12 -80 0
-9 -213 0
-10 -214 0
-11 -215 0
-12 -216 0
-9 -333 0
-10 -334 0
-11 -335 0
-12 -336 0
-9 -393 0
-10 -394 0
-11 -395 0
-12 -396 0
-9 -409 0
-10 -410 0
-11 -411 0
-12 -412 0
-9 -725 0
-10 -726 0
-11 -727 0
-12 -728 0
-13 -17 0
-14 -18 0
-15 -19 0
-16 -20 0
-13 -21 0
-14 -22 0
-15 -23 0
-16 -24 0
-13 -193 0
-14 -194 0
-15 -195 0
-16 -196 0
-13 -265 0
-14 -266 0
-15 -267 0
-16 -268 0
-13 -529 0
-14 -530 0
-15 -531 0
-16 -532 0
-13 -593 0
-14 -594 0
-15 -595 0
-16 -596 0
-13 -621 0
-14 -622 0
-15 -623 0
-16 -624 0
-13 -817 0
-14 -818 0
-15 -819 0
-16 -820 0
-17 -25 0
-18 -26 0
-19 -27 0
-20 -28 0
-17 -49 0
-18 -50 0
-19 -51 0
-20 -52 0
-17 -113 0
-18 -114 0
-19 -115 0
-20 -116 0
-17 -269 0
-18 -270 0
-19 -271 0
-20 -272 0
-17 -393 0
-18 -394 0
-19 -395 0
-20 -396 0
-17 -529 0
-18 -530 0
-19 -531 0
-20 -532 0
-17 -533 0
-18 -534 0
-19 -535 0
-20 -536 0
-17 -597 0
-18 -598 0
-19 -599 0
-20 -600 0
-17 -653 0
-18 -654 0
-19 -655 0
-20 -656 0
-17 -825 0
-18 -826 0
-19 -827 0
-20 -828 0
-21 -25 0
-22 -26 0
-23 -27 0
-24 -28 0
-21 -57 0
-22 -58 0
-23 -59 0
-24 -60 0
-21 -537 0
-22 -538 0
-23 -539 0
-24 -540 0
-21 -621 0
-22 -622 0
-23 -623 0
-24 -624 0
-21 -689 0
-22 -690 0
-23 -691 0
-24 -692 0
-25 -61 0
-26 -62 0
-27 -63 0
-28 -64 0
-25 -161 0
-26 -162 0
-27 -163 0
-28 -164 0
-25 -189 0
-26 -190 0
-27 -191 0
-28 -192 0
-25 -273 0
-26 -274 0
-27 -275 0
-28 -276 0
-25 -425 0
-26 -426 0
-27 -427 0
-28 -428 0
-25 -537 0
-26 -538 0
-27 -539 0
-28 -540 0
-25 -541 0
-26 -542 0
-27 -543 0
-28 -544 0
-25 -653 0
-26 -654 0
-27 -655 0
-28 -656 0
-25 -693 0
-26 -694 0
-27 -695 0
-28 -696 0
-25 -833 0
-26 -834 0
-27 -835 0
-28 -836 0
-29 -81 0
-30 -82 0
-31 -83 0
-32 -84 0
-29 -125 0
-30 -126 0
-31 -127 0
-32 -128 0
-29 -277 0
-30 -278 0
-31 -279 0
-32 -280 0
-29 -481 0
-30 -482 0
-31 -483 0
-32 -484 0
-29 -621 0
-30 -622 0
-31 -623 0
-32 -624 0
-29 -653 0
-30 -654 0
-31 -655 0
-32 -656 0
-29 -909 0
-30 -910 0
-31 -911 0
-32 -912 0
-33 -37 0
-34 -38 0
-35 -39 0
-36 -40 0
-33 -41 0
-34 -42 0
-35 -43 0
-36 -44 0
-33 -77 0
-34 -78 0
-35 -79 0
-36 -80 0
-33 -309 0
-34 -310 0
-35 -311 0
-36 -312 0
-33 -497 0
-34 -498 0
-35 -499 0
-36 -500 0
-33 -601 0
-34 -602 0
-35 -603 0
-36 -604 0
-33 -621 0
-34 -622 0
-35 -623 0
-36 -624 0
-33 -745 0
-34 -746 0
-35 -747 0
-36 -748 0
-33 -957 0
-34 -958 0
-35 -959 0
-36 -960 0
-37 -45 0
-38 -46 0
-39 -47 0
-40 -48 0
-37 -241 0
-38 -242 0
-39 -243 0
-40 -244 0
-37 -257 0
-38 -258 0
-39 -259 0
-40 -260 0
-37 -313 0
-38 -314 0
-39 -315 0
-40 -316 0
-37 -501 0
-38 -502 0
-39 -503 0
-40 -504 0
-37 -605 0
-38 -606 0
-39 -607 0
-40 -608 0
-37 -653 0
-38 -654 0
-39 -655 0
-40 -656 0
-37 -745 0
-38 -746 0
-39 -747 0
-40 -748 0
-37 -753 0
-38 -754 0
-39 -755 0
-40 -756 0
-37 -969 0
-38 -970 0
-39 -971 0
-40 -972 0
-41 -45 0
-42 -46 0
-43 -47 0
-44 -48 0
-41 -93 0
-42 -94 0
-43 -95 0
-44 -96 0
-41 -325 0
-42 -326 0
-43 -327 0
-44 -328 0
-41 -505 0
-42 -506 0
-43 -507 0
-44 -508 0
-41 -621 0
-42 -622 0
-43 -623 0
-44 -624 0
-41 -681 0
-42 -682 0
-43 -683 0
-44 -684 0
-41 -757 0
-42 -758 0
-43 -759 0
-44 -760 0
-45 -73 0
-46 -74 0
-47 -75 0
-48 -76 0
-45 -97 0
-46 -98 0
-47 -99 0
-48 -100 0
-45 -245 0
-46 -246 0
-47 -247 0
-48 -248 0
-45 -509 0
-46 -510 0
-47 -511 0
-48 -512 0
-45 -653 0
-46 -654 0
-47 -655 0
-48 -656 0
-45 -685 0
-46 -686 0
-47 -687 0
-48 -688 0
-45 -757 0
-46 -758 0
-47 -759 0
-48 -760 0
-45 -761 0
-46 -762 0
-47 -763 0
-48 -764 0
-49 -53 0
-50 -54 0
-51 -55 0
-52 -56 0
-49 -57 0
-50 -58 0
-51 -59 0
-52 -60 0
-49 -113 0
-50 -114 0
-51 -115 0
-52 -116 0
-49 -601 0
-50 -602 0
-51 -603 0
-52 -604 0
-49 -845 0
-50 -846 0
-51 -847 0
-52 -848 0
-49 -913 0
-50 -914 0
-51 -915 0
-52 -916 0
-49 -925 0
-50 -926 0
-51 -927 0
-52 -928 0
-49 -1077 0
-50 -1078 0
-51 -1079 0
-52 -1080 0
-53 -105 0
-54 -106 0
-55 -107 0
-56 -108 0
-53 -153 0
-54 -154 0
-55 -155 0
-56 -156 0
-53 -389 0
-54 -390 0
-55 -391 0
-56 -392 0
-53 -621 0
-54 -622 0
-55 -623 0
-56 -624 0
-53 -849 0
-54 -850 0
-55 -851 0
-56 -852 0
-53 -853 0
-54 -854 0
-55 -855 0
-56 -856 0
-53 -937 0
-54 -938 0
-55 -939 0
-56 -940 0
-57 -61 0
-58 -62 0
-59 -63 0
-60 -64 0
-57 -129 0
-58 -130 0
-59 -131 0
-60 -132 0
-57 -237 0
-58 -238 0
-59 -239 0
-60 -240 0
-57 -341 0
-58 -342 0
-59 -343 0
-60 -344 0
-57 -437 0
-58 -438 0
-59 -439 0
-60 -440 0
-57 -897 0
-58 -898 0
-59 -899 0
-60 -900 0
-57 -953 0
-58 -954 0
-59 -955 0
-60 -956 0
-57 -973 0
-58 -974 0
-59 -975 0
-60 -976 0
-57 -1157 0
-58 -1158 0
-59 -1159 0
-60 -1160 0
-61 -261 0
-62 -262 0
-63 -263 0
-64 -264 0
-61 -445 0
-62 -446 0
-63 -447 0
-64 -448 0
-61 -897 0
-62 -898 0
-63 -899 0
-64 -900 0
-61 -965 0
-62 -966 0
-63 -967 0
-64 -968 0
-61 -977 0
-62 -978 0
-63 -979 0
-64 -980 0
-61 -1165 0
-62 -1166 0
-63 -1167 0
-64 -1168 0
-65 -85 0
-66 -86 0
-67 -87 0
-68 -88 0
-65 -249 0
-66 -250 0
-67 -251 0
-68 -252 0
-65 -365 0
-66 -366 0
-67 -367 0
-68 -368 0
-65 -777 0
-66 -778 0
-67 -779 0
-68 -780 0
-65 -905 0
-66 -906 0
-67 -907 0
-68 -908 0
-65 -909 0
-66 -910 0
-67 -911 0
-68 -912 0
-65 -957 0
-66 -958 0
-67 -959 0
-68 -960 0
-65 -969 0
-66 -970 0
-67 -971 0
-68 -972 0
-69 -73 0
-70 -74 0
-71 -75 0
-72 -76 0
-69 -89 0
-70 -90 0
-71 -91 0
-72 -92 0
-69 -93 0
-70 -94 0
-71 -95 0
-72 -96 0
-69 -277 0
-70 -278 0
-71 -279 0
-72 -280 0
-69 -457 0
-70 -458 0
-71 -459 0
-72 -460 0
-69 -525 0
-70 -526 0
-71 -527 0
-72 -528 0
-69 -841 0
-70 -842 0
-71 -843 0
-72 -844 0
-69 -985 0
-70 -986 0
-71 -987 0
-72 -988 0
-69 -1025 0
-70 -1026 0
-71 -1027 0
-72 -1028 0
-69 -1029 0
-70 -1030 0
-71 -1031 0
-72 -1032 0
-69 -1277 0
-70 -1278 0
-71 -1279 0
-72 -1280 0
-73 -205 0
-74 -206 0
-75 -207 0
-76 -208 0
-73 -281 0
-74 -282 0
-75 -283 0
-76 -284 0
-73 -401 0
-74 -402 0
-75 -403 0
-76 -404 0
-73 -853 0
-74 -854 0
-75 -855 0
-76 -856 0
-73 -857 0
-74 -858 0
-75 -859 0
-76 -860 0
-73 -993 0
-74 -994 0
-75 -995 0
-76 -996 0
-73 -1033 0
-74 -1034 0
-75 -1035 0
-76 -1036 0
-73 -1145 0
-74 -1146 0
-75 -1147 0
-76 -1148 0
-77 -81 0
-78 -82 0
-79 -83 0
-80 -84 0
-77 -89 0
-78 -90 0
-79 -91 0
-80 -92 0
-77 -301 0
-78 -302 0
-79 -303 0
-80 -304 0
-77 -569 0
-78 -570 0
-79 -571 0
-80 -572 0
-77 -917 0
-78 -918 0
-79 -919 0
-80 -920 0
-77 -1041 0
-78 -1042 0
-79 -1043 0
-80 -1044 0
-77 -1089 0
-78 -1090 0
-79 -1091 0
-80 -1092 0
-77 -1093 0
-78 -1094 0
-79 -1095 0
-80 -1096 0
-77 -1393 0
-78 -1394 0
-79 -1395 0
-80 -1396 0
-81 -85 0
-82 -86 0
-83 -87 0
-84 -88 0
-81 -101 0
-82 -102 0
-83 -103 0
-84 -104 0
-81 -305 0
-82 -306 0
-83 -307 0
-84 -308 0
-81 -933 0
-82 -934 0
-83 -935 0
-84 -936 0
-81 -1105 0
-82 -1106 0
-83 -1107 0
-84 -1108 0
-81 -1129 0
-82 -1130 0
-83 -1131 0
-84 -1132 0
-85 -101 0
-86 -102 0
-87 -103 0
-88 -104 0
-85 -121 0
-86 -122 0
-87 -123 0
-88 -124 0
-85 -249 0
-86 -250 0
-87 -251 0
-88 -252 0
-85 -585 0
-86 -586 0
-87 -587 0
-88 -588 0
-85 -1113 0
-86 -1114 0
-87 -1115 0
-88 -1116 0
-85 -1137 0
-86 -1138 0
-87 -1139 0
-88 -1140 0
-89 -93 0
-90 -94 0
-91 -95 0
-92 -96 0
-89 -101 0
-90 -102 0
-91 -103 0
-92 -104 0
-89 -105 0
-90 -106 0
-91 -107 0
-92 -108 0
-89 -193 0
-90 -194 0
-91 -195 0
-92 -196 0
-89 -653 0
-90 -654 0
-91 -655 0
-92 -656 0
-89 -941 0
-90 -942 0
-91 -943 0
-92 -944 0
-89 -1045 0
-90 -1046 0
-91 -1047 0
-92 -1048 0
-89 -1061 0
-90 -1062 0
-91 -1063 0
-92 -1064 0
-89 -1169 0
-90 -1170 0
-91 -1171 0
-92 -1172 0
-89 -1177 0
-90 -1178 0
-91 -1179 0
-92 -1180 0
-89 -1205 0
-90 -1206 0
-91 -1207 0
-92 -1208 0
-89 -1413 0
-90 -1414 0
-91 -1415 0
-92 -1416 0
-93 -97 0
-94 -98 0
-95 -99 0
-96 -100 0
-93 -197 0
-94 -198 0
-95 -199 0
-96 -200 0
-93 -329 0
-94 -330 0
-95 -331 0
-96 -332 0
-93 -505 0
-94 -506 0
-95 -507 0
-96 -508 0
-93 -673 0
-94 -674 0
-95 -675 0
-96 -676 0
-93 -1053 0
-94 -1054 0
-95 -1055 0
-96 -1056 0
-93 -1065 0
-94 -1066 0
-95 -1067 0
-96 -1068 0
-93 -1173 0
-94 -1174 0
-95 -1175 0
-96 -1176 0
-93 -1181 0
-94 -1182 0
-95 -1183 0
-96 -1184 0
-97 -205 0
-98 -206 0
-99 -207 0
-100 -208 0
-97 -337 0
-98 -338 0
-99 -339 0
-100 -340 0
-97 -509 0
-98 -510 0
-99 -511 0
-100 -512 0
-97 -1057 0
-98 -1058 0
-99 -1059 0
-100 -1060 0
-97 -1069 0
-98 -1070 0
-99 -1071 0
-100 -1072 0
-97 -1181 0
-98 -1182 0
-99 -1183 0
-100 -1184 0
-101 -145 0
-102 -146 0
-103 -147 0
-104 -148 0
-101 -341 0
-102 -342 0
-103 -343 0
-104 -344 0
-101 -693 0
-102 -694 0
-103 -695 0
-104 -696 0
-101 -1185 0
-102 -1186 0
-103 -1187 0
-104 -1188 0
-101 -1189 0
-102 -1190 0
-103 -1191 0
-104 -1192 0
-101 -1205 0
-102 -1206 0
-103 -1207 0
-104 -1208 0
-105 -257 0
-106 -258 0
-107 -259 0
-108 -260 0
-105 -709 0
-106 -710 0
-107 -711 0
-108 -712 0
-105 -953 0
-106 -954 0
-107 -955 0
-108 -956 0
-105 -1193 0
-106 -1194 0
-107 -1195 0
-108 -1196 0
-109 -129 0
-110 -130 0
-111 -131 0
-112 -132 0
-109 -141 0
-110 -142 0
-111 -143 0
-112 -144 0
-109 -185 0
-110 -186 0
-111 -187 0
-112 -188 0
-109 -409 0
-110 -410 0
-111 -411 0
-112 -412 0
-109 -521 0
-110 -522 0
-111 -523 0
-112 -524 0
-109 -1209 0
-110 -1210 0
-111 -1211 0
-112 -1212 0
-113 -125 0
-114 -126 0
-115 -127 0
-116 -128 0
-113 -129 0
-114 -130 0
-115 -131 0
-116 -132 0
-113 -285 0
-114 -286 0
-115 -287 0
-116 -288 0
-113 -377 0
-114 -378 0
-115 -379 0
-116 -380 0
-113 -1213 0
-114 -1214 0
-115 -1215 0
-116 -1216 0
-113 -1217 0
-114 -1218 0
-115 -1219 0
-116 -1220 0
-117 -121 0
-118 -122 0
-119 -123 0
-120 -124 0
-117 -133 0
-118 -134 0
-119 -135 0
-120 -136 0
-117 -241 0
-118 -242 0
-119 -243 0
-120 -244 0
-117 -621 0
-118 -622 0
-119 -623 0
-120 -624 0
-117 -1053 0
-118 -1054 0
-119 -1055 0
-120 -1056 0
-117 -1245 0
-118 -1246 0
-119 -1247 0
-120 -1248 0
-117 -1261 0
-118 -1262 0
-119 -1263 0
-120 -1264 0
-121 -137 0
-122 -138 0
-123 -139 0
-124 -140 0
-121 -141 0
-122 -142 0
-123 -143 0
-124 -144 0
-121 -145 0
-122 -146 0
-123 -147 0
-124 -148 0
-121 -393 0
-122 -394 0
-123 -395 0
-124 -396 0
-121 -585 0
-122 -586 0
-123 -587 0
-124 -588 0
-121 -633 0
-122 -634 0
-123 -635 0
-124 -636 0
-121 -1249 0
-122 -1250 0
-123 -1251 0
-124 -1252 0
-121 -1265 0
-122 -1266 0
-123 -1267 0
-124 -1268 0
-125 -129 0
-126 -130 0
-127 -131 0
-128 -132 0
-125 -133 0
-126 -134 0
-127 -135 0
-128 -136 0
-125 -305 0
-126 -306 0
-127 -307 0
-128 -308 0
-125 -1281 0
-126 -1282 0
-127 -1283 0
-128 -1284 0
-125 -1297 0
-126 -1298 0
-127 -1299 0
-128 -1300 0
-125 -1541 0
-126 -1542 0
-127 -1543 0
-128 -1544 0
-129 -141 0
-130 -142 0
-131 -143 0
-132 -144 0
-129 -237 0
-130 -238 0
-131 -239 0
-132 -240 0
-129 -637 0
-130 -638 0
-131 -639 0
-132 -640 0
-129 -1285 0
-130 -1286 0
-131 -1287 0
-132 -1288 0
-129 -1301 0
-130 -1302 0
-131 -1303 0
-132 -1304 0
-129 -1545 0
-130 -1546 0
-131 -1547 0
-132 -1548 0
-133 -141 0
-134 -142 0
-135 -143 0
-136 -144 0
-133 -189 0
-134 -190 0
-135 -191 0
-136 -192 0
-133 -309 0
-134 -310 0
-135 -311 0
-136 -312 0
-133 -641 0
-134 -642 0
-135 -643 0
-136 -644 0
-133 -701 0
-134 -702 0
-135 -703 0
-136 -704 0
-133 -781 0
-134 -782 0
-135 -783 0
-136 -784 0
-133 -1289 0
-134 -1290 0
-135 -1291 0
-136 -1292 0
-133 -1309 0
-134 -1310 0
-135 -1311 0
-136 -1312 0
-137 -141 0
-138 -142 0
-139 -143 0
-140 -144 0
-137 -153 0
-138 -154 0
-139 -155 0
-140 -156 0
-137 -161 0
-138 -162 0
-139 -163 0
-140 -164 0
-137 -253 0
-138 -254 0
-139 -255 0
-140 -256 0
-137 -325 0
-138 -326 0
-139 -327 0
-140 -328 0
-137 -433 0
-138 -434 0
-139 -435 0
-140 -436 0
-137 -565 0
-138 -566 0
-139 -567 0
-140 -568 0
-137 -649 0
-138 -650 0
-139 -651 0
-140 -652 0
-137 -785 0
-138 -786 0
-139 -787 0
-140 -788 0
-137 -1313 0
-138 -1314 0
-139 -1315 0
-140 -1316 0
-137 -1393 0
-138 -1394 0
-139 -1395 0
-140 -1396 0
-141 -157 0
-142 -158 0
-143 -159 0
-144 -160 0
-141 -165 0
-142 -166 0
-143 -167 0
-144 -168 0
-141 -265 0
-142 -266 0
-143 -267 0
-144 -268 0
-141 -489 0
-142 -490 0
-143 -491 0
-144 -492 0
-141 -653 0
-142 -654 0
-143 -655 0
-144 -656 0
-141 -789 0
-142 -790 0
-143 -791 0
-144 -792 0
-141 -1293 0
-142 -1294 0
-143 -1295 0
-144 -1296 0
-141 -1317 0
-142 -1318 0
-143 -1319 0
-144 -1320 0
-145 -149 0
-146 -150 0
-147 -151 0
-148 -152 0
-145 -153 0
-146 -154 0
-147 -155 0
-148 -156 0
-145 -157 0
-146 -158 0
-147 -159 0
-148 -160 0
-145 -437 0
-146 -438 0
-147 -439 0
-148 -440 0
-145 -581 0
-146 -582 0
-147 -583 0
-148 -584 0
-145 -809 0
-146 -810 0
-147 -811 0
-148 -812 0
-145 -1341 0
-146 -1342 0
-147 -1343 0
-148 -1344 0
-145 -1589 0
-146 -1590 0
-147 -1591 0
-148 -1592 0
-149 -169 0
-150 -170 0
-151 -171 0
-152 -172 0
-149 -173 0
-150 -174 0
-151 -175 0
-152 -176 0
-149 -273 0
-150 -274 0
-151 -275 0
-152 -276 0
-149 -445 0
-150 -446 0
-151 -447 0
-152 -448 0
-149 -589 0
-150 -590 0
-151 -591 0
-152 -592 0
-149 -1341 0
-150 -1342 0
-151 -1343 0
-152 -1344 0
-149 -1605 0
-150 -1606 0
-151 -1607 0
-152 -1608 0
-153 -157 0
-154 -158 0
-155 -159 0
-156 -160 0
-153 -161 0
-154 -162 0
-155 -163 0
-156 -164 0
-153 -169 0
-154 -170 0
-155 -171 0
-156 -172 0
-153 -181 0
-154 -182 0
-155 -183 0
-156 -184 0
-153 -257 0
-154 -258 0
-155 -259 0
-156 -260 0
-153 -289 0
-154 -290 0
-155 -291 0
-156 -292 0
-153 -297 0
-154 -298 0
-155 -299 0
-156 -300 0
-153 -465 0
-154 -466 0
-155 -467 0
-156 -468 0
-153 -621 0
-154 -622 0
-155 -623 0
-156 -624 0
-153 -1105 0
-154 -1106 0
-155 -1107 0
-156 -1108 0
-153 -1225 0
-154 -1226 0
-155 -1227 0
-156 -1228 0
-153 -1233 0
-154 -1234 0
-155 -1235 0
-156 -1236 0
-153 -1357 0
-154 -1358 0
-155 -1359 0
-156 -1360 0
-153 -1409 0
-154 -1410 0
-155 -1411 0
-156 -1412 0
-153 -1625 0
-154 -1626 0
-155 -1627 0
-156 -1628 0
-157 -165 0
-158 -166 0
-159 -167 0
-160 -168 0
-157 -173 0
-158 -174 0
-159 -175 0
-160 -176 0
-157 -505 0
-158 -506 0
-159 -507 0
-160 -508 0
-157 -625 0
-158 -626 0
-159 -627 0
-160 -628 0
-157 -717 0
-158 -718 0
-159 -719 0
-160 -720 0
-157 -1109 0
-158 -1110 0
-159 -1111 0
-160 -1112 0
-157 -1349 0
-158 -1350 0
-159 -1351 0
-160 -1352 0
-157 -1361 0
-158 -1362 0
-159 -1363 0
-160 -1364 0
-157 -1629 0
-158 -1630 0
-159 -1631 0
-160 -1632 0
-161 -165 0
-162 -166 0
-163 -167 0
-164 -168 0
-161 -177 0
-162 -178 0
-163 -179 0
-164 -180 0
-161 -201 0
-162 -202 0
-163 -203 0
-164 -204 0
-161 -261 0
-162 -262 0
-163 -263 0
-164 -264 0
-161 -357 0
-162 -358 0
-163 -359 0
-164 -360 0
-161 -477 0
-162 -478 0
-163 -479 0
-164 -480 0
-161 -629 0
-162 -630 0
-163 -631 0
-164 -632 0
-161 -833 0
-162 -834 0
-163 -835 0
-164 -836 0
-161 -837 0
-162 -838 0
-163 -839 0
-164 -840 0
-161 -1113 0
-162 -1114 0
-163 -1115 0
-164 -1116 0
-161 -1365 0
-162 -1366 0
-163 -1367 0
-164 -1368 0
-161 -1413 0
-162 -1414 0
-163 -1415 0
-164 -1416 0
-165 -349 0
-166 -350 0
-167 -351 0
-168 -352 0
-165 -481 0
-166 -482 0
-167 -483 0
-168 -484 0
-165 -721 0
-166 -722 0
-167 -723 0
-168 -724 0
-165 -841 0
-166 -842 0
-167 -843 0
-168 -844 0
-165 -1117 0
-166 -1118 0
-167 -1119 0
-168 -1120 0
-165 -1353 0
-166 -1354 0
-167 -1355 0
-168 -1356 0
-165 -1369 0
-166 -1370 0
-167 -1371 0
-168 -1372 0
-165 -1417 0
-166 -1418 0
-167 -1419 0
-168 -1420 0
-169 -173 0
-170 -174 0
-171 -175 0
-172 -176 0
-169 -177 0
-170 -178 0
-171 -179 0
-172 -180 0
-169 -469 0
-170 -470 0
-171 -471 0
-172 -472 0
-169 -653 0
-170 -654 0
-171 -655 0
-172 -656 0
-169 -1129 0
-170 -1130 0
-171 -1131 0
-172 -1132 0
-169 -1229 0
-170 -1230 0
-171 -1231 0
-172 -1232 0
-169 -1237 0
-170 -1238 0
-171 -1239 0
-172 -1240 0
-169 -1357 0
-170 -1358 0
-171 -1359 0
-172 -1360 0
-169 -1421 0
-170 -1422 0
-171 -1423 0
-172 -1424 0
-169 -1641 0
-170 -1642 0
-171 -1643 0
-172 -1644 0
-173 -509 0
-174 -510 0
-175 -511 0
-176 -512 0
-173 -657 0
-174 -658 0
-175 -659 0
-176 -660 0
-173 -1133 0
-174 -1134 0
-175 -1135 0
-176 -1136 0
-173 -1361 0
-174 -1362 0
-175 -1363 0
-176 -1364 0
-173 -1645 0
-174 -1646 0
-175 -1647 0
-176 -1648 0
-177 -209 0
-178 -210 0
-179 -211 0
-180 -212 0
-177 -661 0
-178 -662 0
-179 -663 0
-180 -664 0
-177 -1137 0
-178 -1138 0
-179 -1139 0
-180 -1140 0
-177 -1365 0
-178 -1366 0
-179 -1367 0
-180 -1368 0
-177 -1425 0
-178 -1426 0
-179 -1427 0
-180 -1428 0
-181 -221 0
-182 -222 0
-183 -223 0
-184 -224 0
-181 -317 0
-182 -318 0
-183 -319 0
-184 -320 0
-181 -345 0
-182 -346 0
-183 -347 0
-184 -348 0
-181 -729 0
-182 -730 0
-183 -731 0
-184 -732 0
-181 -1197 0
-182 -1198 0
-183 -1199 0
-184 -1200 0
-181 -1325 0
-182 -1326 0
-183 -1327 0
-184 -1328 0
-181 -1333 0
-182 -1334 0
-183 -1335 0
-184 -1336 0
-181 -1389 0
-182 -1390 0
-183 -1391 0
-184 -1392 0
-185 -189 0
-186 -190 0
-187 -191 0
-188 -192 0
-185 -237 0
-186 -238 0
-187 -239 0
-188 -240 0
-185 -621 0
-186 -622 0
-187 -623 0
-188 -624 0
-185 -805 0
-186 -806 0
-187 -807 0
-188 -808 0
-185 -1437 0
-186 -1438 0
-187 -1439 0
-188 -1440 0
-185 -1449 0
-186 -1450 0
-187 -1451 0
-188 -1452 0
-185 -1521 0
-186 -1522 0
-187 -1523 0
-188 -1524 0
-185 -1713 0
-186 -1714 0
-187 -1715 0
-188 -1716 0
-189 -425 0
-190 -426 0
-191 -427 0
-192 -428 0
-189 -629 0
-190 -630 0
-191 -631 0
-192 -632 0
-189 -985 0
-190 -986 0
-191 -987 0
-192 -988 0
-189 -1441 0
-190 -1442 0
-191 -1443 0
-192 -1444 0
-189 -1453 0
-190 -1454 0
-191 -1455 0
-192 -1456 0
-189 -1529 0
-190 -1530 0
-191 -1531 0
-192 -1532 0
-193 -197 0
-194 -198 0
-195 -199 0
-196 -200 0
-193 -993 0
-194 -994 0
-195 -995 0
-196 -996 0
-193 -1241 0
-194 -1242 0
-195 -1243 0
-196 -1244 0
-193 -1469 0
-194 -1470 0
-195 -1471 0
-196 -1472 0
-193 -1569 0
-194 -1570 0
-195 -1571 0
-196 -1572 0
-193 -1761 0
-194 -1762 0
-195 -1763 0
-196 -1764 0
-197 -201 0
-198 -202 0
-199 -203 0
-200 -204 0
-197 -205 0
-198 -206 0
-199 -207 0
-200 -208 0
-197 -225 0
-198 -226 0
-199 -227 0
-200 -228 0
-197 -329 0
-198 -330 0
-199 -331 0
-200 -332 0
-197 -369 0
-198 -370 0
-199 -371 0
-200 -372 0
-197 -545 0
-198 -546 0
-199 -547 0
-200 -548 0
-197 -849 0
-198 -850 0
-199 -851 0
-200 -852 0
-197 -1245 0
-198 -1246 0
-199 -1247 0
-200 -1248 0
-197 -1473 0
-198 -1474 0
-199 -1475 0
-200 -1476 0
-197 -1585 0
-198 -1586 0
-199 -1587 0
-200 -1588 0
-201 -209 0
-202 -210 0
-203 -211 0
-204 -212 0
-201 -225 0
-202 -226 0
-203 -227 0
-204 -228 0
-201 -333 0
-202 -334 0
-203 -335 0
-204 -336 0
-201 -529 0
-202 -530 0
-203 -531 0
-204 -532 0
-201 -549 0
-202 -550 0
-203 -551 0
-204 -552 0
-201 -837 0
-202 -838 0
-203 -839 0
-204 -840 0
-201 -1249 0
-202 -1250 0
-203 -1251 0
-204 -1252 0
-201 -1477 0
-202 -1478 0
-203 -1479 0
-204 -1480 0
-201 -1553 0
-202 -1554 0
-203 -1555 0
-204 -1556 0
-201 -1589 0
-202 -1590 0
-203 -1591 0
-204 -1592 0
-205 -209 0
-206 -210 0
-207 -211 0
-208 -212 0
-205 -233 0
-206 -234 0
-207 -235 0
-208 -236 0
-205 -337 0
-206 -338 0
-207 -339 0
-208 -340 0
-205 -373 0
-206 -374 0
-207 -375 0
-208 -376 0
-205 -449 0
-206 -450 0
-207 -451 0
-208 -452 0
-205 -553 0
-206 -554 0
-207 -555 0
-208 -556 0
-205 -853 0
-206 -854 0
-207 -855 0
-208 -856 0
-205 -1261 0
-206 -1262 0
-207 -1263 0
-208 -1264 0
-205 -1473 0
-206 -1474 0
-207 -1475 0
-208 -1476 0
-205 -1481 0
-206 -1482 0
-207 -1483 0
-208 -1484 0
-205 -1601 0
-206 -1602 0
-207 -1603 0
-208 -1604 0
-209 -233 0
-210 -234 0
-211 -235 0
-212 -236 0
-209 -297 0
-210 -298 0
-211 -299 0
-212 -300 0
-209 -533 0
-210 -534 0
-211 -535 0
-212 -536 0
-209 -557 0
-210 -558 0
-211 -559 0
-212 -560 0
-209 -793 0
-210 -794 0
-211 -795 0
-212 -796 0
-209 -1265 0
-210 -1266 0
-211 -1267 0
-212 -1268 0
-209 -1477 0
-210 -1478 0
-211 -1479 0
-212 -1480 0
-209 -1485 0
-210 -1486 0
-211 -1487 0
-212 -1488 0
-209 -1557 0
-210 -1558 0
-211 -1559 0
-212 -1560 0
-209 -1605 0
-210 -1606 0
-211 -1607 0
-212 -1608 0
-213 -229 0
-214 -230 0
-215 -231 0
-216 -232 0
-213 -233 0
-214 -234 0
-215 -235 0
-216 -236 0
-213 -253 0
-214 -254 0
-215 -255 0
-216 -256 0
-213 -309 0
-214 -310 0
-215 -311 0
-216 -312 0
-213 -569 0
-214 -570 0
-215 -571 0
-216 -572 0
-213 -725 0
-214 -726 0
-215 -727 0
-216 -728 0
-213 -869 0
-214 -870 0
-215 -871 0
-216 -872 0
-213 -881 0
-214 -882 0
-215 -883 0
-216 -884 0
-213 -1317 0
-214 -1318 0
-215 -1319 0
-216 -1320 0
-213 -1493 0
-214 -1494 0
-215 -1495 0
-216 -1496 0
-217 -233 0
-218 -234 0
-219 -235 0
-220 -236 0
-217 -397 0
-218 -398 0
-219 -399 0
-220 -400 0
-217 -605 0
-218 -606 0
-219 -607 0
-220 -608 0
-217 -749 0
-218 -750 0
-219 -751 0
-220 -752 0
-217 -897 0
-218 -898 0
-219 -899 0
-220 -900 0
-217 -1453 0
-218 -1454 0
-219 -1455 0
-220 -1456 0
-217 -1649 0
-218 -1650 0
-219 -1651 0
-220 -1652 0
-217 -1845 0
-218 -1846 0
-219 -1847 0
-220 -1848 0
-221 -225 0
-222 -226 0
-223 -227 0
-224 -228 0
-221 -229 0
-222 -230 0
-223 -231 0
-224 -232 0
-221 -405 0
-222 -406 0
-223 -407 0
-224 -408 0
-221 -441 0
-222 -442 0
-223 -443 0
-224 -444 0
-221 -617 0
-222 -618 0
-223 -619 0
-224 -620 0
-221 -1349 0
-222 -1350 0
-223 -1351 0
-224 -1352 0
-221 -1437 0
-222 -1438 0
-223 -1439 0
-224 -1440 0
-221 -1497 0
-222 -1498 0
-223 -1499 0
-224 -1500 0
-225 -233 0
-226 -234 0
-227 -235 0
-228 -236 0
-225 -409 0
-226 -410 0
-227 -411 0
-228 -412 0
-225 -621 0
-226 -622 0
-227 -623 0
-228 -624 0
-225 -885 0
-226 -886 0
-227 -887 0
-228 -888 0
-225 -1013 0
-226 -1014 0
-227 -1015 0
-228 -1016 0
-225 -1025 0
-226 -1026 0
-227 -1027 0
-228 -1028 0
-225 -1353 0
-226 -1354 0
-227 -1355 0
-228 -1356 0
-225 -1441 0
-226 -1442 0
-227 -1443 0
-228 -1444 0
-225 -1501 0
-226 -1502 0
-227 -1503 0
-228 -1504 0
-225 -1653 0
-226 -1654 0
-227 -1655 0
-228 -1656 0
-225 -1661 0
-226 -1662 0
-227 -1663 0
-228 -1664 0
-229 -233 0
-230 -234 0
-231 -235 0
-232 -236 0
-229 -257 0
-230 -258 0
-231 -259 0
-232 -260 0
-229 -417 0
-230 -418 0
-231 -419 0
-232 -420 0
-229 -453 0
-230 -454 0
-231 -455 0
-232 -456 0
-229 -645 0
-230 -646 0
-231 -647 0
-232 -648 0
-229 -757 0
-230 -758 0
-231 -759 0
-232 -760 0
-229 -861 0
-230 -862 0
-231 -863 0
-232 -864 0
-229 -1361 0
-230 -1362 0
-231 -1363 0
-232 -1364 0
-229 -1449 0
-230 -1450 0
-231 -1451 0
-232 -1452 0
-229 -1461 0
-230 -1462 0
-231 -1463 0
-232 -1464 0
-229 -1497 0
-230 -1498 0
-231 -1499 0
-232 -1500 0
-229 -1505 0
-230 -1506 0
-231 -1507 0
-232 -1508 0
-229 -1865 0
-230 -1866 0
-231 -1867 0
-232 -1868 0
-233 -261 0
-234 -262 0
-235 -263 0
-236 -264 0
-233 -345 0
-234 -346 0
-235 -347 0
-236 -348 0
-233 -421 0
-234 -422 0
-235 -423 0
-236 -424 0
-233 -653 0
-234 -654 0
-235 -655 0
-236 -656 0
-233 -893 0
-234 -894 0
-235 -895 0
-236 -896 0
-233 -901 0
-234 -902 0
-235 -903 0
-236 -904 0
-233 -1021 0
-234 -1022 0
-235 -1023 0
-236 -1024 0
-233 -1029 0
-234 -1030 0
-235 -1031 0
-236 -1032 0
-233 -1369 0
-234 -1370 0
-235 -1371 0
-236 -1372 0
-233 -1373 0
-234 -1374 0
-235 -1375 0
-236 -1376 0
-233 -1453 0
-234 -1454 0
-235 -1455 0
-236 -1456 0
-233 -1501 0
-234 -1502 0
-235 -1503 0
-236 -1504 0
-233 -1509 0
-234 -1510 0
-235 -1511 0
-236 -1512 0
-233 -1657 0
-234 -1658 0
-235 -1659 0
-236 -1660 0
-233 -1665 0
-234 -1666 0
-235 -1667 0
-236 -1668 0
-237 -765 0
-238 -766 0
-239 -767 0
-240 -768 0
-237 -1609 0
-238 -1610 0
-239 -1611 0
-240 -1612 0
-237 -1889 0
-238 -1890 0
-239 -1891 0
-240 -1892 0
-241 -245 0
-242 -246 0
-243 -247 0
-244 -248 0
-241 -953 0
-242 -954 0
-243 -955 0
-244 -956 0
-241 -1401 0
-242 -1402 0
-243 -1403 0
-244 -1404 0
-241 -1529 0
-242 -1530 0
-243 -1531 0
-244 -1532 0
-241 -1649 0
-242 -1650 0
-243 -1651 0
-244 -1652 0
-245 -249 0
-246 -250 0
-247 -251 0
-248 -252 0
-245 -401 0
-246 -402 0
-247 -403 0
-248 -404 0
-245 -1417 0
-246 -1418 0
-247 -1419 0
-248 -1420 0
-245 -1529 0
-246 -1530 0
-247 -1531 0
-248 -1532 0
-245 -1653 0
-246 -1654 0
-247 -1655 0
-248 -1656 0
-245 -1657 0
-246 -1658 0
-247 -1659 0
-248 -1660 0
-249 -429 0
-250 -430 0
-251 -431 0
-252 -432 0
-249 -737 0
-250 -738 0
-251 -739 0
-252 -740 0
-249 -1661 0
-250 -1662 0
-251 -1663 0
-252 -1664 0
-249 -1665 0
-250 -1666 0
-251 -1667 0
-252 -1668 0
-253 -257 0
-254 -258 0
-255 -259 0
-256 -260 0
-253 -261 0
-254 -262 0
-255 -263 0
-256 -264 0
-253 -741 0
-254 -742 0
-255 -743 0
-256 -744 0
-253 -961 0
-254 -962 0
-255 -963 0
-256 -964 0
-253 -1093 0
-254 -1094 0
-255 -1095 0
-256 -1096 0
-253 -1545 0
-254 -1546 0
-255 -1547 0
-256 -1548 0
-257 -261 0
-258 -262 0
-259 -263 0
-260 -264 0
-257 -465 0
-258 -466 0
-259 -467 0
-260 -468 0
-257 -501 0
-258 -502 0
-259 -503 0
-260 -504 0
-257 -953 0
-258 -954 0
-259 -955 0
-260 -956 0
-257 -1161 0
-258 -1162 0
-259 -1163 0
-260 -1164 0
-257 -1609 0
-258 -1610 0
-259 -1611 0
-260 -1612 0
-257 -1621 0
-258 -1622 0
-259 -1623 0
-260 -1624 0
-257 -1673 0
-258 -1674 0
-259 -1675 0
-260 -1676 0
-257 -1929 0
-258 -1930 0
-259 -1931 0
-260 -1932 0
-261 -333 0
-262 -334 0
-263 -335 0
-264 -336 0
-261 -773 0
-262 -774 0
-263 -775 0
-264 -776 0
-261 -1165 0
-262 -1166 0
-263 -1167 0
-264 -1168 0
-261 -1177 0
-262 -1178 0
-263 -1179 0
-264 -1180 0
-261 -1669 0
-262 -1670 0
-263 -1671 0
-264 -1672 0
-265 -269 0
-266 -270 0
-267 -271 0
-268 -272 0
-265 -817 0
-266 -818 0
-267 -819 0
-268 -820 0
-265 -993 0
-266 -994 0
-267 -995 0
-268 -996 0
-265 -1685 0
-266 -1686 0
-267 -1687 0
-268 -1688 0
-265 -1701 0
-266 -1702 0
-267 -1703 0
-268 -1704 0
-265 -1713 0
-266 -1714 0
-267 -1715 0
-268 -1716 0
-269 -825 0
-270 -826 0
-271 -827 0
-272 -828 0
-269 -1001 0
-270 -1002 0
-271 -1003 0
-272 -1004 0
-269 -1685 0
-270 -1686 0
-271 -1687 0
-272 -1688 0
-269 -1705 0
-270 -1706 0
-271 -1707 0
-272 -1708 0
-269 -1721 0
-270 -1722 0
-271 -1723 0
-272 -1724 0
-273 -293 0
-274 -294 0
-275 -295 0
-276 -296 0
-273 -297 0
-274 -298 0
-275 -299 0
-276 -300 0
-273 -445 0
-274 -446 0
-275 -447 0
-276 -448 0
-273 -837 0
-274 -838 0
-275 -839 0
-276 -840 0
-273 -985 0
-274 -986 0
-275 -987 0
-276 -988 0
-273 -1733 0
-274 -1734 0
-275 -1735 0
-276 -1736 0
-273 -1961 0
-274 -1962 0
-275 -1963 0
-276 -1964 0
-277 -281 0
-278 -282 0
-279 -283 0
-280 -284 0
-277 -285 0
-278 -286 0
-279 -287 0
-280 -288 0
-277 -301 0
-278 -302 0
-279 -303 0
-280 -304 0
-277 -1725 0
-278 -1726 0
-279 -1727 0
-280 -1728 0
-277 -1733 0
-278 -1734 0
-279 -1735 0
-280 -1736 0
-277 -2017 0
-278 -2018 0
-279 -2019 0
-280 -2020 0
-281 -285 0
-282 -286 0
-283 -287 0
-284 -288 0
-281 -289 0
-282 -290 0
-283 -291 0
-284 -292 0
-281 -317 0
-282 -318 0
-283 -319 0
-284 -320 0
-281 -553 0
-282 -554 0
-283 -555 0
-284 -556 0
-281 -1037 0
-282 -1038 0
-283 -1039 0
-284 -1040 0
-281 -1517 0
-282 -1518 0
-283 -1519 0
-284 -1520 0
-281 -1753 0
-282 -1754 0
-283 -1755 0
-284 -1756 0
-281 -1773 0
-282 -1774 0
-283 -1775 0
-284 -1776 0
-285 -377 0
-286 -378 0
-287 -379 0
-288 -380 0
-285 -645 0
-286 -646 0
-287 -647 0
-288 -648 0
-285 -1521 0
-286 -1522 0
-287 -1523 0
-288 -1524 0
-285 -1757 0
-286 -1758 0
-287 -1759 0
-288 -1760 0
-285 -1777 0
-286 -1778 0
-287 -1779 0
-288 -1780 0
-289 -317 0
-290 -318 0
-291 -319 0
-292 -320 0
-289 -557 0
-290 -558 0
-291 -559 0
-292 -560 0
-289 -1041 0
-290 -1042 0
-291 -1043 0
-292 -1044 0
-289 -1789 0
-290 -1790 0
-291 -1791 0
-292 -1792 0
-293 -297 0
-294 -298 0
-295 -299 0
-296 -300 0
-293 -341 0
-294 -342 0
-295 -343 0
-296 -344 0
-293 -717 0
-294 -718 0
-295 -719 0
-296 -720 0
-293 -1045 0
-294 -1046 0
-295 -1047 0
-296 -1048 0
-293 -1229 0
-294 -1230 0
-295 -1231 0
-296 -1232 0
-293 -1901 0
-294 -1902 0
-295 -1903 0
-296 -1904 0
-293 -2049 0
-294 -2050 0
-295 -2051 0
-296 -2052 0
-297 -345 0
-298 -346 0
-299 -347 0
-300 -348 0
-297 -349 0
-298 -350 0
-299 -351 0
-300 -352 0
-297 -501 0
-298 -502 0
-299 -503 0
-300 -504 0
-297 -557 0
-298 -558 0
-299 -559 0
-300 -560 0
-297 -845 0
-298 -846 0
-299 -847 0
-300 -848 0
-297 -1053 0
-298 -1054 0
-299 -1055 0
-300 -1056 0
-297 -1561 0
-298 -1562 0
-299 -1563 0
-300 -1564 0
-297 -1809 0
-298 -1810 0
-299 -1811 0
-300 -1812 0
-297 -1905 0
-298 -1906 0
-299 -1907 0
-300 -1908 0
-301 -317 0
-302 -318 0
-303 -319 0
-304 -320 0
-301 -361 0
-302 -362 0
-303 -363 0
-304 -364 0
-301 -513 0
-302 -514 0
-303 -515 0
-304 -516 0
-301 -589 0
-302 -590 0
-303 -591 0
-304 -592 0
-301 -1581 0
-302 -1582 0
-303 -1583 0
-304 -1584 0
-301 -1813 0
-302 -1814 0
-303 -1815 0
-304 -1816 0
-301 -1817 0
-302 -1818 0
-303 -1819 0
-304 -1820 0
-301 -2065 0
-302 -2066 0
-303 -2067 0
-304 -2068 0
-305 -309 0
-306 -310 0
-307 -311 0
-308 -312 0
-305 -317 0
-306 -318 0
-307 -319 0
-308 -320 0
-305 -341 0
-306 -342 0
-307 -343 0
-308 -344 0
-305 -605 0
-306 -606 0
-307 -607 0
-308 -608 0
-305 -949 0
-306 -950 0
-307 -951 0
-308 -952 0
-305 -1609 0
-306 -1610 0
-307 -1611 0
-308 -1612 0
-305 -1709 0
-306 -1710 0
-307 -1711 0
-308 -1712 0
-305 -1829 0
-306 -1830 0
-307 -1831 0
-308 -1832 0
-305 -1833 0
-306 -1834 0
-307 -1835 0
-308 -1836 0
-305 -2073 0
-306 -2074 0
-307 -2075 0
-308 -2076 0
-309 -313 0
-310 -314 0
-311 -315 0
-312 -316 0
-309 -325 0
-310 -326 0
-311 -327 0
-312 -328 0
-309 -345 0
-310 -346 0
-311 -347 0
-312 -348 0
-309 -425 0
-310 -426 0
-311 -427 0
-312 -428 0
-309 -569 0
-310 -570 0
-311 -571 0
-312 -572 0
-309 -957 0
-310 -958 0
-311 -959 0
-312 -960 0
-309 -1121 0
-310 -1122 0
-311 -1123 0
-312 -1124 0
-309 -1153 0
-310 -1154 0
-311 -1155 0
-312 -1156 0
-309 -1613 0
-310 -1614 0
-311 -1615 0
-312 -1616 0
-309 -1713 0
-310 -1714 0
-311 -1715 0
-312 -1716 0
-309 -1841 0
-310 -1842 0
-311 -1843 0
-312 -1844 0
-313 -353 0
-314 -354 0
-315 -355 0
-316 -356 0
-313 -969 0
-314 -970 0
-315 -971 0
-316 -972 0
-313 -1161 0
-314 -1162 0
-315 -1163 0
-316 -1164 0
-313 -1721 0
-314 -1722 0
-315 -1723 0
-316 -1724 0
-313 -1841 0
-314 -1842 0
-315 -1843 0
-316 -1844 0
-317 -321 0
-318 -322 0
-319 -323 0
-320 -324 0
-317 -325 0
-318 -326 0
-319 -327 0
-320 -328 0
-317 -365 0
-318 -366 0
-319 -367 0
-320 -368 0
-317 -405 0
-318 -406 0
-319 -407 0
-320 -408 0
-317 -653 0
-318 -654 0
-319 -655 0
-320 -656 0
-317 -1085 0
-318 -1086 0
-319 -1087 0
-320 -1088 0
-317 -1621 0
-318 -1622 0
-319 -1623 0
-320 -1624 0
-317 -1709 0
-318 -1710 0
-319 -1711 0
-320 -1712 0
-317 -1849 0
-318 -1850 0
-319 -1851 0
-320 -1852 0
-317 -1853 0
-318 -1854 0
-319 -1855 0
-320 -1856 0
-321 -409 0
-322 -410 0
-323 -411 0
-324 -412 0
-321 -493 0
-322 -494 0
-323 -495 0
-324 -496 0
-321 -661 0
-322 -662 0
-323 -663 0
-324 -664 0
-321 -1269 0
-322 -1270 0
-323 -1271 0
-324 -1272 0
-321 -1861 0
-322 -1862 0
-323 -1863 0
-324 -1864 0
-325 -357 0
-326 -358 0
-327 -359 0
-328 -360 0
-325 -365 0
-326 -366 0
-327 -367 0
-328 -368 0
-325 -433 0
-326 -434 0
-327 -435 0
-328 -436 0
-325 -673 0
-326 -674 0
-327 -675 0
-328 -676 0
-325 -1145 0
-326 -1146 0
-327 -1147 0
-328 -1148 0
-325 -1629 0
-326 -1630 0
-327 -1631 0
-328 -1632 0
-325 -1713 0
-326 -1714 0
-327 -1715 0
-328 -1716 0
-325 -1865 0
-326 -1866 0
-327 -1867 0
-328 -1868 0
-329 -333 0
-330 -334 0
-331 -335 0
-332 -336 0
-329 -337 0
-330 -338 0
-331 -339 0
-332 -340 0
-329 -345 0
-330 -346 0
-331 -347 0
-332 -348 0
-329 -597 0
-330 -598 0
-331 -599 0
-332 -600 0
-329 -745 0
-330 -746 0
-331 -747 0
-332 -748 0
-329 -913 0
-330 -914 0
-331 -915 0
-332 -916 0
-329 -1309 0
-330 -1310 0
-331 -1311 0
-332 -1312 0
-329 -1745 0
-330 -1746 0
-331 -1747 0
-332 -1748 0
-329 -1765 0
-330 -1766 0
-331 -1767 0
-332 -1768 0
-329 -1869 0
-330 -1870 0
-331 -1871 0
-332 -1872 0
-329 -1913 0
-330 -1914 0
-331 -1915 0
-332 -1916 0
-329 -2109 0
-330 -2110 0
-331 -2111 0
-332 -2112 0
-333 -349 0
-334 -350 0
-335 -351 0
-336 -352 0
-333 -497 0
-334 -498 0
-335 -499 0
-336 -500 0
-333 -529 0
-334 -530 0
-335 -531 0
-336 -532 0
-333 -917 0
-334 -918 0
-335 -919 0
-336 -920 0
-333 -1177 0
-334 -1178 0
-335 -1179 0
-336 -1180 0
-333 -1317 0
-334 -1318 0
-335 -1319 0
-336 -1320 0
-333 -1769 0
-334 -1770 0
-335 -1771 0
-336 -1772 0
-333 -1873 0
-334 -1874 0
-335 -1875 0
-336 -1876 0
-333 -1921 0
-334 -1922 0
-335 -1923 0
-336 -1924 0
-333 -2113 0
-334 -2114 0
-335 -2115 0
-336 -2116 0
-337 -353 0
-338 -354 0
-339 -355 0
-340 -356 0
-337 -753 0
-338 -754 0
-339 -755 0
-340 -756 0
-337 -1193 0
-338 -1194 0
-339 -1195 0
-340 -1196 0
-337 -1649 0
-338 -1650 0
-339 -1651 0
-340 -1652 0
-337 -1749 0
-338 -1750 0
-339 -1751 0
-340 -1752 0
-337 -1785 0
-338 -1786 0
-339 -1787 0
-340 -1788 0
-337 -1869 0
-338 -1870 0
-339 -1871 0
-340 -1872 0
-337 -1925 0
-338 -1926 0
-339 -1927 0
-340 -1928 0
-341 -345 0
-342 -346 0
-343 -347 0
-344 -348 0
-341 -437 0
-342 -438 0
-343 -439 0
-344 -440 0
-341 -637 0
-342 -638 0
-343 -639 0
-344 -640 0
-341 -1329 0
-342 -1330 0
-343 -1331 0
-344 -1332 0
-341 -1877 0
-342 -1878 0
-343 -1879 0
-344 -1880 0
-341 -2129 0
-342 -2130 0
-343 -2131 0
-344 -2132 0
-345 -349 0
-346 -350 0
-347 -351 0
-348 -352 0
-345 -353 0
-346 -354 0
-347 -355 0
-348 -356 0
-345 -357 0
-346 -358 0
-347 -359 0
-348 -360 0
-345 -441 0
-346 -442 0
-347 -443 0
-348 -444 0
-345 -653 0
-346 -654 0
-347 -655 0
-348 -656 0
-345 -925 0
-346 -926 0
-347 -927 0
-348 -928 0
-345 -1101 0
-346 -1102 0
-347 -1103 0
-348 -1104 0
-345 -1197 0
-346 -1198 0
-347 -1199 0
-348 -1200 0
-345 -1337 0
-346 -1338 0
-347 -1339 0
-348 -1340 0
-345 -1801 0
-346 -1802 0
-347 -1803 0
-348 -1804 0
-345 -1881 0
-346 -1882 0
-347 -1883 0
-348 -1884 0
-345 -1913 0
-346 -1914 0
-347 -1915 0
-348 -1916 0
-345 -2141 0
-346 -2142 0
-347 -2143 0
-348 -2144 0
-349 -537 0
-350 -538 0
-351 -539 0
-352 -540 0
-349 -665 0
-350 -666 0
-351 -667 0
-352 -668 0
-349 -897 0
-350 -898 0
-351 -899 0
-352 -900 0
-349 -933 0
-350 -934 0
-351 -935 0
-352 -936 0
-349 -1117 0
-350 -1118 0
-351 -1119 0
-352 -1120 0
-349 -1189 0
-350 -1190 0
-351 -1191 0
-352 -1192 0
-349 -1341 0
-350 -1342 0
-351 -1343 0
-352 -1344 0
-349 -1885 0
-350 -1886 0
-351 -1887 0
-352 -1888 0
-349 -1921 0
-350 -1922 0
-351 -1923 0
-352 -1924 0
-353 -453 0
-354 -454 0
-355 -455 0
-356 -456 0
-353 -677 0
-354 -678 0
-355 -679 0
-356 -680 0
-353 -1125 0
-354 -1126 0
-355 -1127 0
-356 -1128 0
-353 -1201 0
-354 -1202 0
-355 -1203 0
-356 -1204 0
-353 -1805 0
-354 -1806 0
-355 -1807 0
-356 -1808 0
-353 -1881 0
-354 -1882 0
-355 -1883 0
-356 -1884 0
-353 -1925 0
-354 -1926 0
-355 -1927 0
-356 -1928 0
-357 -685 0
-358 -686 0
-359 -687 0
-360 -688 0
-357 -937 0
-358 -938 0
-359 -939 0
-360 -940 0
-357 -1661 0
-358 -1662 0
-359 -1663 0
-360 -1664 0
-357 -1801 0
-358 -1802 0
-359 -1803 0
-360 -1804 0
-361 -365 0
-362 -366 0
-363 -367 0
-364 -368 0
-361 -621 0
-362 -622 0
-363 -623 0
-364 -624 0
-361 -953 0
-362 -954 0
-363 -955 0
-364 -956 0
-361 -1205 0
-362 -1206 0
-363 -1207 0
-364 -1208 0
-361 -1909 0
-362 -1910 0
-363 -1911 0
-364 -1912 0
-361 -1921 0
-362 -1922 0
-363 -1923 0
-364 -1924 0
-365 -485 0
-366 -486 0
-367 -487 0
-368 -488 0
-365 -697 0
-366 -698 0
-367 -699 0
-368 -700 0
-365 -777 0
-366 -778 0
-367 -779 0
-368 -780 0
-365 -1409 0
-366 -1410 0
-367 -1411 0
-368 -1412 0
-365 -1889 0
-366 -1890 0
-367 -1891 0
-368 -1892 0
-365 -1929 0
-366 -1930 0
-367 -1931 0
-368 -1932 0
-369 -373 0
-370 -374 0
-371 -375 0
-372 -376 0
-369 -381 0
-370 -382 0
-371 -383 0
-372 -384 0
-369 -401 0
-370 -402 0
-371 -403 0
-372 -404 0
-369 -409 0
-370 -410 0
-371 -411 0
-372 -412 0
-369 -545 0
-370 -546 0
-371 -547 0
-372 -548 0
-369 -597 0
-370 -598 0
-371 -599 0
-372 -600 0
-369 -785 0
-370 -786 0
-371 -787 0
-372 -788 0
-369 -1689 0
-370 -1690 0
-371 -1691 0
-372 -1692 0
-369 -1933 0
-370 -1934 0
-371 -1935 0
-372 -1936 0
-369 -1937 0
-370 -1938 0
-371 -1939 0
-372 -1940 0
-369 -2017 0
-370 -2018 0
-371 -2019 0
-372 -2020 0
-373 -413 0
-374 -414 0
-375 -415 0
-376 -416 0
-373 -421 0
-374 -422 0
-375 -423 0
-376 -424 0
-373 -553 0
-374 -554 0
-375 -555 0
-376 -556 0
-373 -797 0
-374 -798 0
-375 -799 0
-376 -800 0
-373 -1693 0
-374 -1694 0
-375 -1695 0
-376 -1696 0
-373 -1937 0
-374 -1938 0
-375 -1939 0
-376 -1940 0
-377 -385 0
-378 -386 0
-379 -387 0
-380 -388 0
-377 -481 0
-378 -482 0
-379 -483 0
-380 -484 0
-377 -1061 0
-378 -1062 0
-379 -1063 0
-380 -1064 0
-377 -1941 0
-378 -1942 0
-379 -1943 0
-380 -1944 0
-377 -1957 0
-378 -1958 0
-379 -1959 0
-380 -1960 0
-377 -2201 0
-378 -2202 0
-379 -2203 0
-380 -2204 0
-381 -385 0
-382 -386 0
-383 -387 0
-384 -388 0
-381 -389 0
-382 -390 0
-383 -391 0
-384 -392 0
-381 -429 0
-382 -430 0
-383 -431 0
-384 -432 0
-381 -433 0
-382 -434 0
-383 -435 0
-384 -436 0
-381 -477 0
-382 -478 0
-383 -479 0
-384 -480 0
-381 -653 0
-382 -654 0
-383 -655 0
-384 -656 0
-381 -993 0
-382 -994 0
-383 -995 0
-384 -996 0
-381 -1233 0
-382 -1234 0
-383 -1235 0
-384 -1236 0
-381 -1697 0
-382 -1698 0
-383 -1699 0
-384 -1700 0
-381 -1945 0
-382 -1946 0
-383 -1947 0
-384 -1948 0
-381 -1961 0
-382 -1962 0
-383 -1963 0
-384 -1964 0
-381 -2017 0
-382 -2018 0
-383 -2019 0
-384 -2020 0
-385 -389 0
-386 -390 0
-387 -391 0
-388 -392 0
-385 -481 0
-386 -482 0
-387 -483 0
-388 -484 0
-385 -657 0
-386 -658 0
-387 -659 0
-388 -660 0
-385 -809 0
-386 -810 0
-387 -811 0
-388 -812 0
-385 -1065 0
-386 -1066 0
-387 -1067 0
-388 -1068 0
-385 -1949 0
-386 -1950 0
-387 -1951 0
-388 -1952 0
-385 -1965 0
-386 -1966 0
-387 -1967 0
-388 -1968 0
-389 -709 0
-390 -710 0
-391 -711 0
-392 -712 0
-389 -1713 0
-390 -1714 0
-391 -1715 0
-392 -1716 0
-389 -1969 0
-390 -1970 0
-391 -1971 0
-392 -1972 0
-393 -397 0
-394 -398 0
-395 -399 0
-396 -400 0
-393 -409 0
-394 -410 0
-395 -411 0
-396 -412 0
-393 -425 0
-394 -426 0
-395 -427 0
-396 -428 0
-393 -437 0
-394 -438 0
-395 -439 0
-396 -440 0
-393 -601 0
-394 -602 0
-395 -603 0
-396 -604 0
-393 -861 0
-394 -862 0
-395 -863 0
-396 -864 0
-393 -1253 0
-394 -1254 0
-395 -1255 0
-396 -1256 0
-393 -1285 0
-394 -1286 0
-395 -1287 0
-396 -1288 0
-393 -1973 0
-394 -1974 0
-395 -1975 0
-396 -1976 0
-393 -2057 0
-394 -2058 0
-395 -2059 0
-396 -2060 0
-393 -2229 0
-394 -2230 0
-395 -2231 0
-396 -2232 0
-397 -421 0
-398 -422 0
-399 -423 0
-400 -424 0
-397 -445 0
-398 -446 0
-399 -447 0
-400 -448 0
-397 -605 0
-398 -606 0
-399 -607 0
-400 -608 0
-397 -873 0
-398 -874 0
-399 -875 0
-400 -876 0
-397 -1097 0
-398 -1098 0
-399 -1099 0
-400 -1100 0
-397 -1301 0
-398 -1302 0
-399 -1303 0
-400 -1304 0
-397 -1973 0
-398 -1974 0
-399 -1975 0
-400 -1976 0
-397 -2061 0
-398 -2062 0
-399 -2063 0
-400 -2064 0
-397 -2237 0
-398 -2238 0
-399 -2239 0
-400 -2240 0
-401 -409 0
-402 -410 0
-403 -411 0
-404 -412 0
-401 -413 0
-402 -414 0
-403 -415 0
-404 -416 0
-401 -429 0
-402 -430 0
-403 -431 0
-404 -432 0
-401 -613 0
-402 -614 0
-403 -615 0
-404 -616 0
-401 -857 0
-402 -858 0
-403 -859 0
-404 -860 0
-401 -1037 0
-402 -1038 0
-403 -1039 0
-404 -1040 0
-401 -1765 0
-402 -1766 0
-403 -1767 0
-404 -1768 0
-401 -1977 0
-402 -1978 0
-403 -1979 0
-404 -1980 0
-405 -409 0
-406 -410 0
-407 -411 0
-408 -412 0
-405 -417 0
-406 -418 0
-407 -419 0
-408 -420 0
-405 -457 0
-406 -458 0
-407 -459 0
-408 -460 0
-405 -485 0
-406 -486 0
-407 -487 0
-408 -488 0
-405 -617 0
-406 -618 0
-407 -619 0
-408 -620 0
-405 -789 0
-406 -790 0
-407 -791 0
-408 -792 0
-405 -1981 0
-406 -1982 0
-407 -1983 0
-408 -1984 0
-409 -421 0
-410 -422 0
-411 -423 0
-412 -424 0
-409 -433 0
-410 -434 0
-411 -435 0
-412 -436 0
-409 -457 0
-410 -458 0
-411 -459 0
-412 -460 0
-409 -489 0
-410 -490 0
-411 -491 0
-412 -492 0
-409 -621 0
-410 -622 0
-411 -623 0
-412 -624 0
-409 -793 0
-410 -794 0
-411 -795 0
-412 -796 0
-409 -865 0
-410 -866 0
-411 -867 0
-412 -868 0
-409 -1041 0
-410 -1042 0
-411 -1043 0
-412 -1044 0
-409 -1269 0
-410 -1270 0
-411 -1271 0
-412 -1272 0
-409 -1769 0
-410 -1770 0
-411 -1771 0
-412 -1772 0
-409 -1985 0
-410 -1986 0
-411 -1987 0
-412 -1988 0
-409 -2065 0
-410 -2066 0
-411 -2067 0
-412 -2068 0
-413 -421 0
-414 -422 0
-415 -423 0
-416 -424 0
-413 -641 0
-414 -642 0
-415 -643 0
-416 -644 0
-413 -869 0
-414 -870 0
-415 -871 0
-416 -872 0
-413 -1321 0
-414 -1322 0
-415 -1323 0
-416 -1324 0
-413 -1785 0
-414 -1786 0
-415 -1787 0
-416 -1788 0
-413 -1977 0
-414 -1978 0
-415 -1979 0
-416 -1980 0
-417 -421 0
-418 -422 0
-419 -423 0
-420 -424 0
-417 -461 0
-418 -462 0
-419 -463 0
-420 -464 0
-417 -645 0
-418 -646 0
-419 -647 0
-420 -648 0
-417 -801 0
-418 -802 0
-419 -803 0
-420 -804 0
-417 -1981 0
-418 -1982 0
-419 -1983 0
-420 -1984 0
-421 -461 0
-422 -462 0
-423 -463 0
-424 -464 0
-421 -653 0
-422 -654 0
-423 -655 0
-424 -656 0
-421 -877 0
-422 -878 0
-423 -879 0
-424 -880 0
-421 -1797 0
-422 -1798 0
-423 -1799 0
-424 -1800 0
-421 -1985 0
-422 -1986 0
-423 -1987 0
-424 -1988 0
-421 -2069 0
-422 -2070 0
-423 -2071 0
-424 -2072 0
-425 -433 0
-426 -434 0
-427 -435 0
-428 -436 0
-425 -1113 0
-426 -1114 0
-427 -1115 0
-428 -1116 0
-425 -2057 0
-426 -2058 0
-427 -2059 0
-428 -2060 0
-429 -433 0
-430 -434 0
-431 -435 0
-432 -436 0
-429 -493 0
-430 -494 0
-431 -495 0
-432 -496 0
-429 -517 0
-430 -518 0
-431 -519 0
-432 -520 0
-429 -737 0
-430 -738 0
-431 -739 0
-432 -740 0
-429 -1333 0
-430 -1334 0
-431 -1335 0
-432 -1336 0
-429 -1801 0
-430 -1802 0
-431 -1803 0
-432 -1804 0
-429 -1989 0
-430 -1990 0
-431 -1991 0
-432 -1992 0
-433 -689 0
-434 -690 0
-435 -691 0
-436 -692 0
-433 -741 0
-434 -742 0
-435 -743 0
-436 -744 0
-433 -813 0
-434 -814 0
-435 -815 0
-436 -816 0
-433 -1009 0
-434 -1010 0
-435 -1011 0
-436 -1012 0
-433 -1993 0
-434 -1994 0
-435 -1995 0
-436 -1996 0
-433 -2065 0
-434 -2066 0
-435 -2067 0
-436 -2068 0
-437 -441 0
-438 -442 0
-439 -443 0
-440 -444 0
-437 -445 0
-438 -446 0
-439 -447 0
-440 -448 0
-437 -457 0
-438 -458 0
-439 -459 0
-440 -460 0
-437 -465 0
-438 -466 0
-439 -467 0
-440 -468 0
-437 -497 0
-438 -498 0
-439 -499 0
-440 -500 0
-437 -1169 0
-438 -1170 0
-439 -1171 0
-440 -1172 0
-437 -1449 0
-438 -1450 0
-439 -1451 0
-440 -1452 0
-437 -1941 0
-438 -1942 0
-439 -1943 0
-440 -1944 0
-437 -1997 0
-438 -1998 0
-439 -1999 0
-440 -2000 0
-437 -2081 0
-438 -2082 0
-439 -2083 0
-440 -2084 0
-437 -2089 0
-438 -2090 0
-439 -2091 0
-440 -2092 0
-437 -2297 0
-438 -2298 0
-439 -2299 0
-440 -2300 0
-441 -453 0
-442 -454 0
-443 -455 0
-444 -456 0
-441 -497 0
-442 -498 0
-443 -499 0
-444 -500 0
-441 -789 0
-442 -790 0
-443 -791 0
-444 -792 0
-441 -1049 0
-442 -1050 0
-443 -1051 0
-444 -1052 0
-441 -1173 0
-442 -1174 0
-443 -1175 0
-444 -1176 0
-441 -1337 0
-442 -1338 0
-443 -1339 0
-444 -1340 0
-441 -1349 0
-442 -1350 0
-443 -1351 0
-444 -1352 0
-441 -1949 0
-442 -1950 0
-443 -1951 0
-444 -1952 0
-441 -2001 0
-442 -2002 0
-443 -2003 0
-444 -2004 0
-441 -2313 0
-442 -2314 0
-443 -2315 0
-444 -2316 0
-445 -453 0
-446 -454 0
-447 -455 0
-448 -456 0
-445 -461 0
-446 -462 0
-447 -463 0
-448 -464 0
-445 -469 0
-446 -470 0
-447 -471 0
-448 -472 0
-445 -501 0
-446 -502 0
-447 -503 0
-448 -504 0
-445 -1177 0
-446 -1178 0
-447 -1179 0
-448 -1180 0
-445 -1257 0
-446 -1258 0
-447 -1259 0
-448 -1260 0
-445 -1957 0
-446 -1958 0
-447 -1959 0
-448 -1960 0
-445 -1997 0
-446 -1998 0
-447 -1999 0
-448 -2000 0
-445 -2085 0
-446 -2086 0
-447 -2087 0
-448 -2088 0
-445 -2097 0
-446 -2098 0
-447 -2099 0
-448 -2100 0
-445 -2333 0
-446 -2334 0
-447 -2335 0
-448 -2336 0
-449 -453 0
-450 -454 0
-451 -455 0
-452 -456 0
-449 -473 0
-450 -474 0
-451 -475 0
-452 -476 0
-449 -753 0
-450 -754 0
-451 -755 0
-452 -756 0
-449 -797 0
-450 -798 0
-451 -799 0
-452 -800 0
-449 -1261 0
-450 -1262 0
-451 -1263 0
-452 -1264 0
-449 -1357 0
-450 -1358 0
-451 -1359 0
-452 -1360 0
-449 -1809 0
-450 -1810 0
-451 -1811 0
-452 -1812 0
-449 -1961 0
-450 -1962 0
-451 -1963 0
-452 -1964 0
-453 -473 0
-454 -474 0
-455 -475 0
-456 -476 0
-453 -501 0
-454 -502 0
-455 -503 0
-456 -504 0
-453 -801 0
-454 -802 0
-455 -803 0
-456 -804 0
-453 -1181 0
-454 -1182 0
-455 -1183 0
-456 -1184 0
-453 -1361 0
-454 -1362 0
-455 -1363 0
-456 -1364 0
-453 -1965 0
-454 -1966 0
-455 -1967 0
-456 -1968 0
-453 -2001 0
-454 -2002 0
-455 -2003 0
-456 -2004 0
-453 -2349 0
-454 -2350 0
-455 -2351 0
-456 -2352 0
-457 -461 0
-458 -462 0
-459 -463 0
-460 -464 0
-457 -505 0
-458 -506 0
-459 -507 0
-460 -508 0
-457 -841 0
-458 -842 0
-459 -843 0
-460 -844 0
-457 -1461 0
-458 -1462 0
-459 -1463 0
-460 -1464 0
-457 -1813 0
-458 -1814 0
-459 -1815 0
-460 -1816 0
-457 -1941 0
-458 -1942 0
-459 -1943 0
-460 -1944 0
-457 -2005 0
-458 -2006 0
-459 -2007 0
-460 -2008 0
-457 -2353 0
-458 -2354 0
-459 -2355 0
-460 -2356 0
-461 -509 0
-462 -510 0
-463 -511 0
-464 -512 0
-461 -717 0
-462 -718 0
-463 -719 0
-464 -720 0
-461 -1273 0
-462 -1274 0
-463 -1275 0
-464 -1276 0
-461 -1465 0
-462 -1466 0
-463 -1467 0
-464 -1468 0
-461 -1817 0
-462 -1818 0
-463 -1819 0
-464 -1820 0
-461 -1957 0
-462 -1958 0
-463 -1959 0
-464 -1960 0
-461 -2005 0
-462 -2006 0
-463 -2007 0
-464 -2008 0
-461 -2357 0
-462 -2358 0
-463 -2359 0
-464 -2360 0
-465 -469 0
-466 -470 0
-467 -471 0
-468 -472 0
-465 -845 0
-466 -846 0
-467 -847 0
-468 -848 0
-465 -1281 0
-466 -1282 0
-467 -1283 0
-468 -1284 0
-465 -1829 0
-466 -1830 0
-467 -1831 0
-468 -1832 0
-465 -2009 0
-466 -2010 0
-467 -2011 0
-468 -2012 0
-465 -2125 0
-466 -2126 0
-467 -2127 0
-468 -2128 0
-465 -2369 0
-466 -2370 0
-467 -2371 0
-468 -2372 0
-469 -473 0
-470 -474 0
-471 -475 0
-472 -476 0
-469 -1297 0
-470 -1298 0
-471 -1299 0
-472 -1300 0
-469 -1833 0
-470 -1834 0
-471 -1835 0
-472 -1836 0
-469 -2009 0
-470 -2010 0
-471 -2011 0
-472 -2012 0
-469 -2377 0
-470 -2378 0
-471 -2379 0
-472 -2380 0
-473 -541 0
-474 -542 0
-475 -543 0
-476 -544 0
-473 -829 0
-474 -830 0
-475 -831 0
-476 -832 0
-473 -1309 0
-474 -1310 0
-475 -1311 0
-476 -1312 0
-473 -1841 0
-474 -1842 0
-475 -1843 0
-476 -1844 0
-473 -1969 0
-474 -1970 0
-475 -1971 0
-476 -1972 0
-477 -481 0
-478 -482 0
-479 -483 0
-480 -484 0
-477 -493 0
-478 -494 0
-479 -495 0
-480 -496 0
-477 -549 0
-478 -550 0
-479 -551 0
-480 -552 0
-477 -773 0
-478 -774 0
-479 -775 0
-480 -776 0
-477 -937 0
-478 -938 0
-479 -939 0
-480 -940 0
-477 -1073 0
-478 -1074 0
-479 -1075 0
-480 -1076 0
-477 -1513 0
-478 -1514 0
-479 -1515 0
-480 -1516 0
-477 -2037 0
-478 -2038 0
-479 -2039 0
-480 -2040 0
-477 -2049 0
-478 -2050 0
-479 -2051 0
-480 -2052 0
-481 -933 0
-482 -934 0
-483 -935 0
-484 -936 0
-481 -2041 0
-482 -2042 0
-483 -2043 0
-484 -2044 0
-481 -2053 0
-482 -2054 0
-483 -2055 0
-484 -2056 0
-485 -489 0
-486 -490 0
-487 -491 0
-488 -492 0
-485 -505 0
-486 -506 0
-487 -507 0
-488 -508 0
-485 -633 0
-486 -634 0
-487 -635 0
-488 -636 0
-485 -1409 0
-486 -1410 0
-487 -1411 0
-488 -1412 0
-485 -2021 0
-486 -2022 0
-487 -2023 0
-488 -2024 0
-489 -505 0
-490 -506 0
-491 -507 0
-492 -508 0
-489 -769 0
-490 -770 0
-491 -771 0
-492 -772 0
-489 -817 0
-490 -818 0
-491 -819 0
-492 -820 0
-489 -1413 0
-490 -1414 0
-491 -1415 0
-492 -1416 0
-489 -1553 0
-490 -1554 0
-491 -1555 0
-492 -1556 0
-489 -2113 0
-490 -2114 0
-491 -2115 0
-492 -2116 0
-493 -621 0
-494 -622 0
-495 -623 0
-496 -624 0
-493 -929 0
-494 -930 0
-495 -931 0
-496 -932 0
-493 -1569 0
-494 -1570 0
-495 -1571 0
-496 -1572 0
-493 -2117 0
-494 -2118 0
-495 -2119 0
-496 -2120 0
-493 -2129 0
-494 -2130 0
-495 -2131 0
-496 -2132 0
-497 -501 0
-498 -502 0
-499 -503 0
-500 -504 0
-497 -505 0
-498 -506 0
-499 -507 0
-500 -508 0
-497 -917 0
-498 -918 0
-499 -919 0
-500 -920 0
-497 -1613 0
-498 -1614 0
-499 -1615 0
-500 -1616 0
-497 -2041 0
-498 -2042 0
-499 -2043 0
-500 -2044 0
-497 -2145 0
-498 -2146 0
-499 -2147 0
-500 -2148 0
-497 -2445 0
-498 -2446 0
-499 -2447 0
-500 -2448 0
-501 -509 0
-502 -510 0
-503 -511 0
-504 -512 0
-501 -845 0
-502 -846 0
-503 -847 0
-504 -848 0
-501 -921 0
-502 -922 0
-503 -923 0
-504 -924 0
-501 -1401 0
-502 -1402 0
-503 -1403 0
-504 -1404 0
-501 -2053 0
-502 -2054 0
-503 -2055 0
-504 -2056 0
-501 -2145 0
-502 -2146 0
-503 -2147 0
-504 -2148 0
-501 -2149 0
-502 -2150 0
-503 -2151 0
-504 -2152 0
-501 -2453 0
-502 -2454 0
-503 -2455 0
-504 -2456 0
-505 -509 0
-506 -510 0
-507 -511 0
-508 -512 0
-505 -849 0
-506 -850 0
-507 -851 0
-508 -852 0
-505 -1629 0
-506 -1630 0
-507 -1631 0
-508 -1632 0
-505 -1909 0
-506 -1910 0
-507 -1911 0
-508 -1912 0
-505 -2041 0
-506 -2042 0
-507 -2043 0
-508 -2044 0
-505 -2153 0
-506 -2154 0
-507 -2155 0
-508 -2156 0
-509 -853 0
-510 -854 0
-511 -855 0
-512 -856 0
-509 -1193 0
-510 -1194 0
-511 -1195 0
-512 -1196 0
-509 -1417 0
-510 -1418 0
-511 -1419 0
-512 -1420 0
-509 -1645 0
-510 -1646 0
-511 -1647 0
-512 -1648 0
-509 -1921 0
-510 -1922 0
-511 -1923 0
-512 -1924 0
-509 -2053 0
-510 -2054 0
-511 -2055 0
-512 -2056 0
-509 -2153 0
-510 -2154 0
-511 -2155 0
-512 -2156 0
-509 -2157 0
-510 -2158 0
-511 -2159 0
-512 -2160 0
-513 -517 0
-514 -518 0
-515 -519 0
-516 -520 0
-513 -521 0
-514 -522 0
-515 -523 0
-516 -524 0
-513 -609 0
-514 -610 0
-515 -611 0
-516 -612 0
-513 -621 0
-514 -622 0
-515 -623 0
-516 -624 0
-513 -985 0
-514 -986 0
-515 -987 0
-516 -988 0
-513 -1941 0
-514 -1942 0
-515 -1943 0
-516 -1944 0
-513 -2165 0
-514 -2166 0
-515 -2167 0
-516 -2168 0
-513 -2469 0
-514 -2470 0
-515 -2471 0
-516 -2472 0
-517 -525 0
-518 -526 0
-519 -527 0
-520 -528 0
-517 -621 0
-518 -622 0
-519 -623 0
-520 -624 0
-517 -861 0
-518 -862 0
-519 -863 0
-520 -864 0
-517 -1949 0
-518 -1950 0
-519 -1951 0
-520 -1952 0
-517 -2169 0
-518 -2170 0
-519 -2171 0
-520 -2172 0
-521 -525 0
-522 -526 0
-523 -527 0
-524 -528 0
-521 -637 0
-522 -638 0
-523 -639 0
-524 -640 0
-521 -653 0
-522 -654 0
-523 -655 0
-524 -656 0
-521 -805 0
-522 -806 0
-523 -807 0
-524 -808 0
-521 -989 0
-522 -990 0
-523 -991 0
-524 -992 0
-521 -1269 0
-522 -1270 0
-523 -1271 0
-524 -1272 0
-521 -1957 0
-522 -1958 0
-523 -1959 0
-524 -1960 0
-521 -2165 0
-522 -2166 0
-523 -2167 0
-524 -2168 0
-521 -2173 0
-522 -2174 0
-523 -2175 0
-524 -2176 0
-521 -2473 0
-522 -2474 0
-523 -2475 0
-524 -2476 0
-525 -653 0
-526 -654 0
-527 -655 0
-528 -656 0
-525 -673 0
-526 -674 0
-527 -675 0
-528 -676 0
-525 -873 0
-526 -874 0
-527 -875 0
-528 -876 0
-525 -1277 0
-526 -1278 0
-527 -1279 0
-528 -1280 0
-525 -1461 0
-526 -1462 0
-527 -1463 0
-528 -1464 0
-525 -1965 0
-526 -1966 0
-527 -1967 0
-528 -1968 0
-525 -2169 0
-526 -2170 0
-527 -2171 0
-528 -2172 0
-525 -2177 0
-526 -2178 0
-527 -2179 0
-528 -2180 0
-529 -533 0
-530 -534 0
-531 -535 0
-532 -536 0
-529 -537 0
-530 -538 0
-531 -539 0
-532 -540 0
-529 -1213 0
-530 -1214 0
-531 -1215 0
-532 -1216 0
-529 -1469 0
-530 -1470 0
-531 -1471 0
-532 -1472 0
-529 -1685 0
-530 -1686 0
-531 -1687 0
-532 -1688 0
-529 -2185 0
-530 -2186 0
-531 -2187 0
-532 -2188 0
-529 -2257 0
-530 -2258 0
-531 -2259 0
-532 -2260 0
-529 -2297 0
-530 -2298 0
-531 -2299 0
-532 -2300 0
-529 -2513 0
-530 -2514 0
-531 -2515 0
-532 -2516 0
-533 -541 0
-534 -542 0
-535 -543 0
-536 -544 0
-533 -845 0
-534 -846 0
-535 -847 0
-536 -848 0
-533 -1217 0
-534 -1218 0
-535 -1219 0
-536 -1220 0
-533 -1973 0
-534 -1974 0
-535 -1975 0
-536 -1976 0
-533 -2185 0
-534 -2186 0
-535 -2187 0
-536 -2188 0
-533 -2261 0
-534 -2262 0
-535 -2263 0
-536 -2264 0
-533 -2333 0
-534 -2334 0
-535 -2335 0
-536 -2336 0
-533 -2521 0
-534 -2522 0
-535 -2523 0
-536 -2524 0
-537 -541 0
-538 -542 0
-539 -543 0
-540 -544 0
-537 -897 0
-538 -898 0
-539 -899 0
-540 -900 0
-537 -997 0
-538 -998 0
-539 -999 0
-540 -1000 0
-537 -1225 0
-538 -1226 0
-539 -1227 0
-540 -1228 0
-537 -1441 0
-538 -1442 0
-539 -1443 0
-540 -1444 0
-537 -2189 0
-538 -2190 0
-539 -2191 0
-540 -2192 0
-537 -2297 0
-538 -2298 0
-539 -2299 0
-540 -2300 0
-537 -2361 0
-538 -2362 0
-539 -2363 0
-540 -2364 0
-537 -2529 0
-538 -2530 0
-539 -2531 0
-540 -2532 0
-541 -1005 0
-542 -1006 0
-543 -1007 0
-544 -1008 0
-541 -1229 0
-542 -1230 0
-543 -1231 0
-544 -1232 0
-541 -1365 0
-542 -1366 0
-543 -1367 0
-544 -1368 0
-541 -1453 0
-542 -1454 0
-543 -1455 0
-544 -1456 0
-541 -2189 0
-542 -2190 0
-543 -2191 0
-544 -2192 0
-541 -2333 0
-542 -2334 0
-543 -2335 0
-544 -2336 0
-541 -2365 0
-542 -2366 0
-543 -2367 0
-544 -2368 0
-545 -549 0
-546 -550 0
-547 -551 0
-548 -552 0
-545 -553 0
-546 -554 0
-547 -555 0
-548 -556 0
-545 -613 0
-546 -614 0
-547 -615 0
-548 -616 0
-545 -621 0
-546 -622 0
-547 -623 0
-548 -624 0
-545 -913 0
-546 -914 0
-547 -915 0
-548 -916 0
-545 -2205 0
-546 -2206 0
-547 -2207 0
-548 -2208 0
-549 -557 0
-550 -558 0
-551 -559 0
-552 -560 0
-549 -621 0
-550 -622 0
-551 -623 0
-552 -624 0
-549 -633 0
-550 -634 0
-551 -635 0
-552 -636 0
-549 -917 0
-550 -918 0
-551 -919 0
-552 -920 0
-549 -1213 0
-550 -1214 0
-551 -1215 0
-552 -1216 0
-549 -1513 0
-550 -1514 0
-551 -1515 0
-552 -1516 0
-549 -2209 0
-550 -2210 0
-551 -2211 0
-552 -2212 0
-553 -557 0
-554 -558 0
-555 -559 0
-556 -560 0
-553 -641 0
-554 -642 0
-555 -643 0
-556 -644 0
-553 -653 0
-554 -654 0
-555 -655 0
-556 -656 0
-553 -2013 0
-554 -2014 0
-555 -2015 0
-556 -2016 0
-553 -2205 0
-554 -2206 0
-555 -2207 0
-556 -2208 0
-553 -2213 0
-554 -2214 0
-555 -2215 0
-556 -2216 0
-557 -653 0
-558 -654 0
-559 -655 0
-560 -656 0
-557 -665 0
-558 -666 0
-559 -667 0
-560 -668 0
-557 -921 0
-558 -922 0
-559 -923 0
-560 -924 0
-557 -1217 0
-558 -1218 0
-559 -1219 0
-560 -1220 0
-557 -2209 0
-558 -2210 0
-559 -2211 0
-560 -2212 0
-557 -2217 0
-558 -2218 0
-559 -2219 0
-560 -2220 0
-561 -565 0
-562 -566 0
-563 -567 0
-564 -568 0
-561 -569 0
-562 -570 0
-563 -571 0
-564 -572 0
-561 -617 0
-562 -618 0
-563 -619 0
-564 -620 0
-561 -621 0
-562 -622 0
-563 -623 0
-564 -624 0
-561 -1517 0
-562 -1518 0
-563 -1519 0
-564 -1520 0
-561 -2021 0
-562 -2022 0
-563 -2023 0
-564 -2024 0
-561 -2225 0
-562 -2226 0
-563 -2227 0
-564 -2228 0
-565 -573 0
-566 -574 0
-567 -575 0
-568 -576 0
-565 -621 0
-566 -622 0
-567 -623 0
-568 -624 0
-565 -629 0
-566 -630 0
-567 -631 0
-568 -632 0
-565 -1525 0
-566 -1526 0
-567 -1527 0
-568 -1528 0
-565 -1689 0
-566 -1690 0
-567 -1691 0
-568 -1692 0
-565 -2229 0
-566 -2230 0
-567 -2231 0
-568 -2232 0
-569 -573 0
-570 -574 0
-571 -575 0
-572 -576 0
-569 -645 0
-570 -646 0
-571 -647 0
-572 -648 0
-569 -653 0
-570 -654 0
-571 -655 0
-572 -656 0
-569 -1393 0
-570 -1394 0
-571 -1395 0
-572 -1396 0
-569 -1533 0
-570 -1534 0
-571 -1535 0
-572 -1536 0
-569 -2029 0
-570 -2030 0
-571 -2031 0
-572 -2032 0
-569 -2225 0
-570 -2226 0
-571 -2227 0
-572 -2228 0
-569 -2233 0
-570 -2234 0
-571 -2235 0
-572 -2236 0
-573 -653 0
-574 -654 0
-575 -655 0
-576 -656 0
-573 -661 0
-574 -662 0
-575 -663 0
-576 -664 0
-573 -905 0
-574 -906 0
-575 -907 0
-576 -908 0
-573 -1537 0
-574 -1538 0
-575 -1539 0
-576 -1540 0
-573 -1545 0
-574 -1546 0
-575 -1547 0
-576 -1548 0
-573 -1693 0
-574 -1694 0
-575 -1695 0
-576 -1696 0
-573 -2229 0
-574 -2230 0
-575 -2231 0
-576 -2232 0
-573 -2237 0
-574 -2238 0
-575 -2239 0
-576 -2240 0
-577 -581 0
-578 -582 0
-579 -583 0
-580 -584 0
-577 -585 0
-578 -586 0
-579 -587 0
-580 -588 0
-577 -621 0
-578 -622 0
-579 -623 0
-580 -624 0
-577 -941 0
-578 -942 0
-579 -943 0
-580 -944 0
-577 -1241 0
-578 -1242 0
-579 -1243 0
-580 -1244 0
-577 -1697 0
-578 -1698 0
-579 -1699 0
-580 -1700 0
-577 -2241 0
-578 -2242 0
-579 -2243 0
-580 -2244 0
-581 -589 0
-582 -590 0
-583 -591 0
-584 -592 0
-581 -621 0
-582 -622 0
-583 -623 0
-584 -624 0
-581 -625 0
-582 -626 0
-583 -627 0
-584 -628 0
-581 -2245 0
-582 -2246 0
-583 -2247 0
-584 -2248 0
-585 -589 0
-586 -590 0
-587 -591 0
-588 -592 0
-585 -649 0
-586 -650 0
-587 -651 0
-588 -652 0
-585 -653 0
-586 -654 0
-587 -655 0
-588 -656 0
-585 -945 0
-586 -946 0
-587 -947 0
-588 -948 0
-585 -1253 0
-586 -1254 0
-587 -1255 0
-588 -1256 0
-585 -1577 0
-586 -1578 0
-587 -1579 0
-588 -1580 0
-585 -2241 0
-586 -2242 0
-587 -2243 0
-588 -2244 0
-585 -2249 0
-586 -2250 0
-587 -2251 0
-588 -2252 0
-589 -653 0
-590 -654 0
-591 -655 0
-592 -656 0
-589 -657 0
-590 -658 0
-591 -659 0
-592 -660 0
-589 -985 0
-590 -986 0
-591 -987 0
-592 -988 0
-589 -1257 0
-590 -1258 0
-591 -1259 0
-592 -1260 0
-589 -1581 0
-590 -1582 0
-591 -1583 0
-592 -1584 0
-589 -2245 0
-590 -2246 0
-591 -2247 0
-592 -2248 0
-589 -2253 0
-590 -2254 0
-591 -2255 0
-592 -2256 0
-589 -2573 0
-590 -2574 0
-591 -2575 0
-592 -2576 0
-593 -597 0
-594 -598 0
-595 -599 0
-596 -600 0
-593 -621 0
-594 -622 0
-595 -623 0
-596 -624 0
-593 -1089 0
-594 -1090 0
-595 -1091 0
-596 -1092 0
-593 -1701 0
-594 -1702 0
-595 -1703 0
-596 -1704 0
-593 -2257 0
-594 -2258 0
-595 -2259 0
-596 -2260 0
-593 -2421 0
-594 -2422 0
-595 -2423 0
-596 -2424 0
-597 -653 0
-598 -654 0
-599 -655 0
-600 -656 0
-597 -913 0
-598 -914 0
-599 -915 0
-600 -916 0
-597 -1093 0
-598 -1094 0
-599 -1095 0
-600 -1096 0
-597 -1273 0
-598 -1274 0
-599 -1275 0
-600 -1276 0
-597 -1705 0
-598 -1706 0
-599 -1707 0
-600 -1708 0
-597 -2257 0
-598 -2258 0
-599 -2259 0
-600 -2260 0
-597 -2261 0
-598 -2262 0
-599 -2263 0
-600 -2264 0
-597 -2425 0
-598 -2426 0
-599 -2427 0
-600 -2428 0
-601 -605 0
-602 -606 0
-603 -607 0
-604 -608 0
-601 -621 0
-602 -622 0
-603 -623 0
-604 -624 0
-601 -2265 0
-602 -2266 0
-603 -2267 0
-604 -2268 0
-601 -2577 0
-602 -2578 0
-603 -2579 0
-604 -2580 0
-605 -653 0
-606 -654 0
-607 -655 0
-608 -656 0
-605 -1397 0
-606 -1398 0
-607 -1399 0
-608 -1400 0
-605 -1609 0
-606 -1610 0
-607 -1611 0
-608 -1612 0
-605 -2193 0
-606 -2194 0
-607 -2195 0
-608 -2196 0
-605 -2265 0
-606 -2266 0
-607 -2267 0
-608 -2268 0
-605 -2269 0
-606 -2270 0
-607 -2271 0
-608 -2272 0
-605 -2581 0
-606 -2582 0
-607 -2583 0
-608 -2584 0
-609 -621 0
-610 -622 0
-611 -623 0
-612 -624 0
-609 -637 0
-610 -638 0
-611 -639 0
-612 -640 0
-609 -765 0
-610 -766 0
-611 -767 0
-612 -768 0
-609 -1045 0
-610 -1046 0
-611 -1047 0
-612 -1048 0
-609 -1709 0
-610 -1710 0
-611 -1711 0
-612 -1712 0
-609 -2277 0
-610 -2278 0
-611 -2279 0
-612 -2280 0
-609 -2585 0
-610 -2586 0
-611 -2587 0
-612 -2588 0
-613 -621 0
-614 -622 0
-615 -623 0
-616 -624 0
-613 -641 0
-614 -642 0
-615 -643 0
-616 -644 0
-613 -729 0
-614 -730 0
-615 -731 0
-616 -732 0
-613 -1037 0
-614 -1038 0
-615 -1039 0
-616 -1040 0
-613 -2285 0
-614 -2286 0
-615 -2287 0
-616 -2288 0
-617 -621 0
-618 -622 0
-619 -623 0
-620 -624 0
-617 -645 0
-618 -646 0
-619 -647 0
-620 -648 0
-617 -1049 0
-618 -1050 0
-619 -1051 0
-620 -1052 0
-617 -2289 0
-618 -2290 0
-619 -2291 0
-620 -2292 0
-621 -625 0
-622 -626 0
-623 -627 0
-624 -628 0
-621 -629 0
-622 -630 0
-623 -631 0
-624 -632 0
-621 -633 0
-622 -634 0
-623 -635 0
-624 -636 0
-621 -653 0
-622 -654 0
-623 -655 0
-624 -656 0
-621 -681 0
-622 -682 0
-623 -683 0
-624 -684 0
-621 -689 0
-622 -690 0
-623 -691 0
-624 -692 0
-621 -697 0
-622 -698 0
-623 -699 0
-624 -700 0
-621 -701 0
-622 -702 0
-623 -703 0
-624 -704 0
-621 -713 0
-622 -714 0
-623 -715 0
-624 -716 0
-621 -729 0
-622 -730 0
-623 -731 0
-624 -732 0
-621 -733 0
-622 -734 0
-623 -735 0
-624 -736 0
-621 -765 0
-622 -766 0
-623 -767 0
-624 -768 0
-621 -769 0
-622 -770 0
-623 -771 0
-624 -772 0
-621 -953 0
-622 -954 0
-623 -955 0
-624 -956 0
-621 -1041 0
-622 -1042 0
-623 -1043 0
-624 -1044 0
-621 -1053 0
-622 -1054 0
-623 -1055 0
-624 -1056 0
-621 -1105 0
-622 -1106 0
-623 -1107 0
-624 -1108 0
-621 -1281 0
-622 -1282 0
-623 -1283 0
-624 -1284 0
-621 -1569 0
-622 -1570 0
-623 -1571 0
-624 -1572 0
-621 -1713 0
-622 -1714 0
-623 -1715 0
-624 -1716 0
-621 -1725 0
-622 -1726 0
-623 -1727 0
-624 -1728 0
-621 -2041 0
-622 -2042 0
-623 -2043 0
-624 -2044 0
-621 -2197 0
-622 -2198 0
-623 -2199 0
-624 -2200 0
-621 -2273 0
-622 -2274 0
-623 -2275 0
-624 -2276 0
-621 -2297 0
-622 -2298 0
-623 -2299 0
-624 -2300 0
-621 -2421 0
-622 -2422 0
-623 -2423 0
-624 -2424 0
-621 -2429 0
-622 -2430 0
-623 -2431 0
-624 -2432 0
-621 -2593 0
-622 -2594 0
-623 -2595 0
-624 -2596 0
-621 -3797 0
-622 -3798 0
-623 -3799 0
-624 -3800 0
-621 -3805 0
-622 -3806 0
-623 -3807 0
-624 -3808 0
-621 -3813 0
-622 -3814 0
-623 -3815 0
-624 -3816 0
-621 -3817 0
-622 -3818 0
-623 -3819 0
-624 -3820 0
-621 -3825 0
-622 -3826 0
-623 -3827 0
-624 -3828 0
-621 -3837 0
-622 -3838 0
-623 -3839 0
-624 -3840 0
-621 -3901 0
-622 -3902 0
-623 -3903 0
-624 -3904 0
-621 -3937 0
-622 -3938 0
-623 -3939 0
-624 -3940 0
-621 -3969 0
-622 -3970 0
-623 -3971 0
-624 -3972 0
-621 -4009 0
-622 -4010 0
-623 -4011 0
-624 -4012 0
-621 -4145 0
-622 -4146 0
-623 -4147 0
-624 -4148 0
-621 -4193 0
-622 -4194 0
-623 -4195 0
-624 -4196 0
-621 -4277 0
-622 -4278 0
-623 -4279 0
-624 -4280 0
-621 -4297 0
-622 -4298 0
-623 -4299 0
-624 -4300 0
-621 -4301 0
-622 -4302 0
-623 -4303 0
-624 -4304 0
-621 -4329 0
-622 -4330 0
-623 -4331 0
-624 -4332 0
-621 -4333 0
-622 -4334 0
-623 -4335 0
-624 -4336 0
-621 -4345 0
-622 -4346 0
-623 -4347 0
-624 -4348 0
-621 -4349 0
-622 -4350 0
-623 -4351 0
-624 -4352 0
-621 -4361 0
-622 -4362 0
-623 -4363 0
-624 -4364 0
-621 -4365 0
-622 -4366 0
-623 -4367 0
-624 -4368 0
-621 -4377 0
-622 -4378 0
-623 -4379 0
-624 -4380 0
-621 -4385 0
-622 -4386 0
-623 -4387 0
-624 -4388 0
-621 -4393 0
-622 -4394 0
-623 -4395 0
-624 -4396 0
-621 -4397 0
-622 -4398 0
-623 -4399 0
-624 -4400 0
-621 -4401 0
-622 -4402 0
-623 -4403 0
-624 -4404 0
-621 -4405 0
-622 -4406 0
-623 -4407 0
-624 -4408 0
-621 -4409 0
-622 -4410 0
-623 -4411 0
-624 -4412 0
-621 -4413 0
-622 -4414 0
-623 -4415 0
-624 -4416 0
-621 -4433 0
-622 -4434 0
-623 -4435 0
-624 -4436 0
-621 -4461 0
-622 -4462 0
-623 -4463 0
-624 -4464 0
-621 -4469 0
-622 -4470 0
-623 -4471 0
-624 -4472 0
-621 -4477 0
-622 -4478 0
-623 -4479 0
-624 -4480 0
-621 -4481 0
-622 -4482 0
-623 -4483 0
-624 -4484 0
-621 -4493 0
-622 -4494 0
-623 -4495 0
-624 -4496 0
-621 -4509 0
-622 -4510 0
-623 -4511 0
-624 -4512 0
-621 -4513 0
-622 -4514 0
-623 -4515 0
-624 -4516 0
-621 -4545 0
-622 -4546 0
-623 -4547 0
-624 -4548 0
-621 -4549 0
-622 -4550 0
-623 -4551 0
-624 -4552 0
-621 -4733 0
-622 -4734 0
-623 -4735 0
-624 -4736 0
-621 -4821 0
-622 -4822 0
-623 -4823 0
-624 -4824 0
-621 -4833 0
-622 -4834 0
-623 -4835 0
-624 -4836 0
-621 -4885 0
-622 -4886 0
-623 -4887 0
-624 -4888 0
-621 -5061 0
-622 -5062 0
-623 -5063 0
-624 -5064 0
-621 -5349 0
-622 -5350 0
-623 -5351 0
-624 -5352 0
-621 -5493 0
-622 -5494 0
-623 -5495 0
-624 -5496 0
-621 -5505 0
-622 -5506 0
-623 -5507 0
-624 -5508 0
-621 -5821 0
-622 -5822 0
-623 -5823 0
-624 -5824 0
-621 -5977 0
-622 -5978 0
-623 -5979 0
-624 -5980 0
-621 -6053 0
-622 -6054 0
-623 -6055 0
-624 -6056 0
-621 -6077 0
-622 -6078 0
-623 -6079 0
-624 -6080 0
-621 -6201 0
-622 -6202 0
-623 -6203 0
-624 -6204 0
-621 -6209 0
-622 -6210 0
-623 -6211 0
-624 -6212 0
-621 -6373 0
-622 -6374 0
-623 -6375 0
-624 -6376 0
-625 -657 0
-626 -658 0
-627 -659 0
-628 -660 0
-625 -701 0
-626 -702 0
-627 -703 0
-628 -704 0
-625 -1109 0
-626 -1110 0
-627 -1111 0
-628 -1112 0
-625 -1573 0
-626 -1574 0
-627 -1575 0
-628 -1576 0
-625 -2301 0
-626 -2302 0
-627 -2303 0
-628 -2304 0
-629 -661 0
-630 -662 0
-631 -663 0
-632 -664 0
-629 -713 0
-630 -714 0
-631 -715 0
-632 -716 0
-629 -1113 0
-630 -1114 0
-631 -1115 0
-632 -1116 0
-629 -1729 0
-630 -1730 0
-631 -1731 0
-632 -1732 0
-629 -2305 0
-630 -2306 0
-631 -2307 0
-632 -2308 0
-633 -665 0
-634 -666 0
-635 -667 0
-636 -668 0
-633 -733 0
-634 -734 0
-635 -735 0
-636 -736 0
-633 -1285 0
-634 -1286 0
-635 -1287 0
-636 -1288 0
-633 -1577 0
-634 -1578 0
-635 -1579 0
-636 -1580 0
-633 -2309 0
-634 -2310 0
-635 -2311 0
-636 -2312 0
-637 -653 0
-638 -654 0
-639 -655 0
-640 -656 0
-637 -773 0
-638 -774 0
-639 -775 0
-640 -776 0
-637 -1717 0
-638 -1718 0
-639 -1719 0
-640 -1720 0
-637 -2277 0
-638 -2278 0
-639 -2279 0
-640 -2280 0
-637 -2317 0
-638 -2318 0
-639 -2319 0
-640 -2320 0
-637 -2597 0
-638 -2598 0
-639 -2599 0
-640 -2600 0
-641 -653 0
-642 -654 0
-643 -655 0
-644 -656 0
-641 -737 0
-642 -738 0
-643 -739 0
-644 -740 0
-641 -781 0
-642 -782 0
-643 -783 0
-644 -784 0
-641 -1121 0
-642 -1122 0
-643 -1123 0
-644 -1124 0
-641 -1617 0
-642 -1618 0
-643 -1619 0
-644 -1620 0
-641 -2045 0
-642 -2046 0
-643 -2047 0
-644 -2048 0
-641 -2285 0
-642 -2286 0
-643 -2287 0
-644 -2288 0
-641 -2321 0
-642 -2322 0
-643 -2323 0
-644 -2324 0
-645 -653 0
-646 -654 0
-647 -655 0
-648 -656 0
-645 -717 0
-646 -718 0
-647 -719 0
-648 -720 0
-645 -1409 0
-646 -1410 0
-647 -1411 0
-648 -1412 0
-645 -1521 0
-646 -1522 0
-647 -1523 0
-648 -1524 0
-645 -2289 0
-646 -2290 0
-647 -2291 0
-648 -2292 0
-645 -2325 0
-646 -2326 0
-647 -2327 0
-648 -2328 0
-649 -653 0
-650 -654 0
-651 -655 0
-652 -656 0
-649 -669 0
-650 -670 0
-651 -671 0
-652 -672 0
-649 -705 0
-650 -706 0
-651 -707 0
-652 -708 0
-649 -785 0
-650 -786 0
-651 -787 0
-652 -788 0
-649 -961 0
-650 -962 0
-651 -963 0
-652 -964 0
-649 -1145 0
-650 -1146 0
-651 -1147 0
-652 -1148 0
-649 -1525 0
-650 -1526 0
-651 -1527 0
-652 -1528 0
-649 -2049 0
-650 -2050 0
-651 -2051 0
-652 -2052 0
-649 -2293 0
-650 -2294 0
-651 -2295 0
-652 -2296 0
-649 -2329 0
-650 -2330 0
-651 -2331 0
-652 -2332 0
-653 -657 0
-654 -658 0
-655 -659 0
-656 -660 0
-653 -661 0
-654 -662 0
-655 -663 0
-656 -664 0
-653 -665 0
-654 -666 0
-655 -667 0
-656 -668 0
-653 -673 0
-654 -674 0
-655 -675 0
-656 -676 0
-653 -677 0
-654 -678 0
-655 -679 0
-656 -680 0
-653 -685 0
-654 -686 0
-655 -687 0
-656 -688 0
-653 -693 0
-654 -694 0
-655 -695 0
-656 -696 0
-653 -705 0
-654 -706 0
-655 -707 0
-656 -708 0
-653 -709 0
-654 -710 0
-655 -711 0
-656 -712 0
-653 -717 0
-654 -718 0
-655 -719 0
-656 -720 0
-653 -721 0
-654 -722 0
-655 -723 0
-656 -724 0
-653 -737 0
-654 -738 0
-655 -739 0
-656 -740 0
-653 -741 0
-654 -742 0
-655 -743 0
-656 -744 0
-653 -773 0
-654 -774 0
-655 -775 0
-656 -776 0
-653 -777 0
-654 -778 0
-655 -779 0
-656 -780 0
-653 -789 0
-654 -790 0
-655 -791 0
-656 -792 0
-653 -925 0
-654 -926 0
-655 -927 0
-656 -928 0
-653 -965 0
-654 -966 0
-655 -967 0
-656 -968 0
-653 -993 0
-654 -994 0
-655 -995 0
-656 -996 0
-653 -1057 0
-654 -1058 0
-655 -1059 0
-656 -1060 0
-653 -1129 0
-654 -1130 0
-655 -1131 0
-656 -1132 0
-653 -1297 0
-654 -1298 0
-655 -1299 0
-656 -1300 0
-653 -1413 0
-654 -1414 0
-655 -1415 0
-656 -1416 0
-653 -1529 0
-654 -1530 0
-655 -1531 0
-656 -1532 0
-653 -1593 0
-654 -1594 0
-655 -1595 0
-656 -1596 0
-653 -1621 0
-654 -1622 0
-655 -1623 0
-656 -1624 0
-653 -1721 0
-654 -1722 0
-655 -1723 0
-656 -1724 0
-653 -1733 0
-654 -1734 0
-655 -1735 0
-656 -1736 0
-653 -2053 0
-654 -2054 0
-655 -2055 0
-656 -2056 0
-653 -2057 0
-654 -2058 0
-655 -2059 0
-656 -2060 0
-653 -2193 0
-654 -2194 0
-655 -2195 0
-656 -2196 0
-653 -2201 0
-654 -2202 0
-655 -2203 0
-656 -2204 0
-653 -2297 0
-654 -2298 0
-655 -2299 0
-656 -2300 0
-653 -2333 0
-654 -2334 0
-655 -2335 0
-656 -2336 0
-653 -2425 0
-654 -2426 0
-655 -2427 0
-656 -2428 0
-653 -2433 0
-654 -2434 0
-655 -2435 0
-656 -2436 0
-653 -2601 0
-654 -2602 0
-655 -2603 0
-656 -2604 0
-657 -709 0
-658 -710 0
-659 -711 0
-660 -712 0
-657 -1133 0
-658 -1134 0
-659 -1135 0
-660 -1136 0
-657 -1417 0
-658 -1418 0
-659 -1419 0
-660 -1420 0
-657 -2301 0
-658 -2302 0
-659 -2303 0
-660 -2304 0
-657 -2337 0
-658 -2338 0
-659 -2339 0
-660 -2340 0
-661 -721 0
-662 -722 0
-663 -723 0
-664 -724 0
-661 -793 0
-662 -794 0
-663 -795 0
-664 -796 0
-661 -929 0
-662 -930 0
-663 -931 0
-664 -932 0
-661 -1137 0
-662 -1138 0
-663 -1139 0
-664 -1140 0
-661 -1737 0
-662 -1738 0
-663 -1739 0
-664 -1740 0
-661 -2305 0
-662 -2306 0
-663 -2307 0
-664 -2308 0
-661 -2341 0
-662 -2342 0
-663 -2343 0
-664 -2344 0
-665 -741 0
-666 -742 0
-667 -743 0
-668 -744 0
-665 -933 0
-666 -934 0
-667 -935 0
-668 -936 0
-665 -997 0
-666 -998 0
-667 -999 0
-668 -1000 0
-665 -1301 0
-666 -1302 0
-667 -1303 0
-668 -1304 0
-665 -1597 0
-666 -1598 0
-667 -1599 0
-668 -1600 0
-665 -1741 0
-666 -1742 0
-667 -1743 0
-668 -1744 0
-665 -2309 0
-666 -2310 0
-667 -2311 0
-668 -2312 0
-665 -2345 0
-666 -2346 0
-667 -2347 0
-668 -2348 0
-669 -673 0
-670 -674 0
-671 -675 0
-672 -676 0
-669 -969 0
-670 -970 0
-671 -971 0
-672 -972 0
-669 -1305 0
-670 -1306 0
-671 -1307 0
-672 -1308 0
-669 -1625 0
-670 -1626 0
-671 -1627 0
-672 -1628 0
-673 -777 0
-674 -778 0
-675 -779 0
-676 -780 0
-673 -813 0
-674 -814 0
-675 -815 0
-676 -816 0
-673 -1309 0
-674 -1310 0
-675 -1311 0
-676 -1312 0
-673 -1601 0
-674 -1602 0
-675 -1603 0
-676 -1604 0
-673 -1629 0
-674 -1630 0
-675 -1631 0
-676 -1632 0
-673 -2313 0
-674 -2314 0
-675 -2315 0
-676 -2316 0
-673 -2349 0
-674 -2350 0
-675 -2351 0
-676 -2352 0
-677 -801 0
-678 -802 0
-679 -803 0
-680 -804 0
-677 -1001 0
-678 -1002 0
-679 -1003 0
-680 -1004 0
-677 -1425 0
-678 -1426 0
-679 -1427 0
-680 -1428 0
-677 -1637 0
-678 -1638 0
-679 -1639 0
-680 -1640 0
-677 -2061 0
-678 -2062 0
-679 -2063 0
-680 -2064 0
-677 -2333 0
-678 -2334 0
-679 -2335 0
-680 -2336 0
-677 -4457 0
-678 -4458 0
-679 -4459 0
-680 -4460 0
-681 -685 0
-682 -686 0
-683 -687 0
-684 -688 0
-681 -1065 0
-682 -1066 0
-683 -1067 0
-684 -1068 0
-681 -2197 0
-682 -2198 0
-683 -2199 0
-684 -2200 0
-681 -2353 0
-682 -2354 0
-683 -2355 0
-684 -2356 0
-685 -937 0
-686 -938 0
-687 -939 0
-688 -940 0
-685 -1069 0
-686 -1070 0
-687 -1071 0
-688 -1072 0
-685 -1149 0
-686 -1150 0
-687 -1151 0
-688 -1152 0
-685 -1321 0
-686 -1322 0
-687 -1323 0
-688 -1324 0
-685 -2065 0
-686 -2066 0
-687 -2067 0
-688 -2068 0
-685 -2201 0
-686 -2202 0
-687 -2203 0
-688 -2204 0
-685 -2353 0
-686 -2354 0
-687 -2355 0
-688 -2356 0
-685 -2357 0
-686 -2358 0
-687 -2359 0
-688 -2360 0
-689 -693 0
-690 -694 0
-691 -695 0
-692 -696 0
-689 -973 0
-690 -974 0
-691 -975 0
-692 -976 0
-689 -1325 0
-690 -1326 0
-691 -1327 0
-692 -1328 0
-689 -2361 0
-690 -2362 0
-691 -2363 0
-692 -2364 0
-689 -2429 0
-690 -2430 0
-691 -2431 0
-692 -2432 0
-693 -809 0
-694 -810 0
-695 -811 0
-696 -812 0
-693 -977 0
-694 -978 0
-695 -979 0
-696 -980 0
-693 -1329 0
-694 -1330 0
-695 -1331 0
-696 -1332 0
-693 -2361 0
-694 -2362 0
-695 -2363 0
-696 -2364 0
-693 -2365 0
-694 -2366 0
-695 -2367 0
-696 -2368 0
-693 -2433 0
-694 -2434 0
-695 -2435 0
-696 -2436 0
-697 -701 0
-698 -702 0
-699 -703 0
-700 -704 0
-697 -705 0
-698 -706 0
-699 -707 0
-700 -708 0
-697 -1077 0
-698 -1078 0
-699 -1079 0
-700 -1080 0
-697 -1333 0
-698 -1334 0
-699 -1335 0
-700 -1336 0
-697 -1753 0
-698 -1754 0
-699 -1755 0
-700 -1756 0
-697 -2369 0
-698 -2370 0
-699 -2371 0
-700 -2372 0
-701 -709 0
-702 -710 0
-703 -711 0
-704 -712 0
-701 -1153 0
-702 -1154 0
-703 -1155 0
-704 -1156 0
-701 -1617 0
-702 -1618 0
-703 -1619 0
-704 -1620 0
-701 -1757 0
-702 -1758 0
-703 -1759 0
-704 -1760 0
-701 -2373 0
-702 -2374 0
-703 -2375 0
-704 -2376 0
-705 -709 0
-706 -710 0
-707 -711 0
-708 -712 0
-705 -821 0
-706 -822 0
-707 -823 0
-708 -824 0
-705 -1081 0
-706 -1082 0
-707 -1083 0
-708 -1084 0
-705 -1541 0
-706 -1542 0
-707 -1543 0
-708 -1544 0
-705 -1773 0
-706 -1774 0
-707 -1775 0
-708 -1776 0
-705 -2073 0
-706 -2074 0
-707 -2075 0
-708 -2076 0
-705 -2369 0
-706 -2370 0
-707 -2371 0
-708 -2372 0
-705 -2377 0
-706 -2378 0
-707 -2379 0
-708 -2380 0
-709 -1161 0
-710 -1162 0
-711 -1163 0
-712 -1164 0
-709 -1633 0
-710 -1634 0
-711 -1635 0
-712 -1636 0
-709 -1777 0
-710 -1778 0
-711 -1779 0
-712 -1780 0
-709 -2077 0
-710 -2078 0
-711 -2079 0
-712 -2080 0
-709 -2373 0
-710 -2374 0
-711 -2375 0
-712 -2376 0
-709 -2381 0
-710 -2382 0
-711 -2383 0
-712 -2384 0
-713 -721 0
-714 -722 0
-715 -723 0
-716 -724 0
-713 -1061 0
-714 -1062 0
-715 -1063 0
-716 -1064 0
-713 -1185 0
-714 -1186 0
-715 -1187 0
-716 -1188 0
-713 -1801 0
-714 -1802 0
-715 -1803 0
-716 -1804 0
-713 -2389 0
-714 -2390 0
-715 -2391 0
-716 -2392 0
-717 -721 0
-718 -722 0
-719 -723 0
-720 -724 0
-717 -1573 0
-718 -1574 0
-719 -1575 0
-720 -1576 0
-717 -2089 0
-718 -2090 0
-719 -2091 0
-720 -2092 0
-717 -2221 0
-718 -2222 0
-719 -2223 0
-720 -2224 0
-717 -2385 0
-718 -2386 0
-719 -2387 0
-720 -2388 0
-717 -2393 0
-718 -2394 0
-719 -2395 0
-720 -2396 0
-717 -2641 0
-718 -2642 0
-719 -2643 0
-720 -2644 0
-721 -841 0
-722 -842 0
-723 -843 0
-724 -844 0
-721 -1189 0
-722 -1190 0
-723 -1191 0
-724 -1192 0
-721 -1805 0
-722 -1806 0
-723 -1807 0
-724 -1808 0
-721 -2093 0
-722 -2094 0
-723 -2095 0
-724 -2096 0
-721 -2389 0
-722 -2390 0
-723 -2391 0
-724 -2392 0
-721 -2397 0
-722 -2398 0
-723 -2399 0
-724 -2400 0
-725 -757 0
-726 -758 0
-727 -759 0
-728 -760 0
-725 -957 0
-726 -958 0
-727 -959 0
-728 -960 0
-725 -1393 0
-726 -1394 0
-727 -1395 0
-728 -1396 0
-725 -2113 0
-726 -2114 0
-727 -2115 0
-728 -2116 0
-725 -2229 0
-726 -2230 0
-727 -2231 0
-728 -2232 0
-729 -733 0
-730 -734 0
-731 -735 0
-732 -736 0
-729 -737 0
-730 -738 0
-731 -739 0
-732 -740 0
-729 -1085 0
-730 -1086 0
-731 -1087 0
-732 -1088 0
-729 -1101 0
-730 -1102 0
-731 -1103 0
-732 -1104 0
-729 -2121 0
-730 -2122 0
-731 -2123 0
-732 -2124 0
-729 -2401 0
-730 -2402 0
-731 -2403 0
-732 -2404 0
-733 -741 0
-734 -742 0
-735 -743 0
-736 -744 0
-733 -1117 0
-734 -1118 0
-735 -1119 0
-736 -1120 0
-733 -1813 0
-734 -1814 0
-735 -1815 0
-736 -1816 0
-733 -2405 0
-734 -2406 0
-735 -2407 0
-736 -2408 0
-737 -741 0
-738 -742 0
-739 -743 0
-740 -744 0
-737 -861 0
-738 -862 0
-739 -863 0
-740 -864 0
-737 -1125 0
-738 -1126 0
-739 -1127 0
-740 -1128 0
-737 -2133 0
-738 -2134 0
-739 -2135 0
-740 -2136 0
-737 -2401 0
-738 -2402 0
-739 -2403 0
-740 -2404 0
-737 -2409 0
-738 -2410 0
-739 -2411 0
-740 -2412 0
-741 -973 0
-742 -974 0
-743 -975 0
-744 -976 0
-741 -1009 0
-742 -1010 0
-743 -1011 0
-744 -1012 0
-741 -1141 0
-742 -1142 0
-743 -1143 0
-744 -1144 0
-741 -1817 0
-742 -1818 0
-743 -1819 0
-744 -1820 0
-741 -2405 0
-742 -2406 0
-743 -2407 0
-744 -2408 0
-741 -2413 0
-742 -2414 0
-743 -2415 0
-744 -2416 0
-745 -749 0
-746 -750 0
-747 -751 0
-748 -752 0
-745 -753 0
-746 -754 0
-747 -755 0
-748 -756 0
-745 -757 0
-746 -758 0
-747 -759 0
-748 -760 0
-745 -1093 0
-746 -1094 0
-747 -1095 0
-748 -1096 0
-745 -1385 0
-746 -1386 0
-747 -1387 0
-748 -1388 0
-745 -1841 0
-746 -1842 0
-747 -1843 0
-748 -1844 0
-745 -2145 0
-746 -2146 0
-747 -2147 0
-748 -2148 0
-745 -2265 0
-746 -2266 0
-747 -2267 0
-748 -2268 0
-745 -2297 0
-746 -2298 0
-747 -2299 0
-748 -2300 0
-745 -2657 0
-746 -2658 0
-747 -2659 0
-748 -2660 0
-749 -1097 0
-750 -1098 0
-751 -1099 0
-752 -1100 0
-749 -1397 0
-750 -1398 0
-751 -1399 0
-752 -1400 0
-749 -1669 0
-750 -1670 0
-751 -1671 0
-752 -1672 0
-749 -1845 0
-750 -1846 0
-751 -1847 0
-752 -1848 0
-749 -2305 0
-750 -2306 0
-751 -2307 0
-752 -2308 0
-753 -761 0
-754 -762 0
-755 -763 0
-756 -764 0
-753 -1649 0
-754 -1650 0
-755 -1651 0
-756 -1652 0
-753 -1673 0
-754 -1674 0
-755 -1675 0
-756 -1676 0
-753 -2149 0
-754 -2150 0
-755 -2151 0
-756 -2152 0
-753 -2269 0
-754 -2270 0
-755 -2271 0
-756 -2272 0
-753 -2333 0
-754 -2334 0
-755 -2335 0
-756 -2336 0
-757 -761 0
-758 -762 0
-759 -763 0
-760 -764 0
-757 -889 0
-758 -890 0
-759 -891 0
-760 -892 0
-757 -1181 0
-758 -1182 0
-759 -1183 0
-760 -1184 0
-757 -1409 0
-758 -1410 0
-759 -1411 0
-760 -1412 0
-757 -1653 0
-758 -1654 0
-759 -1655 0
-760 -1656 0
-757 -1865 0
-758 -1866 0
-759 -1867 0
-760 -1868 0
-757 -2153 0
-758 -2154 0
-759 -2155 0
-760 -2156 0
-757 -2297 0
-758 -2298 0
-759 -2299 0
-760 -2300 0
-757 -2353 0
-758 -2354 0
-759 -2355 0
-760 -2356 0
-757 -2417 0
-758 -2418 0
-759 -2419 0
-760 -2420 0
-761 -981 0
-762 -982 0
-763 -983 0
-764 -984 0
-761 -1033 0
-762 -1034 0
-763 -1035 0
-764 -1036 0
-761 -1421 0
-762 -1422 0
-763 -1423 0
-764 -1424 0
-761 -1657 0
-762 -1658 0
-763 -1659 0
-764 -1660 0
-761 -2157 0
-762 -2158 0
-763 -2159 0
-764 -2160 0
-761 -2161 0
-762 -2162 0
-763 -2163 0
-764 -2164 0
-761 -2333 0
-762 -2334 0
-763 -2335 0
-764 -2336 0
-761 -2357 0
-762 -2358 0
-763 -2359 0
-764 -2360 0
-761 -2417 0
-762 -2418 0
-763 -2419 0
-764 -2420 0
-765 -769 0
-766 -770 0
-767 -771 0
-768 -772 0
-765 -773 0
-766 -774 0
-767 -775 0
-768 -776 0
-765 -1889 0
-766 -1890 0
-767 -1891 0
-768 -1892 0
-765 -2441 0
-766 -2442 0
-767 -2443 0
-768 -2444 0
-769 -777 0
-770 -778 0
-771 -779 0
-772 -780 0
-769 -1677 0
-770 -1678 0
-771 -1679 0
-772 -1680 0
-769 -1897 0
-770 -1898 0
-771 -1899 0
-772 -1900 0
-769 -2445 0
-770 -2446 0
-771 -2447 0
-772 -2448 0
-773 -777 0
-774 -778 0
-775 -779 0
-776 -780 0
-773 -917 0
-774 -918 0
-775 -919 0
-776 -920 0
-773 -1073 0
-774 -1074 0
-775 -1075 0
-776 -1076 0
-773 -1893 0
-774 -1894 0
-775 -1895 0
-776 -1896 0
-773 -1901 0
-774 -1902 0
-775 -1903 0
-776 -1904 0
-773 -2441 0
-774 -2442 0
-775 -2443 0
-776 -2444 0
-773 -2449 0
-774 -2450 0
-775 -2451 0
-776 -2452 0
-777 -1077 0
-778 -1078 0
-779 -1079 0
-780 -1080 0
-777 -1681 0
-778 -1682 0
-779 -1683 0
-780 -1684 0
-777 -1905 0
-778 -1906 0
-779 -1907 0
-780 -1908 0
-777 -2445 0
-778 -2446 0
-779 -2447 0
-780 -2448 0
-777 -2453 0
-778 -2454 0
-779 -2455 0
-780 -2456 0
-781 -789 0
-782 -790 0
-783 -791 0
-784 -792 0
-781 -861 0
-782 -862 0
-783 -863 0
-784 -864 0
-781 -913 0
-782 -914 0
-783 -915 0
-784 -916 0
-781 -985 0
-782 -986 0
-783 -987 0
-784 -988 0
-781 -1757 0
-782 -1758 0
-783 -1759 0
-784 -1760 0
-785 -789 0
-786 -790 0
-787 -791 0
-788 -792 0
-785 -797 0
-786 -798 0
-787 -799 0
-788 -800 0
-785 -821 0
-786 -822 0
-787 -823 0
-788 -824 0
-785 -837 0
-786 -838 0
-787 -839 0
-788 -840 0
-785 -857 0
-786 -858 0
-787 -859 0
-788 -860 0
-785 -865 0
-786 -866 0
-787 -867 0
-788 -868 0
-785 -1093 0
-786 -1094 0
-787 -1095 0
-788 -1096 0
-785 -1429 0
-786 -1430 0
-787 -1431 0
-788 -1432 0
-785 -1689 0
-786 -1690 0
-787 -1691 0
-788 -1692 0
-785 -2209 0
-786 -2210 0
-787 -2211 0
-788 -2212 0
-785 -2481 0
-786 -2482 0
-787 -2483 0
-788 -2484 0
-789 -793 0
-790 -794 0
-791 -795 0
-792 -796 0
-789 -801 0
-790 -802 0
-791 -803 0
-792 -804 0
-789 -809 0
-790 -810 0
-791 -811 0
-792 -812 0
-789 -821 0
-790 -822 0
-791 -823 0
-792 -824 0
-789 -841 0
-790 -842 0
-791 -843 0
-792 -844 0
-789 -861 0
-790 -862 0
-791 -863 0
-792 -864 0
-789 -917 0
-790 -918 0
-791 -919 0
-792 -920 0
-789 -1049 0
-790 -1050 0
-791 -1051 0
-792 -1052 0
-789 -1433 0
-790 -1434 0
-791 -1435 0
-792 -1436 0
-789 -1553 0
-790 -1554 0
-791 -1555 0
-792 -1556 0
-789 -1733 0
-790 -1734 0
-791 -1735 0
-792 -1736 0
-789 -2485 0
-790 -2486 0
-791 -2487 0
-792 -2488 0
-789 -2717 0
-790 -2718 0
-791 -2719 0
-792 -2720 0
-793 -813 0
-794 -814 0
-795 -815 0
-796 -816 0
-793 -825 0
-794 -826 0
-795 -827 0
-796 -828 0
-793 -841 0
-794 -842 0
-795 -843 0
-796 -844 0
-793 -1053 0
-794 -1054 0
-795 -1055 0
-796 -1056 0
-793 -1265 0
-794 -1266 0
-795 -1267 0
-796 -1268 0
-793 -1737 0
-794 -1738 0
-795 -1739 0
-796 -1740 0
-793 -1769 0
-794 -1770 0
-795 -1771 0
-796 -1772 0
-793 -2489 0
-794 -2490 0
-795 -2491 0
-796 -2492 0
-793 -2573 0
-794 -2574 0
-795 -2575 0
-796 -2576 0
-797 -801 0
-798 -802 0
-799 -803 0
-800 -804 0
-797 -829 0
-798 -830 0
-799 -831 0
-800 -832 0
-797 -869 0
-798 -870 0
-799 -871 0
-800 -872 0
-797 -877 0
-798 -878 0
-799 -879 0
-800 -880 0
-797 -1693 0
-798 -1694 0
-799 -1695 0
-800 -1696 0
-797 -1789 0
-798 -1790 0
-799 -1791 0
-800 -1792 0
-797 -2217 0
-798 -2218 0
-799 -2219 0
-800 -2220 0
-797 -2481 0
-798 -2482 0
-799 -2483 0
-800 -2484 0
-801 -829 0
-802 -830 0
-803 -831 0
-804 -832 0
-801 -873 0
-802 -874 0
-803 -875 0
-804 -876 0
-801 -921 0
-802 -922 0
-803 -923 0
-804 -924 0
-801 -1557 0
-802 -1558 0
-803 -1559 0
-804 -1560 0
-801 -2485 0
-802 -2486 0
-803 -2487 0
-804 -2488 0
-805 -925 0
-806 -926 0
-807 -927 0
-808 -928 0
-805 -1569 0
-806 -1570 0
-807 -1571 0
-808 -1572 0
-805 -2221 0
-806 -2222 0
-807 -2223 0
-808 -2224 0
-805 -2493 0
-806 -2494 0
-807 -2495 0
-808 -2496 0
-805 -2725 0
-806 -2726 0
-807 -2727 0
-808 -2728 0
-809 -813 0
-810 -814 0
-811 -815 0
-812 -816 0
-809 -933 0
-810 -934 0
-811 -935 0
-812 -936 0
-809 -1133 0
-810 -1134 0
-811 -1135 0
-812 -1136 0
-809 -1449 0
-810 -1450 0
-811 -1451 0
-812 -1452 0
-809 -1589 0
-810 -1590 0
-811 -1591 0
-812 -1592 0
-809 -2505 0
-810 -2506 0
-811 -2507 0
-812 -2508 0
-813 -833 0
-814 -834 0
-815 -835 0
-816 -836 0
-813 -1141 0
-814 -1142 0
-815 -1143 0
-816 -1144 0
-813 -1453 0
-814 -1454 0
-815 -1455 0
-816 -1456 0
-813 -2573 0
-814 -2574 0
-815 -2575 0
-816 -2576 0
-817 -825 0
-818 -826 0
-819 -827 0
-820 -828 0
-817 -849 0
-818 -850 0
-819 -851 0
-820 -852 0
-817 -1761 0
-818 -1762 0
-819 -1763 0
-820 -1764 0
-817 -1933 0
-818 -1934 0
-819 -1935 0
-820 -1936 0
-817 -2513 0
-818 -2514 0
-819 -2515 0
-820 -2516 0
-817 -2593 0
-818 -2594 0
-819 -2595 0
-820 -2596 0
-821 -825 0
-822 -826 0
-823 -827 0
-824 -828 0
-821 -829 0
-822 -830 0
-823 -831 0
-824 -832 0
-821 -853 0
-822 -854 0
-823 -855 0
-824 -856 0
-821 -881 0
-822 -882 0
-823 -883 0
-824 -884 0
-821 -997 0
-822 -998 0
-823 -999 0
-824 -1000 0
-821 -1221 0
-822 -1222 0
-823 -1223 0
-824 -1224 0
-821 -1461 0
-822 -1462 0
-823 -1463 0
-824 -1464 0
-821 -1701 0
-822 -1702 0
-823 -1703 0
-824 -1704 0
-821 -1773 0
-822 -1774 0
-823 -1775 0
-824 -1776 0
-821 -2225 0
-822 -2226 0
-823 -2227 0
-824 -2228 0
-821 -2509 0
-822 -2510 0
-823 -2511 0
-824 -2512 0
-821 -2517 0
-822 -2518 0
-823 -2519 0
-824 -2520 0
-825 -833 0
-826 -834 0
-827 -835 0
-828 -836 0
-825 -853 0
-826 -854 0
-827 -855 0
-828 -856 0
-825 -1077 0
-826 -1078 0
-827 -1079 0
-828 -1080 0
-825 -1313 0
-826 -1314 0
-827 -1315 0
-828 -1316 0
-825 -1781 0
-826 -1782 0
-827 -1783 0
-828 -1784 0
-825 -1937 0
-826 -1938 0
-827 -1939 0
-828 -1940 0
-825 -2229 0
-826 -2230 0
-827 -2231 0
-828 -2232 0
-825 -2513 0
-826 -2514 0
-827 -2515 0
-828 -2516 0
-825 -2521 0
-826 -2522 0
-827 -2523 0
-828 -2524 0
-825 -2601 0
-826 -2602 0
-827 -2603 0
-828 -2604 0
-829 -1005 0
-830 -1006 0
-831 -1007 0
-832 -1008 0
-829 -1465 0
-830 -1466 0
-831 -1467 0
-832 -1468 0
-829 -1705 0
-830 -1706 0
-831 -1707 0
-832 -1708 0
-829 -2233 0
-830 -2234 0
-831 -2235 0
-832 -2236 0
-829 -2517 0
-830 -2518 0
-831 -2519 0
-832 -2520 0
-833 -1165 0
-834 -1166 0
-835 -1167 0
-836 -1168 0
-833 -1961 0
-834 -1962 0
-835 -1963 0
-836 -1964 0
-833 -2529 0
-834 -2530 0
-835 -2531 0
-836 -2532 0
-833 -2601 0
-834 -2602 0
-835 -2603 0
-836 -2604 0
-837 -841 0
-838 -842 0
-839 -843 0
-840 -844 0
-837 -853 0
-838 -854 0
-839 -855 0
-840 -856 0
-837 -885 0
-838 -886 0
-839 -887 0
-840 -888 0
-837 -889 0
-838 -890 0
-839 -891 0
-840 -892 0
-837 -1177 0
-838 -1178 0
-839 -1179 0
-840 -1180 0
-837 -1469 0
-838 -1470 0
-839 -1471 0
-840 -1472 0
-837 -1513 0
-838 -1514 0
-839 -1515 0
-840 -1516 0
-837 -1729 0
-838 -1730 0
-839 -1731 0
-840 -1732 0
-837 -1961 0
-838 -1962 0
-839 -1963 0
-840 -1964 0
-837 -2241 0
-838 -2242 0
-839 -2243 0
-840 -2244 0
-837 -2533 0
-838 -2534 0
-839 -2535 0
-840 -2536 0
-841 -853 0
-842 -854 0
-843 -855 0
-844 -856 0
-841 -1341 0
-842 -1342 0
-843 -1343 0
-844 -1344 0
-841 -1965 0
-842 -1966 0
-843 -1967 0
-844 -1968 0
-841 -2245 0
-842 -2246 0
-843 -2247 0
-844 -2248 0
-841 -2537 0
-842 -2538 0
-843 -2539 0
-844 -2540 0
-841 -2765 0
-842 -2766 0
-843 -2767 0
-844 -2768 0
-845 -853 0
-846 -854 0
-847 -855 0
-848 -856 0
-845 -897 0
-846 -898 0
-847 -899 0
-848 -900 0
-845 -1217 0
-846 -1218 0
-847 -1219 0
-848 -1220 0
-845 -1489 0
-846 -1490 0
-847 -1491 0
-848 -1492 0
-845 -1745 0
-846 -1746 0
-847 -1747 0
-848 -1748 0
-845 -2265 0
-846 -2266 0
-847 -2267 0
-848 -2268 0
-845 -2457 0
-846 -2458 0
-847 -2459 0
-848 -2460 0
-845 -2541 0
-846 -2542 0
-847 -2543 0
-848 -2544 0
-845 -2605 0
-846 -2606 0
-847 -2607 0
-848 -2608 0
-845 -2625 0
-846 -2626 0
-847 -2627 0
-848 -2628 0
-845 -2773 0
-846 -2774 0
-847 -2775 0
-848 -2776 0
-849 -853 0
-850 -854 0
-851 -855 0
-852 -856 0
-849 -2273 0
-850 -2274 0
-851 -2275 0
-852 -2276 0
-849 -2545 0
-850 -2546 0
-851 -2547 0
-852 -2548 0
-849 -2637 0
-850 -2638 0
-851 -2639 0
-852 -2640 0
-853 -901 0
-854 -902 0
-855 -903 0
-856 -904 0
-853 -1193 0
-854 -1194 0
-855 -1195 0
-856 -1196 0
-853 -1357 0
-854 -1358 0
-855 -1359 0
-856 -1360 0
-853 -1765 0
-854 -1766 0
-855 -1767 0
-856 -1768 0
-853 -1969 0
-854 -1970 0
-855 -1971 0
-856 -1972 0
-853 -2297 0
-854 -2298 0
-855 -2299 0
-856 -2300 0
-853 -2457 0
-854 -2458 0
-855 -2459 0
-856 -2460 0
-853 -2545 0
-854 -2546 0
-855 -2547 0
-856 -2548 0
-853 -2549 0
-854 -2550 0
-855 -2551 0
-856 -2552 0
-853 -2613 0
-854 -2614 0
-855 -2615 0
-856 -2616 0
-853 -2641 0
-854 -2642 0
-855 -2643 0
-856 -2644 0
-857 -861 0
-858 -862 0
-859 -863 0
-860 -864 0
-857 -865 0
-858 -866 0
-859 -867 0
-860 -868 0
-857 -869 0
-858 -870 0
-859 -871 0
-860 -872 0
-857 -885 0
-858 -886 0
-859 -887 0
-860 -888 0
-857 -949 0
-858 -950 0
-859 -951 0
-860 -952 0
-857 -957 0
-858 -958 0
-859 -959 0
-860 -960 0
-857 -1261 0
-858 -1262 0
-859 -1263 0
-860 -1264 0
-857 -1517 0
-858 -1518 0
-859 -1519 0
-860 -1520 0
-857 -1849 0
-858 -1850 0
-859 -1851 0
-860 -1852 0
-857 -2297 0
-858 -2298 0
-859 -2299 0
-860 -2300 0
-857 -2461 0
-858 -2462 0
-859 -2463 0
-860 -2464 0
-857 -2469 0
-858 -2470 0
-859 -2471 0
-860 -2472 0
-857 -2553 0
-858 -2554 0
-859 -2555 0
-860 -2556 0
-861 -873 0
-862 -874 0
-863 -875 0
-864 -876 0
-861 -953 0
-862 -954 0
-863 -955 0
-864 -956 0
-861 -1521 0
-862 -1522 0
-863 -1523 0
-864 -1524 0
-861 -1653 0
-862 -1654 0
-863 -1655 0
-864 -1656 0
-861 -2301 0
-862 -2302 0
-863 -2303 0
-864 -2304 0
-861 -2557 0
-862 -2558 0
-863 -2559 0
-864 -2560 0
-861 -2781 0
-862 -2782 0
-863 -2783 0
-864 -2784 0
-865 -877 0
-866 -878 0
-867 -879 0
-868 -880 0
-865 -881 0
-866 -882 0
-867 -883 0
-868 -884 0
-865 -889 0
-866 -890 0
-867 -891 0
-868 -892 0
-865 -1105 0
-866 -1106 0
-867 -1107 0
-868 -1108 0
-865 -1265 0
-866 -1266 0
-867 -1267 0
-868 -1268 0
-865 -2309 0
-866 -2310 0
-867 -2311 0
-868 -2312 0
-865 -2561 0
-866 -2562 0
-867 -2563 0
-868 -2564 0
-869 -873 0
-870 -874 0
-871 -875 0
-872 -876 0
-869 -877 0
-870 -878 0
-871 -879 0
-872 -880 0
-869 -893 0
-870 -894 0
-871 -895 0
-872 -896 0
-869 -961 0
-870 -962 0
-871 -963 0
-872 -964 0
-869 -969 0
-870 -970 0
-871 -971 0
-872 -972 0
-869 -1121 0
-870 -1122 0
-871 -1123 0
-872 -1124 0
-869 -1533 0
-870 -1534 0
-871 -1535 0
-872 -1536 0
-869 -1853 0
-870 -1854 0
-871 -1855 0
-872 -1856 0
-869 -2333 0
-870 -2334 0
-871 -2335 0
-872 -2336 0
-869 -2465 0
-870 -2466 0
-871 -2467 0
-872 -2468 0
-869 -2473 0
-870 -2474 0
-871 -2475 0
-872 -2476 0
-869 -2553 0
-870 -2554 0
-871 -2555 0
-872 -2556 0
-873 -965 0
-874 -966 0
-875 -967 0
-876 -968 0
-873 -1657 0
-874 -1658 0
-875 -1659 0
-876 -1660 0
-873 -1857 0
-874 -1858 0
-875 -1859 0
-876 -1860 0
-873 -2337 0
-874 -2338 0
-875 -2339 0
-876 -2340 0
-873 -2557 0
-874 -2558 0
-875 -2559 0
-876 -2560 0
-877 -1129 0
-878 -1130 0
-879 -1131 0
-880 -1132 0
-877 -2345 0
-878 -2346 0
-879 -2347 0
-880 -2348 0
-877 -2561 0
-878 -2562 0
-879 -2563 0
-880 -2564 0
-881 -901 0
-882 -902 0
-883 -903 0
-884 -904 0
-881 -1153 0
-882 -1154 0
-883 -1155 0
-884 -1156 0
-881 -1317 0
-882 -1318 0
-883 -1319 0
-884 -1320 0
-881 -1853 0
-882 -1854 0
-883 -1855 0
-884 -1856 0
-881 -1981 0
-882 -1982 0
-883 -1983 0
-884 -1984 0
-885 -889 0
-886 -890 0
-887 -891 0
-888 -892 0
-885 -893 0
-886 -894 0
-887 -895 0
-888 -896 0
-885 -1025 0
-886 -1026 0
-887 -1027 0
-888 -1028 0
-885 -1269 0
-886 -1270 0
-887 -1271 0
-888 -1272 0
-885 -1569 0
-886 -1570 0
-887 -1571 0
-888 -1572 0
-885 -1989 0
-886 -1990 0
-887 -1991 0
-888 -1992 0
-885 -2389 0
-886 -2390 0
-887 -2391 0
-888 -2392 0
-885 -2565 0
-886 -2566 0
-887 -2567 0
-888 -2568 0
-889 -901 0
-890 -902 0
-891 -903 0
-892 -904 0
-889 -1185 0
-890 -1186 0
-891 -1187 0
-892 -1188 0
-889 -1577 0
-890 -1578 0
-891 -1579 0
-892 -1580 0
-889 -1993 0
-890 -1994 0
-891 -1995 0
-892 -1996 0
-893 -1029 0
-894 -1030 0
-895 -1031 0
-896 -1032 0
-893 -1593 0
-894 -1594 0
-895 -1595 0
-896 -1596 0
-893 -2397 0
-894 -2398 0
-895 -2399 0
-896 -2400 0
-893 -2497 0
-894 -2498 0
-895 -2499 0
-896 -2500 0
-893 -2565 0
-894 -2566 0
-895 -2567 0
-896 -2568 0
-897 -901 0
-898 -902 0
-899 -903 0
-900 -904 0
-897 -1301 0
-898 -1302 0
-899 -1303 0
-900 -1304 0
-897 -1609 0
-898 -1610 0
-899 -1611 0
-900 -1612 0
-897 -1669 0
-898 -1670 0
-899 -1671 0
-900 -1672 0
-897 -1877 0
-898 -1878 0
-899 -1879 0
-900 -1880 0
-897 -1997 0
-898 -1998 0
-899 -1999 0
-900 -2000 0
-897 -2525 0
-898 -2526 0
-899 -2527 0
-900 -2528 0
-897 -2653 0
-898 -2654 0
-899 -2655 0
-900 -2656 0
-897 -2669 0
-898 -2670 0
-899 -2671 0
-900 -2672 0
-897 -2833 0
-898 -2834 0
-899 -2835 0
-900 -2836 0
-901 -1197 0
-902 -1198 0
-903 -1199 0
-904 -1200 0
-901 -1369 0
-902 -1370 0
-903 -1371 0
-904 -1372 0
-901 -1621 0
-902 -1622 0
-903 -1623 0
-904 -1624 0
-901 -2005 0
-902 -2006 0
-903 -2007 0
-904 -2008 0
-901 -2405 0
-902 -2406 0
-903 -2407 0
-904 -2408 0
-901 -2525 0
-902 -2526 0
-903 -2527 0
-904 -2528 0
-905 -909 0
-906 -910 0
-907 -911 0
-908 -912 0
-905 -925 0
-906 -926 0
-907 -927 0
-908 -928 0
-905 -929 0
-906 -930 0
-907 -931 0
-908 -932 0
-905 -1889 0
-906 -1890 0
-907 -1891 0
-908 -1892 0
-905 -2013 0
-906 -2014 0
-907 -2015 0
-908 -2016 0
-905 -2577 0
-906 -2578 0
-907 -2579 0
-908 -2580 0
-905 -2581 0
-906 -2582 0
-907 -2583 0
-908 -2584 0
-909 -937 0
-910 -938 0
-911 -939 0
-912 -940 0
-909 -1541 0
-910 -1542 0
-911 -1543 0
-912 -1544 0
-909 -2017 0
-910 -2018 0
-911 -2019 0
-912 -2020 0
-909 -2593 0
-910 -2594 0
-911 -2595 0
-912 -2596 0
-909 -2601 0
-910 -2602 0
-911 -2603 0
-912 -2604 0
-913 -917 0
-914 -918 0
-915 -919 0
-916 -920 0
-913 -925 0
-914 -926 0
-915 -927 0
-916 -928 0
-913 -953 0
-914 -954 0
-915 -955 0
-916 -956 0
-913 -1045 0
-914 -1046 0
-915 -1047 0
-916 -1048 0
-913 -1573 0
-914 -1574 0
-915 -1575 0
-916 -1576 0
-913 -2025 0
-914 -2026 0
-915 -2027 0
-916 -2028 0
-913 -2605 0
-914 -2606 0
-915 -2607 0
-916 -2608 0
-917 -921 0
-918 -922 0
-919 -923 0
-920 -924 0
-917 -933 0
-918 -934 0
-919 -935 0
-920 -936 0
-917 -953 0
-918 -954 0
-919 -955 0
-920 -956 0
-917 -1213 0
-918 -1214 0
-919 -1215 0
-920 -1216 0
-917 -1581 0
-918 -1582 0
-919 -1583 0
-920 -1584 0
-917 -1901 0
-918 -1902 0
-919 -1903 0
-920 -1904 0
-917 -2029 0
-918 -2030 0
-919 -2031 0
-920 -2032 0
-917 -2609 0
-918 -2610 0
-919 -2611 0
-920 -2612 0
-921 -965 0
-922 -966 0
-923 -967 0
-924 -968 0
-921 -1217 0
-922 -1218 0
-923 -1219 0
-924 -1220 0
-921 -2609 0
-922 -2610 0
-923 -2611 0
-924 -2612 0
-925 -929 0
-926 -930 0
-927 -931 0
-928 -932 0
-925 -933 0
-926 -934 0
-927 -935 0
-928 -936 0
-925 -937 0
-926 -938 0
-927 -939 0
-928 -940 0
-925 -973 0
-926 -974 0
-927 -975 0
-928 -976 0
-925 -1049 0
-926 -1050 0
-927 -1051 0
-928 -1052 0
-925 -1677 0
-926 -1678 0
-927 -1679 0
-928 -1680 0
-925 -2617 0
-926 -2618 0
-927 -2619 0
-928 -2620 0
-925 -2625 0
-926 -2626 0
-927 -2627 0
-928 -2628 0
-929 -1053 0
-930 -1054 0
-931 -1055 0
-932 -1056 0
-929 -2033 0
-930 -2034 0
-931 -2035 0
-932 -2036 0
-929 -2629 0
-930 -2630 0
-931 -2631 0
-932 -2632 0
-933 -973 0
-934 -974 0
-935 -975 0
-936 -976 0
-933 -1225 0
-934 -1226 0
-935 -1227 0
-936 -1228 0
-933 -1609 0
-934 -1610 0
-935 -1611 0
-936 -1612 0
-933 -2621 0
-934 -2622 0
-935 -2623 0
-936 -2624 0
-933 -2633 0
-934 -2634 0
-935 -2635 0
-936 -2636 0
-937 -1617 0
-938 -1618 0
-939 -1619 0
-940 -1620 0
-937 -2429 0
-938 -2430 0
-939 -2431 0
-940 -2432 0
-937 -2637 0
-938 -2638 0
-939 -2639 0
-940 -2640 0
-937 -2641 0
-938 -2642 0
-939 -2643 0
-940 -2644 0
-941 -945 0
-942 -946 0
-943 -947 0
-944 -948 0
-941 -949 0
-942 -950 0
-943 -951 0
-944 -952 0
-941 -953 0
-942 -954 0
-943 -955 0
-944 -956 0
-941 -1241 0
-942 -1242 0
-943 -1243 0
-944 -1244 0
-941 -2057 0
-942 -2058 0
-943 -2059 0
-944 -2060 0
-941 -2569 0
-942 -2570 0
-943 -2571 0
-944 -2572 0
-941 -2645 0
-942 -2646 0
-943 -2647 0
-944 -2648 0
-945 -961 0
-946 -962 0
-947 -963 0
-948 -964 0
-945 -965 0
-946 -966 0
-947 -967 0
-948 -968 0
-945 -1253 0
-946 -1254 0
-947 -1255 0
-948 -1256 0
-945 -2061 0
-946 -2062 0
-947 -2063 0
-948 -2064 0
-945 -2645 0
-946 -2646 0
-947 -2647 0
-948 -2648 0
-949 -953 0
-950 -954 0
-951 -955 0
-952 -956 0
-949 -957 0
-950 -958 0
-951 -959 0
-952 -960 0
-949 -961 0
-950 -962 0
-951 -963 0
-952 -964 0
-949 -1089 0
-950 -1090 0
-951 -1091 0
-952 -1092 0
-949 -1397 0
-950 -1398 0
-951 -1399 0
-952 -1400 0
-949 -2073 0
-950 -2074 0
-951 -2075 0
-952 -2076 0
-949 -2441 0
-950 -2442 0
-951 -2443 0
-952 -2444 0
-949 -2585 0
-950 -2586 0
-951 -2587 0
-952 -2588 0
-949 -2649 0
-950 -2650 0
-951 -2651 0
-952 -2652 0
-953 -965 0
-954 -966 0
-955 -967 0
-956 -968 0
-953 -973 0
-954 -974 0
-955 -975 0
-956 -976 0
-953 -1281 0
-954 -1282 0
-955 -1283 0
-956 -1284 0
-953 -1401 0
-954 -1402 0
-955 -1403 0
-956 -1404 0
-953 -2077 0
-954 -2078 0
-955 -2079 0
-956 -2080 0
-953 -2081 0
-954 -2082 0
-955 -2083 0
-956 -2084 0
-953 -2589 0
-954 -2590 0
-955 -2591 0
-956 -2592 0
-953 -2653 0
-954 -2654 0
-955 -2655 0
-956 -2656 0
-953 -2861 0
-954 -2862 0
-955 -2863 0
-956 -2864 0
-957 -969 0
-958 -970 0
-959 -971 0
-960 -972 0
-957 -1113 0
-958 -1114 0
-959 -1115 0
-960 -1116 0
-957 -1393 0
-958 -1394 0
-959 -1395 0
-960 -1396 0
-957 -1661 0
-958 -1662 0
-959 -1663 0
-960 -1664 0
-957 -2445 0
-958 -2446 0
-959 -2447 0
-960 -2448 0
-957 -2577 0
-958 -2578 0
-959 -2579 0
-960 -2580 0
-957 -2593 0
-958 -2594 0
-959 -2595 0
-960 -2596 0
-957 -2657 0
-958 -2658 0
-959 -2659 0
-960 -2660 0
-961 -965 0
-962 -966 0
-963 -967 0
-964 -968 0
-961 -969 0
-962 -970 0
-963 -971 0
-964 -972 0
-961 -1093 0
-962 -1094 0
-963 -1095 0
-964 -1096 0
-961 -1405 0
-962 -1406 0
-963 -1407 0
-964 -1408 0
-961 -2449 0
-962 -2450 0
-963 -2451 0
-964 -2452 0
-961 -2597 0
-962 -2598 0
-963 -2599 0
-964 -2600 0
-961 -2649 0
-962 -2650 0
-963 -2651 0
-964 -2652 0
-965 -977 0
-966 -978 0
-967 -979 0
-968 -980 0
-965 -1297 0
-966 -1298 0
-967 -1299 0
-968 -1300 0
-965 -2085 0
-966 -2086 0
-967 -2087 0
-968 -2088 0
-965 -2653 0
-966 -2654 0
-967 -2655 0
-968 -2656 0
-965 -2865 0
-966 -2866 0
-967 -2867 0
-968 -2868 0
-969 -981 0
-970 -982 0
-971 -983 0
-972 -984 0
-969 -1137 0
-970 -1138 0
-971 -1139 0
-972 -1140 0
-969 -1305 0
-970 -1306 0
-971 -1307 0
-972 -1308 0
-969 -1665 0
-970 -1666 0
-971 -1667 0
-972 -1668 0
-969 -1929 0
-970 -1930 0
-971 -1931 0
-972 -1932 0
-969 -2453 0
-970 -2454 0
-971 -2455 0
-972 -2456 0
-969 -2581 0
-970 -2582 0
-971 -2583 0
-972 -2584 0
-969 -2601 0
-970 -2602 0
-971 -2603 0
-972 -2604 0
-969 -2657 0
-970 -2658 0
-971 -2659 0
-972 -2660 0
-973 -977 0
-974 -978 0
-975 -979 0
-976 -980 0
-973 -1109 0
-974 -1110 0
-975 -1111 0
-976 -1112 0
-973 -1325 0
-974 -1326 0
-975 -1327 0
-976 -1328 0
-973 -2089 0
-974 -2090 0
-975 -2091 0
-976 -2092 0
-973 -2665 0
-974 -2666 0
-975 -2667 0
-976 -2668 0
-973 -2669 0
-974 -2670 0
-975 -2671 0
-976 -2672 0
-977 -1133 0
-978 -1134 0
-979 -1135 0
-980 -1136 0
-977 -1329 0
-978 -1330 0
-979 -1331 0
-980 -1332 0
-977 -2097 0
-978 -2098 0
-979 -2099 0
-980 -2100 0
-977 -2669 0
-978 -2670 0
-979 -2671 0
-980 -2672 0
-981 -1189 0
-982 -1190 0
-983 -1191 0
-984 -1192 0
-981 -1421 0
-982 -1422 0
-983 -1423 0
-984 -1424 0
-981 -1913 0
-982 -1914 0
-983 -1915 0
-984 -1916 0
-981 -2625 0
-982 -2626 0
-983 -2627 0
-984 -2628 0
-981 -2641 0
-982 -2642 0
-983 -2643 0
-984 -2644 0
-985 -989 0
-986 -990 0
-987 -991 0
-988 -992 0
-985 -993 0
-986 -994 0
-987 -995 0
-988 -996 0
-985 -1045 0
-986 -1046 0
-987 -1047 0
-988 -1048 0
-985 -1053 0
-986 -1054 0
-987 -1055 0
-988 -1056 0
-985 -1257 0
-986 -1258 0
-987 -1259 0
-988 -1260 0
-985 -1729 0
-986 -1730 0
-987 -1731 0
-988 -1732 0
-985 -1941 0
-986 -1942 0
-987 -1943 0
-988 -1944 0
-985 -2673 0
-986 -2674 0
-987 -2675 0
-988 -2676 0
-985 -2881 0
-986 -2882 0
-987 -2883 0
-988 -2884 0
-989 -1001 0
-990 -1002 0
-991 -1003 0
-992 -1004 0
-989 -1057 0
-990 -1058 0
-991 -1059 0
-992 -1060 0
-989 -1737 0
-990 -1738 0
-991 -1739 0
-992 -1740 0
-989 -1957 0
-990 -1958 0
-991 -1959 0
-992 -1960 0
-989 -2673 0
-990 -2674 0
-991 -2675 0
-992 -2676 0
-993 -997 0
-994 -998 0
-995 -999 0
-996 -1000 0
-993 -1001 0
-994 -1002 0
-995 -1003 0
-996 -1004 0
-993 -1009 0
-994 -1010 0
-995 -1011 0
-996 -1012 0
-993 -1073 0
-994 -1074 0
-995 -1075 0
-996 -1076 0
-993 -1077 0
-994 -1078 0
-995 -1079 0
-996 -1080 0
-993 -1297 0
-994 -1298 0
-995 -1299 0
-996 -1300 0
-993 -1445 0
-994 -1446 0
-995 -1447 0
-996 -1448 0
-993 -1761 0
-994 -1762 0
-995 -1763 0
-996 -1764 0
-993 -2457 0
-994 -2458 0
-995 -2459 0
-996 -2460 0
-993 -2461 0
-994 -2462 0
-995 -2463 0
-996 -2464 0
-993 -2681 0
-994 -2682 0
-995 -2683 0
-996 -2684 0
-993 -2709 0
-994 -2710 0
-995 -2711 0
-996 -2712 0
-993 -2725 0
-994 -2726 0
-995 -2727 0
-996 -2728 0
-997 -1005 0
-998 -1006 0
-999 -1007 0
-1000 -1008 0
-997 -1009 0
-998 -1010 0
-999 -1011 0
-1000 -1012 0
-997 -1225 0
-998 -1226 0
-999 -1227 0
-1000 -1228 0
-997 -1301 0
-998 -1302 0
-999 -1303 0
-1000 -1304 0
-997 -1461 0
-998 -1462 0
-999 -1463 0
-1000 -1464 0
-997 -1953 0
-998 -1954 0
-999 -1955 0
-1000 -1956 0
-997 -2677 0
-998 -2678 0
-999 -2679 0
-1000 -2680 0
-997 -2689 0
-998 -2690 0
-999 -2691 0
-1000 -2692 0
-997 -2713 0
-998 -2714 0
-999 -2715 0
-1000 -2716 0
-997 -2729 0
-998 -2730 0
-999 -2731 0
-1000 -2732 0
-1001 -1005 0
-1002 -1006 0
-1003 -1007 0
-1004 -1008 0
-1001 -1017 0
-1002 -1018 0
-1003 -1019 0
-1004 -1020 0
-1001 -1081 0
-1002 -1082 0
-1003 -1083 0
-1004 -1084 0
-1001 -1781 0
-1002 -1782 0
-1003 -1783 0
-1004 -1784 0
-1001 -2465 0
-1002 -2466 0
-1003 -2467 0
-1004 -2468 0
-1001 -2681 0
-1002 -2682 0
-1003 -2683 0
-1004 -2684 0
-1005 -1017 0
-1006 -1018 0
-1007 -1019 0
-1008 -1020 0
-1005 -1229 0
-1006 -1230 0
-1007 -1231 0
-1008 -1232 0
-1005 -1465 0
-1006 -1466 0
-1007 -1467 0
-1008 -1468 0
-1005 -1793 0
-1006 -1794 0
-1007 -1795 0
-1008 -1796 0
-1005 -2689 0
-1006 -2690 0
-1007 -2691 0
-1008 -2692 0
-1009 -1013 0
-1010 -1014 0
-1011 -1015 0
-1012 -1016 0
-1009 -1017 0
-1010 -1018 0
-1011 -1019 0
-1012 -1020 0
-1009 -1157 0
-1010 -1158 0
-1011 -1159 0
-1012 -1160 0
-1009 -1325 0
-1010 -1326 0
-1011 -1327 0
-1012 -1328 0
-1009 -1453 0
-1010 -1454 0
-1011 -1455 0
-1012 -1456 0
-1009 -1709 0
-1010 -1710 0
-1011 -1711 0
-1012 -1712 0
-1009 -2165 0
-1010 -2166 0
-1011 -2167 0
-1012 -2168 0
-1009 -2525 0
-1010 -2526 0
-1011 -2527 0
-1012 -2528 0
-1009 -2693 0
-1010 -2694 0
-1011 -2695 0
-1012 -2696 0
-1009 -2777 0
-1010 -2778 0
-1011 -2779 0
-1012 -2780 0
-1013 -1021 0
-1014 -1022 0
-1015 -1023 0
-1016 -1024 0
-1013 -1157 0
-1014 -1158 0
-1015 -1159 0
-1016 -1160 0
-1013 -1381 0
-1014 -1382 0
-1015 -1383 0
-1016 -1384 0
-1013 -1713 0
-1014 -1714 0
-1015 -1715 0
-1016 -1716 0
-1013 -1989 0
-1014 -1990 0
-1015 -1991 0
-1016 -1992 0
-1013 -2169 0
-1014 -2170 0
-1015 -2171 0
-1016 -2172 0
-1013 -2697 0
-1014 -2698 0
-1015 -2699 0
-1016 -2700 0
-1013 -2781 0
-1014 -2782 0
-1015 -2783 0
-1016 -2784 0
-1017 -1021 0
-1018 -1022 0
-1019 -1023 0
-1020 -1024 0
-1017 -1165 0
-1018 -1166 0
-1019 -1167 0
-1020 -1168 0
-1017 -1209 0
-1018 -1210 0
-1019 -1211 0
-1020 -1212 0
-1017 -1329 0
-1018 -1330 0
-1019 -1331 0
-1020 -1332 0
-1017 -1717 0
-1018 -1718 0
-1019 -1719 0
-1020 -1720 0
-1017 -1861 0
-1018 -1862 0
-1019 -1863 0
-1020 -1864 0
-1017 -2173 0
-1018 -2174 0
-1019 -2175 0
-1020 -2176 0
-1017 -2693 0
-1018 -2694 0
-1019 -2695 0
-1020 -2696 0
-1021 -1165 0
-1022 -1166 0
-1023 -1167 0
-1024 -1168 0
-1021 -1721 0
-1022 -1722 0
-1023 -1723 0
-1024 -1724 0
-1021 -2177 0
-1022 -2178 0
-1023 -2179 0
-1024 -2180 0
-1021 -2697 0
-1022 -2698 0
-1023 -2699 0
-1024 -2700 0
-1025 -1029 0
-1026 -1030 0
-1027 -1031 0
-1028 -1032 0
-1025 -1169 0
-1026 -1170 0
-1027 -1171 0
-1028 -1172 0
-1025 -1173 0
-1026 -1174 0
-1027 -1175 0
-1028 -1176 0
-1025 -1725 0
-1026 -1726 0
-1027 -1727 0
-1028 -1728 0
-1025 -2169 0
-1026 -2170 0
-1027 -2171 0
-1028 -2172 0
-1029 -1033 0
-1030 -1034 0
-1031 -1035 0
-1032 -1036 0
-1029 -1177 0
-1030 -1178 0
-1031 -1179 0
-1032 -1180 0
-1029 -1181 0
-1030 -1182 0
-1031 -1183 0
-1032 -1184 0
-1029 -1337 0
-1030 -1338 0
-1031 -1339 0
-1032 -1340 0
-1029 -1733 0
-1030 -1734 0
-1031 -1735 0
-1032 -1736 0
-1029 -2005 0
-1030 -2006 0
-1031 -2007 0
-1032 -2008 0
-1029 -2177 0
-1030 -2178 0
-1031 -2179 0
-1032 -2180 0
-1029 -2537 0
-1030 -2538 0
-1031 -2539 0
-1032 -2540 0
-1029 -2673 0
-1030 -2674 0
-1031 -2675 0
-1032 -2676 0
-1029 -2937 0
-1030 -2938 0
-1031 -2939 0
-1032 -2940 0
-1033 -1481 0
-1034 -1482 0
-1035 -1483 0
-1036 -1484 0
-1033 -1773 0
-1034 -1774 0
-1035 -1775 0
-1036 -1776 0
-1033 -1977 0
-1034 -1978 0
-1035 -1979 0
-1036 -1980 0
-1033 -2549 0
-1034 -2550 0
-1035 -2551 0
-1036 -2552 0
-1033 -2553 0
-1034 -2554 0
-1035 -2555 0
-1036 -2556 0
-1033 -2681 0
-1034 -2682 0
-1035 -2683 0
-1036 -2684 0
-1037 -1041 0
-1038 -1042 0
-1039 -1043 0
-1040 -1044 0
-1037 -1085 0
-1038 -1086 0
-1039 -1087 0
-1040 -1088 0
-1037 -1517 0
-1038 -1518 0
-1039 -1519 0
-1040 -1520 0
-1037 -2709 0
-1038 -2710 0
-1039 -2711 0
-1040 -2712 0
-1041 -1061 0
-1042 -1062 0
-1043 -1063 0
-1044 -1064 0
-1041 -1085 0
-1042 -1086 0
-1043 -1087 0
-1044 -1088 0
-1041 -2705 0
-1042 -2706 0
-1043 -2707 0
-1044 -2708 0
-1041 -2713 0
-1042 -2714 0
-1043 -2715 0
-1044 -2716 0
-1045 -1053 0
-1046 -1054 0
-1047 -1055 0
-1048 -1056 0
-1045 -1061 0
-1046 -1062 0
-1047 -1063 0
-1048 -1064 0
-1045 -1073 0
-1046 -1074 0
-1047 -1075 0
-1048 -1076 0
-1045 -1573 0
-1046 -1574 0
-1047 -1575 0
-1048 -1576 0
-1045 -2193 0
-1046 -2194 0
-1047 -2195 0
-1048 -2196 0
-1045 -2733 0
-1046 -2734 0
-1047 -2735 0
-1048 -2736 0
-1045 -2989 0
-1046 -2990 0
-1047 -2991 0
-1048 -2992 0
-1049 -1053 0
-1050 -1054 0
-1051 -1055 0
-1052 -1056 0
-1049 -1109 0
-1050 -1110 0
-1051 -1111 0
-1052 -1112 0
-1049 -1897 0
-1050 -1898 0
-1051 -1899 0
-1052 -1900 0
-1049 -2737 0
-1050 -2738 0
-1051 -2739 0
-1052 -2740 0
-1053 -1057 0
-1054 -1058 0
-1055 -1059 0
-1056 -1060 0
-1053 -1065 0
-1054 -1066 0
-1055 -1067 0
-1056 -1068 0
-1053 -1077 0
-1054 -1078 0
-1055 -1079 0
-1056 -1080 0
-1053 -1101 0
-1054 -1102 0
-1055 -1103 0
-1056 -1104 0
-1053 -1117 0
-1054 -1118 0
-1055 -1119 0
-1056 -1120 0
-1053 -1401 0
-1054 -1402 0
-1055 -1403 0
-1056 -1404 0
-1053 -1561 0
-1054 -1562 0
-1055 -1563 0
-1056 -1564 0
-1053 -1745 0
-1054 -1746 0
-1055 -1747 0
-1056 -1748 0
-1053 -2033 0
-1054 -2034 0
-1055 -2035 0
-1056 -2036 0
-1053 -2041 0
-1054 -2042 0
-1055 -2043 0
-1056 -2044 0
-1053 -2745 0
-1054 -2746 0
-1055 -2747 0
-1056 -2748 0
-1057 -1069 0
-1058 -1070 0
-1059 -1071 0
-1060 -1072 0
-1057 -1081 0
-1058 -1082 0
-1059 -1083 0
-1060 -1084 0
-1057 -1125 0
-1058 -1126 0
-1059 -1127 0
-1060 -1128 0
-1057 -1141 0
-1058 -1142 0
-1059 -1143 0
-1060 -1144 0
-1057 -1565 0
-1058 -1566 0
-1059 -1567 0
-1060 -1568 0
-1057 -1749 0
-1058 -1750 0
-1059 -1751 0
-1060 -1752 0
-1057 -2053 0
-1058 -2054 0
-1059 -2055 0
-1060 -2056 0
-1057 -2745 0
-1058 -2746 0
-1059 -2747 0
-1060 -2748 0
-1061 -1065 0
-1062 -1066 0
-1063 -1067 0
-1064 -1068 0
-1061 -1577 0
-1062 -1578 0
-1063 -1579 0
-1064 -1580 0
-1061 -2201 0
-1062 -2202 0
-1063 -2203 0
-1064 -2204 0
-1061 -2569 0
-1062 -2570 0
-1063 -2571 0
-1064 -2572 0
-1061 -2749 0
-1062 -2750 0
-1063 -2751 0
-1064 -2752 0
-1061 -2757 0
-1062 -2758 0
-1063 -2759 0
-1064 -2760 0
-1065 -1069 0
-1066 -1070 0
-1067 -1071 0
-1068 -1072 0
-1065 -1417 0
-1066 -1418 0
-1067 -1419 0
-1068 -1420 0
-1065 -1589 0
-1066 -1590 0
-1067 -1591 0
-1068 -1592 0
-1065 -1765 0
-1066 -1766 0
-1067 -1767 0
-1068 -1768 0
-1065 -2765 0
-1066 -2766 0
-1067 -2767 0
-1068 -2768 0
-1069 -1605 0
-1070 -1606 0
-1071 -1607 0
-1072 -1608 0
-1069 -1785 0
-1070 -1786 0
-1071 -1787 0
-1072 -1788 0
-1069 -2573 0
-1070 -2574 0
-1071 -2575 0
-1072 -2576 0
-1069 -2765 0
-1070 -2766 0
-1071 -2767 0
-1072 -2768 0
-1073 -1077 0
-1074 -1078 0
-1075 -1079 0
-1076 -1080 0
-1073 -1213 0
-1074 -1214 0
-1075 -1215 0
-1076 -1216 0
-1073 -1617 0
-1074 -1618 0
-1075 -1619 0
-1076 -1620 0
-1077 -1081 0
-1078 -1082 0
-1079 -1083 0
-1080 -1084 0
-1077 -1157 0
-1078 -1158 0
-1079 -1159 0
-1080 -1160 0
-1077 -1801 0
-1078 -1802 0
-1079 -1803 0
-1080 -1804 0
-1077 -2205 0
-1078 -2206 0
-1079 -2207 0
-1080 -2208 0
-1077 -2577 0
-1078 -2578 0
-1079 -2579 0
-1080 -2580 0
-1077 -2773 0
-1078 -2774 0
-1079 -2775 0
-1080 -2776 0
-1081 -1165 0
-1082 -1166 0
-1083 -1167 0
-1084 -1168 0
-1081 -1221 0
-1082 -1222 0
-1083 -1223 0
-1084 -1224 0
-1081 -1805 0
-1082 -1806 0
-1083 -1807 0
-1084 -1808 0
-1081 -2213 0
-1082 -2214 0
-1083 -2215 0
-1084 -2216 0
-1081 -2581 0
-1082 -2582 0
-1083 -2583 0
-1084 -2584 0
-1081 -2773 0
-1082 -2774 0
-1083 -2775 0
-1084 -2776 0
-1085 -1529 0
-1086 -1530 0
-1087 -1531 0
-1088 -1532 0
-1085 -2589 0
-1086 -2590 0
-1087 -2591 0
-1088 -2592 0
-1085 -2777 0
-1086 -2778 0
-1087 -2779 0
-1088 -2780 0
-1089 -1093 0
-1090 -1094 0
-1091 -1095 0
-1092 -1096 0
-1089 -1105 0
-1090 -1106 0
-1091 -1107 0
-1092 -1108 0
-1089 -1169 0
-1090 -1170 0
-1091 -1171 0
-1092 -1172 0
-1089 -1813 0
-1090 -1814 0
-1091 -1815 0
-1092 -1816 0
-1089 -2225 0
-1090 -2226 0
-1091 -2227 0
-1092 -2228 0
-1089 -2705 0
-1090 -2706 0
-1091 -2707 0
-1092 -2708 0
-1089 -2785 0
-1090 -2786 0
-1091 -2787 0
-1092 -2788 0
-1093 -1097 0
-1094 -1098 0
-1095 -1099 0
-1096 -1100 0
-1093 -1129 0
-1094 -1130 0
-1095 -1131 0
-1096 -1132 0
-1093 -1177 0
-1094 -1178 0
-1095 -1179 0
-1096 -1180 0
-1093 -1429 0
-1094 -1430 0
-1095 -1431 0
-1096 -1432 0
-1093 -1549 0
-1094 -1550 0
-1095 -1551 0
-1096 -1552 0
-1093 -1817 0
-1094 -1818 0
-1095 -1819 0
-1096 -1820 0
-1093 -2233 0
-1094 -2234 0
-1095 -2235 0
-1096 -2236 0
-1093 -2609 0
-1094 -2610 0
-1095 -2611 0
-1096 -2612 0
-1093 -2701 0
-1094 -2702 0
-1095 -2703 0
-1096 -2704 0
-1093 -2713 0
-1094 -2714 0
-1095 -2715 0
-1096 -2716 0
-1093 -2785 0
-1094 -2786 0
-1095 -2787 0
-1096 -2788 0
-1093 -2789 0
-1094 -2790 0
-1095 -2791 0
-1096 -2792 0
-1097 -1137 0
-1098 -1138 0
-1099 -1139 0
-1100 -1140 0
-1097 -1177 0
-1098 -1178 0
-1099 -1179 0
-1100 -1180 0
-1097 -1397 0
-1098 -1398 0
-1099 -1399 0
-1100 -1400 0
-1097 -1657 0
-1098 -1658 0
-1099 -1659 0
-1100 -1660 0
-1097 -2237 0
-1098 -2238 0
-1099 -2239 0
-1100 -2240 0
-1101 -1117 0
-1102 -1118 0
-1103 -1119 0
-1104 -1120 0
-1101 -1125 0
-1102 -1126 0
-1103 -1127 0
-1104 -1128 0
-1101 -1529 0
-1102 -1530 0
-1103 -1531 0
-1104 -1532 0
-1101 -2121 0
-1102 -2122 0
-1103 -2123 0
-1104 -2124 0
-1101 -2793 0
-1102 -2794 0
-1103 -2795 0
-1104 -2796 0
-1105 -1109 0
-1106 -1110 0
-1107 -1111 0
-1108 -1112 0
-1105 -1113 0
-1106 -1114 0
-1107 -1115 0
-1108 -1116 0
-1105 -1129 0
-1106 -1130 0
-1107 -1131 0
-1108 -1132 0
-1105 -1153 0
-1106 -1154 0
-1107 -1155 0
-1108 -1156 0
-1105 -1185 0
-1106 -1186 0
-1107 -1187 0
-1108 -1188 0
-1105 -1561 0
-1106 -1562 0
-1107 -1563 0
-1108 -1564 0
-1105 -1829 0
-1106 -1830 0
-1107 -1831 0
-1108 -1832 0
-1105 -2621 0
-1106 -2622 0
-1107 -2623 0
-1108 -2624 0
-1105 -2721 0
-1106 -2722 0
-1107 -2723 0
-1108 -2724 0
-1105 -2797 0
-1106 -2798 0
-1107 -2799 0
-1108 -2800 0
-1109 -1117 0
-1110 -1118 0
-1111 -1119 0
-1112 -1120 0
-1109 -1133 0
-1110 -1134 0
-1111 -1135 0
-1112 -1136 0
-1109 -1153 0
-1110 -1154 0
-1111 -1155 0
-1112 -1156 0
-1109 -1437 0
-1110 -1438 0
-1111 -1439 0
-1112 -1440 0
-1109 -1909 0
-1110 -1910 0
-1111 -1911 0
-1112 -1912 0
-1109 -2089 0
-1110 -2090 0
-1111 -2091 0
-1112 -2092 0
-1109 -2801 0
-1110 -2802 0
-1111 -2803 0
-1112 -2804 0
-1113 -1117 0
-1114 -1118 0
-1115 -1119 0
-1116 -1120 0
-1113 -1137 0
-1114 -1138 0
-1115 -1139 0
-1116 -1140 0
-1113 -1157 0
-1114 -1158 0
-1115 -1159 0
-1116 -1160 0
-1113 -1185 0
-1114 -1186 0
-1115 -1187 0
-1116 -1188 0
-1113 -1249 0
-1114 -1250 0
-1115 -1251 0
-1116 -1252 0
-1113 -1661 0
-1114 -1662 0
-1115 -1663 0
-1116 -1664 0
-1113 -2241 0
-1114 -2242 0
-1115 -2243 0
-1116 -2244 0
-1113 -2805 0
-1114 -2806 0
-1115 -2807 0
-1116 -2808 0
-1117 -1141 0
-1118 -1142 0
-1119 -1143 0
-1120 -1144 0
-1117 -1157 0
-1118 -1158 0
-1119 -1159 0
-1120 -1160 0
-1117 -1441 0
-1118 -1442 0
-1119 -1443 0
-1120 -1444 0
-1117 -2093 0
-1118 -2094 0
-1119 -2095 0
-1120 -2096 0
-1117 -2245 0
-1118 -2246 0
-1119 -2247 0
-1120 -2248 0
-1117 -2809 0
-1118 -2810 0
-1119 -2811 0
-1120 -2812 0
-1121 -1129 0
-1122 -1130 0
-1123 -1131 0
-1124 -1132 0
-1121 -1145 0
-1122 -1146 0
-1123 -1147 0
-1124 -1148 0
-1121 -1533 0
-1122 -1534 0
-1123 -1535 0
-1124 -1536 0
-1121 -2125 0
-1122 -2126 0
-1123 -2127 0
-1124 -2128 0
-1121 -2625 0
-1122 -2626 0
-1123 -2627 0
-1124 -2628 0
-1121 -2725 0
-1122 -2726 0
-1123 -2727 0
-1124 -2728 0
-1125 -1141 0
-1126 -1142 0
-1127 -1143 0
-1128 -1144 0
-1125 -2133 0
-1126 -2134 0
-1127 -2135 0
-1128 -2136 0
-1125 -2793 0
-1126 -2794 0
-1127 -2795 0
-1128 -2796 0
-1129 -1133 0
-1130 -1134 0
-1131 -1135 0
-1132 -1136 0
-1129 -1137 0
-1130 -1138 0
-1131 -1139 0
-1132 -1140 0
-1129 -1149 0
-1130 -1150 0
-1131 -1151 0
-1132 -1152 0
-1129 -1161 0
-1130 -1162 0
-1131 -1163 0
-1132 -1164 0
-1129 -1189 0
-1130 -1190 0
-1131 -1191 0
-1132 -1192 0
-1129 -1445 0
-1130 -1446 0
-1131 -1447 0
-1132 -1448 0
-1129 -1565 0
-1130 -1566 0
-1131 -1567 0
-1132 -1568 0
-1129 -1833 0
-1130 -1834 0
-1131 -1835 0
-1132 -1836 0
-1129 -1917 0
-1130 -1918 0
-1131 -1919 0
-1132 -1920 0
-1129 -2057 0
-1130 -2058 0
-1131 -2059 0
-1132 -2060 0
-1129 -2633 0
-1130 -2634 0
-1131 -2635 0
-1132 -2636 0
-1129 -2729 0
-1130 -2730 0
-1131 -2731 0
-1132 -2732 0
-1129 -2797 0
-1130 -2798 0
-1131 -2799 0
-1132 -2800 0
-1129 -2813 0
-1130 -2814 0
-1131 -2815 0
-1132 -2816 0
-1133 -1141 0
-1134 -1142 0
-1135 -1143 0
-1136 -1144 0
-1133 -1161 0
-1134 -1162 0
-1135 -1163 0
-1136 -1164 0
-1133 -1449 0
-1134 -1450 0
-1135 -1451 0
-1136 -1452 0
-1133 -1921 0
-1134 -1922 0
-1135 -1923 0
-1136 -1924 0
-1133 -2097 0
-1134 -2098 0
-1135 -2099 0
-1136 -2100 0
-1133 -2801 0
-1134 -2802 0
-1135 -2803 0
-1136 -2804 0
-1133 -2817 0
-1134 -2818 0
-1135 -2819 0
-1136 -2820 0
-1133 -3025 0
-1134 -3026 0
-1135 -3027 0
-1136 -3028 0
-1137 -1141 0
-1138 -1142 0
-1139 -1143 0
-1140 -1144 0
-1137 -1165 0
-1138 -1166 0
-1139 -1167 0
-1140 -1168 0
-1137 -1189 0
-1138 -1190 0
-1139 -1191 0
-1140 -1192 0
-1137 -1265 0
-1138 -1266 0
-1139 -1267 0
-1140 -1268 0
-1137 -1665 0
-1138 -1666 0
-1139 -1667 0
-1140 -1668 0
-1137 -1837 0
-1138 -1838 0
-1139 -1839 0
-1140 -1840 0
-1137 -2137 0
-1138 -2138 0
-1139 -2139 0
-1140 -2140 0
-1137 -2249 0
-1138 -2250 0
-1139 -2251 0
-1140 -2252 0
-1137 -2805 0
-1138 -2806 0
-1139 -2807 0
-1140 -2808 0
-1141 -1165 0
-1142 -1166 0
-1143 -1167 0
-1144 -1168 0
-1141 -1453 0
-1142 -1454 0
-1143 -1455 0
-1144 -1456 0
-1141 -2101 0
-1142 -2102 0
-1143 -2103 0
-1144 -2104 0
-1141 -2253 0
-1142 -2254 0
-1143 -2255 0
-1144 -2256 0
-1141 -2809 0
-1142 -2810 0
-1143 -2811 0
-1144 -2812 0
-1145 -1149 0
-1146 -1150 0
-1147 -1151 0
-1148 -1152 0
-1145 -1601 0
-1146 -1602 0
-1147 -1603 0
-1148 -1604 0
-1145 -2641 0
-1146 -2642 0
-1147 -2643 0
-1148 -2644 0
-1145 -2725 0
-1146 -2726 0
-1147 -2727 0
-1148 -2728 0
-1149 -1457 0
-1150 -1458 0
-1151 -1459 0
-1152 -1460 0
-1149 -1605 0
-1150 -1606 0
-1151 -1607 0
-1152 -1608 0
-1149 -1853 0
-1150 -1854 0
-1151 -1855 0
-1152 -1856 0
-1149 -2065 0
-1150 -2066 0
-1151 -2067 0
-1152 -2068 0
-1149 -2729 0
-1150 -2730 0
-1151 -2731 0
-1152 -2732 0
-1149 -2821 0
-1150 -2822 0
-1151 -2823 0
-1152 -2824 0
-1153 -1157 0
-1154 -1158 0
-1155 -1159 0
-1156 -1160 0
-1153 -1161 0
-1154 -1162 0
-1155 -1163 0
-1156 -1164 0
-1153 -1197 0
-1154 -1198 0
-1155 -1199 0
-1156 -1200 0
-1153 -1613 0
-1154 -1614 0
-1155 -1615 0
-1156 -1616 0
-1153 -2125 0
-1154 -2126 0
-1155 -2127 0
-1156 -2128 0
-1153 -2289 0
-1154 -2290 0
-1155 -2291 0
-1156 -2292 0
-1153 -2829 0
-1154 -2830 0
-1155 -2831 0
-1156 -2832 0
-1157 -1165 0
-1158 -1166 0
-1159 -1167 0
-1160 -1168 0
-1157 -1197 0
-1158 -1198 0
-1159 -1199 0
-1160 -1200 0
-1157 -1293 0
-1158 -1294 0
-1159 -1295 0
-1160 -1296 0
-1157 -1545 0
-1158 -1546 0
-1159 -1547 0
-1160 -1548 0
-1157 -1889 0
-1158 -1890 0
-1159 -1891 0
-1160 -1892 0
-1157 -2129 0
-1158 -2130 0
-1159 -2131 0
-1160 -2132 0
-1157 -2297 0
-1158 -2298 0
-1159 -2299 0
-1160 -2300 0
-1157 -2833 0
-1158 -2834 0
-1159 -2835 0
-1160 -2836 0
-1157 -2861 0
-1158 -2862 0
-1159 -2863 0
-1160 -2864 0
-1161 -1165 0
-1162 -1166 0
-1163 -1167 0
-1164 -1168 0
-1161 -1201 0
-1162 -1202 0
-1163 -1203 0
-1164 -1204 0
-1161 -1929 0
-1162 -1930 0
-1163 -1931 0
-1164 -1932 0
-1161 -2077 0
-1162 -2078 0
-1163 -2079 0
-1164 -2080 0
-1161 -2325 0
-1162 -2326 0
-1163 -2327 0
-1164 -2328 0
-1161 -2829 0
-1162 -2830 0
-1163 -2831 0
-1164 -2832 0
-1161 -2837 0
-1162 -2838 0
-1163 -2839 0
-1164 -2840 0
-1165 -1201 0
-1166 -1202 0
-1167 -1203 0
-1168 -1204 0
-1165 -1317 0
-1166 -1318 0
-1167 -1319 0
-1168 -1320 0
-1165 -1893 0
-1166 -1894 0
-1167 -1895 0
-1168 -1896 0
-1165 -2333 0
-1166 -2334 0
-1167 -2335 0
-1168 -2336 0
-1165 -2833 0
-1166 -2834 0
-1167 -2835 0
-1168 -2836 0
-1165 -2865 0
-1166 -2866 0
-1167 -2867 0
-1168 -2868 0
-1169 -1173 0
-1170 -1174 0
-1171 -1175 0
-1172 -1176 0
-1169 -1177 0
-1170 -1178 0
-1171 -1179 0
-1172 -1180 0
-1169 -1185 0
-1170 -1186 0
-1171 -1187 0
-1172 -1188 0
-1169 -2297 0
-1170 -2298 0
-1171 -2299 0
-1172 -2300 0
-1169 -2749 0
-1170 -2750 0
-1171 -2751 0
-1172 -2752 0
-1169 -2841 0
-1170 -2842 0
-1171 -2843 0
-1172 -2844 0
-1173 -1181 0
-1174 -1182 0
-1175 -1183 0
-1176 -1184 0
-1173 -1553 0
-1174 -1554 0
-1175 -1555 0
-1176 -1556 0
-1173 -1897 0
-1174 -1898 0
-1175 -1899 0
-1176 -1900 0
-1173 -2313 0
-1174 -2314 0
-1175 -2315 0
-1176 -2316 0
-1173 -2845 0
-1174 -2846 0
-1175 -2847 0
-1176 -2848 0
-1177 -1181 0
-1178 -1182 0
-1179 -1183 0
-1180 -1184 0
-1177 -1189 0
-1178 -1190 0
-1179 -1191 0
-1180 -1192 0
-1177 -1193 0
-1178 -1194 0
-1179 -1195 0
-1180 -1196 0
-1177 -1469 0
-1178 -1470 0
-1179 -1471 0
-1180 -1472 0
-1177 -1901 0
-1178 -1902 0
-1179 -1903 0
-1180 -1904 0
-1177 -2333 0
-1178 -2334 0
-1179 -2335 0
-1180 -2336 0
-1177 -2645 0
-1178 -2646 0
-1179 -2647 0
-1180 -2648 0
-1177 -2733 0
-1178 -2734 0
-1179 -2735 0
-1180 -2736 0
-1177 -2757 0
-1178 -2758 0
-1179 -2759 0
-1180 -2760 0
-1177 -2841 0
-1178 -2842 0
-1179 -2843 0
-1180 -2844 0
-1177 -2849 0
-1178 -2850 0
-1179 -2851 0
-1180 -2852 0
-1177 -2869 0
-1178 -2870 0
-1179 -2871 0
-1180 -2872 0
-1177 -3041 0
-1178 -3042 0
-1179 -3043 0
-1180 -3044 0
-1181 -1473 0
-1182 -1474 0
-1183 -1475 0
-1184 -1476 0
-1181 -1557 0
-1182 -1558 0
-1183 -1559 0
-1184 -1560 0
-1181 -1869 0
-1182 -1870 0
-1183 -1871 0
-1184 -1872 0
-1181 -1905 0
-1182 -1906 0
-1183 -1907 0
-1184 -1908 0
-1181 -2153 0
-1182 -2154 0
-1183 -2155 0
-1184 -2156 0
-1181 -2349 0
-1182 -2350 0
-1183 -2351 0
-1184 -2352 0
-1181 -2745 0
-1182 -2746 0
-1183 -2747 0
-1184 -2748 0
-1181 -2765 0
-1182 -2766 0
-1183 -2767 0
-1184 -2768 0
-1181 -2845 0
-1182 -2846 0
-1183 -2847 0
-1184 -2848 0
-1185 -1189 0
-1186 -1190 0
-1187 -1191 0
-1188 -1192 0
-1185 -1197 0
-1186 -1198 0
-1187 -1199 0
-1188 -1200 0
-1185 -1577 0
-1186 -1578 0
-1187 -1579 0
-1188 -1580 0
-1185 -2361 0
-1186 -2362 0
-1187 -2363 0
-1188 -2364 0
-1185 -2853 0
-1186 -2854 0
-1187 -2855 0
-1188 -2856 0
-1189 -1201 0
-1190 -1202 0
-1191 -1203 0
-1192 -1204 0
-1189 -1341 0
-1190 -1342 0
-1191 -1343 0
-1192 -1344 0
-1189 -1597 0
-1190 -1598 0
-1191 -1599 0
-1192 -1600 0
-1189 -1877 0
-1190 -1878 0
-1191 -1879 0
-1192 -1880 0
-1189 -2093 0
-1190 -2094 0
-1191 -2095 0
-1192 -2096 0
-1189 -2365 0
-1190 -2366 0
-1191 -2367 0
-1192 -2368 0
-1189 -2853 0
-1190 -2854 0
-1191 -2855 0
-1192 -2856 0
-1189 -2869 0
-1190 -2870 0
-1191 -2871 0
-1192 -2872 0
-1189 -3049 0
-1190 -3050 0
-1191 -3051 0
-1192 -3052 0
-1193 -1201 0
-1194 -1202 0
-1195 -1203 0
-1196 -1204 0
-1193 -1673 0
-1194 -1674 0
-1195 -1675 0
-1196 -1676 0
-1193 -2381 0
-1194 -2382 0
-1195 -2383 0
-1196 -2384 0
-1193 -2653 0
-1194 -2654 0
-1195 -2655 0
-1196 -2656 0
-1193 -2769 0
-1194 -2770 0
-1195 -2771 0
-1196 -2772 0
-1193 -2873 0
-1194 -2874 0
-1195 -2875 0
-1196 -2876 0
-1197 -1201 0
-1198 -1202 0
-1199 -1203 0
-1200 -1204 0
-1197 -1349 0
-1198 -1350 0
-1199 -1351 0
-1200 -1352 0
-1197 -1621 0
-1198 -1622 0
-1199 -1623 0
-1200 -1624 0
-1197 -2121 0
-1198 -2122 0
-1199 -2123 0
-1200 -2124 0
-1197 -2385 0
-1198 -2386 0
-1199 -2387 0
-1200 -2388 0
-1197 -2665 0
-1198 -2666 0
-1199 -2667 0
-1200 -2668 0
-1197 -2857 0
-1198 -2858 0
-1199 -2859 0
-1200 -2860 0
-1201 -1361 0
-1202 -1362 0
-1203 -1363 0
-1204 -1364 0
-1201 -1637 0
-1202 -1638 0
-1203 -1639 0
-1204 -1640 0
-1201 -2133 0
-1202 -2134 0
-1203 -2135 0
-1204 -2136 0
-1201 -2393 0
-1202 -2394 0
-1203 -2395 0
-1204 -2396 0
-1201 -2669 0
-1202 -2670 0
-1203 -2671 0
-1204 -2672 0
-1201 -2857 0
-1202 -2858 0
-1203 -2859 0
-1204 -2860 0
-1201 -2873 0
-1202 -2874 0
-1203 -2875 0
-1204 -2876 0
-1205 -1569 0
-1206 -1570 0
-1207 -1571 0
-1208 -1572 0
-1205 -2433 0
-1206 -2434 0
-1207 -2435 0
-1208 -2436 0
-1205 -2869 0
-1206 -2870 0
-1207 -2871 0
-1208 -2872 0
-1209 -1301 0
-1210 -1302 0
-1211 -1303 0
-1212 -1304 0
-1209 -1317 0
-1210 -1318 0
-1211 -1319 0
-1212 -1320 0
-1209 -1449 0
-1210 -1450 0
-1211 -1451 0
-1212 -1452 0
-1209 -1985 0
-1210 -1986 0
-1211 -1987 0
-1212 -1988 0
-1209 -2173 0
-1210 -2174 0
-1211 -2175 0
-1212 -2176 0
-1209 -2905 0
-1210 -2906 0
-1211 -2907 0
-1212 -2908 0
-1213 -1217 0
-1214 -1218 0
-1215 -1219 0
-1216 -1220 0
-1213 -1225 0
-1214 -1226 0
-1215 -1227 0
-1216 -1228 0
-1213 -1281 0
-1214 -1282 0
-1215 -1283 0
-1216 -1284 0
-1213 -1285 0
-1214 -1286 0
-1215 -1287 0
-1216 -1288 0
-1213 -1757 0
-1214 -1758 0
-1215 -1759 0
-1216 -1760 0
-1213 -1941 0
-1214 -1942 0
-1215 -1943 0
-1216 -1944 0
-1213 -2893 0
-1214 -2894 0
-1215 -2895 0
-1216 -2896 0
-1213 -2985 0
-1214 -2986 0
-1215 -2987 0
-1216 -2988 0
-1217 -1221 0
-1218 -1222 0
-1219 -1223 0
-1220 -1224 0
-1217 -1229 0
-1218 -1230 0
-1219 -1231 0
-1220 -1232 0
-1217 -1297 0
-1218 -1298 0
-1219 -1299 0
-1220 -1300 0
-1217 -1301 0
-1218 -1302 0
-1219 -1303 0
-1220 -1304 0
-1217 -1777 0
-1218 -1778 0
-1219 -1779 0
-1220 -1780 0
-1217 -1957 0
-1218 -1958 0
-1219 -1959 0
-1220 -1960 0
-1217 -2701 0
-1218 -2702 0
-1219 -2703 0
-1220 -2704 0
-1217 -2893 0
-1218 -2894 0
-1219 -2895 0
-1220 -2896 0
-1217 -2993 0
-1218 -2994 0
-1219 -2995 0
-1220 -2996 0
-1217 -3081 0
-1218 -3082 0
-1219 -3083 0
-1220 -3084 0
-1221 -1309 0
-1222 -1310 0
-1223 -1311 0
-1224 -1312 0
-1221 -1317 0
-1222 -1318 0
-1223 -1319 0
-1224 -1320 0
-1221 -1965 0
-1222 -1966 0
-1223 -1967 0
-1224 -1968 0
-1221 -2213 0
-1222 -2214 0
-1223 -2215 0
-1224 -2216 0
-1225 -1229 0
-1226 -1230 0
-1227 -1231 0
-1228 -1232 0
-1225 -1233 0
-1226 -1234 0
-1227 -1235 0
-1228 -1236 0
-1225 -1325 0
-1226 -1326 0
-1227 -1327 0
-1228 -1328 0
-1225 -1609 0
-1226 -1610 0
-1227 -1611 0
-1228 -1612 0
-1225 -2037 0
-1226 -2038 0
-1227 -2039 0
-1228 -2040 0
-1225 -2897 0
-1226 -2898 0
-1227 -2899 0
-1228 -2900 0
-1225 -2985 0
-1226 -2986 0
-1227 -2987 0
-1228 -2988 0
-1229 -1237 0
-1230 -1238 0
-1231 -1239 0
-1232 -1240 0
-1229 -1329 0
-1230 -1330 0
-1231 -1331 0
-1232 -1332 0
-1229 -2049 0
-1230 -2050 0
-1231 -2051 0
-1232 -2052 0
-1229 -2193 0
-1230 -2194 0
-1231 -2195 0
-1232 -2196 0
-1229 -2897 0
-1230 -2898 0
-1231 -2899 0
-1232 -2900 0
-1229 -2993 0
-1230 -2994 0
-1231 -2995 0
-1232 -2996 0
-1233 -1237 0
-1234 -1238 0
-1235 -1239 0
-1236 -1240 0
-1233 -1333 0
-1234 -1334 0
-1235 -1335 0
-1236 -1336 0
-1233 -1621 0
-1234 -1622 0
-1235 -1623 0
-1236 -1624 0
-1233 -2197 0
-1234 -2198 0
-1235 -2199 0
-1236 -2200 0
-1233 -2721 0
-1234 -2722 0
-1235 -2723 0
-1236 -2724 0
-1233 -2901 0
-1234 -2902 0
-1235 -2903 0
-1236 -2904 0
-1237 -1637 0
-1238 -1638 0
-1239 -1639 0
-1240 -1640 0
-1237 -2201 0
-1238 -2202 0
-1239 -2203 0
-1240 -2204 0
-1237 -2729 0
-1238 -2730 0
-1239 -2731 0
-1240 -2732 0
-1237 -2901 0
-1238 -2902 0
-1239 -2903 0
-1240 -2904 0
-1241 -1245 0
-1242 -1246 0
-1243 -1247 0
-1244 -1248 0
-1241 -1253 0
-1242 -1254 0
-1243 -1255 0
-1244 -1256 0
-1241 -1281 0
-1242 -1282 0
-1243 -1283 0
-1244 -1284 0
-1241 -2461 0
-1242 -2462 0
-1243 -2463 0
-1244 -2464 0
-1241 -2909 0
-1242 -2910 0
-1243 -2911 0
-1244 -2912 0
-1241 -3093 0
-1242 -3094 0
-1243 -3095 0
-1244 -3096 0
-1245 -1249 0
-1246 -1250 0
-1247 -1251 0
-1248 -1252 0
-1245 -1261 0
-1246 -1262 0
-1247 -1263 0
-1248 -1264 0
-1245 -1289 0
-1246 -1290 0
-1247 -1291 0
-1248 -1292 0
-1245 -1689 0
-1246 -1690 0
-1247 -1691 0
-1248 -1692 0
-1245 -2273 0
-1246 -2274 0
-1247 -2275 0
-1248 -2276 0
-1245 -2917 0
-1246 -2918 0
-1247 -2919 0
-1248 -2920 0
-1249 -1265 0
-1250 -1266 0
-1251 -1267 0
-1252 -1268 0
-1249 -1293 0
-1250 -1294 0
-1251 -1295 0
-1252 -1296 0
-1249 -2241 0
-1250 -2242 0
-1251 -2243 0
-1252 -2244 0
-1253 -1257 0
-1254 -1258 0
-1255 -1259 0
-1256 -1260 0
-1253 -1261 0
-1254 -1262 0
-1255 -1263 0
-1256 -1264 0
-1253 -1269 0
-1254 -1270 0
-1255 -1271 0
-1256 -1272 0
-1253 -1297 0
-1254 -1298 0
-1255 -1299 0
-1256 -1300 0
-1253 -1397 0
-1254 -1398 0
-1255 -1399 0
-1256 -1400 0
-1253 -2277 0
-1254 -2278 0
-1255 -2279 0
-1256 -2280 0
-1253 -2465 0
-1254 -2466 0
-1255 -2467 0
-1256 -2468 0
-1253 -2733 0
-1254 -2734 0
-1255 -2735 0
-1256 -2736 0
-1253 -2909 0
-1254 -2910 0
-1255 -2911 0
-1256 -2912 0
-1253 -2921 0
-1254 -2922 0
-1255 -2923 0
-1256 -2924 0
-1253 -3109 0
-1254 -3110 0
-1255 -3111 0
-1256 -3112 0
-1257 -1273 0
-1258 -1274 0
-1259 -1275 0
-1260 -1276 0
-1257 -1297 0
-1258 -1298 0
-1259 -1299 0
-1260 -1300 0
-1257 -1401 0
-1258 -1402 0
-1259 -1403 0
-1260 -1404 0
-1257 -2281 0
-1258 -2282 0
-1259 -2283 0
-1260 -2284 0
-1257 -2913 0
-1258 -2914 0
-1259 -2915 0
-1260 -2916 0
-1257 -3113 0
-1258 -3114 0
-1259 -3115 0
-1260 -3116 0
-1261 -1265 0
-1262 -1266 0
-1263 -1267 0
-1264 -1268 0
-1261 -1277 0
-1262 -1278 0
-1263 -1279 0
-1264 -1280 0
-1261 -1305 0
-1262 -1306 0
-1263 -1307 0
-1264 -1308 0
-1261 -1309 0
-1262 -1310 0
-1263 -1311 0
-1264 -1312 0
-1261 -1337 0
-1262 -1338 0
-1263 -1339 0
-1264 -1340 0
-1261 -1373 0
-1262 -1374 0
-1263 -1375 0
-1264 -1376 0
-1261 -1397 0
-1262 -1398 0
-1263 -1399 0
-1264 -1400 0
-1261 -1649 0
-1262 -1650 0
-1263 -1651 0
-1264 -1652 0
-1261 -1693 0
-1262 -1694 0
-1263 -1695 0
-1264 -1696 0
-1261 -2013 0
-1262 -2014 0
-1263 -2015 0
-1264 -2016 0
-1261 -2297 0
-1262 -2298 0
-1263 -2299 0
-1264 -2300 0
-1261 -2745 0
-1262 -2746 0
-1263 -2747 0
-1264 -2748 0
-1261 -2881 0
-1262 -2882 0
-1263 -2883 0
-1264 -2884 0
-1261 -2917 0
-1262 -2918 0
-1263 -2919 0
-1264 -2920 0
-1261 -2925 0
-1262 -2926 0
-1263 -2927 0
-1264 -2928 0
-1265 -1313 0
-1266 -1314 0
-1267 -1315 0
-1268 -1316 0
-1265 -1317 0
-1266 -1318 0
-1267 -1319 0
-1268 -1320 0
-1265 -1341 0
-1266 -1342 0
-1267 -1343 0
-1268 -1344 0
-1265 -1373 0
-1266 -1374 0
-1267 -1375 0
-1268 -1376 0
-1265 -1561 0
-1266 -1562 0
-1267 -1563 0
-1268 -1564 0
-1265 -1825 0
-1266 -1826 0
-1267 -1827 0
-1268 -1828 0
-1265 -1973 0
-1266 -1974 0
-1267 -1975 0
-1268 -1976 0
-1265 -2249 0
-1266 -2250 0
-1267 -2251 0
-1268 -2252 0
-1265 -2309 0
-1266 -2310 0
-1267 -2311 0
-1268 -2312 0
-1265 -2929 0
-1266 -2930 0
-1267 -2931 0
-1268 -2932 0
-1269 -1273 0
-1270 -1274 0
-1271 -1275 0
-1272 -1276 0
-1269 -1277 0
-1270 -1278 0
-1271 -1279 0
-1272 -1280 0
-1269 -1321 0
-1270 -1322 0
-1271 -1323 0
-1272 -1324 0
-1269 -1413 0
-1270 -1414 0
-1271 -1415 0
-1272 -1416 0
-1269 -1569 0
-1270 -1570 0
-1271 -1571 0
-1272 -1572 0
-1269 -1737 0
-1270 -1738 0
-1271 -1739 0
-1272 -1740 0
-1269 -2473 0
-1270 -2474 0
-1271 -2475 0
-1272 -2476 0
-1269 -2757 0
-1270 -2758 0
-1271 -2759 0
-1272 -2760 0
-1269 -2933 0
-1270 -2934 0
-1271 -2935 0
-1272 -2936 0
-1273 -1321 0
-1274 -1322 0
-1275 -1323 0
-1276 -1324 0
-1273 -1417 0
-1274 -1418 0
-1275 -1419 0
-1276 -1420 0
-1273 -1573 0
-1274 -1574 0
-1275 -1575 0
-1276 -1576 0
-1273 -1817 0
-1274 -1818 0
-1275 -1819 0
-1276 -1820 0
-1277 -1413 0
-1278 -1414 0
-1279 -1415 0
-1280 -1416 0
-1277 -1585 0
-1278 -1586 0
-1279 -1587 0
-1280 -1588 0
-1277 -1657 0
-1278 -1658 0
-1279 -1659 0
-1280 -1660 0
-1277 -1821 0
-1278 -1822 0
-1279 -1823 0
-1280 -1824 0
-1277 -1977 0
-1278 -1978 0
-1279 -1979 0
-1280 -1980 0
-1277 -2017 0
-1278 -2018 0
-1279 -2019 0
-1280 -2020 0
-1277 -2353 0
-1278 -2354 0
-1279 -2355 0
-1280 -2356 0
-1277 -2765 0
-1278 -2766 0
-1279 -2767 0
-1280 -2768 0
-1277 -2881 0
-1278 -2882 0
-1279 -2883 0
-1280 -2884 0
-1277 -2937 0
-1278 -2938 0
-1279 -2939 0
-1280 -2940 0
-1281 -1285 0
-1282 -1286 0
-1283 -1287 0
-1284 -1288 0
-1281 -1289 0
-1282 -1290 0
-1283 -1291 0
-1284 -1292 0
-1281 -1297 0
-1282 -1298 0
-1283 -1299 0
-1284 -1300 0
-1281 -1325 0
-1282 -1326 0
-1283 -1327 0
-1284 -1328 0
-1281 -1745 0
-1282 -1746 0
-1283 -1747 0
-1284 -1748 0
-1281 -1829 0
-1282 -1830 0
-1283 -1831 0
-1284 -1832 0
-1281 -2941 0
-1282 -2942 0
-1283 -2943 0
-1284 -2944 0
-1281 -3009 0
-1282 -3010 0
-1283 -3011 0
-1284 -3012 0
-1281 -3121 0
-1282 -3122 0
-1283 -3123 0
-1284 -3124 0
-1285 -1293 0
-1286 -1294 0
-1287 -1295 0
-1288 -1296 0
-1285 -1301 0
-1286 -1302 0
-1287 -1303 0
-1288 -1304 0
-1285 -2277 0
-1286 -2278 0
-1287 -2279 0
-1288 -2280 0
-1285 -2945 0
-1286 -2946 0
-1287 -2947 0
-1288 -2948 0
-1285 -3013 0
-1286 -3014 0
-1287 -3015 0
-1288 -3016 0
-1289 -1293 0
-1290 -1294 0
-1291 -1295 0
-1292 -1296 0
-1289 -1309 0
-1290 -1310 0
-1291 -1311 0
-1292 -1312 0
-1289 -1441 0
-1290 -1442 0
-1291 -1443 0
-1292 -1444 0
-1289 -1701 0
-1290 -1702 0
-1291 -1703 0
-1292 -1704 0
-1289 -2285 0
-1290 -2286 0
-1291 -2287 0
-1292 -2288 0
-1289 -2949 0
-1290 -2950 0
-1291 -2951 0
-1292 -2952 0
-1293 -1317 0
-1294 -1318 0
-1295 -1319 0
-1296 -1320 0
-1293 -1349 0
-1294 -1350 0
-1295 -1351 0
-1296 -1352 0
-1293 -1353 0
-1294 -1354 0
-1295 -1355 0
-1296 -1356 0
-1293 -2021 0
-1294 -2022 0
-1295 -2023 0
-1296 -2024 0
-1293 -2297 0
-1294 -2298 0
-1295 -2299 0
-1296 -2300 0
-1293 -2953 0
-1294 -2954 0
-1295 -2955 0
-1296 -2956 0
-1297 -1301 0
-1298 -1302 0
-1299 -1303 0
-1300 -1304 0
-1297 -1309 0
-1298 -1310 0
-1299 -1311 0
-1300 -1312 0
-1297 -1321 0
-1298 -1322 0
-1299 -1323 0
-1300 -1324 0
-1297 -1329 0
-1298 -1330 0
-1299 -1331 0
-1300 -1332 0
-1297 -1433 0
-1298 -1434 0
-1299 -1435 0
-1300 -1436 0
-1297 -1749 0
-1298 -1750 0
-1299 -1751 0
-1300 -1752 0
-1297 -1833 0
-1298 -1834 0
-1299 -1835 0
-1300 -1836 0
-1297 -2105 0
-1298 -2106 0
-1299 -2107 0
-1300 -2108 0
-1297 -2769 0
-1298 -2770 0
-1299 -2771 0
-1300 -2772 0
-1297 -2941 0
-1298 -2942 0
-1299 -2943 0
-1300 -2944 0
-1297 -2957 0
-1298 -2958 0
-1299 -2959 0
-1300 -2960 0
-1297 -3017 0
-1298 -3018 0
-1299 -3019 0
-1300 -3020 0
-1297 -3125 0
-1298 -3126 0
-1299 -3127 0
-1300 -3128 0
-1301 -1317 0
-1302 -1318 0
-1303 -1319 0
-1304 -1320 0
-1301 -1609 0
-1302 -1610 0
-1303 -1611 0
-1304 -1612 0
-1301 -1857 0
-1302 -1858 0
-1303 -1859 0
-1304 -1860 0
-1301 -2317 0
-1302 -2318 0
-1303 -2319 0
-1304 -2320 0
-1301 -2477 0
-1302 -2478 0
-1303 -2479 0
-1304 -2480 0
-1301 -2945 0
-1302 -2946 0
-1303 -2947 0
-1304 -2948 0
-1301 -3021 0
-1302 -3022 0
-1303 -3023 0
-1304 -3024 0
-1301 -3129 0
-1302 -3130 0
-1303 -3131 0
-1304 -3132 0
-1305 -1309 0
-1306 -1310 0
-1307 -1311 0
-1308 -1312 0
-1305 -1313 0
-1306 -1314 0
-1307 -1315 0
-1308 -1316 0
-1305 -1377 0
-1306 -1378 0
-1307 -1379 0
-1308 -1380 0
-1305 -1989 0
-1306 -1990 0
-1307 -1991 0
-1308 -1992 0
-1305 -2369 0
-1306 -2370 0
-1307 -2371 0
-1308 -2372 0
-1305 -2773 0
-1306 -2774 0
-1307 -2775 0
-1308 -2776 0
-1309 -1317 0
-1310 -1318 0
-1311 -1319 0
-1312 -1320 0
-1309 -1381 0
-1310 -1382 0
-1311 -1383 0
-1312 -1384 0
-1309 -1453 0
-1310 -1454 0
-1311 -1455 0
-1312 -1456 0
-1309 -1705 0
-1310 -1706 0
-1311 -1707 0
-1312 -1708 0
-1309 -1841 0
-1310 -1842 0
-1311 -1843 0
-1312 -1844 0
-1309 -2025 0
-1310 -2026 0
-1311 -2027 0
-1312 -2028 0
-1309 -2109 0
-1310 -2110 0
-1311 -2111 0
-1312 -2112 0
-1309 -2321 0
-1310 -2322 0
-1311 -2323 0
-1312 -2324 0
-1309 -2373 0
-1310 -2374 0
-1311 -2375 0
-1312 -2376 0
-1309 -2949 0
-1310 -2950 0
-1311 -2951 0
-1312 -2952 0
-1309 -2961 0
-1310 -2962 0
-1311 -2963 0
-1312 -2964 0
-1313 -1317 0
-1314 -1318 0
-1315 -1319 0
-1316 -1320 0
-1313 -1357 0
-1314 -1358 0
-1315 -1359 0
-1316 -1360 0
-1313 -1365 0
-1314 -1366 0
-1315 -1367 0
-1316 -1368 0
-1313 -1377 0
-1314 -1378 0
-1315 -1379 0
-1316 -1380 0
-1313 -1865 0
-1314 -1866 0
-1315 -1867 0
-1316 -1868 0
-1313 -1993 0
-1314 -1994 0
-1315 -1995 0
-1316 -1996 0
-1313 -2229 0
-1314 -2230 0
-1315 -2231 0
-1316 -2232 0
-1313 -2329 0
-1314 -2330 0
-1315 -2331 0
-1316 -2332 0
-1313 -2481 0
-1314 -2482 0
-1315 -2483 0
-1316 -2484 0
-1317 -1361 0
-1318 -1362 0
-1319 -1363 0
-1320 -1364 0
-1317 -1369 0
-1318 -1370 0
-1319 -1371 0
-1320 -1372 0
-1317 -1381 0
-1318 -1382 0
-1319 -1383 0
-1320 -1384 0
-1317 -1613 0
-1318 -1614 0
-1319 -1615 0
-1320 -1616 0
-1317 -1685 0
-1318 -1686 0
-1319 -1687 0
-1320 -1688 0
-1317 -2029 0
-1318 -2030 0
-1319 -2031 0
-1320 -2032 0
-1317 -2113 0
-1318 -2114 0
-1319 -2115 0
-1320 -2116 0
-1317 -2333 0
-1318 -2334 0
-1319 -2335 0
-1320 -2336 0
-1317 -2485 0
-1318 -2486 0
-1319 -2487 0
-1320 -2488 0
-1317 -2953 0
-1318 -2954 0
-1319 -2955 0
-1320 -2956 0
-1317 -2965 0
-1318 -2966 0
-1319 -2967 0
-1320 -2968 0
-1317 -3025 0
-1318 -3026 0
-1319 -3027 0
-1320 -3028 0
-1321 -1617 0
-1322 -1618 0
-1323 -1619 0
-1324 -1620 0
-1321 -1785 0
-1322 -1786 0
-1323 -1787 0
-1324 -1788 0
-1321 -1853 0
-1322 -1854 0
-1323 -1855 0
-1324 -1856 0
-1321 -2777 0
-1322 -2778 0
-1323 -2779 0
-1324 -2780 0
-1321 -2969 0
-1322 -2970 0
-1323 -2971 0
-1324 -2972 0
-1325 -1329 0
-1326 -1330 0
-1327 -1331 0
-1328 -1332 0
-1325 -1333 0
-1326 -1334 0
-1327 -1335 0
-1328 -1336 0
-1325 -1437 0
-1326 -1438 0
-1327 -1439 0
-1328 -1440 0
-1325 -1709 0
-1326 -1710 0
-1327 -1711 0
-1328 -1712 0
-1325 -2117 0
-1326 -2118 0
-1327 -2119 0
-1328 -2120 0
-1325 -2973 0
-1326 -2974 0
-1327 -2975 0
-1328 -2976 0
-1325 -3009 0
-1326 -3010 0
-1327 -3011 0
-1328 -3012 0
-1329 -1449 0
-1330 -1450 0
-1331 -1451 0
-1332 -1452 0
-1329 -1717 0
-1330 -1718 0
-1331 -1719 0
-1332 -1720 0
-1329 -2129 0
-1330 -2130 0
-1331 -2131 0
-1332 -2132 0
-1329 -2493 0
-1330 -2494 0
-1331 -2495 0
-1332 -2496 0
-1329 -2973 0
-1330 -2974 0
-1331 -2975 0
-1332 -2976 0
-1329 -2977 0
-1330 -2978 0
-1331 -2979 0
-1332 -2980 0
-1329 -3017 0
-1330 -3018 0
-1331 -3019 0
-1332 -3020 0
-1333 -1801 0
-1334 -1802 0
-1335 -1803 0
-1336 -1804 0
-1337 -1341 0
-1338 -1342 0
-1339 -1343 0
-1340 -1344 0
-1337 -1385 0
-1338 -1386 0
-1339 -1387 0
-1340 -1388 0
-1337 -1733 0
-1338 -1734 0
-1339 -1735 0
-1340 -1736 0
-1337 -2385 0
-1338 -2386 0
-1339 -2387 0
-1340 -2388 0
-1337 -2889 0
-1338 -2890 0
-1339 -2891 0
-1340 -2892 0
-1337 -2981 0
-1338 -2982 0
-1339 -2983 0
-1340 -2984 0
-1337 -3153 0
-1338 -3154 0
-1339 -3155 0
-1340 -3156 0
-1341 -1357 0
-1342 -1358 0
-1343 -1359 0
-1344 -1360 0
-1341 -1361 0
-1342 -1362 0
-1343 -1363 0
-1344 -1364 0
-1341 -1385 0
-1342 -1386 0
-1343 -1387 0
-1344 -1388 0
-1341 -1741 0
-1342 -1742 0
-1343 -1743 0
-1344 -1744 0
-1341 -1997 0
-1342 -1998 0
-1343 -1999 0
-1344 -2000 0
-1341 -2245 0
-1342 -2246 0
-1343 -2247 0
-1344 -2248 0
-1341 -2505 0
-1342 -2506 0
-1343 -2507 0
-1344 -2508 0
-1341 -3157 0
-1342 -3158 0
-1343 -3159 0
-1344 -3160 0
-1345 -1357 0
-1346 -1358 0
-1347 -1359 0
-1348 -1360 0
-1345 -2005 0
-1346 -2006 0
-1347 -2007 0
-1348 -2008 0
-1345 -2257 0
-1346 -2258 0
-1347 -2259 0
-1348 -2260 0
-1345 -2517 0
-1346 -2518 0
-1347 -2519 0
-1348 -2520 0
-1345 -2785 0
-1346 -2786 0
-1347 -2787 0
-1348 -2788 0
-1345 -2893 0
-1346 -2894 0
-1347 -2895 0
-1348 -2896 0
-1345 -3037 0
-1346 -3038 0
-1347 -3039 0
-1348 -3040 0
-1349 -1353 0
-1350 -1354 0
-1351 -1355 0
-1352 -1356 0
-1349 -1361 0
-1350 -1362 0
-1351 -1363 0
-1352 -1364 0
-1349 -2385 0
-1350 -2386 0
-1351 -2387 0
-1352 -2388 0
-1353 -1369 0
-1354 -1370 0
-1355 -1371 0
-1356 -1372 0
-1353 -1769 0
-1354 -1770 0
-1355 -1771 0
-1356 -1772 0
-1353 -2041 0
-1354 -2042 0
-1355 -2043 0
-1356 -2044 0
-1353 -2389 0
-1354 -2390 0
-1355 -2391 0
-1356 -2392 0
-1357 -1361 0
-1358 -1362 0
-1359 -1363 0
-1360 -1364 0
-1357 -1365 0
-1358 -1366 0
-1359 -1367 0
-1360 -1368 0
-1357 -1389 0
-1358 -1390 0
-1359 -1391 0
-1360 -1392 0
-1357 -1673 0
-1358 -1674 0
-1359 -1675 0
-1360 -1676 0
-1357 -1789 0
-1358 -1790 0
-1359 -1791 0
-1360 -1792 0
-1357 -1809 0
-1358 -1810 0
-1359 -1811 0
-1360 -1812 0
-1357 -2009 0
-1358 -2010 0
-1359 -2011 0
-1360 -2012 0
-1357 -2297 0
-1358 -2298 0
-1359 -2299 0
-1360 -2300 0
-1357 -2797 0
-1358 -2798 0
-1359 -2799 0
-1360 -2800 0
-1357 -2897 0
-1358 -2898 0
-1359 -2899 0
-1360 -2900 0
-1357 -2901 0
-1358 -2902 0
-1359 -2903 0
-1360 -2904 0
-1357 -3037 0
-1358 -3038 0
-1359 -3039 0
-1360 -3040 0
-1357 -3181 0
-1358 -3182 0
-1359 -3183 0
-1360 -3184 0
-1361 -1369 0
-1362 -1370 0
-1363 -1371 0
-1364 -1372 0
-1361 -2153 0
-1362 -2154 0
-1363 -2155 0
-1364 -2156 0
-1361 -2301 0
-1362 -2302 0
-1363 -2303 0
-1364 -2304 0
-1361 -2393 0
-1362 -2394 0
-1363 -2395 0
-1364 -2396 0
-1361 -2801 0
-1362 -2802 0
-1363 -2803 0
-1364 -2804 0
-1361 -3185 0
-1362 -3186 0
-1363 -3187 0
-1364 -3188 0
-1365 -1369 0
-1366 -1370 0
-1367 -1371 0
-1368 -1372 0
-1365 -1477 0
-1366 -1478 0
-1367 -1479 0
-1368 -1480 0
-1365 -1793 0
-1366 -1794 0
-1367 -1795 0
-1368 -1796 0
-1365 -2049 0
-1366 -2050 0
-1367 -2051 0
-1368 -2052 0
-1365 -2305 0
-1366 -2306 0
-1367 -2307 0
-1368 -2308 0
-1365 -2533 0
-1366 -2534 0
-1367 -2535 0
-1368 -2536 0
-1365 -2805 0
-1366 -2806 0
-1367 -2807 0
-1368 -2808 0
-1365 -3041 0
-1366 -3042 0
-1367 -3043 0
-1368 -3044 0
-1365 -3049 0
-1366 -3050 0
-1367 -3051 0
-1368 -3052 0
-1369 -1797 0
-1370 -1798 0
-1371 -1799 0
-1372 -1800 0
-1369 -1885 0
-1370 -1886 0
-1371 -1887 0
-1372 -1888 0
-1369 -2053 0
-1370 -2054 0
-1371 -2055 0
-1372 -2056 0
-1369 -2397 0
-1370 -2398 0
-1371 -2399 0
-1372 -2400 0
-1369 -2537 0
-1370 -2538 0
-1371 -2539 0
-1372 -2540 0
-1369 -2809 0
-1370 -2810 0
-1371 -2811 0
-1372 -2812 0
-1369 -3045 0
-1370 -3046 0
-1371 -3047 0
-1372 -3048 0
-1373 -1377 0
-1374 -1378 0
-1375 -1379 0
-1376 -1380 0
-1373 -1381 0
-1374 -1382 0
-1375 -1383 0
-1376 -1384 0
-1373 -1385 0
-1374 -1386 0
-1375 -1387 0
-1376 -1388 0
-1373 -2057 0
-1374 -2058 0
-1375 -2059 0
-1376 -2060 0
-1373 -2405 0
-1374 -2406 0
-1375 -2407 0
-1376 -2408 0
-1373 -2809 0
-1374 -2810 0
-1375 -2811 0
-1376 -2812 0
-1377 -1381 0
-1378 -1382 0
-1379 -1383 0
-1380 -1384 0
-1377 -1389 0
-1378 -1390 0
-1379 -1391 0
-1380 -1392 0
-1377 -1493 0
-1378 -1494 0
-1379 -1495 0
-1380 -1496 0
-1377 -1845 0
-1378 -1846 0
-1379 -1847 0
-1380 -1848 0
-1377 -2073 0
-1378 -2074 0
-1379 -2075 0
-1380 -2076 0
-1377 -2553 0
-1378 -2554 0
-1379 -2555 0
-1380 -2556 0
-1377 -2833 0
-1378 -2834 0
-1379 -2835 0
-1380 -2836 0
-1381 -2077 0
-1382 -2078 0
-1383 -2079 0
-1384 -2080 0
-1381 -2409 0
-1382 -2410 0
-1383 -2411 0
-1384 -2412 0
-1381 -2557 0
-1382 -2558 0
-1383 -2559 0
-1384 -2560 0
-1385 -1389 0
-1386 -1390 0
-1387 -1391 0
-1388 -1392 0
-1385 -1817 0
-1386 -1818 0
-1387 -1819 0
-1388 -1820 0
-1385 -2089 0
-1386 -2090 0
-1387 -2091 0
-1388 -2092 0
-1385 -3197 0
-1386 -3198 0
-1387 -3199 0
-1388 -3200 0
-1389 -1497 0
-1390 -1498 0
-1391 -1499 0
-1392 -1500 0
-1389 -1853 0
-1390 -1854 0
-1391 -1855 0
-1392 -1856 0
-1389 -1881 0
-1390 -1882 0
-1391 -1883 0
-1392 -1884 0
-1389 -2125 0
-1390 -2126 0
-1391 -2127 0
-1392 -2128 0
-1389 -2401 0
-1390 -2402 0
-1391 -2403 0
-1392 -2404 0
-1389 -2857 0
-1390 -2858 0
-1391 -2859 0
-1392 -2860 0
-1389 -2973 0
-1390 -2974 0
-1391 -2975 0
-1392 -2976 0
-1393 -1409 0
-1394 -1410 0
-1395 -1411 0
-1396 -1412 0
-1393 -1413 0
-1394 -1414 0
-1395 -1415 0
-1396 -1416 0
-1393 -2065 0
-1394 -2066 0
-1395 -2067 0
-1396 -2068 0
-1397 -1401 0
-1398 -1402 0
-1399 -1403 0
-1400 -1404 0
-1397 -1405 0
-1398 -1406 0
-1399 -1407 0
-1400 -1408 0
-1397 -1413 0
-1398 -1414 0
-1399 -1415 0
-1400 -1416 0
-1397 -1913 0
-1398 -1914 0
-1399 -1915 0
-1400 -1916 0
-1397 -2093 0
-1398 -2094 0
-1399 -2095 0
-1400 -2096 0
-1397 -2441 0
-1398 -2442 0
-1399 -2443 0
-1400 -2444 0
-1397 -2581 0
-1398 -2582 0
-1399 -2583 0
-1400 -2584 0
-1397 -2989 0
-1398 -2990 0
-1399 -2991 0
-1400 -2992 0
-1397 -3029 0
-1398 -3030 0
-1399 -3031 0
-1400 -3032 0
-1397 -3033 0
-1398 -3034 0
-1399 -3035 0
-1400 -3036 0
-1401 -1417 0
-1402 -1418 0
-1403 -1419 0
-1404 -1420 0
-1401 -1745 0
-1402 -1746 0
-1403 -1747 0
-1404 -1748 0
-1405 -1425 0
-1406 -1426 0
-1407 -1427 0
-1408 -1428 0
-1405 -1549 0
-1406 -1550 0
-1407 -1551 0
-1408 -1552 0
-1405 -1925 0
-1406 -1926 0
-1407 -1927 0
-1408 -1928 0
-1405 -2101 0
-1406 -2102 0
-1407 -2103 0
-1408 -2104 0
-1405 -2449 0
-1406 -2450 0
-1407 -2451 0
-1408 -2452 0
-1405 -2997 0
-1406 -2998 0
-1407 -2999 0
-1408 -3000 0
-1405 -3033 0
-1406 -3034 0
-1407 -3035 0
-1408 -3036 0
-1409 -1413 0
-1410 -1414 0
-1411 -1415 0
-1412 -1416 0
-1409 -1421 0
-1410 -1422 0
-1411 -1423 0
-1412 -1424 0
-1409 -1577 0
-1410 -1578 0
-1411 -1579 0
-1412 -1580 0
-1409 -1753 0
-1410 -1754 0
-1411 -1755 0
-1412 -1756 0
-1409 -1905 0
-1410 -1906 0
-1411 -1907 0
-1412 -1908 0
-1409 -2421 0
-1410 -2422 0
-1411 -2423 0
-1412 -2424 0
-1409 -2985 0
-1410 -2986 0
-1411 -2987 0
-1412 -2988 0
-1409 -3037 0
-1410 -3038 0
-1411 -3039 0
-1412 -3040 0
-1413 -1417 0
-1414 -1418 0
-1415 -1419 0
-1416 -1420 0
-1413 -1425 0
-1414 -1426 0
-1415 -1427 0
-1416 -1428 0
-1413 -1553 0
-1414 -1554 0
-1415 -1555 0
-1416 -1556 0
-1413 -1677 0
-1414 -1678 0
-1415 -1679 0
-1416 -1680 0
-1413 -1761 0
-1414 -1762 0
-1415 -1763 0
-1416 -1764 0
-1413 -1917 0
-1414 -1918 0
-1415 -1919 0
-1416 -1920 0
-1413 -2105 0
-1414 -2106 0
-1415 -2107 0
-1416 -2108 0
-1413 -2601 0
-1414 -2602 0
-1415 -2603 0
-1416 -2604 0
-1413 -2989 0
-1414 -2990 0
-1415 -2991 0
-1416 -2992 0
-1413 -3041 0
-1414 -3042 0
-1415 -3043 0
-1416 -3044 0
-1417 -1765 0
-1418 -1766 0
-1419 -1767 0
-1420 -1768 0
-1417 -1921 0
-1418 -1922 0
-1419 -1923 0
-1420 -1924 0
-1417 -3045 0
-1418 -3046 0
-1419 -3047 0
-1420 -3048 0
-1421 -1425 0
-1422 -1426 0
-1423 -1427 0
-1424 -1428 0
-1421 -1597 0
-1422 -1598 0
-1423 -1599 0
-1424 -1600 0
-1421 -1773 0
-1422 -1774 0
-1423 -1775 0
-1424 -1776 0
-1421 -2425 0
-1422 -2426 0
-1423 -2427 0
-1424 -2428 0
-1421 -2993 0
-1422 -2994 0
-1423 -2995 0
-1424 -2996 0
-1421 -3037 0
-1422 -3038 0
-1423 -3039 0
-1424 -3040 0
-1425 -1557 0
-1426 -1558 0
-1427 -1559 0
-1428 -1560 0
-1425 -1681 0
-1426 -1682 0
-1427 -1683 0
-1428 -1684 0
-1425 -1781 0
-1426 -1782 0
-1427 -1783 0
-1428 -1784 0
-1425 -2997 0
-1426 -2998 0
-1427 -2999 0
-1428 -3000 0
-1425 -3041 0
-1426 -3042 0
-1427 -3043 0
-1428 -3044 0
-1429 -1433 0
-1430 -1434 0
-1431 -1435 0
-1432 -1436 0
-1429 -1445 0
-1430 -1446 0
-1431 -1447 0
-1432 -1448 0
-1429 -1469 0
-1430 -1470 0
-1431 -1471 0
-1432 -1472 0
-1429 -2165 0
-1430 -2166 0
-1431 -2167 0
-1432 -2168 0
-1429 -2893 0
-1430 -2894 0
-1431 -2895 0
-1432 -2896 0
-1429 -3101 0
-1430 -3102 0
-1431 -3103 0
-1432 -3104 0
-1433 -1449 0
-1434 -1450 0
-1435 -1451 0
-1436 -1452 0
-1433 -2257 0
-1434 -2258 0
-1435 -2259 0
-1436 -2260 0
-1433 -3105 0
-1434 -3106 0
-1435 -3107 0
-1436 -3108 0
-1433 -3217 0
-1434 -3218 0
-1435 -3219 0
-1436 -3220 0
-1437 -1441 0
-1438 -1442 0
-1439 -1443 0
-1440 -1444 0
-1437 -1449 0
-1438 -1450 0
-1439 -1451 0
-1440 -1452 0
-1437 -2273 0
-1438 -2274 0
-1439 -2275 0
-1440 -2276 0
-1437 -3053 0
-1438 -3054 0
-1439 -3055 0
-1440 -3056 0
-1441 -1453 0
-1442 -1454 0
-1443 -1455 0
-1444 -1456 0
-1441 -3057 0
-1442 -3058 0
-1443 -3059 0
-1444 -3060 0
-1441 -3097 0
-1442 -3098 0
-1443 -3099 0
-1444 -3100 0
-1445 -1449 0
-1446 -1450 0
-1447 -1451 0
-1448 -1452 0
-1445 -1457 0
-1446 -1458 0
-1447 -1459 0
-1448 -1460 0
-1445 -1833 0
-1446 -1834 0
-1447 -1835 0
-1448 -1836 0
-1445 -2293 0
-1446 -2294 0
-1447 -2295 0
-1448 -2296 0
-1445 -2461 0
-1446 -2462 0
-1447 -2463 0
-1448 -2464 0
-1445 -2897 0
-1446 -2898 0
-1447 -2899 0
-1448 -2900 0
-1445 -3101 0
-1446 -3102 0
-1447 -3103 0
-1448 -3104 0
-1449 -1453 0
-1450 -1454 0
-1451 -1455 0
-1452 -1456 0
-1449 -1461 0
-1450 -1462 0
-1451 -1463 0
-1452 -1464 0
-1449 -1489 0
-1450 -1490 0
-1451 -1491 0
-1452 -1492 0
-1449 -1609 0
-1450 -1610 0
-1451 -1611 0
-1452 -1612 0
-1449 -1613 0
-1450 -1614 0
-1451 -1615 0
-1452 -1616 0
-1449 -2297 0
-1450 -2298 0
-1451 -2299 0
-1452 -2300 0
-1449 -2493 0
-1450 -2494 0
-1451 -2495 0
-1452 -2496 0
-1449 -3053 0
-1450 -3054 0
-1451 -3055 0
-1452 -3056 0
-1449 -3061 0
-1450 -3062 0
-1451 -3063 0
-1452 -3064 0
-1449 -3105 0
-1450 -3106 0
-1451 -3107 0
-1452 -3108 0
-1449 -3229 0
-1450 -3230 0
-1451 -3231 0
-1452 -3232 0
-1453 -1489 0
-1454 -1490 0
-1455 -1491 0
-1456 -1492 0
-1453 -2193 0
-1454 -2194 0
-1455 -2195 0
-1456 -2196 0
-1453 -2305 0
-1454 -2306 0
-1455 -2307 0
-1456 -2308 0
-1453 -2497 0
-1454 -2498 0
-1455 -2499 0
-1456 -2500 0
-1453 -2525 0
-1454 -2526 0
-1455 -2527 0
-1456 -2528 0
-1453 -2673 0
-1454 -2674 0
-1455 -2675 0
-1456 -2676 0
-1453 -3057 0
-1454 -3058 0
-1455 -3059 0
-1456 -3060 0
-1453 -3065 0
-1454 -3066 0
-1455 -3067 0
-1456 -3068 0
-1453 -3113 0
-1454 -3114 0
-1455 -3115 0
-1456 -3116 0
-1453 -3117 0
-1454 -3118 0
-1455 -3119 0
-1456 -3120 0
-1457 -1461 0
-1458 -1462 0
-1459 -1463 0
-1460 -1464 0
-1457 -1625 0
-1458 -1626 0
-1459 -1627 0
-1460 -1628 0
-1457 -1853 0
-1458 -1854 0
-1459 -1855 0
-1460 -1856 0
-1457 -1961 0
-1458 -1962 0
-1459 -1963 0
-1460 -1964 0
-1457 -2469 0
-1458 -2470 0
-1459 -2471 0
-1460 -2472 0
-1457 -2901 0
-1458 -2902 0
-1459 -2903 0
-1460 -2904 0
-1461 -1465 0
-1462 -1466 0
-1463 -1467 0
-1464 -1468 0
-1461 -1621 0
-1462 -1622 0
-1463 -1623 0
-1464 -1624 0
-1461 -1629 0
-1462 -1630 0
-1463 -1631 0
-1464 -1632 0
-1461 -1857 0
-1462 -1858 0
-1463 -1859 0
-1464 -1860 0
-1461 -1965 0
-1462 -1966 0
-1463 -1967 0
-1464 -1968 0
-1461 -2181 0
-1462 -2182 0
-1463 -2183 0
-1464 -2184 0
-1461 -2353 0
-1462 -2354 0
-1463 -2355 0
-1464 -2356 0
-1461 -3069 0
-1462 -3070 0
-1463 -3071 0
-1464 -3072 0
-1461 -3073 0
-1462 -3074 0
-1463 -3075 0
-1464 -3076 0
-1465 -1637 0
-1466 -1638 0
-1467 -1639 0
-1468 -1640 0
-1465 -1645 0
-1466 -1646 0
-1467 -1647 0
-1468 -1648 0
-1465 -2357 0
-1466 -2358 0
-1467 -2359 0
-1468 -2360 0
-1465 -2905 0
-1466 -2906 0
-1467 -2907 0
-1468 -2908 0
-1465 -3073 0
-1466 -3074 0
-1467 -3075 0
-1468 -3076 0
-1469 -1473 0
-1470 -1474 0
-1471 -1475 0
-1472 -1476 0
-1469 -2681 0
-1470 -2682 0
-1471 -2683 0
-1472 -2684 0
-1469 -2909 0
-1470 -2910 0
-1471 -2911 0
-1472 -2912 0
-1469 -3141 0
-1470 -3142 0
-1471 -3143 0
-1472 -3144 0
-1469 -3265 0
-1470 -3266 0
-1471 -3267 0
-1472 -3268 0
-1473 -1477 0
-1474 -1478 0
-1475 -1479 0
-1476 -1480 0
-1473 -1481 0
-1474 -1482 0
-1475 -1483 0
-1476 -1484 0
-1473 -1501 0
-1474 -1502 0
-1475 -1503 0
-1476 -1504 0
-1473 -1869 0
-1474 -1870 0
-1475 -1871 0
-1476 -1872 0
-1473 -1937 0
-1474 -1938 0
-1475 -1939 0
-1476 -1940 0
-1473 -2205 0
-1474 -2206 0
-1475 -2207 0
-1476 -2208 0
-1473 -2545 0
-1474 -2546 0
-1475 -2547 0
-1476 -2548 0
-1473 -2917 0
-1474 -2918 0
-1475 -2919 0
-1476 -2920 0
-1473 -3153 0
-1474 -3154 0
-1475 -3155 0
-1476 -3156 0
-1477 -1485 0
-1478 -1486 0
-1479 -1487 0
-1480 -1488 0
-1477 -1501 0
-1478 -1502 0
-1479 -1503 0
-1480 -1504 0
-1477 -1873 0
-1478 -1874 0
-1479 -1875 0
-1480 -1876 0
-1477 -2185 0
-1478 -2186 0
-1479 -2187 0
-1480 -2188 0
-1477 -2209 0
-1478 -2210 0
-1479 -2211 0
-1480 -2212 0
-1477 -2533 0
-1478 -2534 0
-1479 -2535 0
-1480 -2536 0
-1477 -3133 0
-1478 -3134 0
-1479 -3135 0
-1480 -3136 0
-1477 -3157 0
-1478 -3158 0
-1479 -3159 0
-1480 -3160 0
-1481 -1485 0
-1482 -1486 0
-1483 -1487 0
-1484 -1488 0
-1481 -1509 0
-1482 -1510 0
-1483 -1511 0
-1484 -1512 0
-1481 -2213 0
-1482 -2214 0
-1483 -2215 0
-1484 -2216 0
-1481 -2549 0
-1482 -2550 0
-1483 -2551 0
-1484 -2552 0
-1481 -2925 0
-1482 -2926 0
-1483 -2927 0
-1484 -2928 0
-1485 -1509 0
-1486 -1510 0
-1487 -1511 0
-1488 -1512 0
-1485 -1809 0
-1486 -1810 0
-1487 -1811 0
-1488 -1812 0
-1485 -2217 0
-1486 -2218 0
-1487 -2219 0
-1488 -2220 0
-1485 -2489 0
-1486 -2490 0
-1487 -2491 0
-1488 -2492 0
-1485 -2929 0
-1486 -2930 0
-1487 -2931 0
-1488 -2932 0
-1489 -1957 0
-1490 -1958 0
-1491 -1959 0
-1492 -1960 0
-1489 -2221 0
-1490 -2222 0
-1491 -2223 0
-1492 -2224 0
-1489 -2389 0
-1490 -2390 0
-1491 -2391 0
-1492 -2392 0
-1489 -3145 0
-1490 -3146 0
-1491 -3147 0
-1492 -3148 0
-1489 -3285 0
-1490 -3286 0
-1491 -3287 0
-1492 -3288 0
-1493 -1497 0
-1494 -1498 0
-1495 -1499 0
-1496 -1500 0
-1493 -1501 0
-1494 -1502 0
-1495 -1503 0
-1496 -1504 0
-1493 -2225 0
-1494 -2226 0
-1495 -2227 0
-1496 -2228 0
-1493 -2553 0
-1494 -2554 0
-1495 -2555 0
-1496 -2556 0
-1493 -2953 0
-1494 -2954 0
-1495 -2955 0
-1496 -2956 0
-1497 -1501 0
-1498 -1502 0
-1499 -1503 0
-1500 -1504 0
-1497 -1505 0
-1498 -1506 0
-1499 -1507 0
-1500 -1508 0
-1497 -1981 0
-1498 -1982 0
-1499 -1983 0
-1500 -1984 0
-1497 -2001 0
-1498 -2002 0
-1499 -2003 0
-1500 -2004 0
-1497 -2289 0
-1498 -2290 0
-1499 -2291 0
-1500 -2292 0
-1497 -3053 0
-1498 -3054 0
-1499 -3055 0
-1500 -3056 0
-1497 -3069 0
-1498 -3070 0
-1499 -3071 0
-1500 -3072 0
-1501 -1509 0
-1502 -1510 0
-1503 -1511 0
-1504 -1512 0
-1501 -1669 0
-1502 -1670 0
-1503 -1671 0
-1504 -1672 0
-1501 -1985 0
-1502 -1986 0
-1503 -1987 0
-1504 -1988 0
-1501 -2297 0
-1502 -2298 0
-1503 -2299 0
-1504 -2300 0
-1501 -2565 0
-1502 -2566 0
-1503 -2567 0
-1504 -2568 0
-1501 -2697 0
-1502 -2698 0
-1503 -2699 0
-1504 -2700 0
-1501 -3057 0
-1502 -3058 0
-1503 -3059 0
-1504 -3060 0
-1501 -3189 0
-1502 -3190 0
-1503 -3191 0
-1504 -3192 0
-1501 -3197 0
-1502 -3198 0
-1503 -3199 0
-1504 -3200 0
-1505 -1509 0
-1506 -1510 0
-1507 -1511 0
-1508 -1512 0
-1505 -1673 0
-1506 -1674 0
-1507 -1675 0
-1508 -1676 0
-1505 -2325 0
-1506 -2326 0
-1507 -2327 0
-1508 -2328 0
-1505 -2417 0
-1506 -2418 0
-1507 -2419 0
-1508 -2420 0
-1505 -2557 0
-1506 -2558 0
-1507 -2559 0
-1508 -2560 0
-1505 -3061 0
-1506 -3062 0
-1507 -3063 0
-1508 -3064 0
-1505 -3073 0
-1506 -3074 0
-1507 -3075 0
-1508 -3076 0
-1509 -1881 0
-1510 -1882 0
-1511 -1883 0
-1512 -1884 0
-1509 -2333 0
-1510 -2334 0
-1511 -2335 0
-1512 -2336 0
-1509 -3065 0
-1510 -3066 0
-1511 -3067 0
-1512 -3068 0
-1513 -1569 0
-1514 -1570 0
-1515 -1571 0
-1516 -1572 0
-1513 -1577 0
-1514 -1578 0
-1515 -1579 0
-1516 -1580 0
-1513 -1901 0
-1514 -1902 0
-1515 -1903 0
-1516 -1904 0
-1517 -1521 0
-1518 -1522 0
-1519 -1523 0
-1520 -1524 0
-1517 -1525 0
-1518 -1526 0
-1519 -1527 0
-1520 -1528 0
-1517 -1533 0
-1518 -1534 0
-1519 -1535 0
-1520 -1536 0
-1517 -1569 0
-1518 -1570 0
-1519 -1571 0
-1520 -1572 0
-1517 -2013 0
-1518 -2014 0
-1519 -2015 0
-1520 -2016 0
-1517 -2985 0
-1518 -2986 0
-1519 -2987 0
-1520 -2988 0
-1517 -3101 0
-1518 -3102 0
-1519 -3103 0
-1520 -3104 0
-1521 -1529 0
-1522 -1530 0
-1523 -1531 0
-1524 -1532 0
-1521 -1573 0
-1522 -1574 0
-1523 -1575 0
-1524 -1576 0
-1521 -2421 0
-1522 -2422 0
-1523 -2423 0
-1524 -2424 0
-1521 -3105 0
-1522 -3106 0
-1523 -3107 0
-1524 -3108 0
-1525 -1529 0
-1526 -1530 0
-1527 -1531 0
-1528 -1532 0
-1525 -1537 0
-1526 -1538 0
-1527 -1539 0
-1528 -1540 0
-1525 -1541 0
-1526 -1542 0
-1527 -1543 0
-1528 -1544 0
-1525 -1569 0
-1526 -1570 0
-1527 -1571 0
-1528 -1572 0
-1525 -1689 0
-1526 -1690 0
-1527 -1691 0
-1528 -1692 0
-1525 -2585 0
-1526 -2586 0
-1527 -2587 0
-1528 -2588 0
-1525 -2989 0
-1526 -2990 0
-1527 -2991 0
-1528 -2992 0
-1525 -3093 0
-1526 -3094 0
-1527 -3095 0
-1528 -3096 0
-1525 -3109 0
-1526 -3110 0
-1527 -3111 0
-1528 -3112 0
-1529 -1541 0
-1530 -1542 0
-1531 -1543 0
-1532 -1544 0
-1529 -1573 0
-1530 -1574 0
-1531 -1575 0
-1532 -1576 0
-1529 -2057 0
-1530 -2058 0
-1531 -2059 0
-1532 -2060 0
-1529 -2589 0
-1530 -2590 0
-1531 -2591 0
-1532 -2592 0
-1529 -3097 0
-1530 -3098 0
-1531 -3099 0
-1532 -3100 0
-1529 -3113 0
-1530 -3114 0
-1531 -3115 0
-1532 -3116 0
-1533 -1537 0
-1534 -1538 0
-1535 -1539 0
-1536 -1540 0
-1533 -1593 0
-1534 -1594 0
-1535 -1595 0
-1536 -1596 0
-1533 -2993 0
-1534 -2994 0
-1535 -2995 0
-1536 -2996 0
-1533 -3101 0
-1534 -3102 0
-1535 -3103 0
-1536 -3104 0
-1537 -1593 0
-1538 -1594 0
-1539 -1595 0
-1540 -1596 0
-1537 -1693 0
-1538 -1694 0
-1539 -1695 0
-1540 -1696 0
-1537 -2597 0
-1538 -2598 0
-1539 -2599 0
-1540 -2600 0
-1537 -2997 0
-1538 -2998 0
-1539 -2999 0
-1540 -3000 0
-1537 -3109 0
-1538 -3110 0
-1539 -3111 0
-1540 -3112 0
-1541 -1545 0
-1542 -1546 0
-1543 -1547 0
-1544 -1548 0
-1541 -1617 0
-1542 -1618 0
-1543 -1619 0
-1544 -1620 0
-1541 -1701 0
-1542 -1702 0
-1543 -1703 0
-1544 -1704 0
-1541 -2073 0
-1542 -2074 0
-1543 -2075 0
-1544 -2076 0
-1541 -2709 0
-1542 -2710 0
-1543 -2711 0
-1544 -2712 0
-1541 -3121 0
-1542 -3122 0
-1543 -3123 0
-1544 -3124 0
-1541 -3125 0
-1542 -3126 0
-1543 -3127 0
-1544 -3128 0
-1545 -1621 0
-1546 -1622 0
-1547 -1623 0
-1548 -1624 0
-1545 -1889 0
-1546 -1890 0
-1547 -1891 0
-1548 -1892 0
-1545 -2597 0
-1546 -2598 0
-1547 -2599 0
-1548 -2600 0
-1545 -2713 0
-1546 -2714 0
-1547 -2715 0
-1548 -2716 0
-1545 -3129 0
-1546 -3130 0
-1547 -3131 0
-1548 -3132 0
-1549 -1557 0
-1550 -1558 0
-1551 -1559 0
-1552 -1560 0
-1549 -1565 0
-1550 -1566 0
-1551 -1567 0
-1552 -1568 0
-1549 -1649 0
-1550 -1650 0
-1551 -1651 0
-1552 -1652 0
-1549 -2253 0
-1550 -2254 0
-1551 -2255 0
-1552 -2256 0
-1549 -2609 0
-1550 -2610 0
-1551 -2611 0
-1552 -2612 0
-1549 -3077 0
-1550 -3078 0
-1551 -3079 0
-1552 -3080 0
-1553 -1557 0
-1554 -1558 0
-1555 -1559 0
-1556 -1560 0
-1553 -1589 0
-1554 -1590 0
-1555 -1591 0
-1556 -1592 0
-1553 -1653 0
-1554 -1654 0
-1555 -1655 0
-1556 -1656 0
-1553 -1897 0
-1554 -1898 0
-1555 -1899 0
-1556 -1900 0
-1553 -1933 0
-1554 -1934 0
-1555 -1935 0
-1556 -1936 0
-1553 -2257 0
-1554 -2258 0
-1555 -2259 0
-1556 -2260 0
-1553 -2717 0
-1554 -2718 0
-1555 -2719 0
-1556 -2720 0
-1553 -3133 0
-1554 -3134 0
-1555 -3135 0
-1556 -3136 0
-1557 -1605 0
-1558 -1606 0
-1559 -1607 0
-1560 -1608 0
-1557 -1657 0
-1558 -1658 0
-1559 -1659 0
-1560 -1660 0
-1557 -1905 0
-1558 -1906 0
-1559 -1907 0
-1560 -1908 0
-1557 -1937 0
-1558 -1938 0
-1559 -1939 0
-1560 -1940 0
-1557 -2261 0
-1558 -2262 0
-1559 -2263 0
-1560 -2264 0
-1557 -3077 0
-1558 -3078 0
-1559 -3079 0
-1560 -3080 0
-1557 -3133 0
-1558 -3134 0
-1559 -3135 0
-1560 -3136 0
-1561 -1565 0
-1562 -1566 0
-1563 -1567 0
-1564 -1568 0
-1561 -1589 0
-1562 -1590 0
-1563 -1591 0
-1564 -1592 0
-1561 -1613 0
-1562 -1614 0
-1563 -1615 0
-1564 -1616 0
-1561 -2265 0
-1562 -2266 0
-1563 -2267 0
-1564 -2268 0
-1561 -2621 0
-1562 -2622 0
-1563 -2623 0
-1564 -2624 0
-1561 -3137 0
-1562 -3138 0
-1563 -3139 0
-1564 -3140 0
-1565 -1605 0
-1566 -1606 0
-1567 -1607 0
-1568 -1608 0
-1565 -2269 0
-1566 -2270 0
-1567 -2271 0
-1568 -2272 0
-1565 -2437 0
-1566 -2438 0
-1567 -2439 0
-1568 -2440 0
-1565 -2633 0
-1566 -2634 0
-1567 -2635 0
-1568 -2636 0
-1565 -3137 0
-1566 -3138 0
-1567 -3139 0
-1568 -3140 0
-1569 -1573 0
-1570 -1574 0
-1571 -1575 0
-1572 -1576 0
-1569 -1577 0
-1570 -1578 0
-1571 -1579 0
-1572 -1580 0
-1569 -1585 0
-1570 -1586 0
-1571 -1587 0
-1572 -1588 0
-1569 -1593 0
-1570 -1594 0
-1571 -1595 0
-1572 -1596 0
-1569 -1617 0
-1570 -1618 0
-1571 -1619 0
-1572 -1620 0
-1569 -1677 0
-1570 -1678 0
-1571 -1679 0
-1572 -1680 0
-1569 -1725 0
-1570 -1726 0
-1571 -1727 0
-1572 -1728 0
-1569 -2033 0
-1570 -2034 0
-1571 -2035 0
-1572 -2036 0
-1569 -2725 0
-1570 -2726 0
-1571 -2727 0
-1572 -2728 0
-1569 -3001 0
-1570 -3002 0
-1571 -3003 0
-1572 -3004 0
-1569 -3141 0
-1570 -3142 0
-1571 -3143 0
-1572 -3144 0
-1573 -1581 0
-1574 -1582 0
-1575 -1583 0
-1576 -1584 0
-1573 -1617 0
-1574 -1618 0
-1575 -1619 0
-1576 -1620 0
-1573 -2089 0
-1574 -2090 0
-1575 -2091 0
-1576 -2092 0
-1573 -3145 0
-1574 -3146 0
-1575 -3147 0
-1576 -3148 0
-1577 -1581 0
-1578 -1582 0
-1579 -1583 0
-1580 -1584 0
-1577 -1589 0
-1578 -1590 0
-1579 -1591 0
-1580 -1592 0
-1577 -1597 0
-1578 -1598 0
-1579 -1599 0
-1580 -1600 0
-1577 -1621 0
-1578 -1622 0
-1579 -1623 0
-1580 -1624 0
-1577 -2277 0
-1578 -2278 0
-1579 -2279 0
-1580 -2280 0
-1577 -2569 0
-1578 -2570 0
-1579 -2571 0
-1580 -2572 0
-1577 -2729 0
-1578 -2730 0
-1579 -2731 0
-1580 -2732 0
-1577 -3149 0
-1578 -3150 0
-1579 -3151 0
-1580 -3152 0
-1581 -1621 0
-1582 -1622 0
-1583 -1623 0
-1584 -1624 0
-1581 -1941 0
-1582 -1942 0
-1583 -1943 0
-1584 -1944 0
-1581 -2281 0
-1582 -2282 0
-1583 -2283 0
-1584 -2284 0
-1585 -1589 0
-1586 -1590 0
-1587 -1591 0
-1588 -1592 0
-1585 -1601 0
-1586 -1602 0
-1587 -1603 0
-1588 -1604 0
-1585 -1661 0
-1586 -1662 0
-1587 -1663 0
-1588 -1664 0
-1585 -1677 0
-1586 -1678 0
-1587 -1679 0
-1588 -1680 0
-1585 -1913 0
-1586 -1914 0
-1587 -1915 0
-1588 -1916 0
-1585 -2017 0
-1586 -2018 0
-1587 -2019 0
-1588 -2020 0
-1585 -2285 0
-1586 -2286 0
-1587 -2287 0
-1588 -2288 0
-1585 -2637 0
-1586 -2638 0
-1587 -2639 0
-1588 -2640 0
-1585 -3153 0
-1586 -3154 0
-1587 -3155 0
-1588 -3156 0
-1589 -1605 0
-1590 -1606 0
-1591 -1607 0
-1592 -1608 0
-1589 -1625 0
-1590 -1626 0
-1591 -1627 0
-1592 -1628 0
-1589 -1629 0
-1590 -1630 0
-1591 -1631 0
-1592 -1632 0
-1589 -1661 0
-1590 -1662 0
-1591 -1663 0
-1592 -1664 0
-1589 -1921 0
-1590 -1922 0
-1591 -1923 0
-1592 -1924 0
-1589 -1945 0
-1590 -1946 0
-1591 -1947 0
-1592 -1948 0
-1589 -2297 0
-1590 -2298 0
-1591 -2299 0
-1592 -2300 0
-1589 -3157 0
-1590 -3158 0
-1591 -3159 0
-1592 -3160 0
-1593 -1597 0
-1594 -1598 0
-1595 -1599 0
-1596 -1600 0
-1593 -1601 0
-1594 -1602 0
-1595 -1603 0
-1596 -1604 0
-1593 -1633 0
-1594 -1634 0
-1595 -1635 0
-1596 -1636 0
-1593 -1681 0
-1594 -1682 0
-1595 -1683 0
-1596 -1684 0
-1593 -1733 0
-1594 -1734 0
-1595 -1735 0
-1596 -1736 0
-1593 -3005 0
-1594 -3006 0
-1595 -3007 0
-1596 -3008 0
-1593 -3141 0
-1594 -3142 0
-1595 -3143 0
-1596 -3144 0
-1597 -1605 0
-1598 -1606 0
-1599 -1607 0
-1600 -1608 0
-1597 -1637 0
-1598 -1638 0
-1599 -1639 0
-1600 -1640 0
-1597 -1741 0
-1598 -1742 0
-1599 -1743 0
-1600 -1744 0
-1597 -1953 0
-1598 -1954 0
-1599 -1955 0
-1600 -1956 0
-1597 -2317 0
-1598 -2318 0
-1599 -2319 0
-1600 -2320 0
-1597 -3149 0
-1598 -3150 0
-1599 -3151 0
-1600 -3152 0
-1601 -1605 0
-1602 -1606 0
-1603 -1607 0
-1604 -1608 0
-1601 -1665 0
-1602 -1666 0
-1603 -1667 0
-1604 -1668 0
-1601 -1681 0
-1602 -1682 0
-1603 -1683 0
-1604 -1684 0
-1601 -1925 0
-1602 -1926 0
-1603 -1927 0
-1604 -1928 0
-1601 -2321 0
-1602 -2322 0
-1603 -2323 0
-1604 -2324 0
-1601 -2641 0
-1602 -2642 0
-1603 -2643 0
-1604 -2644 0
-1601 -3153 0
-1602 -3154 0
-1603 -3155 0
-1604 -3156 0
-1605 -1641 0
-1606 -1642 0
-1607 -1643 0
-1608 -1644 0
-1605 -1645 0
-1606 -1646 0
-1607 -1647 0
-1608 -1648 0
-1605 -1665 0
-1606 -1666 0
-1607 -1667 0
-1608 -1668 0
-1605 -1961 0
-1606 -1962 0
-1607 -1963 0
-1608 -1964 0
-1605 -2333 0
-1606 -2334 0
-1607 -2335 0
-1608 -2336 0
-1605 -2573 0
-1606 -2574 0
-1607 -2575 0
-1608 -2576 0
-1605 -3157 0
-1606 -3158 0
-1607 -3159 0
-1608 -3160 0
-1609 -1613 0
-1610 -1614 0
-1611 -1615 0
-1612 -1616 0
-1609 -1621 0
-1610 -1622 0
-1611 -1623 0
-1612 -1624 0
-1609 -2441 0
-1610 -2442 0
-1611 -2443 0
-1612 -2444 0
-1609 -3161 0
-1610 -3162 0
-1611 -3163 0
-1612 -3164 0
-1609 -3313 0
-1610 -3314 0
-1611 -3315 0
-1612 -3316 0
-1613 -1629 0
-1614 -1630 0
-1615 -1631 0
-1616 -1632 0
-1613 -2029 0
-1614 -2030 0
-1615 -2031 0
-1616 -2032 0
-1613 -2445 0
-1614 -2446 0
-1615 -2447 0
-1616 -2448 0
-1613 -2625 0
-1614 -2626 0
-1615 -2627 0
-1616 -2628 0
-1613 -2737 0
-1614 -2738 0
-1615 -2739 0
-1616 -2740 0
-1613 -3169 0
-1614 -3170 0
-1615 -3171 0
-1616 -3172 0
-1617 -1621 0
-1618 -1622 0
-1619 -1623 0
-1620 -1624 0
-1617 -1633 0
-1618 -1634 0
-1619 -1635 0
-1620 -1636 0
-1617 -1757 0
-1618 -1758 0
-1619 -1759 0
-1620 -1760 0
-1617 -2045 0
-1618 -2046 0
-1619 -2047 0
-1620 -2048 0
-1617 -2125 0
-1618 -2126 0
-1619 -2127 0
-1620 -2128 0
-1617 -3009 0
-1618 -3010 0
-1619 -3011 0
-1620 -3012 0
-1617 -3173 0
-1618 -3174 0
-1619 -3175 0
-1620 -3176 0
-1621 -1629 0
-1622 -1630 0
-1623 -1631 0
-1624 -1632 0
-1621 -1637 0
-1622 -1638 0
-1623 -1639 0
-1624 -1640 0
-1621 -2053 0
-1622 -2054 0
-1623 -2055 0
-1624 -2056 0
-1621 -2589 0
-1622 -2590 0
-1623 -2591 0
-1624 -2592 0
-1621 -2753 0
-1622 -2754 0
-1623 -2755 0
-1624 -2756 0
-1621 -3013 0
-1622 -3014 0
-1623 -3015 0
-1624 -3016 0
-1621 -3177 0
-1622 -3178 0
-1623 -3179 0
-1624 -3180 0
-1625 -1629 0
-1626 -1630 0
-1627 -1631 0
-1628 -1632 0
-1625 -1641 0
-1626 -1642 0
-1627 -1643 0
-1628 -1644 0
-1625 -1929 0
-1626 -1930 0
-1627 -1931 0
-1628 -1932 0
-1625 -2369 0
-1626 -2370 0
-1627 -2371 0
-1628 -2372 0
-1625 -2593 0
-1626 -2594 0
-1627 -2595 0
-1628 -2596 0
-1625 -3181 0
-1626 -3182 0
-1627 -3183 0
-1628 -3184 0
-1629 -1645 0
-1630 -1646 0
-1631 -1647 0
-1632 -1648 0
-1629 -2373 0
-1630 -2374 0
-1631 -2375 0
-1632 -2376 0
-1629 -2641 0
-1630 -2642 0
-1631 -2643 0
-1632 -2644 0
-1629 -2761 0
-1630 -2762 0
-1631 -2763 0
-1632 -2764 0
-1629 -3185 0
-1630 -3186 0
-1631 -3187 0
-1632 -3188 0
-1633 -1637 0
-1634 -1638 0
-1635 -1639 0
-1636 -1640 0
-1633 -1777 0
-1634 -1778 0
-1635 -1779 0
-1636 -1780 0
-1633 -3017 0
-1634 -3018 0
-1635 -3019 0
-1636 -3020 0
-1633 -3173 0
-1634 -3174 0
-1635 -3175 0
-1636 -3176 0
-1637 -1645 0
-1638 -1646 0
-1639 -1647 0
-1640 -1648 0
-1637 -3021 0
-1638 -3022 0
-1639 -3023 0
-1640 -3024 0
-1637 -3177 0
-1638 -3178 0
-1639 -3179 0
-1640 -3180 0
-1641 -1645 0
-1642 -1646 0
-1643 -1647 0
-1644 -1648 0
-1641 -2377 0
-1642 -2378 0
-1643 -2379 0
-1644 -2380 0
-1641 -2601 0
-1642 -2602 0
-1643 -2603 0
-1644 -2604 0
-1641 -3181 0
-1642 -3182 0
-1643 -3183 0
-1644 -3184 0
-1645 -1969 0
-1646 -1970 0
-1647 -1971 0
-1648 -1972 0
-1645 -2381 0
-1646 -2382 0
-1647 -2383 0
-1648 -2384 0
-1645 -3025 0
-1646 -3026 0
-1647 -3027 0
-1648 -3028 0
-1645 -3185 0
-1646 -3186 0
-1647 -3187 0
-1648 -3188 0
-1649 -1657 0
-1650 -1658 0
-1651 -1659 0
-1652 -1660 0
-1649 -2653 0
-1650 -2654 0
-1651 -2655 0
-1652 -2656 0
-1649 -3113 0
-1650 -3114 0
-1651 -3115 0
-1652 -3116 0
-1653 -1657 0
-1654 -1658 0
-1655 -1659 0
-1656 -1660 0
-1653 -1661 0
-1654 -1662 0
-1655 -1663 0
-1656 -1664 0
-1653 -2421 0
-1654 -2422 0
-1655 -2423 0
-1656 -2424 0
-1653 -2781 0
-1654 -2782 0
-1655 -2783 0
-1656 -2784 0
-1653 -3097 0
-1654 -3098 0
-1655 -3099 0
-1656 -3100 0
-1653 -3189 0
-1654 -3190 0
-1655 -3191 0
-1656 -3192 0
-1657 -1665 0
-1658 -1666 0
-1659 -1667 0
-1660 -1668 0
-1657 -1913 0
-1658 -1914 0
-1659 -1915 0
-1660 -1916 0
-1657 -1977 0
-1658 -1978 0
-1659 -1979 0
-1660 -1980 0
-1657 -2161 0
-1658 -2162 0
-1659 -2163 0
-1660 -2164 0
-1657 -2425 0
-1658 -2426 0
-1659 -2427 0
-1660 -2428 0
-1657 -3045 0
-1658 -3046 0
-1659 -3047 0
-1660 -3048 0
-1657 -3113 0
-1658 -3114 0
-1659 -3115 0
-1660 -3116 0
-1657 -3189 0
-1658 -3190 0
-1659 -3191 0
-1660 -3192 0
-1661 -1665 0
-1662 -1666 0
-1663 -1667 0
-1664 -1668 0
-1661 -2065 0
-1662 -2066 0
-1663 -2067 0
-1664 -2068 0
-1661 -2401 0
-1662 -2402 0
-1663 -2403 0
-1664 -2404 0
-1661 -2429 0
-1662 -2430 0
-1663 -2431 0
-1664 -2432 0
-1661 -3197 0
-1662 -3198 0
-1663 -3199 0
-1664 -3200 0
-1665 -1825 0
-1666 -1826 0
-1667 -1827 0
-1668 -1828 0
-1665 -1989 0
-1666 -1990 0
-1667 -1991 0
-1668 -1992 0
-1665 -2069 0
-1666 -2070 0
-1667 -2071 0
-1668 -2072 0
-1665 -2409 0
-1666 -2410 0
-1667 -2411 0
-1668 -2412 0
-1665 -2433 0
-1666 -2434 0
-1667 -2435 0
-1668 -2436 0
-1665 -3117 0
-1666 -3118 0
-1667 -3119 0
-1668 -3120 0
-1665 -3197 0
-1666 -3198 0
-1667 -3199 0
-1668 -3200 0
-1669 -2441 0
-1670 -2442 0
-1671 -2443 0
-1672 -2444 0
-1669 -2833 0
-1670 -2834 0
-1671 -2835 0
-1672 -2836 0
-1669 -2841 0
-1670 -2842 0
-1671 -2843 0
-1672 -2844 0
-1673 -2009 0
-1674 -2010 0
-1675 -2011 0
-1676 -2012 0
-1673 -2149 0
-1674 -2150 0
-1675 -2151 0
-1676 -2152 0
-1673 -2653 0
-1674 -2654 0
-1675 -2655 0
-1676 -2656 0
-1673 -2837 0
-1674 -2838 0
-1675 -2839 0
-1676 -2840 0
-1673 -3161 0
-1674 -3162 0
-1675 -3163 0
-1676 -3164 0
-1673 -3177 0
-1674 -3178 0
-1675 -3179 0
-1676 -3180 0
-1673 -3345 0
-1674 -3346 0
-1675 -3347 0
-1676 -3348 0
-1677 -1681 0
-1678 -1682 0
-1679 -1683 0
-1680 -1684 0
-1677 -1897 0
-1678 -1898 0
-1679 -1899 0
-1680 -1900 0
-1677 -3201 0
-1678 -3202 0
-1679 -3203 0
-1680 -3204 0
-1681 -1905 0
-1682 -1906 0
-1683 -1907 0
-1684 -1908 0
-1681 -3201 0
-1682 -3202 0
-1683 -3203 0
-1684 -3204 0
-1685 -2513 0
-1686 -2514 0
-1687 -2515 0
-1688 -2516 0
-1685 -2681 0
-1686 -2682 0
-1687 -2683 0
-1688 -2684 0
-1685 -3217 0
-1686 -3218 0
-1687 -3219 0
-1688 -3220 0
-1685 -3229 0
-1686 -3230 0
-1687 -3231 0
-1688 -3232 0
-1689 -1693 0
-1690 -1694 0
-1691 -1695 0
-1692 -1696 0
-1689 -1697 0
-1690 -1698 0
-1691 -1699 0
-1692 -1700 0
-1689 -1701 0
-1690 -1702 0
-1691 -1703 0
-1692 -1704 0
-1689 -1725 0
-1690 -1726 0
-1691 -1727 0
-1692 -1728 0
-1689 -1729 0
-1690 -1730 0
-1691 -1731 0
-1692 -1732 0
-1689 -2705 0
-1690 -2706 0
-1691 -2707 0
-1692 -2708 0
-1689 -3205 0
-1690 -3206 0
-1691 -3207 0
-1692 -3208 0
-1693 -1705 0
-1694 -1706 0
-1695 -1707 0
-1696 -1708 0
-1693 -1733 0
-1694 -1734 0
-1695 -1735 0
-1696 -1736 0
-1693 -1737 0
-1694 -1738 0
-1695 -1739 0
-1696 -1740 0
-1693 -2013 0
-1694 -2014 0
-1695 -2015 0
-1696 -2016 0
-1693 -2713 0
-1694 -2714 0
-1695 -2715 0
-1696 -2716 0
-1693 -3077 0
-1694 -3078 0
-1695 -3079 0
-1696 -3080 0
-1693 -3205 0
-1694 -3206 0
-1695 -3207 0
-1696 -3208 0
-1693 -3209 0
-1694 -3210 0
-1695 -3211 0
-1696 -3212 0
-1697 -1713 0
-1698 -1714 0
-1699 -1715 0
-1700 -1716 0
-1697 -2057 0
-1698 -2058 0
-1699 -2059 0
-1700 -2060 0
-1697 -2461 0
-1698 -2462 0
-1699 -2463 0
-1700 -2464 0
-1697 -2721 0
-1698 -2722 0
-1699 -2723 0
-1700 -2724 0
-1697 -3213 0
-1698 -3214 0
-1699 -3215 0
-1700 -3216 0
-1701 -1705 0
-1702 -1706 0
-1703 -1707 0
-1704 -1708 0
-1701 -1713 0
-1702 -1714 0
-1703 -1715 0
-1704 -1716 0
-1701 -1757 0
-1702 -1758 0
-1703 -1759 0
-1704 -1760 0
-1701 -1765 0
-1702 -1766 0
-1703 -1767 0
-1704 -1768 0
-1701 -2225 0
-1702 -2226 0
-1703 -2227 0
-1704 -2228 0
-1701 -2709 0
-1702 -2710 0
-1703 -2711 0
-1704 -2712 0
-1701 -3217 0
-1702 -3218 0
-1703 -3219 0
-1704 -3220 0
-1705 -1721 0
-1706 -1722 0
-1707 -1723 0
-1708 -1724 0
-1705 -1777 0
-1706 -1778 0
-1707 -1779 0
-1708 -1780 0
-1705 -1785 0
-1706 -1786 0
-1707 -1787 0
-1708 -1788 0
-1705 -2025 0
-1706 -2026 0
-1707 -2027 0
-1708 -2028 0
-1705 -2233 0
-1706 -2234 0
-1707 -2235 0
-1708 -2236 0
-1705 -3217 0
-1706 -3218 0
-1707 -3219 0
-1708 -3220 0
-1709 -1713 0
-1710 -1714 0
-1711 -1715 0
-1712 -1716 0
-1709 -1717 0
-1710 -1718 0
-1711 -1719 0
-1712 -1720 0
-1709 -1889 0
-1710 -1890 0
-1711 -1891 0
-1712 -1892 0
-1709 -2193 0
-1710 -2194 0
-1711 -2195 0
-1712 -2196 0
-1709 -2585 0
-1710 -2586 0
-1711 -2587 0
-1712 -2588 0
-1709 -3221 0
-1710 -3222 0
-1711 -3223 0
-1712 -3224 0
-1709 -3225 0
-1710 -3226 0
-1711 -3227 0
-1712 -3228 0
-1713 -1721 0
-1714 -1722 0
-1715 -1723 0
-1716 -1724 0
-1713 -1801 0
-1714 -1802 0
-1715 -1803 0
-1716 -1804 0
-1713 -1889 0
-1714 -1890 0
-1715 -1891 0
-1716 -1892 0
-1713 -2077 0
-1714 -2078 0
-1715 -2079 0
-1716 -2080 0
-1713 -2593 0
-1714 -2594 0
-1715 -2595 0
-1716 -2596 0
-1713 -2725 0
-1714 -2726 0
-1715 -2727 0
-1716 -2728 0
-1713 -2877 0
-1714 -2878 0
-1715 -2879 0
-1716 -2880 0
-1713 -3229 0
-1714 -3230 0
-1715 -3231 0
-1716 -3232 0
-1717 -1721 0
-1718 -1722 0
-1719 -1723 0
-1720 -1724 0
-1717 -1893 0
-1718 -1894 0
-1719 -1895 0
-1720 -1896 0
-1717 -2597 0
-1718 -2598 0
-1719 -2599 0
-1720 -2600 0
-1717 -3225 0
-1718 -3226 0
-1719 -3227 0
-1720 -3228 0
-1721 -1805 0
-1722 -1806 0
-1723 -1807 0
-1724 -1808 0
-1721 -1893 0
-1722 -1894 0
-1723 -1895 0
-1724 -1896 0
-1721 -2601 0
-1722 -2602 0
-1723 -2603 0
-1724 -2604 0
-1721 -2885 0
-1722 -2886 0
-1723 -2887 0
-1724 -2888 0
-1721 -3229 0
-1722 -3230 0
-1723 -3231 0
-1724 -3232 0
-1725 -1729 0
-1726 -1730 0
-1727 -1731 0
-1728 -1732 0
-1725 -1733 0
-1726 -1734 0
-1727 -1735 0
-1728 -1736 0
-1725 -1753 0
-1726 -1754 0
-1727 -1755 0
-1728 -1756 0
-1725 -1757 0
-1726 -1758 0
-1727 -1759 0
-1728 -1760 0
-1725 -1813 0
-1726 -1814 0
-1727 -1815 0
-1728 -1816 0
-1725 -1897 0
-1726 -1898 0
-1727 -1899 0
-1728 -1900 0
-1725 -2081 0
-1726 -2082 0
-1727 -2083 0
-1728 -2084 0
-1725 -2877 0
-1726 -2878 0
-1727 -2879 0
-1728 -2880 0
-1725 -3233 0
-1726 -3234 0
-1727 -3235 0
-1728 -3236 0
-1725 -3377 0
-1726 -3378 0
-1727 -3379 0
-1728 -3380 0
-1729 -1737 0
-1730 -1738 0
-1731 -1739 0
-1732 -1740 0
-1729 -1761 0
-1730 -1762 0
-1731 -1763 0
-1732 -1764 0
-1729 -1765 0
-1730 -1766 0
-1731 -1767 0
-1732 -1768 0
-1729 -2241 0
-1730 -2242 0
-1731 -2243 0
-1732 -2244 0
-1729 -2749 0
-1730 -2750 0
-1731 -2751 0
-1732 -2752 0
-1729 -2881 0
-1730 -2882 0
-1731 -2883 0
-1732 -2884 0
-1729 -3237 0
-1730 -3238 0
-1731 -3239 0
-1732 -3240 0
-1733 -1737 0
-1734 -1738 0
-1735 -1739 0
-1736 -1740 0
-1733 -1741 0
-1734 -1742 0
-1735 -1743 0
-1736 -1744 0
-1733 -1773 0
-1734 -1774 0
-1735 -1775 0
-1736 -1776 0
-1733 -1777 0
-1734 -1778 0
-1735 -1779 0
-1736 -1780 0
-1733 -1817 0
-1734 -1818 0
-1735 -1819 0
-1736 -1820 0
-1733 -1901 0
-1734 -1902 0
-1735 -1903 0
-1736 -1904 0
-1733 -1905 0
-1734 -1906 0
-1735 -1907 0
-1736 -1908 0
-1733 -2085 0
-1734 -2086 0
-1735 -2087 0
-1736 -2088 0
-1733 -2753 0
-1734 -2754 0
-1735 -2755 0
-1736 -2756 0
-1733 -2885 0
-1734 -2886 0
-1735 -2887 0
-1736 -2888 0
-1733 -3085 0
-1734 -3086 0
-1735 -3087 0
-1736 -3088 0
-1733 -3233 0
-1734 -3234 0
-1735 -3235 0
-1736 -3236 0
-1733 -3241 0
-1734 -3242 0
-1735 -3243 0
-1736 -3244 0
-1733 -3381 0
-1734 -3382 0
-1735 -3383 0
-1736 -3384 0
-1737 -1781 0
-1738 -1782 0
-1739 -1783 0
-1740 -1784 0
-1737 -1785 0
-1738 -1786 0
-1739 -1787 0
-1740 -1788 0
-1737 -2033 0
-1738 -2034 0
-1739 -2035 0
-1740 -2036 0
-1737 -2249 0
-1738 -2250 0
-1739 -2251 0
-1740 -2252 0
-1737 -2757 0
-1738 -2758 0
-1739 -2759 0
-1740 -2760 0
-1737 -3237 0
-1738 -3238 0
-1739 -3239 0
-1740 -3240 0
-1737 -3245 0
-1738 -3246 0
-1739 -3247 0
-1740 -3248 0
-1741 -1789 0
-1742 -1790 0
-1743 -1791 0
-1744 -1792 0
-1741 -1817 0
-1742 -1818 0
-1743 -1819 0
-1744 -1820 0
-1741 -2477 0
-1742 -2478 0
-1743 -2479 0
-1744 -2480 0
-1745 -1749 0
-1746 -1750 0
-1747 -1751 0
-1748 -1752 0
-1745 -1765 0
-1746 -1766 0
-1747 -1767 0
-1748 -1768 0
-1745 -2265 0
-1746 -2266 0
-1747 -2267 0
-1748 -2268 0
-1745 -3249 0
-1746 -3250 0
-1747 -3251 0
-1748 -3252 0
-1749 -1785 0
-1750 -1786 0
-1751 -1787 0
-1752 -1788 0
-1749 -2269 0
-1750 -2270 0
-1751 -2271 0
-1752 -2272 0
-1749 -2769 0
-1750 -2770 0
-1751 -2771 0
-1752 -2772 0
-1749 -3249 0
-1750 -3250 0
-1751 -3251 0
-1752 -3252 0
-1753 -1757 0
-1754 -1758 0
-1755 -1759 0
-1756 -1760 0
-1753 -1761 0
-1754 -1762 0
-1755 -1763 0
-1756 -1764 0
-1753 -1773 0
-1754 -1774 0
-1755 -1775 0
-1756 -1776 0
-1753 -1849 0
-1754 -1850 0
-1755 -1851 0
-1756 -1852 0
-1753 -2205 0
-1754 -2206 0
-1755 -2207 0
-1756 -2208 0
-1753 -3257 0
-1754 -3258 0
-1755 -3259 0
-1756 -3260 0
-1757 -1765 0
-1758 -1766 0
-1759 -1767 0
-1760 -1768 0
-1757 -1777 0
-1758 -1778 0
-1759 -1779 0
-1760 -1780 0
-1757 -1941 0
-1758 -1942 0
-1759 -1943 0
-1760 -1944 0
-1757 -2289 0
-1758 -2290 0
-1759 -2291 0
-1760 -2292 0
-1757 -3261 0
-1758 -3262 0
-1759 -3263 0
-1760 -3264 0
-1761 -1765 0
-1762 -1766 0
-1763 -1767 0
-1764 -1768 0
-1761 -1781 0
-1762 -1782 0
-1763 -1783 0
-1764 -1784 0
-1761 -1933 0
-1762 -1934 0
-1763 -1935 0
-1764 -1936 0
-1761 -2105 0
-1762 -2106 0
-1763 -2107 0
-1764 -2108 0
-1761 -2293 0
-1762 -2294 0
-1763 -2295 0
-1764 -2296 0
-1761 -3093 0
-1762 -3094 0
-1763 -3095 0
-1764 -3096 0
-1761 -3265 0
-1762 -3266 0
-1763 -3267 0
-1764 -3268 0
-1765 -1769 0
-1766 -1770 0
-1767 -1771 0
-1768 -1772 0
-1765 -1785 0
-1766 -1786 0
-1767 -1787 0
-1768 -1788 0
-1765 -1801 0
-1766 -1802 0
-1767 -1803 0
-1768 -1804 0
-1765 -2297 0
-1766 -2298 0
-1767 -2299 0
-1768 -2300 0
-1765 -3097 0
-1766 -3098 0
-1767 -3099 0
-1768 -3100 0
-1765 -3269 0
-1766 -3270 0
-1767 -3271 0
-1768 -3272 0
-1769 -1797 0
-1770 -1798 0
-1771 -1799 0
-1772 -1800 0
-1769 -2041 0
-1770 -2042 0
-1771 -2043 0
-1772 -2044 0
-1769 -2309 0
-1770 -2310 0
-1771 -2311 0
-1772 -2312 0
-1769 -2757 0
-1770 -2758 0
-1771 -2759 0
-1772 -2760 0
-1769 -3273 0
-1770 -3274 0
-1771 -3275 0
-1772 -3276 0
-1773 -1777 0
-1774 -1778 0
-1775 -1779 0
-1776 -1780 0
-1773 -1781 0
-1774 -1782 0
-1775 -1783 0
-1776 -1784 0
-1773 -1789 0
-1774 -1790 0
-1775 -1791 0
-1776 -1792 0
-1773 -1853 0
-1774 -1854 0
-1775 -1855 0
-1776 -1856 0
-1773 -1953 0
-1774 -1954 0
-1775 -1955 0
-1776 -1956 0
-1773 -2213 0
-1774 -2214 0
-1775 -2215 0
-1776 -2216 0
-1773 -2709 0
-1774 -2710 0
-1775 -2711 0
-1776 -2712 0
-1773 -3089 0
-1774 -3090 0
-1775 -3091 0
-1776 -3092 0
-1773 -3101 0
-1774 -3102 0
-1775 -3103 0
-1776 -3104 0
-1773 -3257 0
-1774 -3258 0
-1775 -3259 0
-1776 -3260 0
-1773 -3277 0
-1774 -3278 0
-1775 -3279 0
-1776 -3280 0
-1777 -1785 0
-1778 -1786 0
-1779 -1787 0
-1780 -1788 0
-1777 -1857 0
-1778 -1858 0
-1779 -1859 0
-1780 -1860 0
-1777 -1957 0
-1778 -1958 0
-1779 -1959 0
-1780 -1960 0
-1777 -2325 0
-1778 -2326 0
-1779 -2327 0
-1780 -2328 0
-1777 -2613 0
-1778 -2614 0
-1779 -2615 0
-1780 -2616 0
-1777 -3105 0
-1778 -3106 0
-1779 -3107 0
-1780 -3108 0
-1777 -3261 0
-1778 -3262 0
-1779 -3263 0
-1780 -3264 0
-1781 -1785 0
-1782 -1786 0
-1783 -1787 0
-1784 -1788 0
-1781 -1793 0
-1782 -1794 0
-1783 -1795 0
-1784 -1796 0
-1781 -1861 0
-1782 -1862 0
-1783 -1863 0
-1784 -1864 0
-1781 -1937 0
-1782 -1938 0
-1783 -1939 0
-1784 -1940 0
-1781 -2329 0
-1782 -2330 0
-1783 -2331 0
-1784 -2332 0
-1781 -3109 0
-1782 -3110 0
-1783 -3111 0
-1784 -3112 0
-1781 -3265 0
-1782 -3266 0
-1783 -3267 0
-1784 -3268 0
-1785 -1797 0
-1786 -1798 0
-1787 -1799 0
-1788 -1800 0
-1785 -1805 0
-1786 -1806 0
-1787 -1807 0
-1788 -1808 0
-1785 -2045 0
-1786 -2046 0
-1787 -2047 0
-1788 -2048 0
-1785 -2333 0
-1786 -2334 0
-1787 -2335 0
-1788 -2336 0
-1785 -3113 0
-1786 -3114 0
-1787 -3115 0
-1788 -3116 0
-1785 -3269 0
-1786 -3270 0
-1787 -3271 0
-1788 -3272 0
-1789 -1793 0
-1790 -1794 0
-1791 -1795 0
-1792 -1796 0
-1789 -1853 0
-1790 -1854 0
-1791 -1855 0
-1792 -1856 0
-1789 -2217 0
-1790 -2218 0
-1791 -2219 0
-1792 -2220 0
-1789 -2713 0
-1790 -2714 0
-1791 -2715 0
-1792 -2716 0
-1793 -1797 0
-1794 -1798 0
-1795 -1799 0
-1796 -1800 0
-1793 -1861 0
-1794 -1862 0
-1795 -1863 0
-1796 -1864 0
-1793 -2049 0
-1794 -2050 0
-1795 -2051 0
-1796 -2052 0
-1793 -2357 0
-1794 -2358 0
-1795 -2359 0
-1796 -2360 0
-1797 -2053 0
-1798 -2054 0
-1799 -2055 0
-1800 -2056 0
-1797 -2345 0
-1798 -2346 0
-1799 -2347 0
-1800 -2348 0
-1797 -3273 0
-1798 -3274 0
-1799 -3275 0
-1800 -3276 0
-1801 -1805 0
-1802 -1806 0
-1803 -1807 0
-1804 -1808 0
-1801 -1949 0
-1802 -1950 0
-1803 -1951 0
-1804 -1952 0
-1801 -2133 0
-1802 -2134 0
-1803 -2135 0
-1804 -2136 0
-1801 -2201 0
-1802 -2202 0
-1803 -2203 0
-1804 -2204 0
-1801 -2361 0
-1802 -2362 0
-1803 -2363 0
-1804 -2364 0
-1801 -2889 0
-1802 -2890 0
-1803 -2891 0
-1804 -2892 0
-1801 -3285 0
-1802 -3286 0
-1803 -3287 0
-1804 -3288 0
-1805 -1965 0
-1806 -1966 0
-1807 -1967 0
-1808 -1968 0
-1805 -2365 0
-1806 -2366 0
-1807 -2367 0
-1808 -2368 0
-1805 -3117 0
-1806 -3118 0
-1807 -3119 0
-1808 -3120 0
-1805 -3285 0
-1806 -3286 0
-1807 -3287 0
-1808 -3288 0
-1809 -1881 0
-1810 -1882 0
-1811 -1883 0
-1812 -1884 0
-1809 -1885 0
-1810 -1886 0
-1811 -1887 0
-1812 -1888 0
-1809 -2149 0
-1810 -2150 0
-1811 -2151 0
-1812 -2152 0
-1809 -2217 0
-1810 -2218 0
-1811 -2219 0
-1812 -2220 0
-1809 -2541 0
-1810 -2542 0
-1811 -2543 0
-1812 -2544 0
-1809 -2745 0
-1810 -2746 0
-1811 -2747 0
-1812 -2748 0
-1809 -3137 0
-1810 -3138 0
-1811 -3139 0
-1812 -3140 0
-1809 -3325 0
-1810 -3326 0
-1811 -3327 0
-1812 -3328 0
-1813 -1817 0
-1814 -1818 0
-1815 -1819 0
-1816 -1820 0
-1813 -1849 0
-1814 -1850 0
-1815 -1851 0
-1816 -1852 0
-1813 -1909 0
-1814 -1910 0
-1815 -1911 0
-1816 -1912 0
-1813 -2245 0
-1814 -2246 0
-1815 -2247 0
-1816 -2248 0
-1813 -3289 0
-1814 -3290 0
-1815 -3291 0
-1816 -3292 0
-1817 -1825 0
-1818 -1826 0
-1819 -1827 0
-1820 -1828 0
-1817 -1853 0
-1818 -1854 0
-1819 -1855 0
-1820 -1856 0
-1817 -1857 0
-1818 -1858 0
-1819 -1859 0
-1820 -1860 0
-1817 -1921 0
-1818 -1922 0
-1819 -1923 0
-1820 -1924 0
-1817 -2089 0
-1818 -2090 0
-1819 -2091 0
-1820 -2092 0
-1817 -2165 0
-1818 -2166 0
-1819 -2167 0
-1820 -2168 0
-1817 -2253 0
-1818 -2254 0
-1819 -2255 0
-1820 -2256 0
-1817 -2905 0
-1818 -2906 0
-1819 -2907 0
-1820 -2908 0
-1817 -3289 0
-1818 -3290 0
-1819 -3291 0
-1820 -3292 0
-1817 -3293 0
-1818 -3294 0
-1819 -3295 0
-1820 -3296 0
-1817 -3413 0
-1818 -3414 0
-1819 -3415 0
-1820 -3416 0
-1821 -1825 0
-1822 -1826 0
-1823 -1827 0
-1824 -1828 0
-1821 -1865 0
-1822 -1866 0
-1823 -1867 0
-1824 -1868 0
-1821 -1917 0
-1822 -1918 0
-1823 -1919 0
-1824 -1920 0
-1821 -2161 0
-1822 -2162 0
-1823 -2163 0
-1824 -2164 0
-1821 -2553 0
-1822 -2554 0
-1823 -2555 0
-1824 -2556 0
-1821 -2821 0
-1822 -2822 0
-1823 -2823 0
-1824 -2824 0
-1821 -3157 0
-1822 -3158 0
-1823 -3159 0
-1824 -3160 0
-1821 -3213 0
-1822 -3214 0
-1823 -3215 0
-1824 -3216 0
-1825 -1865 0
-1826 -1866 0
-1827 -1867 0
-1828 -1868 0
-1825 -1921 0
-1826 -1922 0
-1827 -1923 0
-1828 -1924 0
-1825 -2169 0
-1826 -2170 0
-1827 -2171 0
-1828 -2172 0
-1825 -2557 0
-1826 -2558 0
-1827 -2559 0
-1828 -2560 0
-1829 -1833 0
-1830 -1834 0
-1831 -1835 0
-1832 -1836 0
-1829 -1849 0
-1830 -1850 0
-1831 -1851 0
-1832 -1852 0
-1829 -2265 0
-1830 -2266 0
-1831 -2267 0
-1832 -2268 0
-1829 -3221 0
-1830 -3222 0
-1831 -3223 0
-1832 -3224 0
-1833 -1837 0
-1834 -1838 0
-1835 -1839 0
-1836 -1840 0
-1833 -1841 0
-1834 -1842 0
-1835 -1843 0
-1836 -1844 0
-1833 -1853 0
-1834 -1854 0
-1835 -1855 0
-1836 -1856 0
-1833 -1877 0
-1834 -1878 0
-1835 -1879 0
-1836 -1880 0
-1833 -2269 0
-1834 -2270 0
-1835 -2271 0
-1836 -2272 0
-1833 -2649 0
-1834 -2650 0
-1835 -2651 0
-1836 -2652 0
-1833 -3161 0
-1834 -3162 0
-1835 -3163 0
-1836 -3164 0
-1833 -3225 0
-1834 -3226 0
-1835 -3227 0
-1836 -3228 0
-1833 -3417 0
-1834 -3418 0
-1835 -3419 0
-1836 -3420 0
-1837 -1845 0
-1838 -1846 0
-1839 -1847 0
-1840 -1848 0
-1837 -1861 0
-1838 -1862 0
-1839 -1863 0
-1840 -1864 0
-1837 -1877 0
-1838 -1878 0
-1839 -1879 0
-1840 -1880 0
-1837 -1973 0
-1838 -1974 0
-1839 -1975 0
-1840 -1976 0
-1837 -2409 0
-1838 -2410 0
-1839 -2411 0
-1840 -2412 0
-1837 -2921 0
-1838 -2922 0
-1839 -2923 0
-1840 -2924 0
-1841 -1845 0
-1842 -1846 0
-1843 -1847 0
-1844 -1848 0
-1841 -1865 0
-1842 -1866 0
-1843 -1867 0
-1844 -1868 0
-1841 -1881 0
-1842 -1882 0
-1843 -1883 0
-1844 -1884 0
-1841 -2233 0
-1842 -2234 0
-1843 -2235 0
-1844 -2236 0
-1841 -2657 0
-1842 -2658 0
-1843 -2659 0
-1844 -2660 0
-1841 -2829 0
-1842 -2830 0
-1843 -2831 0
-1844 -2832 0
-1841 -3169 0
-1842 -3170 0
-1843 -3171 0
-1844 -3172 0
-1841 -3229 0
-1842 -3230 0
-1843 -3231 0
-1844 -3232 0
-1845 -1881 0
-1846 -1882 0
-1847 -1883 0
-1848 -1884 0
-1845 -2237 0
-1846 -2238 0
-1847 -2239 0
-1848 -2240 0
-1845 -2581 0
-1846 -2582 0
-1847 -2583 0
-1848 -2584 0
-1845 -2833 0
-1846 -2834 0
-1847 -2835 0
-1848 -2836 0
-1845 -2925 0
-1846 -2926 0
-1847 -2927 0
-1848 -2928 0
-1849 -1853 0
-1850 -1854 0
-1851 -1855 0
-1852 -1856 0
-1849 -2297 0
-1850 -2298 0
-1851 -2299 0
-1852 -2300 0
-1849 -3221 0
-1850 -3222 0
-1851 -3223 0
-1852 -3224 0
-1849 -3297 0
-1850 -3298 0
-1851 -3299 0
-1852 -3300 0
-1853 -1857 0
-1854 -1858 0
-1855 -1859 0
-1856 -1860 0
-1853 -1861 0
-1854 -1862 0
-1855 -1863 0
-1856 -1864 0
-1853 -1865 0
-1854 -1866 0
-1855 -1867 0
-1856 -1868 0
-1853 -1929 0
-1854 -1930 0
-1855 -1931 0
-1856 -1932 0
-1853 -1981 0
-1854 -1982 0
-1855 -1983 0
-1856 -1984 0
-1853 -2125 0
-1854 -2126 0
-1855 -2127 0
-1856 -2128 0
-1853 -2333 0
-1854 -2334 0
-1855 -2335 0
-1856 -2336 0
-1853 -2777 0
-1854 -2778 0
-1855 -2779 0
-1856 -2780 0
-1853 -3177 0
-1854 -3178 0
-1855 -3179 0
-1856 -3180 0
-1853 -3225 0
-1854 -3226 0
-1855 -3227 0
-1856 -3228 0
-1853 -3297 0
-1854 -3298 0
-1855 -3299 0
-1856 -3300 0
-1853 -3301 0
-1854 -3302 0
-1855 -3303 0
-1856 -3304 0
-1857 -2181 0
-1858 -2182 0
-1859 -2183 0
-1860 -2184 0
-1857 -2337 0
-1858 -2338 0
-1859 -2339 0
-1860 -2340 0
-1861 -1985 0
-1862 -1986 0
-1863 -1987 0
-1864 -1988 0
-1861 -2129 0
-1862 -2130 0
-1863 -2131 0
-1864 -2132 0
-1861 -2341 0
-1862 -2342 0
-1863 -2343 0
-1864 -2344 0
-1861 -2597 0
-1862 -2598 0
-1863 -2599 0
-1864 -2600 0
-1861 -2933 0
-1862 -2934 0
-1863 -2935 0
-1864 -2936 0
-1865 -1929 0
-1866 -1930 0
-1867 -1931 0
-1868 -1932 0
-1865 -1993 0
-1866 -1994 0
-1867 -1995 0
-1868 -1996 0
-1865 -2349 0
-1866 -2350 0
-1867 -2351 0
-1868 -2352 0
-1865 -2781 0
-1866 -2782 0
-1867 -2783 0
-1868 -2784 0
-1865 -3185 0
-1866 -3186 0
-1867 -3187 0
-1868 -3188 0
-1865 -3229 0
-1866 -3230 0
-1867 -3231 0
-1868 -3232 0
-1869 -1873 0
-1870 -1874 0
-1871 -1875 0
-1872 -1876 0
-1869 -1881 0
-1870 -1882 0
-1871 -1883 0
-1872 -1884 0
-1869 -2261 0
-1870 -2262 0
-1871 -2263 0
-1872 -2264 0
-1869 -2605 0
-1870 -2606 0
-1871 -2607 0
-1872 -2608 0
-1869 -2961 0
-1870 -2962 0
-1871 -2963 0
-1872 -2964 0
-1869 -3249 0
-1870 -3250 0
-1871 -3251 0
-1872 -3252 0
-1869 -3269 0
-1870 -3270 0
-1871 -3271 0
-1872 -3272 0
-1869 -3337 0
-1870 -3338 0
-1871 -3339 0
-1872 -3340 0
-1873 -1885 0
-1874 -1886 0
-1875 -1887 0
-1876 -1888 0
-1873 -2145 0
-1874 -2146 0
-1875 -2147 0
-1876 -2148 0
-1873 -2185 0
-1874 -2186 0
-1875 -2187 0
-1876 -2188 0
-1873 -2609 0
-1874 -2610 0
-1875 -2611 0
-1876 -2612 0
-1873 -2849 0
-1874 -2850 0
-1875 -2851 0
-1876 -2852 0
-1873 -2965 0
-1874 -2966 0
-1875 -2967 0
-1876 -2968 0
-1873 -3253 0
-1874 -3254 0
-1875 -3255 0
-1876 -3256 0
-1873 -3273 0
-1874 -3274 0
-1875 -3275 0
-1876 -3276 0
-1873 -3341 0
-1874 -3342 0
-1875 -3343 0
-1876 -3344 0
-1877 -1881 0
-1878 -1882 0
-1879 -1883 0
-1880 -1884 0
-1877 -1997 0
-1878 -1998 0
-1879 -1999 0
-1880 -2000 0
-1877 -2317 0
-1878 -2318 0
-1879 -2319 0
-1880 -2320 0
-1877 -2977 0
-1878 -2978 0
-1879 -2979 0
-1880 -2980 0
-1877 -3453 0
-1878 -3454 0
-1879 -3455 0
-1880 -3456 0
-1881 -1885 0
-1882 -1886 0
-1883 -1887 0
-1884 -1888 0
-1881 -2001 0
-1882 -2002 0
-1883 -2003 0
-1884 -2004 0
-1881 -2333 0
-1882 -2334 0
-1883 -2335 0
-1884 -2336 0
-1881 -2625 0
-1882 -2626 0
-1883 -2627 0
-1884 -2628 0
-1881 -2793 0
-1882 -2794 0
-1883 -2795 0
-1884 -2796 0
-1881 -2857 0
-1882 -2858 0
-1883 -2859 0
-1884 -2860 0
-1881 -2981 0
-1882 -2982 0
-1883 -2983 0
-1884 -2984 0
-1881 -3285 0
-1882 -3286 0
-1883 -3287 0
-1884 -3288 0
-1881 -3337 0
-1882 -3338 0
-1883 -3339 0
-1884 -3340 0
-1885 -2189 0
-1886 -2190 0
-1887 -2191 0
-1888 -2192 0
-1885 -2345 0
-1886 -2346 0
-1887 -2347 0
-1888 -2348 0
-1885 -2633 0
-1886 -2634 0
-1887 -2635 0
-1888 -2636 0
-1885 -2809 0
-1886 -2810 0
-1887 -2811 0
-1888 -2812 0
-1885 -3341 0
-1886 -3342 0
-1887 -3343 0
-1888 -3344 0
-1889 -1893 0
-1890 -1894 0
-1891 -1895 0
-1892 -1896 0
-1889 -2021 0
-1890 -2022 0
-1891 -2023 0
-1892 -2024 0
-1889 -2985 0
-1890 -2986 0
-1891 -2987 0
-1892 -2988 0
-1889 -3313 0
-1890 -3314 0
-1891 -3315 0
-1892 -3316 0
-1893 -2029 0
-1894 -2030 0
-1895 -2031 0
-1896 -2032 0
-1893 -2993 0
-1894 -2994 0
-1895 -2995 0
-1896 -2996 0
-1893 -3313 0
-1894 -3314 0
-1895 -3315 0
-1896 -3316 0
-1897 -1905 0
-1898 -1906 0
-1899 -1907 0
-1900 -1908 0
-1897 -1909 0
-1898 -1910 0
-1899 -1911 0
-1900 -1912 0
-1897 -3321 0
-1898 -3322 0
-1899 -3323 0
-1900 -3324 0
-1901 -1905 0
-1902 -1906 0
-1903 -1907 0
-1904 -1908 0
-1901 -2993 0
-1902 -2994 0
-1903 -2995 0
-1904 -2996 0
-1901 -3317 0
-1902 -3318 0
-1903 -3319 0
-1904 -3320 0
-1905 -1913 0
-1906 -1914 0
-1907 -1915 0
-1908 -1916 0
-1905 -1921 0
-1906 -1922 0
-1907 -1923 0
-1908 -1924 0
-1905 -2205 0
-1906 -2206 0
-1907 -2207 0
-1908 -2208 0
-1905 -2605 0
-1906 -2606 0
-1907 -2607 0
-1908 -2608 0
-1905 -3321 0
-1906 -3322 0
-1907 -3323 0
-1908 -3324 0
-1905 -3325 0
-1906 -3326 0
-1907 -3327 0
-1908 -3328 0
-1909 -1921 0
-1910 -1922 0
-1911 -1923 0
-1912 -1924 0
-1909 -2273 0
-1910 -2274 0
-1911 -2275 0
-1912 -2276 0
-1909 -3333 0
-1910 -3334 0
-1911 -3335 0
-1912 -3336 0
-1913 -1921 0
-1914 -1922 0
-1915 -1923 0
-1916 -1924 0
-1913 -1925 0
-1914 -1926 0
-1915 -1927 0
-1916 -1928 0
-1913 -2093 0
-1914 -2094 0
-1915 -2095 0
-1916 -2096 0
-1913 -2285 0
-1914 -2286 0
-1915 -2287 0
-1916 -2288 0
-1913 -2425 0
-1914 -2426 0
-1915 -2427 0
-1916 -2428 0
-1913 -3329 0
-1914 -3330 0
-1915 -3331 0
-1916 -3332 0
-1913 -3337 0
-1914 -3338 0
-1915 -3339 0
-1916 -3340 0
-1917 -1921 0
-1918 -1922 0
-1919 -1923 0
-1920 -1924 0
-1917 -1929 0
-1918 -1930 0
-1919 -1931 0
-1920 -1932 0
-1917 -2293 0
-1918 -2294 0
-1919 -2295 0
-1920 -2296 0
-1917 -2437 0
-1918 -2438 0
-1919 -2439 0
-1920 -2440 0
-1917 -2649 0
-1918 -2650 0
-1919 -2651 0
-1920 -2652 0
-1917 -3305 0
-1918 -3306 0
-1919 -3307 0
-1920 -3308 0
-1921 -1929 0
-1922 -1930 0
-1923 -1931 0
-1924 -1932 0
-1921 -2297 0
-1922 -2298 0
-1923 -2299 0
-1924 -2300 0
-1921 -2653 0
-1922 -2654 0
-1923 -2655 0
-1924 -2656 0
-1921 -2869 0
-1922 -2870 0
-1923 -2871 0
-1924 -2872 0
-1921 -3025 0
-1922 -3026 0
-1923 -3027 0
-1924 -3028 0
-1921 -3309 0
-1922 -3310 0
-1923 -3311 0
-1924 -3312 0
-1921 -3333 0
-1922 -3334 0
-1923 -3335 0
-1924 -3336 0
-1921 -3341 0
-1922 -3342 0
-1923 -3343 0
-1924 -3344 0
-1925 -2101 0
-1926 -2102 0
-1927 -2103 0
-1928 -2104 0
-1925 -2321 0
-1926 -2322 0
-1927 -2323 0
-1928 -2324 0
-1925 -2873 0
-1926 -2874 0
-1927 -2875 0
-1928 -2876 0
-1925 -3337 0
-1926 -3338 0
-1927 -3339 0
-1928 -3340 0
-1929 -2137 0
-1930 -2138 0
-1931 -2139 0
-1932 -2140 0
-1929 -2369 0
-1930 -2370 0
-1931 -2371 0
-1932 -2372 0
-1929 -2453 0
-1930 -2454 0
-1931 -2455 0
-1932 -2456 0
-1929 -2861 0
-1930 -2862 0
-1931 -2863 0
-1932 -2864 0
-1929 -3037 0
-1930 -3038 0
-1931 -3039 0
-1932 -3040 0
-1929 -3313 0
-1930 -3314 0
-1931 -3315 0
-1932 -3316 0
-1929 -3345 0
-1930 -3346 0
-1931 -3347 0
-1932 -3348 0
-1933 -1937 0
-1934 -1938 0
-1935 -1939 0
-1936 -1940 0
-1933 -1945 0
-1934 -1946 0
-1935 -1947 0
-1936 -1948 0
-1933 -2257 0
-1934 -2258 0
-1935 -2259 0
-1936 -2260 0
-1933 -3377 0
-1934 -3378 0
-1935 -3379 0
-1936 -3380 0
-1937 -1961 0
-1938 -1962 0
-1939 -1963 0
-1940 -1964 0
-1937 -1977 0
-1938 -1978 0
-1939 -1979 0
-1940 -1980 0
-1937 -1985 0
-1938 -1986 0
-1939 -1987 0
-1940 -1988 0
-1937 -2205 0
-1938 -2206 0
-1939 -2207 0
-1940 -2208 0
-1937 -2261 0
-1938 -2262 0
-1939 -2263 0
-1940 -2264 0
-1937 -2481 0
-1938 -2482 0
-1939 -2483 0
-1940 -2484 0
-1937 -3205 0
-1938 -3206 0
-1939 -3207 0
-1940 -3208 0
-1937 -3381 0
-1938 -3382 0
-1939 -3383 0
-1940 -3384 0
-1941 -1949 0
-1942 -1950 0
-1943 -1951 0
-1944 -1952 0
-1941 -1957 0
-1942 -1958 0
-1943 -1959 0
-1944 -1960 0
-1941 -2041 0
-1942 -2042 0
-1943 -2043 0
-1944 -2044 0
-1941 -2281 0
-1942 -2282 0
-1943 -2283 0
-1944 -2284 0
-1941 -2749 0
-1942 -2750 0
-1943 -2751 0
-1944 -2752 0
-1941 -3353 0
-1942 -3354 0
-1943 -3355 0
-1944 -3356 0
-1941 -3473 0
-1942 -3474 0
-1943 -3475 0
-1944 -3476 0
-1945 -1949 0
-1946 -1950 0
-1947 -1951 0
-1948 -1952 0
-1945 -1961 0
-1946 -1962 0
-1947 -1963 0
-1948 -1964 0
-1945 -2037 0
-1946 -2038 0
-1947 -2039 0
-1948 -2040 0
-1945 -2297 0
-1946 -2298 0
-1947 -2299 0
-1948 -2300 0
-1945 -3357 0
-1946 -3358 0
-1947 -3359 0
-1948 -3360 0
-1945 -3377 0
-1946 -3378 0
-1947 -3379 0
-1948 -3380 0
-1949 -1965 0
-1950 -1966 0
-1951 -1967 0
-1952 -1968 0
-1949 -2041 0
-1950 -2042 0
-1951 -2043 0
-1952 -2044 0
-1949 -2301 0
-1950 -2302 0
-1951 -2303 0
-1952 -2304 0
-1949 -2889 0
-1950 -2890 0
-1951 -2891 0
-1952 -2892 0
-1949 -3361 0
-1950 -3362 0
-1951 -3363 0
-1952 -3364 0
-1953 -1957 0
-1954 -1958 0
-1955 -1959 0
-1956 -1960 0
-1953 -1961 0
-1954 -1962 0
-1955 -1963 0
-1956 -1964 0
-1953 -2049 0
-1954 -2050 0
-1955 -2051 0
-1956 -2052 0
-1953 -2317 0
-1954 -2318 0
-1955 -2319 0
-1956 -2320 0
-1957 -1965 0
-1958 -1966 0
-1959 -1967 0
-1960 -1968 0
-1957 -2053 0
-1958 -2054 0
-1959 -2055 0
-1960 -2056 0
-1957 -2221 0
-1958 -2222 0
-1959 -2223 0
-1960 -2224 0
-1957 -2501 0
-1958 -2502 0
-1959 -2503 0
-1960 -2504 0
-1957 -2757 0
-1958 -2758 0
-1959 -2759 0
-1960 -2760 0
-1957 -3353 0
-1958 -3354 0
-1959 -3355 0
-1960 -3356 0
-1957 -3481 0
-1958 -3482 0
-1959 -3483 0
-1960 -3484 0
-1961 -1965 0
-1962 -1966 0
-1963 -1967 0
-1964 -1968 0
-1961 -1969 0
-1962 -1970 0
-1963 -1971 0
-1964 -1972 0
-1961 -1989 0
-1962 -1990 0
-1963 -1991 0
-1964 -1992 0
-1961 -1993 0
-1962 -1994 0
-1963 -1995 0
-1964 -1996 0
-1961 -2049 0
-1962 -2050 0
-1963 -2051 0
-1964 -2052 0
-1961 -2333 0
-1962 -2334 0
-1963 -2335 0
-1964 -2336 0
-1961 -2681 0
-1962 -2682 0
-1963 -2683 0
-1964 -2684 0
-1961 -2881 0
-1962 -2882 0
-1963 -2883 0
-1964 -2884 0
-1961 -2901 0
-1962 -2902 0
-1963 -2903 0
-1964 -2904 0
-1961 -3213 0
-1962 -3214 0
-1963 -3215 0
-1964 -3216 0
-1961 -3357 0
-1962 -3358 0
-1963 -3359 0
-1964 -3360 0
-1961 -3365 0
-1962 -3366 0
-1963 -3367 0
-1964 -3368 0
-1961 -3381 0
-1962 -3382 0
-1963 -3383 0
-1964 -3384 0
-1965 -1969 0
-1966 -1970 0
-1967 -1971 0
-1968 -1972 0
-1965 -2053 0
-1966 -2054 0
-1967 -2055 0
-1968 -2056 0
-1965 -2337 0
-1966 -2338 0
-1967 -2339 0
-1968 -2340 0
-1965 -2505 0
-1966 -2506 0
-1967 -2507 0
-1968 -2508 0
-1965 -2685 0
-1966 -2686 0
-1967 -2687 0
-1968 -2688 0
-1965 -2765 0
-1966 -2766 0
-1967 -2767 0
-1968 -2768 0
-1965 -3361 0
-1966 -3362 0
-1967 -3363 0
-1968 -3364 0
-1969 -2381 0
-1970 -2382 0
-1971 -2383 0
-1972 -2384 0
-1969 -3229 0
-1970 -3230 0
-1971 -3231 0
-1972 -3232 0
-1973 -1985 0
-1974 -1986 0
-1975 -1987 0
-1976 -1988 0
-1973 -1997 0
-1974 -1998 0
-1975 -1999 0
-1976 -2000 0
-1973 -2265 0
-1974 -2266 0
-1975 -2267 0
-1976 -2268 0
-1973 -2557 0
-1974 -2558 0
-1975 -2559 0
-1976 -2560 0
-1973 -2701 0
-1974 -2702 0
-1975 -2703 0
-1976 -2704 0
-1973 -2921 0
-1974 -2922 0
-1975 -2923 0
-1976 -2924 0
-1973 -2945 0
-1974 -2946 0
-1975 -2947 0
-1976 -2948 0
-1973 -3253 0
-1974 -3254 0
-1975 -3255 0
-1976 -3256 0
-1973 -3349 0
-1974 -3350 0
-1975 -3351 0
-1976 -3352 0
-1973 -3409 0
-1974 -3410 0
-1975 -3411 0
-1976 -3412 0
-1973 -3497 0
-1974 -3498 0
-1975 -3499 0
-1976 -3500 0
-1977 -1985 0
-1978 -1986 0
-1979 -1987 0
-1980 -1988 0
-1977 -1989 0
-1978 -1990 0
-1979 -1991 0
-1980 -1992 0
-1977 -2105 0
-1978 -2106 0
-1979 -2107 0
-1980 -2108 0
-1977 -2109 0
-1978 -2110 0
-1979 -2111 0
-1980 -2112 0
-1977 -2285 0
-1978 -2286 0
-1979 -2287 0
-1980 -2288 0
-1977 -2553 0
-1978 -2554 0
-1979 -2555 0
-1980 -2556 0
-1977 -2709 0
-1978 -2710 0
-1979 -2711 0
-1980 -2712 0
-1977 -2969 0
-1978 -2970 0
-1979 -2971 0
-1980 -2972 0
-1977 -3269 0
-1978 -3270 0
-1979 -3271 0
-1980 -3272 0
-1981 -1985 0
-1982 -1986 0
-1983 -1987 0
-1984 -1988 0
-1981 -2005 0
-1982 -2006 0
-1983 -2007 0
-1984 -2008 0
-1981 -2289 0
-1982 -2290 0
-1983 -2291 0
-1984 -2292 0
-1981 -2485 0
-1982 -2486 0
-1983 -2487 0
-1984 -2488 0
-1985 -1993 0
-1986 -1994 0
-1987 -1995 0
-1988 -1996 0
-1985 -2005 0
-1986 -2006 0
-1987 -2007 0
-1988 -2008 0
-1985 -2113 0
-1986 -2114 0
-1987 -2115 0
-1988 -2116 0
-1985 -2297 0
-1986 -2298 0
-1987 -2299 0
-1988 -2300 0
-1985 -2489 0
-1986 -2490 0
-1987 -2491 0
-1988 -2492 0
-1985 -2561 0
-1986 -2562 0
-1987 -2563 0
-1988 -2564 0
-1985 -2713 0
-1986 -2714 0
-1987 -2715 0
-1988 -2716 0
-1985 -2933 0
-1986 -2934 0
-1987 -2935 0
-1988 -2936 0
-1985 -3273 0
-1986 -3274 0
-1987 -3275 0
-1988 -3276 0
-1985 -3349 0
-1986 -3350 0
-1987 -3351 0
-1988 -3352 0
-1985 -3413 0
-1986 -3414 0
-1987 -3415 0
-1988 -3416 0
-1989 -1993 0
-1990 -1994 0
-1991 -1995 0
-1992 -1996 0
-1989 -2129 0
-1990 -2130 0
-1991 -2131 0
-1992 -2132 0
-1989 -2141 0
-1990 -2142 0
-1991 -2143 0
-1992 -2144 0
-1989 -2169 0
-1990 -2170 0
-1991 -2171 0
-1992 -2172 0
-1989 -2409 0
-1990 -2410 0
-1991 -2411 0
-1992 -2412 0
-1989 -2473 0
-1990 -2474 0
-1991 -2475 0
-1992 -2476 0
-1989 -2725 0
-1990 -2726 0
-1991 -2727 0
-1992 -2728 0
-1989 -3285 0
-1990 -3286 0
-1991 -3287 0
-1992 -3288 0
-1989 -3369 0
-1990 -3370 0
-1991 -3371 0
-1992 -3372 0
-1993 -2137 0
-1994 -2138 0
-1995 -2139 0
-1996 -2140 0
-1993 -2361 0
-1994 -2362 0
-1995 -2363 0
-1996 -2364 0
-1993 -2413 0
-1994 -2414 0
-1995 -2415 0
-1996 -2416 0
-1993 -2693 0
-1994 -2694 0
-1995 -2695 0
-1996 -2696 0
-1993 -2729 0
-1994 -2730 0
-1995 -2731 0
-1996 -2732 0
-1993 -3413 0
-1994 -3414 0
-1995 -3415 0
-1996 -3416 0
-1997 -2001 0
-1998 -2002 0
-1999 -2003 0
-2000 -2004 0
-1997 -2005 0
-1998 -2006 0
-1999 -2007 0
-2000 -2008 0
-1997 -2009 0
-1998 -2010 0
-1999 -2011 0
-2000 -2012 0
-1997 -2145 0
-1998 -2146 0
-1999 -2147 0
-2000 -2148 0
-1997 -2477 0
-1998 -2478 0
-1999 -2479 0
-2000 -2480 0
-1997 -2841 0
-1998 -2842 0
-1999 -2843 0
-2000 -2844 0
-1997 -2913 0
-1998 -2914 0
-1999 -2915 0
-2000 -2916 0
-1997 -3061 0
-1998 -3062 0
-1999 -3063 0
-2000 -3064 0
-1997 -3353 0
-1998 -3354 0
-1999 -3355 0
-2000 -3356 0
-1997 -3425 0
-1998 -3426 0
-1999 -3427 0
-2000 -3428 0
-1997 -3433 0
-1998 -3434 0
-1999 -3435 0
-2000 -3436 0
-1997 -3537 0
-1998 -3538 0
-1999 -3539 0
-2000 -3540 0
-2001 -2145 0
-2002 -2146 0
-2003 -2147 0
-2004 -2148 0
-2001 -2485 0
-2002 -2486 0
-2003 -2487 0
-2004 -2488 0
-2001 -2737 0
-2002 -2738 0
-2003 -2739 0
-2004 -2740 0
-2001 -2845 0
-2002 -2846 0
-2003 -2847 0
-2004 -2848 0
-2001 -2981 0
-2002 -2982 0
-2003 -2983 0
-2004 -2984 0
-2001 -3361 0
-2002 -3362 0
-2003 -3363 0
-2004 -3364 0
-2001 -3549 0
-2002 -3550 0
-2003 -3551 0
-2004 -3552 0
-2005 -2153 0
-2006 -2154 0
-2007 -2155 0
-2008 -2156 0
-2005 -2385 0
-2006 -2386 0
-2007 -2387 0
-2008 -2388 0
-2005 -2537 0
-2006 -2538 0
-2007 -2539 0
-2008 -2540 0
-2005 -2753 0
-2006 -2754 0
-2007 -2755 0
-2008 -2756 0
-2005 -3073 0
-2006 -3074 0
-2007 -3075 0
-2008 -3076 0
-2005 -3289 0
-2006 -3290 0
-2007 -3291 0
-2008 -3292 0
-2005 -3353 0
-2006 -3354 0
-2007 -3355 0
-2008 -3356 0
-2005 -3557 0
-2006 -3558 0
-2007 -3559 0
-2008 -3560 0
-2009 -2541 0
-2010 -2542 0
-2011 -2543 0
-2012 -2544 0
-2009 -2941 0
-2010 -2942 0
-2011 -2943 0
-2012 -2944 0
-2009 -3449 0
-2010 -3450 0
-2011 -3451 0
-2012 -3452 0
-2009 -3565 0
-2010 -3566 0
-2011 -3567 0
-2012 -3568 0
-2013 -2017 0
-2014 -2018 0
-2015 -2019 0
-2016 -2020 0
-2013 -2025 0
-2014 -2026 0
-2015 -2027 0
-2016 -2028 0
-2013 -2033 0
-2014 -2034 0
-2015 -2035 0
-2016 -2036 0
-2013 -2057 0
-2014 -2058 0
-2015 -2059 0
-2016 -2060 0
-2013 -2985 0
-2014 -2986 0
-2015 -2987 0
-2016 -2988 0
-2013 -3373 0
-2014 -3374 0
-2015 -3375 0
-2016 -3376 0
-2017 -2065 0
-2018 -2066 0
-2019 -2067 0
-2020 -2068 0
-2017 -2425 0
-2018 -2426 0
-2019 -2427 0
-2020 -2428 0
-2017 -2709 0
-2018 -2710 0
-2019 -2711 0
-2020 -2712 0
-2017 -3377 0
-2018 -3378 0
-2019 -3379 0
-2020 -3380 0
-2017 -3381 0
-2018 -3382 0
-2019 -3383 0
-2020 -3384 0
-2021 -2029 0
-2022 -2030 0
-2023 -2031 0
-2024 -2032 0
-2021 -2041 0
-2022 -2042 0
-2023 -2043 0
-2024 -2044 0
-2021 -2985 0
-2022 -2986 0
-2023 -2987 0
-2024 -2988 0
-2021 -3385 0
-2022 -3386 0
-2023 -3387 0
-2024 -3388 0
-2025 -2029 0
-2026 -2030 0
-2027 -2031 0
-2028 -2032 0
-2025 -2045 0
-2026 -2046 0
-2027 -2047 0
-2028 -2048 0
-2025 -2077 0
-2026 -2078 0
-2027 -2079 0
-2028 -2080 0
-2025 -2193 0
-2026 -2194 0
-2027 -2195 0
-2028 -2196 0
-2029 -2053 0
-2030 -2054 0
-2031 -2055 0
-2032 -2056 0
-2029 -2077 0
-2030 -2078 0
-2031 -2079 0
-2032 -2080 0
-2029 -2993 0
-2030 -2994 0
-2031 -2995 0
-2032 -2996 0
-2029 -3385 0
-2030 -3386 0
-2031 -3387 0
-2032 -3388 0
-2033 -2045 0
-2034 -2046 0
-2035 -2047 0
-2036 -2048 0
-2033 -2093 0
-2034 -2094 0
-2035 -2095 0
-2036 -2096 0
-2033 -3001 0
-2034 -3002 0
-2035 -3003 0
-2036 -3004 0
-2037 -2041 0
-2038 -2042 0
-2039 -2043 0
-2040 -2044 0
-2037 -2049 0
-2038 -2050 0
-2039 -2051 0
-2040 -2052 0
-2037 -2117 0
-2038 -2118 0
-2039 -2119 0
-2040 -2120 0
-2037 -2441 0
-2038 -2442 0
-2039 -2443 0
-2040 -2444 0
-2037 -2637 0
-2038 -2638 0
-2039 -2639 0
-2040 -2640 0
-2037 -3393 0
-2038 -3394 0
-2039 -3395 0
-2040 -3396 0
-2041 -2053 0
-2042 -2054 0
-2043 -2055 0
-2044 -2056 0
-2041 -2121 0
-2042 -2122 0
-2043 -2123 0
-2044 -2124 0
-2041 -2621 0
-2042 -2622 0
-2043 -2623 0
-2044 -2624 0
-2041 -3001 0
-2042 -3002 0
-2043 -3003 0
-2044 -3004 0
-2041 -3397 0
-2042 -3398 0
-2043 -3399 0
-2044 -3400 0
-2045 -2053 0
-2046 -2054 0
-2047 -2055 0
-2048 -2056 0
-2045 -2133 0
-2046 -2134 0
-2047 -2135 0
-2048 -2136 0
-2045 -2625 0
-2046 -2626 0
-2047 -2627 0
-2048 -2628 0
-2045 -3389 0
-2046 -3390 0
-2047 -3391 0
-2048 -3392 0
-2049 -2053 0
-2050 -2054 0
-2051 -2055 0
-2052 -2056 0
-2049 -2129 0
-2050 -2130 0
-2051 -2131 0
-2052 -2132 0
-2049 -2137 0
-2050 -2138 0
-2051 -2139 0
-2052 -2140 0
-2049 -2209 0
-2050 -2210 0
-2051 -2211 0
-2052 -2212 0
-2049 -2449 0
-2050 -2450 0
-2051 -2451 0
-2052 -2452 0
-2049 -2641 0
-2050 -2642 0
-2051 -2643 0
-2052 -2644 0
-2049 -2989 0
-2050 -2990 0
-2051 -2991 0
-2052 -2992 0
-2049 -3305 0
-2050 -3306 0
-2051 -3307 0
-2052 -3308 0
-2049 -3393 0
-2050 -3394 0
-2051 -3395 0
-2052 -3396 0
-2049 -3401 0
-2050 -3402 0
-2051 -3403 0
-2052 -3404 0
-2053 -2133 0
-2054 -2134 0
-2055 -2135 0
-2056 -2136 0
-2053 -2457 0
-2054 -2458 0
-2055 -2459 0
-2056 -2460 0
-2053 -2633 0
-2054 -2634 0
-2055 -2635 0
-2056 -2636 0
-2053 -2769 0
-2054 -2770 0
-2055 -2771 0
-2056 -2772 0
-2053 -3005 0
-2054 -3006 0
-2055 -3007 0
-2056 -3008 0
-2053 -3085 0
-2054 -3086 0
-2055 -3087 0
-2056 -3088 0
-2053 -3309 0
-2054 -3310 0
-2055 -3311 0
-2056 -3312 0
-2053 -3397 0
-2054 -3398 0
-2055 -3399 0
-2056 -3400 0
-2053 -3405 0
-2054 -3406 0
-2055 -3407 0
-2056 -3408 0
-2057 -2061 0
-2058 -2062 0
-2059 -2063 0
-2060 -2064 0
-2057 -2065 0
-2058 -2066 0
-2059 -2067 0
-2060 -2068 0
-2057 -2073 0
-2058 -2074 0
-2059 -2075 0
-2060 -2076 0
-2057 -2077 0
-2058 -2078 0
-2059 -2079 0
-2060 -2080 0
-2057 -2089 0
-2058 -2090 0
-2059 -2091 0
-2060 -2092 0
-2057 -2093 0
-2058 -2094 0
-2059 -2095 0
-2060 -2096 0
-2057 -2461 0
-2058 -2462 0
-2059 -2463 0
-2060 -2464 0
-2057 -3013 0
-2058 -3014 0
-2059 -3015 0
-2060 -3016 0
-2057 -3309 0
-2058 -3310 0
-2059 -3311 0
-2060 -3312 0
-2057 -3409 0
-2058 -3410 0
-2059 -3411 0
-2060 -3412 0
-2061 -2069 0
-2062 -2070 0
-2063 -2071 0
-2064 -2072 0
-2061 -2097 0
-2062 -2098 0
-2063 -2099 0
-2064 -2100 0
-2061 -2101 0
-2062 -2102 0
-2063 -2103 0
-2064 -2104 0
-2061 -2465 0
-2062 -2466 0
-2063 -2467 0
-2064 -2468 0
-2061 -3021 0
-2062 -3022 0
-2063 -3023 0
-2064 -3024 0
-2061 -3409 0
-2062 -3410 0
-2063 -3411 0
-2064 -3412 0
-2065 -2069 0
-2066 -2070 0
-2067 -2071 0
-2068 -2072 0
-2065 -2429 0
-2066 -2430 0
-2067 -2431 0
-2068 -2432 0
-2065 -2469 0
-2066 -2470 0
-2067 -2471 0
-2068 -2472 0
-2065 -2573 0
-2066 -2574 0
-2067 -2575 0
-2068 -2576 0
-2065 -2777 0
-2066 -2778 0
-2067 -2779 0
-2068 -2780 0
-2065 -3413 0
-2066 -3414 0
-2067 -3415 0
-2068 -3416 0
-2069 -2433 0
-2070 -2434 0
-2071 -2435 0
-2072 -2436 0
-2069 -2473 0
-2070 -2474 0
-2071 -2475 0
-2072 -2476 0
-2069 -3413 0
-2070 -3414 0
-2071 -3415 0
-2072 -3416 0
-2073 -2077 0
-2074 -2078 0
-2075 -2079 0
-2076 -2080 0
-2073 -2125 0
-2074 -2126 0
-2075 -2127 0
-2076 -2128 0
-2073 -2129 0
-2074 -2130 0
-2075 -2131 0
-2076 -2132 0
-2073 -2225 0
-2074 -2226 0
-2075 -2227 0
-2076 -2228 0
-2073 -2581 0
-2074 -2582 0
-2075 -2583 0
-2076 -2584 0
-2073 -3101 0
-2074 -3102 0
-2075 -3103 0
-2076 -3104 0
-2073 -3313 0
-2074 -3314 0
-2075 -3315 0
-2076 -3316 0
-2073 -3417 0
-2074 -3418 0
-2075 -3419 0
-2076 -3420 0
-2077 -2133 0
-2078 -2134 0
-2079 -2135 0
-2080 -2136 0
-2077 -2861 0
-2078 -2862 0
-2079 -2863 0
-2080 -2864 0
-2077 -3017 0
-2078 -3018 0
-2079 -3019 0
-2080 -3020 0
-2077 -3105 0
-2078 -3106 0
-2079 -3107 0
-2080 -3108 0
-2077 -3421 0
-2078 -3422 0
-2079 -3423 0
-2080 -3424 0
-2081 -2085 0
-2082 -2086 0
-2083 -2087 0
-2084 -2088 0
-2081 -2089 0
-2082 -2090 0
-2083 -2091 0
-2084 -2092 0
-2081 -3105 0
-2082 -3106 0
-2083 -3107 0
-2084 -3108 0
-2081 -3425 0
-2082 -3426 0
-2083 -3427 0
-2084 -3428 0
-2081 -3585 0
-2082 -3586 0
-2083 -3587 0
-2084 -3588 0
-2085 -2097 0
-2086 -2098 0
-2087 -2099 0
-2088 -2100 0
-2085 -3425 0
-2086 -3426 0
-2087 -3427 0
-2088 -3428 0
-2085 -3589 0
-2086 -3590 0
-2087 -3591 0
-2088 -3592 0
-2089 -2093 0
-2090 -2094 0
-2091 -2095 0
-2092 -2096 0
-2089 -2097 0
-2090 -2098 0
-2091 -2099 0
-2092 -2100 0
-2089 -2125 0
-2090 -2126 0
-2091 -2127 0
-2092 -2128 0
-2089 -3433 0
-2090 -3434 0
-2091 -3435 0
-2092 -3436 0
-2089 -3593 0
-2090 -3594 0
-2091 -3595 0
-2092 -3596 0
-2093 -2101 0
-2094 -2102 0
-2095 -2103 0
-2096 -2104 0
-2093 -2129 0
-2094 -2130 0
-2095 -2131 0
-2096 -2132 0
-2093 -2133 0
-2094 -2134 0
-2095 -2135 0
-2096 -2136 0
-2093 -2245 0
-2094 -2246 0
-2095 -2247 0
-2096 -2248 0
-2093 -3117 0
-2094 -3118 0
-2095 -3119 0
-2096 -3120 0
-2093 -3429 0
-2094 -3430 0
-2095 -3431 0
-2096 -3432 0
-2093 -3437 0
-2094 -3438 0
-2095 -3439 0
-2096 -3440 0
-2097 -2101 0
-2098 -2102 0
-2099 -2103 0
-2100 -2104 0
-2097 -2493 0
-2098 -2494 0
-2099 -2495 0
-2100 -2496 0
-2097 -2869 0
-2098 -2870 0
-2099 -2871 0
-2100 -2872 0
-2097 -3433 0
-2098 -3434 0
-2099 -3435 0
-2100 -3436 0
-2097 -3597 0
-2098 -3598 0
-2099 -3599 0
-2100 -3600 0
-2101 -2253 0
-2102 -2254 0
-2103 -2255 0
-2104 -2256 0
-2101 -2497 0
-2102 -2498 0
-2103 -2499 0
-2104 -2500 0
-2101 -3437 0
-2102 -3438 0
-2103 -3439 0
-2104 -3440 0
-2105 -2109 0
-2106 -2110 0
-2107 -2111 0
-2108 -2112 0
-2105 -2129 0
-2106 -2130 0
-2107 -2131 0
-2108 -2132 0
-2105 -2257 0
-2106 -2258 0
-2107 -2259 0
-2108 -2260 0
-2105 -2649 0
-2106 -2650 0
-2107 -2651 0
-2108 -2652 0
-2105 -3125 0
-2106 -3126 0
-2107 -3127 0
-2108 -3128 0
-2109 -2113 0
-2110 -2114 0
-2111 -2115 0
-2112 -2116 0
-2109 -2141 0
-2110 -2142 0
-2111 -2143 0
-2112 -2144 0
-2109 -2305 0
-2110 -2306 0
-2111 -2307 0
-2112 -2308 0
-2109 -2657 0
-2110 -2658 0
-2111 -2659 0
-2112 -2660 0
-2113 -2153 0
-2114 -2154 0
-2115 -2155 0
-2116 -2156 0
-2113 -2445 0
-2114 -2446 0
-2115 -2447 0
-2116 -2448 0
-2113 -2513 0
-2114 -2514 0
-2115 -2515 0
-2116 -2516 0
-2113 -3041 0
-2114 -3042 0
-2115 -3043 0
-2116 -3044 0
-2113 -3133 0
-2114 -3134 0
-2115 -3135 0
-2116 -3136 0
-2117 -2121 0
-2118 -2122 0
-2119 -2123 0
-2120 -2124 0
-2117 -2129 0
-2118 -2130 0
-2119 -2131 0
-2120 -2132 0
-2117 -2273 0
-2118 -2274 0
-2119 -2275 0
-2120 -2276 0
-2117 -2585 0
-2118 -2586 0
-2119 -2587 0
-2120 -2588 0
-2117 -3441 0
-2118 -3442 0
-2119 -3443 0
-2120 -3444 0
-2121 -2133 0
-2122 -2134 0
-2123 -2135 0
-2124 -2136 0
-2121 -2589 0
-2122 -2590 0
-2123 -2591 0
-2124 -2592 0
-2121 -2665 0
-2122 -2666 0
-2123 -2667 0
-2124 -2668 0
-2121 -3445 0
-2122 -3446 0
-2123 -3447 0
-2124 -3448 0
-2125 -2129 0
-2126 -2130 0
-2127 -2131 0
-2128 -2132 0
-2125 -2289 0
-2126 -2290 0
-2127 -2291 0
-2128 -2292 0
-2125 -2625 0
-2126 -2626 0
-2127 -2627 0
-2128 -2628 0
-2125 -3009 0
-2126 -3010 0
-2127 -3011 0
-2128 -3012 0
-2125 -3449 0
-2126 -3450 0
-2127 -3451 0
-2128 -3452 0
-2129 -2133 0
-2130 -2134 0
-2131 -2135 0
-2132 -2136 0
-2129 -2137 0
-2130 -2138 0
-2131 -2139 0
-2132 -2140 0
-2129 -2141 0
-2130 -2142 0
-2131 -2143 0
-2132 -2144 0
-2129 -2297 0
-2130 -2298 0
-2131 -2299 0
-2132 -2300 0
-2129 -2597 0
-2130 -2598 0
-2131 -2599 0
-2132 -2600 0
-2129 -2629 0
-2130 -2630 0
-2131 -2631 0
-2132 -2632 0
-2129 -3141 0
-2130 -3142 0
-2131 -3143 0
-2132 -3144 0
-2129 -3441 0
-2130 -3442 0
-2131 -3443 0
-2132 -3444 0
-2129 -3453 0
-2130 -3454 0
-2131 -3455 0
-2132 -3456 0
-2133 -2301 0
-2134 -2302 0
-2135 -2303 0
-2136 -2304 0
-2133 -2669 0
-2134 -2670 0
-2135 -2671 0
-2136 -2672 0
-2133 -3145 0
-2134 -3146 0
-2135 -3147 0
-2136 -3148 0
-2133 -3445 0
-2134 -3446 0
-2135 -3447 0
-2136 -3448 0
-2133 -3457 0
-2134 -3458 0
-2135 -3459 0
-2136 -3460 0
-2137 -2309 0
-2138 -2310 0
-2139 -2311 0
-2140 -2312 0
-2137 -3149 0
-2138 -3150 0
-2139 -3151 0
-2140 -3152 0
-2141 -2313 0
-2142 -2314 0
-2143 -2315 0
-2144 -2316 0
-2141 -2601 0
-2142 -2602 0
-2143 -2603 0
-2144 -2604 0
-2141 -2825 0
-2142 -2826 0
-2143 -2827 0
-2144 -2828 0
-2141 -3153 0
-2142 -3154 0
-2143 -3155 0
-2144 -3156 0
-2145 -2149 0
-2146 -2150 0
-2147 -2151 0
-2148 -2152 0
-2145 -2153 0
-2146 -2154 0
-2147 -2155 0
-2148 -2156 0
-2145 -2609 0
-2146 -2610 0
-2147 -2611 0
-2148 -2612 0
-2145 -3169 0
-2146 -3170 0
-2147 -3171 0
-2148 -3172 0
-2145 -3397 0
-2146 -3398 0
-2147 -3399 0
-2148 -3400 0
-2145 -3605 0
-2146 -3606 0
-2147 -3607 0
-2148 -3608 0
-2149 -2157 0
-2150 -2158 0
-2151 -2159 0
-2152 -2160 0
-2149 -2541 0
-2150 -2542 0
-2151 -2543 0
-2152 -2544 0
-2149 -3405 0
-2150 -3406 0
-2151 -3407 0
-2152 -3408 0
-2153 -2157 0
-2154 -2158 0
-2155 -2159 0
-2156 -2160 0
-2153 -2545 0
-2154 -2546 0
-2155 -2547 0
-2156 -2548 0
-2153 -3185 0
-2154 -3186 0
-2155 -3187 0
-2156 -3188 0
-2153 -3333 0
-2154 -3334 0
-2155 -3335 0
-2156 -3336 0
-2153 -3397 0
-2154 -3398 0
-2155 -3399 0
-2156 -3400 0
-2157 -2549 0
-2158 -2550 0
-2159 -2551 0
-2160 -2552 0
-2157 -3045 0
-2158 -3046 0
-2159 -3047 0
-2160 -3048 0
-2157 -3341 0
-2158 -3342 0
-2159 -3343 0
-2160 -3344 0
-2157 -3405 0
-2158 -3406 0
-2159 -3407 0
-2160 -3408 0
-2161 -2553 0
-2162 -2554 0
-2163 -2555 0
-2164 -2556 0
-2161 -3341 0
-2162 -3342 0
-2163 -3343 0
-2164 -3344 0
-2161 -3409 0
-2162 -3410 0
-2163 -3411 0
-2164 -3412 0
-2161 -3413 0
-2162 -3414 0
-2163 -3415 0
-2164 -3416 0
-2165 -2169 0
-2166 -2170 0
-2167 -2171 0
-2168 -2172 0
-2165 -2173 0
-2166 -2174 0
-2167 -2175 0
-2168 -2176 0
-2165 -2181 0
-2166 -2182 0
-2167 -2183 0
-2168 -2184 0
-2165 -2277 0
-2166 -2278 0
-2167 -2279 0
-2168 -2280 0
-2165 -2297 0
-2166 -2298 0
-2167 -2299 0
-2168 -2300 0
-2165 -2673 0
-2166 -2674 0
-2167 -2675 0
-2168 -2676 0
-2165 -3353 0
-2166 -3354 0
-2167 -3355 0
-2168 -3356 0
-2165 -3613 0
-2166 -3614 0
-2167 -3615 0
-2168 -3616 0
-2169 -2177 0
-2170 -2178 0
-2171 -2179 0
-2172 -2180 0
-2169 -2297 0
-2170 -2298 0
-2171 -2299 0
-2172 -2300 0
-2169 -2313 0
-2170 -2314 0
-2171 -2315 0
-2172 -2316 0
-2169 -2557 0
-2170 -2558 0
-2171 -2559 0
-2172 -2560 0
-2169 -2877 0
-2170 -2878 0
-2171 -2879 0
-2172 -2880 0
-2169 -3069 0
-2170 -3070 0
-2171 -3071 0
-2172 -3072 0
-2169 -3361 0
-2170 -3362 0
-2171 -3363 0
-2172 -3364 0
-2169 -3461 0
-2170 -3462 0
-2171 -3463 0
-2172 -3464 0
-2173 -2177 0
-2174 -2178 0
-2175 -2179 0
-2176 -2180 0
-2173 -2317 0
-2174 -2318 0
-2175 -2319 0
-2176 -2320 0
-2173 -2333 0
-2174 -2334 0
-2175 -2335 0
-2176 -2336 0
-2173 -2493 0
-2174 -2494 0
-2175 -2495 0
-2176 -2496 0
-2173 -2933 0
-2174 -2934 0
-2175 -2935 0
-2176 -2936 0
-2173 -3617 0
-2174 -3618 0
-2175 -3619 0
-2176 -3620 0
-2177 -2333 0
-2178 -2334 0
-2179 -2335 0
-2180 -2336 0
-2177 -2349 0
-2178 -2350 0
-2179 -2351 0
-2180 -2352 0
-2177 -2885 0
-2178 -2886 0
-2179 -2887 0
-2180 -2888 0
-2177 -2937 0
-2178 -2938 0
-2179 -2939 0
-2180 -2940 0
-2177 -3073 0
-2178 -3074 0
-2179 -3075 0
-2180 -3076 0
-2177 -3461 0
-2178 -3462 0
-2179 -3463 0
-2180 -3464 0
-2181 -2373 0
-2182 -2374 0
-2183 -2375 0
-2184 -2376 0
-2181 -2685 0
-2182 -2686 0
-2183 -2687 0
-2184 -2688 0
-2181 -2969 0
-2182 -2970 0
-2183 -2971 0
-2184 -2972 0
-2185 -2189 0
-2186 -2190 0
-2187 -2191 0
-2188 -2192 0
-2185 -2893 0
-2186 -2894 0
-2187 -2895 0
-2188 -2896 0
-2185 -3509 0
-2186 -3510 0
-2187 -3511 0
-2188 -3512 0
-2185 -3537 0
-2186 -3538 0
-2187 -3539 0
-2188 -3540 0
-2189 -2689 0
-2190 -2690 0
-2191 -2691 0
-2192 -2692 0
-2189 -2897 0
-2190 -2898 0
-2191 -2899 0
-2192 -2900 0
-2189 -3057 0
-2190 -3058 0
-2191 -3059 0
-2192 -3060 0
-2189 -3537 0
-2190 -3538 0
-2191 -3539 0
-2192 -3540 0
-2189 -3561 0
-2190 -3562 0
-2191 -3563 0
-2192 -3564 0
-2193 -2201 0
-2194 -2202 0
-2195 -2203 0
-2196 -2204 0
-2193 -2221 0
-2194 -2222 0
-2195 -2223 0
-2196 -2224 0
-2193 -2989 0
-2194 -2990 0
-2195 -2991 0
-2196 -2992 0
-2193 -3465 0
-2194 -3466 0
-2195 -3467 0
-2196 -3468 0
-2193 -3469 0
-2194 -3470 0
-2195 -3471 0
-2196 -3472 0
-2197 -2201 0
-2198 -2202 0
-2199 -2203 0
-2200 -2204 0
-2197 -2589 0
-2198 -2590 0
-2199 -2591 0
-2200 -2592 0
-2197 -2721 0
-2198 -2722 0
-2199 -2723 0
-2200 -2724 0
-2197 -3473 0
-2198 -3474 0
-2199 -3475 0
-2200 -3476 0
-2201 -2729 0
-2202 -2730 0
-2203 -2731 0
-2204 -2732 0
-2201 -3473 0
-2202 -3474 0
-2203 -3475 0
-2204 -3476 0
-2201 -3481 0
-2202 -3482 0
-2203 -3483 0
-2204 -3484 0
-2205 -2209 0
-2206 -2210 0
-2207 -2211 0
-2208 -2212 0
-2205 -2213 0
-2206 -2214 0
-2207 -2215 0
-2208 -2216 0
-2205 -2285 0
-2206 -2286 0
-2207 -2287 0
-2208 -2288 0
-2205 -2297 0
-2206 -2298 0
-2207 -2299 0
-2208 -2300 0
-2205 -2605 0
-2206 -2606 0
-2207 -2607 0
-2208 -2608 0
-2205 -2889 0
-2206 -2890 0
-2207 -2891 0
-2208 -2892 0
-2205 -3485 0
-2206 -3486 0
-2207 -3487 0
-2208 -3488 0
-2209 -2217 0
-2210 -2218 0
-2211 -2219 0
-2212 -2220 0
-2209 -2297 0
-2210 -2298 0
-2211 -2299 0
-2212 -2300 0
-2209 -2309 0
-2210 -2310 0
-2211 -2311 0
-2212 -2312 0
-2209 -2609 0
-2210 -2610 0
-2211 -2611 0
-2212 -2612 0
-2209 -2761 0
-2210 -2762 0
-2211 -2763 0
-2212 -2764 0
-2209 -2893 0
-2210 -2894 0
-2211 -2895 0
-2212 -2896 0
-2209 -3489 0
-2210 -3490 0
-2211 -3491 0
-2212 -3492 0
-2213 -2217 0
-2214 -2218 0
-2215 -2219 0
-2216 -2220 0
-2213 -2321 0
-2214 -2322 0
-2215 -2323 0
-2216 -2324 0
-2213 -2333 0
-2214 -2334 0
-2215 -2335 0
-2216 -2336 0
-2213 -3089 0
-2214 -3090 0
-2215 -3091 0
-2216 -3092 0
-2213 -3373 0
-2214 -3374 0
-2215 -3375 0
-2216 -3376 0
-2213 -3485 0
-2214 -3486 0
-2215 -3487 0
-2216 -3488 0
-2217 -2333 0
-2218 -2334 0
-2219 -2335 0
-2220 -2336 0
-2217 -2345 0
-2218 -2346 0
-2219 -2347 0
-2220 -2348 0
-2217 -3077 0
-2218 -3078 0
-2219 -3079 0
-2220 -3080 0
-2217 -3489 0
-2218 -3490 0
-2219 -3491 0
-2220 -3492 0
-2221 -3001 0
-2222 -3002 0
-2223 -3003 0
-2224 -3004 0
-2221 -3621 0
-2222 -3622 0
-2223 -3623 0
-2224 -3624 0
-2225 -2229 0
-2226 -2230 0
-2227 -2231 0
-2228 -2232 0
-2225 -2233 0
-2226 -2234 0
-2227 -2235 0
-2228 -2236 0
-2225 -2289 0
-2226 -2290 0
-2227 -2291 0
-2228 -2292 0
-2225 -2297 0
-2226 -2298 0
-2227 -2299 0
-2228 -2300 0
-2225 -3101 0
-2226 -3102 0
-2227 -3103 0
-2228 -3104 0
-2225 -3385 0
-2226 -3386 0
-2227 -3387 0
-2228 -3388 0
-2225 -3493 0
-2226 -3494 0
-2227 -3495 0
-2228 -3496 0
-2229 -2237 0
-2230 -2238 0
-2231 -2239 0
-2232 -2240 0
-2229 -2297 0
-2230 -2298 0
-2231 -2299 0
-2232 -2300 0
-2229 -2305 0
-2230 -2306 0
-2231 -2307 0
-2232 -2308 0
-2229 -2577 0
-2230 -2578 0
-2231 -2579 0
-2232 -2580 0
-2229 -2781 0
-2230 -2782 0
-2231 -2783 0
-2232 -2784 0
-2229 -3109 0
-2230 -3110 0
-2231 -3111 0
-2232 -3112 0
-2229 -3205 0
-2230 -3206 0
-2231 -3207 0
-2232 -3208 0
-2229 -3497 0
-2230 -3498 0
-2231 -3499 0
-2232 -3500 0
-2233 -2237 0
-2234 -2238 0
-2235 -2239 0
-2236 -2240 0
-2233 -2325 0
-2234 -2326 0
-2235 -2327 0
-2236 -2328 0
-2233 -2333 0
-2234 -2334 0
-2235 -2335 0
-2236 -2336 0
-2233 -2905 0
-2234 -2906 0
-2235 -2907 0
-2236 -2908 0
-2233 -3493 0
-2234 -3494 0
-2235 -3495 0
-2236 -3496 0
-2237 -2333 0
-2238 -2334 0
-2239 -2335 0
-2240 -2336 0
-2237 -2341 0
-2238 -2342 0
-2239 -2343 0
-2240 -2344 0
-2237 -2581 0
-2238 -2582 0
-2239 -2583 0
-2240 -2584 0
-2237 -3129 0
-2238 -3130 0
-2239 -3131 0
-2240 -3132 0
-2237 -3209 0
-2238 -3210 0
-2239 -3211 0
-2240 -3212 0
-2237 -3497 0
-2238 -3498 0
-2239 -3499 0
-2240 -3500 0
-2241 -2245 0
-2242 -2246 0
-2243 -2247 0
-2244 -2248 0
-2241 -2249 0
-2242 -2250 0
-2243 -2251 0
-2244 -2252 0
-2241 -2293 0
-2242 -2294 0
-2243 -2295 0
-2244 -2296 0
-2241 -2297 0
-2242 -2298 0
-2243 -2299 0
-2244 -2300 0
-2241 -2645 0
-2242 -2646 0
-2243 -2647 0
-2244 -2648 0
-2241 -2909 0
-2242 -2910 0
-2243 -2911 0
-2244 -2912 0
-2241 -3213 0
-2242 -3214 0
-2243 -3215 0
-2244 -3216 0
-2241 -3501 0
-2242 -3502 0
-2243 -3503 0
-2244 -3504 0
-2245 -2253 0
-2246 -2254 0
-2247 -2255 0
-2248 -2256 0
-2245 -2297 0
-2246 -2298 0
-2247 -2299 0
-2248 -2300 0
-2245 -2301 0
-2246 -2302 0
-2247 -2303 0
-2248 -2304 0
-2245 -2913 0
-2246 -2914 0
-2247 -2915 0
-2248 -2916 0
-2245 -3505 0
-2246 -3506 0
-2247 -3507 0
-2248 -3508 0
-2245 -3625 0
-2246 -3626 0
-2247 -3627 0
-2248 -3628 0
-2249 -2253 0
-2250 -2254 0
-2251 -2255 0
-2252 -2256 0
-2249 -2329 0
-2250 -2330 0
-2251 -2331 0
-2252 -2332 0
-2249 -2333 0
-2250 -2334 0
-2251 -2335 0
-2252 -2336 0
-2249 -2437 0
-2250 -2438 0
-2251 -2439 0
-2252 -2440 0
-2249 -2921 0
-2250 -2922 0
-2251 -2923 0
-2252 -2924 0
-2249 -3149 0
-2250 -3150 0
-2251 -3151 0
-2252 -3152 0
-2249 -3501 0
-2250 -3502 0
-2251 -3503 0
-2252 -3504 0
-2253 -2333 0
-2254 -2334 0
-2255 -2335 0
-2256 -2336 0
-2253 -2337 0
-2254 -2338 0
-2255 -2339 0
-2256 -2340 0
-2253 -2673 0
-2254 -2674 0
-2255 -2675 0
-2256 -2676 0
-2253 -3505 0
-2254 -3506 0
-2255 -3507 0
-2256 -3508 0
-2257 -2261 0
-2258 -2262 0
-2259 -2263 0
-2260 -2264 0
-2257 -2297 0
-2258 -2298 0
-2259 -2299 0
-2260 -2300 0
-2257 -2785 0
-2258 -2786 0
-2259 -2787 0
-2260 -2788 0
-2257 -3217 0
-2258 -3218 0
-2259 -3219 0
-2260 -3220 0
-2257 -3509 0
-2258 -3510 0
-2259 -3511 0
-2260 -3512 0
-2257 -3585 0
-2258 -3586 0
-2259 -3587 0
-2260 -3588 0
-2261 -2333 0
-2262 -2334 0
-2263 -2335 0
-2264 -2336 0
-2261 -2605 0
-2262 -2606 0
-2263 -2607 0
-2264 -2608 0
-2261 -2789 0
-2262 -2790 0
-2263 -2791 0
-2264 -2792 0
-2261 -3509 0
-2262 -3510 0
-2263 -3511 0
-2264 -3512 0
-2261 -3589 0
-2262 -3590 0
-2263 -3591 0
-2264 -3592 0
-2265 -2269 0
-2266 -2270 0
-2267 -2271 0
-2268 -2272 0
-2265 -2297 0
-2266 -2298 0
-2267 -2299 0
-2268 -2300 0
-2265 -2701 0
-2266 -2702 0
-2267 -2703 0
-2268 -2704 0
-2265 -3029 0
-2266 -3030 0
-2267 -3031 0
-2268 -3032 0
-2265 -3465 0
-2266 -3466 0
-2267 -3467 0
-2268 -3468 0
-2265 -3513 0
-2266 -3514 0
-2267 -3515 0
-2268 -3516 0
-2265 -3629 0
-2266 -3630 0
-2267 -3631 0
-2268 -3632 0
-2269 -2333 0
-2270 -2334 0
-2271 -2335 0
-2272 -2336 0
-2269 -3033 0
-2270 -3034 0
-2271 -3035 0
-2272 -3036 0
-2269 -3161 0
-2270 -3162 0
-2271 -3163 0
-2272 -3164 0
-2269 -3469 0
-2270 -3470 0
-2271 -3471 0
-2272 -3472 0
-2269 -3513 0
-2270 -3514 0
-2271 -3515 0
-2272 -3516 0
-2269 -3633 0
-2270 -3634 0
-2271 -3635 0
-2272 -3636 0
-2273 -2297 0
-2274 -2298 0
-2275 -2299 0
-2276 -2300 0
-2273 -2705 0
-2274 -2706 0
-2275 -2707 0
-2276 -2708 0
-2273 -3517 0
-2274 -3518 0
-2275 -3519 0
-2276 -3520 0
-2277 -2281 0
-2278 -2282 0
-2279 -2283 0
-2280 -2284 0
-2277 -2297 0
-2278 -2298 0
-2279 -2299 0
-2280 -2300 0
-2277 -2317 0
-2278 -2318 0
-2279 -2319 0
-2280 -2320 0
-2277 -2441 0
-2278 -2442 0
-2279 -2443 0
-2280 -2444 0
-2277 -2733 0
-2278 -2734 0
-2279 -2735 0
-2280 -2736 0
-2277 -3225 0
-2278 -3226 0
-2279 -3227 0
-2280 -3228 0
-2277 -3521 0
-2278 -3522 0
-2279 -3523 0
-2280 -3524 0
-2277 -3637 0
-2278 -3638 0
-2279 -3639 0
-2280 -3640 0
-2281 -2301 0
-2282 -2302 0
-2283 -2303 0
-2284 -2304 0
-2281 -3641 0
-2282 -3642 0
-2283 -3643 0
-2284 -3644 0
-2285 -2297 0
-2286 -2298 0
-2287 -2299 0
-2288 -2300 0
-2285 -2321 0
-2286 -2322 0
-2287 -2323 0
-2288 -2324 0
-2285 -2401 0
-2286 -2402 0
-2287 -2403 0
-2288 -2404 0
-2285 -2709 0
-2286 -2710 0
-2287 -2711 0
-2288 -2712 0
-2285 -3389 0
-2286 -3390 0
-2287 -3391 0
-2288 -3392 0
-2285 -3525 0
-2286 -3526 0
-2287 -3527 0
-2288 -3528 0
-2289 -2297 0
-2290 -2298 0
-2291 -2299 0
-2292 -2300 0
-2289 -2325 0
-2290 -2326 0
-2291 -2327 0
-2292 -2328 0
-2289 -2385 0
-2290 -2386 0
-2291 -2387 0
-2292 -2388 0
-2289 -2737 0
-2290 -2738 0
-2291 -2739 0
-2292 -2740 0
-2289 -3529 0
-2290 -3530 0
-2291 -3531 0
-2292 -3532 0
-2293 -2297 0
-2294 -2298 0
-2295 -2299 0
-2296 -2300 0
-2293 -2329 0
-2294 -2330 0
-2295 -2331 0
-2296 -2332 0
-2293 -2369 0
-2294 -2370 0
-2295 -2371 0
-2296 -2372 0
-2293 -2649 0
-2294 -2650 0
-2295 -2651 0
-2296 -2652 0
-2293 -2741 0
-2294 -2742 0
-2295 -2743 0
-2296 -2744 0
-2293 -3093 0
-2294 -3094 0
-2295 -3095 0
-2296 -3096 0
-2293 -3393 0
-2294 -3394 0
-2295 -3395 0
-2296 -3396 0
-2293 -3533 0
-2294 -3534 0
-2295 -3535 0
-2296 -3536 0
-2297 -2301 0
-2298 -2302 0
-2299 -2303 0
-2300 -2304 0
-2297 -2305 0
-2298 -2306 0
-2299 -2307 0
-2300 -2308 0
-2297 -2309 0
-2298 -2310 0
-2299 -2311 0
-2300 -2312 0
-2297 -2313 0
-2298 -2314 0
-2299 -2315 0
-2300 -2316 0
-2297 -2333 0
-2298 -2334 0
-2299 -2335 0
-2300 -2336 0
-2297 -2353 0
-2298 -2354 0
-2299 -2355 0
-2300 -2356 0
-2297 -2361 0
-2298 -2362 0
-2299 -2363 0
-2300 -2364 0
-2297 -2369 0
-2298 -2370 0
-2299 -2371 0
-2300 -2372 0
-2297 -2373 0
-2298 -2374 0
-2299 -2375 0
-2300 -2376 0
-2297 -2385 0
-2298 -2386 0
-2299 -2387 0
-2300 -2388 0
-2297 -2389 0
-2298 -2390 0
-2299 -2391 0
-2300 -2392 0
-2297 -2401 0
-2298 -2402 0
-2299 -2403 0
-2300 -2404 0
-2297 -2405 0
-2298 -2406 0
-2299 -2407 0
-2300 -2408 0
-2297 -2441 0
-2298 -2442 0
-2299 -2443 0
-2300 -2444 0
-2297 -2445 0
-2298 -2446 0
-2299 -2447 0
-2300 -2448 0
-2297 -2617 0
-2298 -2618 0
-2299 -2619 0
-2300 -2620 0
-2297 -2653 0
-2298 -2654 0
-2299 -2655 0
-2300 -2656 0
-2297 -2713 0
-2298 -2714 0
-2299 -2715 0
-2300 -2716 0
-2297 -2745 0
-2298 -2746 0
-2299 -2747 0
-2300 -2748 0
-2297 -2797 0
-2298 -2798 0
-2299 -2799 0
-2300 -2800 0
-2297 -2941 0
-2298 -2942 0
-2299 -2943 0
-2300 -2944 0
-2297 -2985 0
-2298 -2986 0
-2299 -2987 0
-2300 -2988 0
-2297 -3097 0
-2298 -3098 0
-2299 -3099 0
-2300 -3100 0
-2297 -3141 0
-2298 -3142 0
-2299 -3143 0
-2300 -3144 0
-2297 -3229 0
-2298 -3230 0
-2299 -3231 0
-2300 -3232 0
-2297 -3233 0
-2298 -3234 0
-2299 -3235 0
-2300 -3236 0
-2297 -3397 0
-2298 -3398 0
-2299 -3399 0
-2300 -3400 0
-2297 -3465 0
-2298 -3466 0
-2299 -3467 0
-2300 -3468 0
-2297 -3473 0
-2298 -3474 0
-2299 -3475 0
-2300 -3476 0
-2297 -3517 0
-2298 -3518 0
-2299 -3519 0
-2300 -3520 0
-2297 -3537 0
-2298 -3538 0
-2299 -3539 0
-2300 -3540 0
-2297 -3585 0
-2298 -3586 0
-2299 -3587 0
-2300 -3588 0
-2297 -3593 0
-2298 -3594 0
-2299 -3595 0
-2300 -3596 0
-2297 -3645 0
-2298 -3646 0
-2299 -3647 0
-2300 -3648 0
-2301 -2337 0
-2302 -2338 0
-2303 -2339 0
-2304 -2340 0
-2301 -2373 0
-2302 -2374 0
-2303 -2375 0
-2304 -2376 0
-2301 -2801 0
-2302 -2802 0
-2303 -2803 0
-2304 -2804 0
-2301 -3145 0
-2302 -3146 0
-2303 -3147 0
-2304 -3148 0
-2301 -3541 0
-2302 -3542 0
-2303 -3543 0
-2304 -3544 0
-2305 -2341 0
-2306 -2342 0
-2307 -2343 0
-2308 -2344 0
-2305 -2389 0
-2306 -2390 0
-2307 -2391 0
-2308 -2392 0
-2305 -2805 0
-2306 -2806 0
-2307 -2807 0
-2308 -2808 0
-2305 -2989 0
-2306 -2990 0
-2307 -2991 0
-2308 -2992 0
-2305 -3237 0
-2306 -3238 0
-2307 -3239 0
-2308 -3240 0
-2309 -2345 0
-2310 -2346 0
-2311 -2347 0
-2312 -2348 0
-2309 -2405 0
-2310 -2406 0
-2311 -2407 0
-2312 -2408 0
-2309 -2621 0
-2310 -2622 0
-2311 -2623 0
-2312 -2624 0
-2309 -2677 0
-2310 -2678 0
-2311 -2679 0
-2312 -2680 0
-2309 -2945 0
-2310 -2946 0
-2311 -2947 0
-2312 -2948 0
-2309 -3149 0
-2310 -3150 0
-2311 -3151 0
-2312 -3152 0
-2309 -3545 0
-2310 -3546 0
-2311 -3547 0
-2312 -3548 0
-2313 -2349 0
-2314 -2350 0
-2315 -2351 0
-2316 -2352 0
-2313 -2445 0
-2314 -2446 0
-2315 -2447 0
-2316 -2448 0
-2313 -2661 0
-2314 -2662 0
-2315 -2663 0
-2316 -2664 0
-2313 -2717 0
-2314 -2718 0
-2315 -2719 0
-2316 -2720 0
-2313 -2949 0
-2314 -2950 0
-2315 -2951 0
-2316 -2952 0
-2313 -3153 0
-2314 -3154 0
-2315 -3155 0
-2316 -3156 0
-2313 -3549 0
-2314 -3550 0
-2315 -3551 0
-2316 -3552 0
-2317 -2333 0
-2318 -2334 0
-2319 -2335 0
-2320 -2336 0
-2317 -2449 0
-2318 -2450 0
-2319 -2451 0
-2320 -2452 0
-2317 -2477 0
-2318 -2478 0
-2319 -2479 0
-2320 -2480 0
-2317 -3521 0
-2318 -3522 0
-2319 -3523 0
-2320 -3524 0
-2317 -3649 0
-2318 -3650 0
-2319 -3651 0
-2320 -3652 0
-2321 -2333 0
-2322 -2334 0
-2323 -2335 0
-2324 -2336 0
-2321 -2409 0
-2322 -2410 0
-2323 -2411 0
-2324 -2412 0
-2321 -2497 0
-2322 -2498 0
-2323 -2499 0
-2324 -2500 0
-2321 -3173 0
-2322 -3174 0
-2323 -3175 0
-2324 -3176 0
-2321 -3525 0
-2322 -3526 0
-2323 -3527 0
-2324 -3528 0
-2325 -2333 0
-2326 -2334 0
-2327 -2335 0
-2328 -2336 0
-2325 -2393 0
-2326 -2394 0
-2327 -2395 0
-2328 -2396 0
-2325 -2501 0
-2326 -2502 0
-2327 -2503 0
-2328 -2504 0
-2325 -3037 0
-2326 -3038 0
-2327 -3039 0
-2328 -3040 0
-2325 -3105 0
-2326 -3106 0
-2327 -3107 0
-2328 -3108 0
-2325 -3477 0
-2326 -3478 0
-2327 -3479 0
-2328 -3480 0
-2325 -3529 0
-2326 -3530 0
-2327 -3531 0
-2328 -3532 0
-2329 -2333 0
-2330 -2334 0
-2331 -2335 0
-2332 -2336 0
-2329 -2377 0
-2330 -2378 0
-2331 -2379 0
-2332 -2380 0
-2329 -2481 0
-2330 -2482 0
-2331 -2483 0
-2332 -2484 0
-2329 -3109 0
-2330 -3110 0
-2331 -3111 0
-2332 -3112 0
-2329 -3401 0
-2330 -3402 0
-2331 -3403 0
-2332 -3404 0
-2329 -3533 0
-2330 -3534 0
-2331 -3535 0
-2332 -3536 0
-2333 -2337 0
-2334 -2338 0
-2335 -2339 0
-2336 -2340 0
-2333 -2341 0
-2334 -2342 0
-2335 -2343 0
-2336 -2344 0
-2333 -2345 0
-2334 -2346 0
-2335 -2347 0
-2336 -2348 0
-2333 -2349 0
-2334 -2350 0
-2335 -2351 0
-2336 -2352 0
-2333 -2357 0
-2334 -2358 0
-2335 -2359 0
-2336 -2360 0
-2333 -2365 0
-2334 -2366 0
-2335 -2367 0
-2336 -2368 0
-2333 -2377 0
-2334 -2378 0
-2335 -2379 0
-2336 -2380 0
-2333 -2381 0
-2334 -2382 0
-2335 -2383 0
-2336 -2384 0
-2333 -2393 0
-2334 -2394 0
-2335 -2395 0
-2336 -2396 0
-2333 -2397 0
-2334 -2398 0
-2335 -2399 0
-2336 -2400 0
-2333 -2409 0
-2334 -2410 0
-2335 -2411 0
-2336 -2412 0
-2333 -2413 0
-2334 -2414 0
-2335 -2415 0
-2336 -2416 0
-2333 -2449 0
-2334 -2450 0
-2335 -2451 0
-2336 -2452 0
-2333 -2453 0
-2334 -2454 0
-2335 -2455 0
-2336 -2456 0
-2333 -2485 0
-2334 -2486 0
-2335 -2487 0
-2336 -2488 0
-2333 -2625 0
-2334 -2626 0
-2335 -2627 0
-2336 -2628 0
-2333 -2681 0
-2334 -2682 0
-2335 -2683 0
-2336 -2684 0
-2333 -2813 0
-2334 -2814 0
-2335 -2815 0
-2336 -2816 0
-2333 -2957 0
-2334 -2958 0
-2335 -2959 0
-2336 -2960 0
-2333 -2993 0
-2334 -2994 0
-2335 -2995 0
-2336 -2996 0
-2333 -3041 0
-2334 -3042 0
-2335 -3043 0
-2336 -3044 0
-2333 -3113 0
-2334 -3114 0
-2335 -3115 0
-2336 -3116 0
-2333 -3177 0
-2334 -3178 0
-2335 -3179 0
-2336 -3180 0
-2333 -3241 0
-2334 -3242 0
-2335 -3243 0
-2336 -3244 0
-2333 -3405 0
-2334 -3406 0
-2335 -3407 0
-2336 -3408 0
-2333 -3409 0
-2334 -3410 0
-2335 -3411 0
-2336 -3412 0
-2333 -3469 0
-2334 -3470 0
-2335 -3471 0
-2336 -3472 0
-2333 -3481 0
-2334 -3482 0
-2335 -3483 0
-2336 -3484 0
-2333 -3537 0
-2334 -3538 0
-2335 -3539 0
-2336 -3540 0
-2333 -3553 0
-2334 -3554 0
-2335 -3555 0
-2336 -3556 0
-2333 -3589 0
-2334 -3590 0
-2335 -3591 0
-2336 -3592 0
-2333 -3597 0
-2334 -3598 0
-2335 -3599 0
-2336 -3600 0
-2333 -3653 0
-2334 -3654 0
-2335 -3655 0
-2336 -3656 0
-2337 -2381 0
-2338 -2382 0
-2339 -2383 0
-2340 -2384 0
-2337 -2685 0
-2338 -2686 0
-2339 -2687 0
-2340 -2688 0
-2337 -2817 0
-2338 -2818 0
-2339 -2819 0
-2340 -2820 0
-2337 -3045 0
-2338 -3046 0
-2339 -3047 0
-2340 -3048 0
-2337 -3541 0
-2338 -3542 0
-2339 -3543 0
-2340 -3544 0
-2341 -2397 0
-2342 -2398 0
-2343 -2399 0
-2344 -2400 0
-2341 -2489 0
-2342 -2490 0
-2343 -2491 0
-2344 -2492 0
-2341 -2629 0
-2342 -2630 0
-2343 -2631 0
-2344 -2632 0
-2341 -2997 0
-2342 -2998 0
-2343 -2999 0
-2344 -3000 0
-2341 -3245 0
-2342 -3246 0
-2343 -3247 0
-2344 -3248 0
-2345 -2413 0
-2346 -2414 0
-2347 -2415 0
-2348 -2416 0
-2345 -2633 0
-2346 -2634 0
-2347 -2635 0
-2348 -2636 0
-2345 -2689 0
-2346 -2690 0
-2347 -2691 0
-2348 -2692 0
-2345 -3545 0
-2346 -3546 0
-2347 -3547 0
-2348 -3548 0
-2349 -2453 0
-2350 -2454 0
-2351 -2455 0
-2352 -2456 0
-2349 -2961 0
-2350 -2962 0
-2351 -2963 0
-2352 -2964 0
-2349 -3185 0
-2350 -3186 0
-2351 -3187 0
-2352 -3188 0
-2349 -3549 0
-2350 -3550 0
-2351 -3551 0
-2352 -3552 0
-2353 -2357 0
-2354 -2358 0
-2355 -2359 0
-2356 -2360 0
-2353 -2637 0
-2354 -2638 0
-2355 -2639 0
-2356 -2640 0
-2353 -2765 0
-2354 -2766 0
-2355 -2767 0
-2356 -2768 0
-2353 -2821 0
-2354 -2822 0
-2355 -2823 0
-2356 -2824 0
-2353 -2969 0
-2354 -2970 0
-2355 -2971 0
-2356 -2972 0
-2353 -3473 0
-2354 -3474 0
-2355 -3475 0
-2356 -3476 0
-2353 -3557 0
-2354 -3558 0
-2355 -3559 0
-2356 -3560 0
-2357 -2641 0
-2358 -2642 0
-2359 -2643 0
-2360 -2644 0
-2357 -3413 0
-2358 -3414 0
-2359 -3415 0
-2360 -3416 0
-2357 -3481 0
-2358 -3482 0
-2359 -3483 0
-2360 -3484 0
-2357 -3557 0
-2358 -3558 0
-2359 -3559 0
-2360 -3560 0
-2361 -2365 0
-2362 -2366 0
-2363 -2367 0
-2364 -2368 0
-2361 -2669 0
-2362 -2670 0
-2363 -2671 0
-2364 -2672 0
-2361 -2729 0
-2362 -2730 0
-2363 -2731 0
-2364 -2732 0
-2361 -2973 0
-2362 -2974 0
-2363 -2975 0
-2364 -2976 0
-2361 -3561 0
-2362 -3562 0
-2363 -3563 0
-2364 -3564 0
-2361 -3593 0
-2362 -3594 0
-2363 -3595 0
-2364 -3596 0
-2365 -2505 0
-2366 -2506 0
-2367 -2507 0
-2368 -2508 0
-2365 -2977 0
-2366 -2978 0
-2367 -2979 0
-2368 -2980 0
-2365 -3049 0
-2366 -3050 0
-2367 -3051 0
-2368 -3052 0
-2365 -3117 0
-2366 -3118 0
-2367 -3119 0
-2368 -3120 0
-2365 -3561 0
-2366 -3562 0
-2367 -3563 0
-2368 -3564 0
-2365 -3597 0
-2366 -3598 0
-2367 -3599 0
-2368 -3600 0
-2369 -2373 0
-2370 -2374 0
-2371 -2375 0
-2372 -2376 0
-2369 -2377 0
-2370 -2378 0
-2371 -2379 0
-2372 -2380 0
-2369 -2509 0
-2370 -2510 0
-2371 -2511 0
-2372 -2512 0
-2369 -2773 0
-2370 -2774 0
-2371 -2775 0
-2372 -2776 0
-2369 -3121 0
-2370 -3122 0
-2371 -3123 0
-2372 -3124 0
-2369 -3257 0
-2370 -3258 0
-2371 -3259 0
-2372 -3260 0
-2369 -3565 0
-2370 -3566 0
-2371 -3567 0
-2372 -3568 0
-2373 -2381 0
-2374 -2382 0
-2375 -2383 0
-2376 -2384 0
-2373 -2525 0
-2374 -2526 0
-2375 -2527 0
-2376 -2528 0
-2373 -2829 0
-2374 -2830 0
-2375 -2831 0
-2376 -2832 0
-2373 -3173 0
-2374 -3174 0
-2375 -3175 0
-2376 -3176 0
-2373 -3261 0
-2374 -3262 0
-2375 -3263 0
-2376 -3264 0
-2377 -2381 0
-2378 -2382 0
-2379 -2383 0
-2380 -2384 0
-2377 -2517 0
-2378 -2518 0
-2379 -2519 0
-2380 -2520 0
-2377 -3125 0
-2378 -3126 0
-2379 -3127 0
-2380 -3128 0
-2377 -3277 0
-2378 -3278 0
-2379 -3279 0
-2380 -3280 0
-2377 -3417 0
-2378 -3418 0
-2379 -3419 0
-2380 -3420 0
-2377 -3565 0
-2378 -3566 0
-2379 -3567 0
-2380 -3568 0
-2381 -2837 0
-2382 -2838 0
-2383 -2839 0
-2384 -2840 0
-2381 -3421 0
-2382 -3422 0
-2383 -3423 0
-2384 -3424 0
-2385 -2389 0
-2386 -2390 0
-2387 -2391 0
-2388 -2392 0
-2385 -2393 0
-2386 -2394 0
-2387 -2395 0
-2388 -2396 0
-2385 -2753 0
-2386 -2754 0
-2387 -2755 0
-2388 -2756 0
-2385 -3281 0
-2386 -3282 0
-2387 -3283 0
-2388 -3284 0
-2385 -3569 0
-2386 -3570 0
-2387 -3571 0
-2388 -3572 0
-2385 -3669 0
-2386 -3670 0
-2387 -3671 0
-2388 -3672 0
-2389 -2397 0
-2390 -2398 0
-2391 -2399 0
-2392 -2400 0
-2389 -2757 0
-2390 -2758 0
-2391 -2759 0
-2392 -2760 0
-2389 -2853 0
-2390 -2854 0
-2391 -2855 0
-2392 -2856 0
-2389 -3001 0
-2390 -3002 0
-2391 -3003 0
-2392 -3004 0
-2389 -3285 0
-2390 -3286 0
-2391 -3287 0
-2392 -3288 0
-2389 -3429 0
-2390 -3430 0
-2391 -3431 0
-2392 -3432 0
-2389 -3573 0
-2390 -3574 0
-2391 -3575 0
-2392 -3576 0
-2393 -2397 0
-2394 -2398 0
-2395 -2399 0
-2396 -2400 0
-2393 -3145 0
-2394 -3146 0
-2395 -3147 0
-2396 -3148 0
-2393 -3433 0
-2394 -3434 0
-2395 -3435 0
-2396 -3436 0
-2393 -3569 0
-2394 -3570 0
-2395 -3571 0
-2396 -3572 0
-2393 -3673 0
-2394 -3674 0
-2395 -3675 0
-2396 -3676 0
-2397 -2537 0
-2398 -2538 0
-2399 -2539 0
-2400 -2540 0
-2397 -3005 0
-2398 -3006 0
-2399 -3007 0
-2400 -3008 0
-2397 -3437 0
-2398 -3438 0
-2399 -3439 0
-2400 -3440 0
-2397 -3573 0
-2398 -3574 0
-2399 -3575 0
-2400 -3576 0
-2401 -2405 0
-2402 -2406 0
-2403 -2407 0
-2404 -2408 0
-2401 -2409 0
-2402 -2410 0
-2403 -2411 0
-2404 -2412 0
-2401 -2777 0
-2402 -2778 0
-2403 -2779 0
-2404 -2780 0
-2401 -2793 0
-2402 -2794 0
-2403 -2795 0
-2404 -2796 0
-2401 -3009 0
-2402 -3010 0
-2403 -3011 0
-2404 -3012 0
-2401 -3445 0
-2402 -3446 0
-2403 -3447 0
-2404 -3448 0
-2401 -3577 0
-2402 -3578 0
-2403 -3579 0
-2404 -3580 0
-2405 -2413 0
-2406 -2414 0
-2407 -2415 0
-2408 -2416 0
-2405 -2665 0
-2406 -2666 0
-2407 -2667 0
-2408 -2668 0
-2405 -2809 0
-2406 -2810 0
-2407 -2811 0
-2408 -2812 0
-2405 -3013 0
-2406 -3014 0
-2407 -3015 0
-2408 -3016 0
-2405 -3193 0
-2406 -3194 0
-2407 -3195 0
-2408 -3196 0
-2405 -3289 0
-2406 -3290 0
-2407 -3291 0
-2408 -3292 0
-2405 -3581 0
-2406 -3582 0
-2407 -3583 0
-2408 -3584 0
-2409 -2413 0
-2410 -2414 0
-2411 -2415 0
-2412 -2416 0
-2409 -2557 0
-2410 -2558 0
-2411 -2559 0
-2412 -2560 0
-2409 -3017 0
-2410 -3018 0
-2411 -3019 0
-2412 -3020 0
-2409 -3457 0
-2410 -3458 0
-2411 -3459 0
-2412 -3460 0
-2409 -3577 0
-2410 -3578 0
-2411 -3579 0
-2412 -3580 0
-2413 -2669 0
-2414 -2670 0
-2415 -2671 0
-2416 -2672 0
-2413 -2693 0
-2414 -2694 0
-2415 -2695 0
-2416 -2696 0
-2413 -3021 0
-2414 -3022 0
-2415 -3023 0
-2416 -3024 0
-2413 -3293 0
-2414 -3294 0
-2415 -3295 0
-2416 -3296 0
-2413 -3581 0
-2414 -3582 0
-2415 -3583 0
-2416 -3584 0
-2417 -3037 0
-2418 -3038 0
-2419 -3039 0
-2420 -3040 0
-2417 -3189 0
-2418 -3190 0
-2419 -3191 0
-2420 -3192 0
-2417 -3537 0
-2418 -3538 0
-2419 -3539 0
-2420 -3540 0
-2417 -3557 0
-2418 -3558 0
-2419 -3559 0
-2420 -3560 0
-2421 -2425 0
-2422 -2426 0
-2423 -2427 0
-2424 -2428 0
-2421 -2429 0
-2422 -2430 0
-2423 -2431 0
-2424 -2432 0
-2421 -2569 0
-2422 -2570 0
-2423 -2571 0
-2424 -2572 0
-2421 -3585 0
-2422 -3586 0
-2423 -3587 0
-2424 -3588 0
-2425 -2433 0
-2426 -2434 0
-2427 -2435 0
-2428 -2436 0
-2425 -2709 0
-2426 -2710 0
-2427 -2711 0
-2428 -2712 0
-2425 -3585 0
-2426 -3586 0
-2427 -3587 0
-2428 -3588 0
-2425 -3589 0
-2426 -3590 0
-2427 -3591 0
-2428 -3592 0
-2429 -2433 0
-2430 -2434 0
-2431 -2435 0
-2432 -2436 0
-2429 -3009 0
-2430 -3010 0
-2431 -3011 0
-2432 -3012 0
-2429 -3593 0
-2430 -3594 0
-2431 -3595 0
-2432 -3596 0
-2433 -2725 0
-2434 -2726 0
-2435 -2727 0
-2436 -2728 0
-2433 -3017 0
-2434 -3018 0
-2435 -3019 0
-2436 -3020 0
-2433 -3593 0
-2434 -3594 0
-2435 -3595 0
-2436 -3596 0
-2433 -3597 0
-2434 -3598 0
-2435 -3599 0
-2436 -3600 0
-2437 -2453 0
-2438 -2454 0
-2439 -2455 0
-2440 -2456 0
-2437 -2741 0
-2438 -2742 0
-2439 -2743 0
-2440 -2744 0
-2437 -3033 0
-2438 -3034 0
-2439 -3035 0
-2440 -3036 0
-2441 -2445 0
-2442 -2446 0
-2443 -2447 0
-2444 -2448 0
-2441 -2449 0
-2442 -2450 0
-2443 -2451 0
-2444 -2452 0
-2441 -3313 0
-2442 -3314 0
-2443 -3315 0
-2444 -3316 0
-2441 -3317 0
-2442 -3318 0
-2443 -3319 0
-2444 -3320 0
-2441 -3601 0
-2442 -3602 0
-2443 -3603 0
-2444 -3604 0
-2445 -2453 0
-2446 -2454 0
-2447 -2455 0
-2448 -2456 0
-2445 -3201 0
-2446 -3202 0
-2447 -3203 0
-2448 -3204 0
-2445 -3321 0
-2446 -3322 0
-2447 -3323 0
-2448 -3324 0
-2445 -3605 0
-2446 -3606 0
-2447 -3607 0
-2448 -3608 0
-2449 -2453 0
-2450 -2454 0
-2451 -2455 0
-2452 -2456 0
-2449 -2609 0
-2450 -2610 0
-2451 -2611 0
-2452 -2612 0
-2449 -2873 0
-2450 -2874 0
-2451 -2875 0
-2452 -2876 0
-2449 -3601 0
-2450 -3602 0
-2451 -3603 0
-2452 -3604 0
-2453 -2773 0
-2454 -2774 0
-2455 -2775 0
-2456 -2776 0
-2453 -3325 0
-2454 -3326 0
-2455 -3327 0
-2456 -3328 0
-2453 -3605 0
-2454 -3606 0
-2455 -3607 0
-2456 -3608 0
-2457 -2525 0
-2458 -2526 0
-2459 -2527 0
-2460 -2528 0
-2457 -2769 0
-2458 -2770 0
-2459 -2771 0
-2460 -2772 0
-2457 -2897 0
-2458 -2898 0
-2459 -2899 0
-2460 -2900 0
-2457 -3465 0
-2458 -3466 0
-2459 -3467 0
-2460 -3468 0
-2457 -3621 0
-2458 -3622 0
-2459 -3623 0
-2460 -3624 0
-2461 -2465 0
-2462 -2466 0
-2463 -2467 0
-2464 -2468 0
-2461 -2469 0
-2462 -2470 0
-2463 -2471 0
-2464 -2472 0
-2461 -2577 0
-2462 -2578 0
-2463 -2579 0
-2464 -2580 0
-2461 -3093 0
-2462 -3094 0
-2463 -3095 0
-2464 -3096 0
-2461 -3221 0
-2462 -3222 0
-2463 -3223 0
-2464 -3224 0
-2461 -3465 0
-2462 -3466 0
-2463 -3467 0
-2464 -3468 0
-2461 -3609 0
-2462 -3610 0
-2463 -3611 0
-2464 -3612 0
-2465 -2473 0
-2466 -2474 0
-2467 -2475 0
-2468 -2476 0
-2465 -2493 0
-2466 -2494 0
-2467 -2495 0
-2468 -2496 0
-2465 -2497 0
-2466 -2498 0
-2467 -2499 0
-2468 -2500 0
-2465 -2581 0
-2466 -2582 0
-2467 -2583 0
-2468 -2584 0
-2465 -3109 0
-2466 -3110 0
-2467 -3111 0
-2468 -3112 0
-2465 -3225 0
-2466 -3226 0
-2467 -3227 0
-2468 -3228 0
-2465 -3469 0
-2466 -3470 0
-2467 -3471 0
-2468 -3472 0
-2465 -3609 0
-2466 -3610 0
-2467 -3611 0
-2468 -3612 0
-2469 -2473 0
-2470 -2474 0
-2471 -2475 0
-2472 -2476 0
-2469 -2585 0
-2470 -2586 0
-2471 -2587 0
-2472 -2588 0
-2469 -2593 0
-2470 -2594 0
-2471 -2595 0
-2472 -2596 0
-2469 -2777 0
-2470 -2778 0
-2471 -2779 0
-2472 -2780 0
-2469 -2881 0
-2470 -2882 0
-2471 -2883 0
-2472 -2884 0
-2469 -3473 0
-2470 -3474 0
-2471 -3475 0
-2472 -3476 0
-2469 -3613 0
-2470 -3614 0
-2471 -3615 0
-2472 -3616 0
-2473 -2597 0
-2474 -2598 0
-2475 -2599 0
-2476 -2600 0
-2473 -2601 0
-2474 -2602 0
-2475 -2603 0
-2476 -2604 0
-2473 -2725 0
-2474 -2726 0
-2475 -2727 0
-2476 -2728 0
-2473 -3481 0
-2474 -3482 0
-2475 -3483 0
-2476 -3484 0
-2473 -3613 0
-2474 -3614 0
-2475 -3615 0
-2476 -3616 0
-2473 -3617 0
-2474 -3618 0
-2475 -3619 0
-2476 -3620 0
-2477 -2485 0
-2478 -2486 0
-2479 -2487 0
-2480 -2488 0
-2477 -2501 0
-2478 -2502 0
-2479 -2503 0
-2480 -2504 0
-2477 -2609 0
-2478 -2610 0
-2479 -2611 0
-2480 -2612 0
-2477 -3689 0
-2478 -3690 0
-2479 -3691 0
-2480 -3692 0
-2481 -2485 0
-2482 -2486 0
-2483 -2487 0
-2484 -2488 0
-2481 -2517 0
-2482 -2518 0
-2483 -2519 0
-2484 -2520 0
-2481 -2533 0
-2482 -2534 0
-2483 -2535 0
-2484 -2536 0
-2481 -2553 0
-2482 -2554 0
-2483 -2555 0
-2484 -2556 0
-2481 -2561 0
-2482 -2562 0
-2483 -2563 0
-2484 -2564 0
-2481 -2789 0
-2482 -2790 0
-2483 -2791 0
-2484 -2792 0
-2481 -3205 0
-2482 -3206 0
-2483 -3207 0
-2484 -3208 0
-2481 -3489 0
-2482 -3490 0
-2483 -3491 0
-2484 -3492 0
-2485 -2489 0
-2486 -2490 0
-2487 -2491 0
-2488 -2492 0
-2485 -2505 0
-2486 -2506 0
-2487 -2507 0
-2488 -2508 0
-2485 -2517 0
-2486 -2518 0
-2487 -2519 0
-2488 -2520 0
-2485 -2537 0
-2486 -2538 0
-2487 -2539 0
-2488 -2540 0
-2485 -2557 0
-2486 -2558 0
-2487 -2559 0
-2488 -2560 0
-2485 -2609 0
-2486 -2610 0
-2487 -2611 0
-2488 -2612 0
-2485 -2737 0
-2486 -2738 0
-2487 -2739 0
-2488 -2740 0
-2485 -3133 0
-2486 -3134 0
-2487 -3135 0
-2488 -3136 0
-2485 -3241 0
-2486 -3242 0
-2487 -3243 0
-2488 -3244 0
-2489 -2521 0
-2490 -2522 0
-2491 -2523 0
-2492 -2524 0
-2489 -2537 0
-2490 -2538 0
-2491 -2539 0
-2492 -2540 0
-2489 -2745 0
-2490 -2746 0
-2491 -2747 0
-2492 -2748 0
-2489 -2929 0
-2490 -2930 0
-2491 -2931 0
-2492 -2932 0
-2489 -3077 0
-2490 -3078 0
-2491 -3079 0
-2492 -3080 0
-2489 -3245 0
-2490 -3246 0
-2491 -3247 0
-2492 -3248 0
-2489 -3273 0
-2490 -3274 0
-2491 -3275 0
-2492 -3276 0
-2493 -2497 0
-2494 -2498 0
-2495 -2499 0
-2496 -2500 0
-2493 -2501 0
-2494 -2502 0
-2495 -2503 0
-2496 -2504 0
-2493 -2625 0
-2494 -2626 0
-2495 -2627 0
-2496 -2628 0
-2493 -3141 0
-2494 -3142 0
-2495 -3143 0
-2496 -3144 0
-2493 -3697 0
-2494 -3698 0
-2495 -3699 0
-2496 -3700 0
-2497 -2629 0
-2498 -2630 0
-2499 -2631 0
-2500 -2632 0
-2497 -2673 0
-2498 -2674 0
-2499 -2675 0
-2500 -2676 0
-2501 -2505 0
-2502 -2506 0
-2503 -2507 0
-2504 -2508 0
-2501 -2633 0
-2502 -2634 0
-2503 -2635 0
-2504 -2636 0
-2501 -3149 0
-2502 -3150 0
-2503 -3151 0
-2504 -3152 0
-2501 -3701 0
-2502 -3702 0
-2503 -3703 0
-2504 -3704 0
-2505 -2633 0
-2506 -2634 0
-2507 -2635 0
-2508 -2636 0
-2505 -2817 0
-2506 -2818 0
-2507 -2819 0
-2508 -2820 0
-2505 -3061 0
-2506 -3062 0
-2507 -3063 0
-2508 -3064 0
-2505 -3157 0
-2506 -3158 0
-2507 -3159 0
-2508 -3160 0
-2509 -2513 0
-2510 -2514 0
-2511 -2515 0
-2512 -2516 0
-2509 -2517 0
-2510 -2518 0
-2511 -2519 0
-2512 -2520 0
-2509 -2545 0
-2510 -2546 0
-2511 -2547 0
-2512 -2548 0
-2509 -2677 0
-2510 -2678 0
-2511 -2679 0
-2512 -2680 0
-2509 -3069 0
-2510 -3070 0
-2511 -3071 0
-2512 -3072 0
-2509 -3257 0
-2510 -3258 0
-2511 -3259 0
-2512 -3260 0
-2513 -2521 0
-2514 -2522 0
-2515 -2523 0
-2516 -2524 0
-2513 -2529 0
-2514 -2530 0
-2515 -2531 0
-2516 -2532 0
-2513 -2545 0
-2514 -2546 0
-2515 -2547 0
-2516 -2548 0
-2513 -3265 0
-2514 -3266 0
-2515 -3267 0
-2516 -3268 0
-2513 -3645 0
-2514 -3646 0
-2515 -3647 0
-2516 -3648 0
-2517 -2521 0
-2518 -2522 0
-2519 -2523 0
-2520 -2524 0
-2517 -2549 0
-2518 -2550 0
-2519 -2551 0
-2520 -2552 0
-2517 -2689 0
-2518 -2690 0
-2519 -2691 0
-2520 -2692 0
-2517 -3073 0
-2518 -3074 0
-2519 -3075 0
-2520 -3076 0
-2517 -3217 0
-2518 -3218 0
-2519 -3219 0
-2520 -3220 0
-2517 -3277 0
-2518 -3278 0
-2519 -3279 0
-2520 -3280 0
-2517 -3493 0
-2518 -3494 0
-2519 -3495 0
-2520 -3496 0
-2521 -2549 0
-2522 -2550 0
-2523 -2551 0
-2524 -2552 0
-2521 -2773 0
-2522 -2774 0
-2523 -2775 0
-2524 -2776 0
-2521 -3081 0
-2522 -3082 0
-2523 -3083 0
-2524 -3084 0
-2521 -3497 0
-2522 -3498 0
-2523 -3499 0
-2524 -3500 0
-2521 -3653 0
-2522 -3654 0
-2523 -3655 0
-2524 -3656 0
-2525 -3353 0
-2526 -3354 0
-2527 -3355 0
-2528 -3356 0
-2525 -3641 0
-2526 -3642 0
-2527 -3643 0
-2528 -3644 0
-2529 -2833 0
-2530 -2834 0
-2531 -2835 0
-2532 -2836 0
-2529 -3357 0
-2530 -3358 0
-2531 -3359 0
-2532 -3360 0
-2529 -3645 0
-2530 -3646 0
-2531 -3647 0
-2532 -3648 0
-2533 -2537 0
-2534 -2538 0
-2535 -2539 0
-2536 -2540 0
-2533 -2549 0
-2534 -2550 0
-2535 -2551 0
-2536 -2552 0
-2533 -2565 0
-2534 -2566 0
-2535 -2567 0
-2536 -2568 0
-2533 -2849 0
-2534 -2850 0
-2535 -2851 0
-2536 -2852 0
-2533 -3237 0
-2534 -3238 0
-2535 -3239 0
-2536 -3240 0
-2533 -3365 0
-2534 -3366 0
-2535 -3367 0
-2536 -3368 0
-2533 -3501 0
-2534 -3502 0
-2535 -3503 0
-2536 -3504 0
-2537 -2549 0
-2538 -2550 0
-2539 -2551 0
-2540 -2552 0
-2537 -3085 0
-2538 -3086 0
-2539 -3087 0
-2540 -3088 0
-2537 -3505 0
-2538 -3506 0
-2539 -3507 0
-2540 -3508 0
-2541 -2549 0
-2542 -2550 0
-2543 -2551 0
-2544 -2552 0
-2541 -3249 0
-2542 -3250 0
-2543 -3251 0
-2544 -3252 0
-2541 -3513 0
-2542 -3514 0
-2543 -3515 0
-2544 -3516 0
-2541 -3665 0
-2542 -3666 0
-2543 -3667 0
-2544 -3668 0
-2545 -2549 0
-2546 -2550 0
-2547 -2551 0
-2548 -2552 0
-2545 -3517 0
-2546 -3518 0
-2547 -3519 0
-2548 -3520 0
-2545 -3669 0
-2546 -3670 0
-2547 -3671 0
-2548 -3672 0
-2549 -3089 0
-2550 -3090 0
-2551 -3091 0
-2552 -3092 0
-2549 -3269 0
-2550 -3270 0
-2551 -3271 0
-2552 -3272 0
-2549 -3537 0
-2550 -3538 0
-2551 -3539 0
-2552 -3540 0
-2549 -3673 0
-2550 -3674 0
-2551 -3675 0
-2552 -3676 0
-2553 -2557 0
-2554 -2558 0
-2555 -2559 0
-2556 -2560 0
-2553 -2561 0
-2554 -2562 0
-2555 -2563 0
-2556 -2564 0
-2553 -2565 0
-2554 -2566 0
-2555 -2567 0
-2556 -2568 0
-2553 -2649 0
-2554 -2650 0
-2555 -2651 0
-2556 -2652 0
-2553 -2657 0
-2554 -2658 0
-2555 -2659 0
-2556 -2660 0
-2553 -2925 0
-2554 -2926 0
-2555 -2927 0
-2556 -2928 0
-2553 -3101 0
-2554 -3102 0
-2555 -3103 0
-2556 -3104 0
-2553 -3297 0
-2554 -3298 0
-2555 -3299 0
-2556 -3300 0
-2553 -3537 0
-2554 -3538 0
-2555 -3539 0
-2556 -3540 0
-2553 -3609 0
-2554 -3610 0
-2555 -3611 0
-2556 -3612 0
-2553 -3613 0
-2554 -3614 0
-2555 -3615 0
-2556 -3616 0
-2557 -2653 0
-2558 -2654 0
-2559 -2655 0
-2560 -2656 0
-2557 -2661 0
-2558 -2662 0
-2559 -2663 0
-2560 -2664 0
-2557 -3105 0
-2558 -3106 0
-2559 -3107 0
-2560 -3108 0
-2557 -3189 0
-2558 -3190 0
-2559 -3191 0
-2560 -3192 0
-2557 -3541 0
-2558 -3542 0
-2559 -3543 0
-2560 -3544 0
-2561 -2797 0
-2562 -2798 0
-2563 -2799 0
-2564 -2800 0
-2561 -2929 0
-2562 -2930 0
-2563 -2931 0
-2564 -2932 0
-2561 -3545 0
-2562 -3546 0
-2563 -3547 0
-2564 -3548 0
-2565 -2933 0
-2566 -2934 0
-2567 -2935 0
-2568 -2936 0
-2565 -3141 0
-2566 -3142 0
-2567 -3143 0
-2568 -3144 0
-2565 -3369 0
-2566 -3370 0
-2567 -3371 0
-2568 -3372 0
-2565 -3573 0
-2566 -3574 0
-2567 -3575 0
-2568 -3576 0
-2569 -2585 0
-2570 -2586 0
-2571 -2587 0
-2572 -2588 0
-2569 -2589 0
-2570 -2590 0
-2571 -2591 0
-2572 -2592 0
-2573 -2601 0
-2574 -2602 0
-2575 -2603 0
-2576 -2604 0
-2573 -2881 0
-2574 -2882 0
-2575 -2883 0
-2576 -2884 0
-2573 -3113 0
-2574 -3114 0
-2575 -3115 0
-2576 -3116 0
-2573 -3625 0
-2574 -3626 0
-2575 -3627 0
-2576 -3628 0
-2577 -2581 0
-2578 -2582 0
-2579 -2583 0
-2580 -2584 0
-2577 -2593 0
-2578 -2594 0
-2579 -2595 0
-2580 -2596 0
-2577 -2617 0
-2578 -2618 0
-2579 -2619 0
-2580 -2620 0
-2577 -3629 0
-2578 -3630 0
-2579 -3631 0
-2580 -3632 0
-2581 -2601 0
-2582 -2602 0
-2583 -2603 0
-2584 -2604 0
-2581 -2625 0
-2582 -2626 0
-2583 -2627 0
-2584 -2628 0
-2581 -2629 0
-2582 -2630 0
-2583 -2631 0
-2584 -2632 0
-2581 -3117 0
-2582 -3118 0
-2583 -3119 0
-2584 -3120 0
-2581 -3313 0
-2582 -3314 0
-2583 -3315 0
-2584 -3316 0
-2581 -3373 0
-2582 -3374 0
-2583 -3375 0
-2584 -3376 0
-2581 -3629 0
-2582 -3630 0
-2583 -3631 0
-2584 -3632 0
-2581 -3633 0
-2582 -3634 0
-2583 -3635 0
-2584 -3636 0
-2585 -2589 0
-2586 -2590 0
-2587 -2591 0
-2588 -2592 0
-2585 -2593 0
-2586 -2594 0
-2587 -2595 0
-2588 -2596 0
-2585 -2597 0
-2586 -2598 0
-2587 -2599 0
-2588 -2600 0
-2585 -2705 0
-2586 -2706 0
-2587 -2707 0
-2588 -2708 0
-2585 -2989 0
-2586 -2990 0
-2587 -2991 0
-2588 -2992 0
-2585 -3637 0
-2586 -3638 0
-2587 -3639 0
-2588 -3640 0
-2589 -3013 0
-2590 -3014 0
-2591 -3015 0
-2592 -3016 0
-2589 -3641 0
-2590 -3642 0
-2591 -3643 0
-2592 -3644 0
-2593 -2601 0
-2594 -2602 0
-2595 -2603 0
-2596 -2604 0
-2593 -2637 0
-2594 -2638 0
-2595 -2639 0
-2596 -2640 0
-2593 -2861 0
-2594 -2862 0
-2595 -2863 0
-2596 -2864 0
-2593 -3121 0
-2594 -3122 0
-2595 -3123 0
-2596 -3124 0
-2593 -3377 0
-2594 -3378 0
-2595 -3379 0
-2596 -3380 0
-2593 -3645 0
-2594 -3646 0
-2595 -3647 0
-2596 -3648 0
-2597 -2601 0
-2598 -2602 0
-2599 -2603 0
-2600 -2604 0
-2597 -2713 0
-2598 -2714 0
-2599 -2715 0
-2600 -2716 0
-2597 -2997 0
-2598 -2998 0
-2599 -2999 0
-2600 -3000 0
-2597 -3637 0
-2598 -3638 0
-2599 -3639 0
-2600 -3640 0
-2597 -3649 0
-2598 -3650 0
-2599 -3651 0
-2600 -3652 0
-2601 -2641 0
-2602 -2642 0
-2603 -2643 0
-2604 -2644 0
-2601 -2717 0
-2602 -2718 0
-2603 -2719 0
-2604 -2720 0
-2601 -2865 0
-2602 -2866 0
-2603 -2867 0
-2604 -2868 0
-2601 -3125 0
-2602 -3126 0
-2603 -3127 0
-2604 -3128 0
-2601 -3381 0
-2602 -3382 0
-2603 -3383 0
-2604 -3384 0
-2601 -3645 0
-2602 -3646 0
-2603 -3647 0
-2604 -3648 0
-2601 -3653 0
-2602 -3654 0
-2603 -3655 0
-2604 -3656 0
-2605 -2609 0
-2606 -2610 0
-2607 -2611 0
-2608 -2612 0
-2605 -2613 0
-2606 -2614 0
-2607 -2615 0
-2608 -2616 0
-2605 -2625 0
-2606 -2626 0
-2607 -2627 0
-2608 -2628 0
-2605 -2653 0
-2606 -2654 0
-2607 -2655 0
-2608 -2656 0
-2605 -2733 0
-2606 -2734 0
-2607 -2735 0
-2608 -2736 0
-2605 -3145 0
-2606 -3146 0
-2607 -3147 0
-2608 -3148 0
-2609 -2633 0
-2610 -2634 0
-2611 -2635 0
-2612 -2636 0
-2609 -2653 0
-2610 -2654 0
-2611 -2655 0
-2612 -2656 0
-2609 -2893 0
-2610 -2894 0
-2611 -2895 0
-2612 -2896 0
-2613 -2641 0
-2614 -2642 0
-2615 -2643 0
-2616 -2644 0
-2613 -2757 0
-2614 -2758 0
-2615 -2759 0
-2616 -2760 0
-2613 -3037 0
-2614 -3038 0
-2615 -3039 0
-2616 -3040 0
-2613 -3585 0
-2614 -3586 0
-2615 -3587 0
-2616 -3588 0
-2617 -2621 0
-2618 -2622 0
-2619 -2623 0
-2620 -2624 0
-2617 -2625 0
-2618 -2626 0
-2619 -2627 0
-2620 -2628 0
-2617 -2637 0
-2618 -2638 0
-2619 -2639 0
-2620 -2640 0
-2617 -2665 0
-2618 -2666 0
-2619 -2667 0
-2620 -2668 0
-2617 -2985 0
-2618 -2986 0
-2619 -2987 0
-2620 -2988 0
-2617 -3657 0
-2618 -3658 0
-2619 -3659 0
-2620 -3660 0
-2621 -2633 0
-2622 -2634 0
-2623 -2635 0
-2624 -2636 0
-2621 -2665 0
-2622 -2666 0
-2623 -2667 0
-2624 -2668 0
-2621 -3661 0
-2622 -3662 0
-2623 -3663 0
-2624 -3664 0
-2625 -2629 0
-2626 -2630 0
-2627 -2631 0
-2628 -2632 0
-2625 -2633 0
-2626 -2634 0
-2627 -2635 0
-2628 -2636 0
-2625 -2641 0
-2626 -2642 0
-2627 -2643 0
-2628 -2644 0
-2625 -2669 0
-2626 -2670 0
-2627 -2671 0
-2628 -2672 0
-2625 -2737 0
-2626 -2738 0
-2627 -2739 0
-2628 -2740 0
-2625 -2993 0
-2626 -2994 0
-2627 -2995 0
-2628 -2996 0
-2625 -3201 0
-2626 -3202 0
-2627 -3203 0
-2628 -3204 0
-2625 -3621 0
-2626 -3622 0
-2627 -3623 0
-2628 -3624 0
-2625 -3657 0
-2626 -3658 0
-2627 -3659 0
-2628 -3660 0
-2625 -3665 0
-2626 -3666 0
-2627 -3667 0
-2628 -3668 0
-2629 -2745 0
-2630 -2746 0
-2631 -2747 0
-2632 -2748 0
-2629 -2997 0
-2630 -2998 0
-2631 -2999 0
-2632 -3000 0
-2633 -2669 0
-2634 -2670 0
-2635 -2671 0
-2636 -2672 0
-2633 -2897 0
-2634 -2898 0
-2635 -2899 0
-2636 -2900 0
-2633 -3161 0
-2634 -3162 0
-2635 -3163 0
-2636 -3164 0
-2633 -3309 0
-2634 -3310 0
-2635 -3311 0
-2636 -3312 0
-2633 -3661 0
-2634 -3662 0
-2635 -3663 0
-2636 -3664 0
-2637 -2641 0
-2638 -2642 0
-2639 -2643 0
-2640 -2644 0
-2637 -3669 0
-2638 -3670 0
-2639 -3671 0
-2640 -3672 0
-2641 -2761 0
-2642 -2762 0
-2643 -2763 0
-2644 -2764 0
-2641 -2873 0
-2642 -2874 0
-2643 -2875 0
-2644 -2876 0
-2641 -3173 0
-2642 -3174 0
-2643 -3175 0
-2644 -3176 0
-2641 -3593 0
-2642 -3594 0
-2643 -3595 0
-2644 -3596 0
-2641 -3621 0
-2642 -3622 0
-2643 -3623 0
-2644 -3624 0
-2641 -3669 0
-2642 -3670 0
-2643 -3671 0
-2644 -3672 0
-2641 -3673 0
-2642 -3674 0
-2643 -3675 0
-2644 -3676 0
-2645 -2649 0
-2646 -2650 0
-2647 -2651 0
-2648 -2652 0
-2645 -2653 0
-2646 -2654 0
-2647 -2655 0
-2648 -2656 0
-2645 -2909 0
-2646 -2910 0
-2647 -2911 0
-2648 -2912 0
-2645 -3409 0
-2646 -3410 0
-2647 -3411 0
-2648 -3412 0
-2649 -2653 0
-2650 -2654 0
-2651 -2655 0
-2652 -2656 0
-2649 -2657 0
-2650 -2658 0
-2651 -2659 0
-2652 -2660 0
-2649 -2785 0
-2650 -2786 0
-2651 -2787 0
-2652 -2788 0
-2649 -3033 0
-2650 -3034 0
-2651 -3035 0
-2652 -3036 0
-2649 -3193 0
-2650 -3194 0
-2651 -3195 0
-2652 -3196 0
-2649 -3417 0
-2650 -3418 0
-2651 -3419 0
-2652 -3420 0
-2649 -3601 0
-2650 -3602 0
-2651 -3603 0
-2652 -3604 0
-2649 -3637 0
-2650 -3638 0
-2651 -3639 0
-2652 -3640 0
-2653 -2661 0
-2654 -2662 0
-2655 -2663 0
-2656 -2664 0
-2653 -2669 0
-2654 -2670 0
-2655 -2671 0
-2656 -2672 0
-2653 -2941 0
-2654 -2942 0
-2655 -2943 0
-2656 -2944 0
-2653 -3421 0
-2654 -3422 0
-2655 -3423 0
-2656 -3424 0
-2653 -3425 0
-2654 -3426 0
-2655 -3427 0
-2656 -3428 0
-2653 -3641 0
-2654 -3642 0
-2655 -3643 0
-2656 -3644 0
-2653 -3713 0
-2654 -3714 0
-2655 -3715 0
-2656 -3716 0
-2657 -2661 0
-2658 -2662 0
-2659 -2663 0
-2660 -2664 0
-2657 -2805 0
-2658 -2806 0
-2659 -2807 0
-2660 -2808 0
-2657 -3197 0
-2658 -3198 0
-2659 -3199 0
-2660 -3200 0
-2657 -3605 0
-2658 -3606 0
-2659 -3607 0
-2660 -3608 0
-2657 -3629 0
-2658 -3630 0
-2659 -3631 0
-2660 -3632 0
-2657 -3645 0
-2658 -3646 0
-2659 -3647 0
-2660 -3648 0
-2661 -2809 0
-2662 -2810 0
-2663 -2811 0
-2664 -2812 0
-2661 -2949 0
-2662 -2950 0
-2663 -2951 0
-2664 -2952 0
-2661 -3337 0
-2662 -3338 0
-2663 -3339 0
-2664 -3340 0
-2665 -2669 0
-2666 -2670 0
-2667 -2671 0
-2668 -2672 0
-2665 -3013 0
-2666 -3014 0
-2667 -3015 0
-2668 -3016 0
-2665 -3677 0
-2666 -3678 0
-2667 -3679 0
-2668 -3680 0
-2669 -2801 0
-2670 -2802 0
-2671 -2803 0
-2672 -2804 0
-2669 -2973 0
-2670 -2974 0
-2671 -2975 0
-2672 -2976 0
-2669 -3021 0
-2670 -3022 0
-2671 -3023 0
-2672 -3024 0
-2669 -3433 0
-2670 -3434 0
-2671 -3435 0
-2672 -3436 0
-2669 -3677 0
-2670 -3678 0
-2671 -3679 0
-2672 -3680 0
-2673 -2681 0
-2674 -2682 0
-2675 -2683 0
-2676 -2684 0
-2673 -2685 0
-2674 -2686 0
-2675 -2687 0
-2676 -2688 0
-2673 -2733 0
-2674 -2734 0
-2675 -2735 0
-2676 -2736 0
-2673 -2745 0
-2674 -2746 0
-2675 -2747 0
-2676 -2748 0
-2673 -3237 0
-2674 -3238 0
-2675 -3239 0
-2676 -3240 0
-2673 -3353 0
-2674 -3354 0
-2675 -3355 0
-2676 -3356 0
-2673 -3721 0
-2674 -3722 0
-2675 -3723 0
-2676 -3724 0
-2677 -2689 0
-2678 -2690 0
-2679 -2691 0
-2680 -2692 0
-2677 -2945 0
-2678 -2946 0
-2679 -2947 0
-2680 -2948 0
-2677 -3069 0
-2678 -3070 0
-2679 -3071 0
-2680 -3072 0
-2677 -3681 0
-2678 -3682 0
-2679 -3683 0
-2680 -3684 0
-2677 -3693 0
-2678 -3694 0
-2679 -3695 0
-2680 -3696 0
-2681 -2685 0
-2682 -2686 0
-2683 -2687 0
-2684 -2688 0
-2681 -2689 0
-2682 -2690 0
-2683 -2691 0
-2684 -2692 0
-2681 -2693 0
-2682 -2694 0
-2683 -2695 0
-2684 -2696 0
-2681 -2773 0
-2682 -2774 0
-2683 -2775 0
-2684 -2776 0
-2681 -2957 0
-2682 -2958 0
-2683 -2959 0
-2684 -2960 0
-2681 -3265 0
-2682 -3266 0
-2683 -3267 0
-2684 -3268 0
-2681 -3609 0
-2682 -3610 0
-2683 -3611 0
-2684 -3612 0
-2681 -3685 0
-2682 -3686 0
-2683 -3687 0
-2684 -3688 0
-2681 -3697 0
-2682 -3698 0
-2683 -3699 0
-2684 -3700 0
-2685 -2769 0
-2686 -2770 0
-2687 -2771 0
-2688 -2772 0
-2685 -3061 0
-2686 -3062 0
-2687 -3063 0
-2688 -3064 0
-2685 -3269 0
-2686 -3270 0
-2687 -3271 0
-2688 -3272 0
-2689 -2693 0
-2690 -2694 0
-2691 -2695 0
-2692 -2696 0
-2689 -2897 0
-2690 -2898 0
-2691 -2899 0
-2692 -2900 0
-2689 -3073 0
-2690 -3074 0
-2691 -3075 0
-2692 -3076 0
-2689 -3349 0
-2690 -3350 0
-2691 -3351 0
-2692 -3352 0
-2689 -3689 0
-2690 -3690 0
-2691 -3691 0
-2692 -3692 0
-2689 -3701 0
-2690 -3702 0
-2691 -3703 0
-2692 -3704 0
-2693 -2697 0
-2694 -2698 0
-2695 -2699 0
-2696 -2700 0
-2693 -2833 0
-2694 -2834 0
-2695 -2835 0
-2696 -2836 0
-2693 -2973 0
-2694 -2974 0
-2695 -2975 0
-2696 -2976 0
-2693 -3065 0
-2694 -3066 0
-2695 -3067 0
-2696 -3068 0
-2693 -3225 0
-2694 -3226 0
-2695 -3227 0
-2696 -3228 0
-2693 -3709 0
-2694 -3710 0
-2695 -3711 0
-2696 -3712 0
-2697 -2833 0
-2698 -2834 0
-2699 -2835 0
-2700 -2836 0
-2697 -3229 0
-2698 -3230 0
-2699 -3231 0
-2700 -3232 0
-2697 -3369 0
-2698 -3370 0
-2699 -3371 0
-2700 -3372 0
-2697 -3461 0
-2698 -3462 0
-2699 -3463 0
-2700 -3464 0
-2701 -2713 0
-2702 -2714 0
-2703 -2715 0
-2704 -2716 0
-2701 -2733 0
-2702 -2734 0
-2703 -2735 0
-2704 -2736 0
-2701 -3105 0
-2702 -3106 0
-2703 -3107 0
-2704 -3108 0
-2705 -2713 0
-2706 -2714 0
-2707 -2715 0
-2708 -2716 0
-2705 -2721 0
-2706 -2722 0
-2707 -2723 0
-2708 -2724 0
-2705 -2749 0
-2706 -2750 0
-2707 -2751 0
-2708 -2752 0
-2705 -3681 0
-2706 -3682 0
-2707 -3683 0
-2708 -3684 0
-2709 -2713 0
-2710 -2714 0
-2711 -2715 0
-2712 -2716 0
-2709 -2725 0
-2710 -2726 0
-2711 -2727 0
-2712 -2728 0
-2709 -2777 0
-2710 -2778 0
-2711 -2779 0
-2712 -2780 0
-2709 -3101 0
-2710 -3102 0
-2711 -3103 0
-2712 -3104 0
-2709 -3685 0
-2710 -3686 0
-2711 -3687 0
-2712 -3688 0
-2713 -2717 0
-2714 -2718 0
-2715 -2719 0
-2716 -2720 0
-2713 -2729 0
-2714 -2730 0
-2715 -2731 0
-2716 -2732 0
-2713 -2753 0
-2714 -2754 0
-2715 -2755 0
-2716 -2756 0
-2713 -2757 0
-2714 -2758 0
-2715 -2759 0
-2716 -2760 0
-2713 -2777 0
-2714 -2778 0
-2715 -2779 0
-2716 -2780 0
-2713 -2985 0
-2714 -2986 0
-2715 -2987 0
-2716 -2988 0
-2713 -3077 0
-2714 -3078 0
-2715 -3079 0
-2716 -3080 0
-2713 -3681 0
-2714 -3682 0
-2715 -3683 0
-2716 -3684 0
-2713 -3689 0
-2714 -3690 0
-2715 -3691 0
-2716 -3692 0
-2717 -2761 0
-2718 -2762 0
-2719 -2763 0
-2720 -2764 0
-2717 -2765 0
-2718 -2766 0
-2719 -2767 0
-2720 -2768 0
-2717 -2781 0
-2718 -2782 0
-2719 -2783 0
-2720 -2784 0
-2717 -3217 0
-2718 -3218 0
-2719 -3219 0
-2720 -3220 0
-2717 -3381 0
-2718 -3382 0
-2719 -3383 0
-2720 -3384 0
-2721 -2729 0
-2722 -2730 0
-2723 -2731 0
-2724 -2732 0
-2721 -3013 0
-2722 -3014 0
-2723 -3015 0
-2724 -3016 0
-2721 -3221 0
-2722 -3222 0
-2723 -3223 0
-2724 -3224 0
-2721 -3693 0
-2722 -3694 0
-2723 -3695 0
-2724 -3696 0
-2725 -2729 0
-2726 -2730 0
-2727 -2731 0
-2728 -2732 0
-2725 -2877 0
-2726 -2878 0
-2727 -2879 0
-2728 -2880 0
-2725 -3017 0
-2726 -3018 0
-2727 -3019 0
-2728 -3020 0
-2725 -3621 0
-2726 -3622 0
-2727 -3623 0
-2728 -3624 0
-2725 -3697 0
-2726 -3698 0
-2727 -3699 0
-2728 -3700 0
-2729 -3021 0
-2730 -3022 0
-2731 -3023 0
-2732 -3024 0
-2729 -3225 0
-2730 -3226 0
-2731 -3227 0
-2732 -3228 0
-2729 -3693 0
-2730 -3694 0
-2731 -3695 0
-2732 -3696 0
-2729 -3701 0
-2730 -3702 0
-2731 -3703 0
-2732 -3704 0
-2733 -2745 0
-2734 -2746 0
-2735 -2747 0
-2736 -2748 0
-2733 -2757 0
-2734 -2758 0
-2735 -2759 0
-2736 -2760 0
-2733 -2769 0
-2734 -2770 0
-2735 -2771 0
-2736 -2772 0
-2733 -3145 0
-2734 -3146 0
-2735 -3147 0
-2736 -3148 0
-2733 -3469 0
-2734 -3470 0
-2735 -3471 0
-2736 -3472 0
-2733 -3733 0
-2734 -3734 0
-2735 -3735 0
-2736 -3736 0
-2737 -2745 0
-2738 -2746 0
-2739 -2747 0
-2740 -2748 0
-2737 -2761 0
-2738 -2762 0
-2739 -2763 0
-2740 -2764 0
-2737 -2801 0
-2738 -2802 0
-2739 -2803 0
-2740 -2804 0
-2737 -3321 0
-2738 -3322 0
-2739 -3323 0
-2740 -3324 0
-2741 -2745 0
-2742 -2746 0
-2743 -2747 0
-2744 -2748 0
-2741 -2773 0
-2742 -2774 0
-2743 -2775 0
-2744 -2776 0
-2741 -2805 0
-2742 -2806 0
-2743 -2807 0
-2744 -2808 0
-2741 -3033 0
-2742 -3034 0
-2743 -3035 0
-2744 -3036 0
-2741 -3153 0
-2742 -3154 0
-2743 -3155 0
-2744 -3156 0
-2741 -3393 0
-2742 -3394 0
-2743 -3395 0
-2744 -3396 0
-2745 -2765 0
-2746 -2766 0
-2747 -2767 0
-2748 -2768 0
-2745 -2773 0
-2746 -2774 0
-2747 -2775 0
-2748 -2776 0
-2745 -2793 0
-2746 -2794 0
-2747 -2795 0
-2748 -2796 0
-2745 -2809 0
-2746 -2810 0
-2747 -2811 0
-2748 -2812 0
-2745 -3077 0
-2746 -3078 0
-2747 -3079 0
-2748 -3080 0
-2745 -3137 0
-2746 -3138 0
-2747 -3139 0
-2748 -3140 0
-2745 -3249 0
-2746 -3250 0
-2747 -3251 0
-2748 -3252 0
-2745 -3397 0
-2746 -3398 0
-2747 -3399 0
-2748 -3400 0
-2749 -2757 0
-2750 -2758 0
-2751 -2759 0
-2752 -2760 0
-2749 -3473 0
-2750 -3474 0
-2751 -3475 0
-2752 -3476 0
-2753 -2757 0
-2754 -2758 0
-2755 -2759 0
-2756 -2760 0
-2753 -2761 0
-2754 -2762 0
-2755 -2763 0
-2756 -2764 0
-2753 -3085 0
-2754 -3086 0
-2755 -3087 0
-2756 -3088 0
-2753 -3477 0
-2754 -3478 0
-2755 -3479 0
-2756 -3480 0
-2753 -3737 0
-2754 -3738 0
-2755 -3739 0
-2756 -3740 0
-2757 -2765 0
-2758 -2766 0
-2759 -2767 0
-2760 -2768 0
-2757 -3001 0
-2758 -3002 0
-2759 -3003 0
-2760 -3004 0
-2757 -3149 0
-2758 -3150 0
-2759 -3151 0
-2760 -3152 0
-2757 -3481 0
-2758 -3482 0
-2759 -3483 0
-2760 -3484 0
-2757 -3705 0
-2758 -3706 0
-2759 -3707 0
-2760 -3708 0
-2761 -2765 0
-2762 -2766 0
-2763 -2767 0
-2764 -2768 0
-2761 -3261 0
-2762 -3262 0
-2763 -3263 0
-2764 -3264 0
-2765 -3045 0
-2766 -3046 0
-2767 -3047 0
-2768 -3048 0
-2765 -3157 0
-2766 -3158 0
-2767 -3159 0
-2768 -3160 0
-2765 -3269 0
-2766 -3270 0
-2767 -3271 0
-2768 -3272 0
-2765 -3625 0
-2766 -3626 0
-2767 -3627 0
-2768 -3628 0
-2769 -3161 0
-2770 -3162 0
-2771 -3163 0
-2772 -3164 0
-2773 -2825 0
-2774 -2826 0
-2775 -2827 0
-2776 -2828 0
-2773 -2833 0
-2774 -2834 0
-2775 -2835 0
-2776 -2836 0
-2773 -3081 0
-2774 -3082 0
-2775 -3083 0
-2776 -3084 0
-2773 -3165 0
-2774 -3166 0
-2775 -3167 0
-2776 -3168 0
-2773 -3285 0
-2774 -3286 0
-2775 -3287 0
-2776 -3288 0
-2773 -3485 0
-2774 -3486 0
-2775 -3487 0
-2776 -3488 0
-2773 -3629 0
-2774 -3630 0
-2775 -3631 0
-2776 -3632 0
-2777 -2781 0
-2778 -2782 0
-2779 -2783 0
-2780 -2784 0
-2777 -2861 0
-2778 -2862 0
-2779 -2863 0
-2780 -2864 0
-2777 -3009 0
-2778 -3010 0
-2779 -3011 0
-2780 -3012 0
-2777 -3113 0
-2778 -3114 0
-2779 -3115 0
-2780 -3116 0
-2777 -3641 0
-2778 -3642 0
-2779 -3643 0
-2780 -3644 0
-2777 -3709 0
-2778 -3710 0
-2779 -3711 0
-2780 -3712 0
-2781 -2861 0
-2782 -2862 0
-2783 -2863 0
-2784 -2864 0
-2785 -2789 0
-2786 -2790 0
-2787 -2791 0
-2788 -2792 0
-2785 -2797 0
-2786 -2798 0
-2787 -2799 0
-2788 -2800 0
-2785 -2841 0
-2786 -2842 0
-2787 -2843 0
-2788 -2844 0
-2785 -3289 0
-2786 -3290 0
-2787 -3291 0
-2788 -3292 0
-2785 -3493 0
-2786 -3494 0
-2787 -3495 0
-2788 -3496 0
-2785 -3681 0
-2786 -3682 0
-2787 -3683 0
-2788 -3684 0
-2789 -2813 0
-2790 -2814 0
-2791 -2815 0
-2792 -2816 0
-2789 -2849 0
-2790 -2850 0
-2791 -2851 0
-2792 -2852 0
-2789 -3293 0
-2790 -3294 0
-2791 -3295 0
-2792 -3296 0
-2789 -3689 0
-2790 -3690 0
-2791 -3691 0
-2792 -3692 0
-2793 -2809 0
-2794 -2810 0
-2795 -2811 0
-2796 -2812 0
-2793 -2825 0
-2794 -2826 0
-2795 -2827 0
-2796 -2828 0
-2793 -3113 0
-2794 -3114 0
-2795 -3115 0
-2796 -3116 0
-2793 -3445 0
-2794 -3446 0
-2795 -3447 0
-2796 -3448 0
-2797 -2801 0
-2798 -2802 0
-2799 -2803 0
-2800 -2804 0
-2797 -2805 0
-2798 -2806 0
-2799 -2807 0
-2800 -2808 0
-2797 -2813 0
-2798 -2814 0
-2799 -2815 0
-2800 -2816 0
-2797 -2821 0
-2798 -2822 0
-2799 -2823 0
-2800 -2824 0
-2797 -2829 0
-2798 -2830 0
-2799 -2831 0
-2800 -2832 0
-2797 -2853 0
-2798 -2854 0
-2799 -2855 0
-2800 -2856 0
-2797 -3137 0
-2798 -3138 0
-2799 -3139 0
-2800 -3140 0
-2797 -3661 0
-2798 -3662 0
-2799 -3663 0
-2800 -3664 0
-2797 -3693 0
-2798 -3694 0
-2799 -3695 0
-2800 -3696 0
-2801 -2809 0
-2802 -2810 0
-2803 -2811 0
-2804 -2812 0
-2801 -2817 0
-2802 -2818 0
-2803 -2819 0
-2804 -2820 0
-2801 -2829 0
-2802 -2830 0
-2803 -2831 0
-2804 -2832 0
-2801 -3053 0
-2802 -3054 0
-2803 -3055 0
-2804 -3056 0
-2801 -3333 0
-2802 -3334 0
-2803 -3335 0
-2804 -3336 0
-2801 -3433 0
-2802 -3434 0
-2803 -3435 0
-2804 -3436 0
-2805 -2809 0
-2806 -2810 0
-2807 -2811 0
-2808 -2812 0
-2805 -2833 0
-2806 -2834 0
-2807 -2835 0
-2808 -2836 0
-2805 -2853 0
-2806 -2854 0
-2807 -2855 0
-2808 -2856 0
-2805 -3197 0
-2806 -3198 0
-2807 -3199 0
-2808 -3200 0
-2805 -3305 0
-2806 -3306 0
-2807 -3307 0
-2808 -3308 0
-2805 -3501 0
-2806 -3502 0
-2807 -3503 0
-2808 -3504 0
-2809 -2833 0
-2810 -2834 0
-2811 -2835 0
-2812 -2836 0
-2809 -3057 0
-2810 -3058 0
-2811 -3059 0
-2812 -3060 0
-2809 -3309 0
-2810 -3310 0
-2811 -3311 0
-2812 -3312 0
-2809 -3437 0
-2810 -3438 0
-2811 -3439 0
-2812 -3440 0
-2809 -3505 0
-2810 -3506 0
-2811 -3507 0
-2812 -3508 0
-2813 -2817 0
-2814 -2818 0
-2815 -2819 0
-2816 -2820 0
-2813 -2837 0
-2814 -2838 0
-2815 -2839 0
-2816 -2840 0
-2813 -3409 0
-2814 -3410 0
-2815 -3411 0
-2816 -3412 0
-2813 -3701 0
-2814 -3702 0
-2815 -3703 0
-2816 -3704 0
-2817 -2837 0
-2818 -2838 0
-2819 -2839 0
-2820 -2840 0
-2817 -3061 0
-2818 -3062 0
-2819 -3063 0
-2820 -3064 0
-2817 -3341 0
-2818 -3342 0
-2819 -3343 0
-2820 -3344 0
-2821 -3157 0
-2822 -3158 0
-2823 -3159 0
-2824 -3160 0
-2821 -3297 0
-2822 -3298 0
-2823 -3299 0
-2824 -3300 0
-2821 -3693 0
-2822 -3694 0
-2823 -3695 0
-2824 -3696 0
-2825 -2833 0
-2826 -2834 0
-2827 -2835 0
-2828 -2836 0
-2825 -2949 0
-2826 -2950 0
-2827 -2951 0
-2828 -2952 0
-2825 -3125 0
-2826 -3126 0
-2827 -3127 0
-2828 -3128 0
-2825 -3525 0
-2826 -3526 0
-2827 -3527 0
-2828 -3528 0
-2829 -2833 0
-2830 -2834 0
-2831 -2835 0
-2832 -2836 0
-2829 -2837 0
-2830 -2838 0
-2831 -2839 0
-2832 -2840 0
-2829 -2857 0
-2830 -2858 0
-2831 -2859 0
-2832 -2860 0
-2829 -3169 0
-2830 -3170 0
-2831 -3171 0
-2832 -3172 0
-2829 -3449 0
-2830 -3450 0
-2831 -3451 0
-2832 -3452 0
-2829 -3529 0
-2830 -3530 0
-2831 -3531 0
-2832 -3532 0
-2833 -2857 0
-2834 -2858 0
-2835 -2859 0
-2836 -2860 0
-2833 -2953 0
-2834 -2954 0
-2835 -2955 0
-2836 -2956 0
-2833 -3129 0
-2834 -3130 0
-2835 -3131 0
-2836 -3132 0
-2833 -3313 0
-2834 -3314 0
-2835 -3315 0
-2836 -3316 0
-2833 -3453 0
-2834 -3454 0
-2835 -3455 0
-2836 -3456 0
-2833 -3537 0
-2834 -3538 0
-2835 -3539 0
-2836 -3540 0
-2833 -3713 0
-2834 -3714 0
-2835 -3715 0
-2836 -3716 0
-2837 -3345 0
-2838 -3346 0
-2839 -3347 0
-2840 -3348 0
-2837 -3421 0
-2838 -3422 0
-2839 -3423 0
-2840 -3424 0
-2841 -2845 0
-2842 -2846 0
-2843 -2847 0
-2844 -2848 0
-2841 -2849 0
-2842 -2850 0
-2843 -2851 0
-2844 -2852 0
-2841 -2853 0
-2842 -2854 0
-2843 -2855 0
-2844 -2856 0
-2841 -3317 0
-2842 -3318 0
-2843 -3319 0
-2844 -3320 0
-2841 -3537 0
-2842 -3538 0
-2843 -3539 0
-2844 -3540 0
-2845 -3133 0
-2846 -3134 0
-2847 -3135 0
-2848 -3136 0
-2845 -3321 0
-2846 -3322 0
-2847 -3323 0
-2848 -3324 0
-2845 -3549 0
-2846 -3550 0
-2847 -3551 0
-2848 -3552 0
-2849 -3553 0
-2850 -3554 0
-2851 -3555 0
-2852 -3556 0
-2849 -3705 0
-2850 -3706 0
-2851 -3707 0
-2852 -3708 0
-2853 -2857 0
-2854 -2858 0
-2855 -2859 0
-2856 -2860 0
-2853 -3149 0
-2854 -3150 0
-2855 -3151 0
-2856 -3152 0
-2853 -3429 0
-2854 -3430 0
-2855 -3431 0
-2856 -3432 0
-2853 -3561 0
-2854 -3562 0
-2855 -3563 0
-2856 -3564 0
-2857 -3177 0
-2858 -3178 0
-2859 -3179 0
-2860 -3180 0
-2857 -3445 0
-2858 -3446 0
-2859 -3447 0
-2860 -3448 0
-2857 -3569 0
-2858 -3570 0
-2859 -3571 0
-2860 -3572 0
-2857 -3677 0
-2858 -3678 0
-2859 -3679 0
-2860 -3680 0
-2861 -2865 0
-2862 -2866 0
-2863 -2867 0
-2864 -2868 0
-2861 -3121 0
-2862 -3122 0
-2863 -3123 0
-2864 -3124 0
-2861 -3585 0
-2862 -3586 0
-2863 -3587 0
-2864 -3588 0
-2861 -3713 0
-2862 -3714 0
-2863 -3715 0
-2864 -3716 0
-2865 -2873 0
-2866 -2874 0
-2867 -2875 0
-2868 -2876 0
-2865 -3125 0
-2866 -3126 0
-2867 -3127 0
-2868 -3128 0
-2865 -3589 0
-2866 -3590 0
-2867 -3591 0
-2868 -3592 0
-2865 -3713 0
-2866 -3714 0
-2867 -3715 0
-2868 -3716 0
-2869 -2873 0
-2870 -2874 0
-2871 -2875 0
-2872 -2876 0
-2869 -3141 0
-2870 -3142 0
-2871 -3143 0
-2872 -3144 0
-2869 -3597 0
-2870 -3598 0
-2871 -3599 0
-2872 -3600 0
-2873 -3173 0
-2874 -3174 0
-2875 -3175 0
-2876 -3176 0
-2877 -2881 0
-2878 -2882 0
-2879 -2883 0
-2880 -2884 0
-2877 -2885 0
-2878 -2886 0
-2879 -2887 0
-2880 -2888 0
-2877 -2889 0
-2878 -2890 0
-2879 -2891 0
-2880 -2892 0
-2877 -2985 0
-2878 -2986 0
-2879 -2987 0
-2880 -2988 0
-2877 -3105 0
-2878 -3106 0
-2879 -3107 0
-2880 -3108 0
-2877 -3377 0
-2878 -3378 0
-2879 -3379 0
-2880 -3380 0
-2877 -3717 0
-2878 -3718 0
-2879 -3719 0
-2880 -3720 0
-2881 -2889 0
-2882 -2890 0
-2883 -2891 0
-2884 -2892 0
-2881 -2989 0
-2882 -2990 0
-2883 -2991 0
-2884 -2992 0
-2881 -3113 0
-2882 -3114 0
-2883 -3115 0
-2884 -3116 0
-2881 -3213 0
-2882 -3214 0
-2883 -3215 0
-2884 -3216 0
-2881 -3473 0
-2882 -3474 0
-2883 -3475 0
-2884 -3476 0
-2881 -3721 0
-2882 -3722 0
-2883 -3723 0
-2884 -3724 0
-2885 -2905 0
-2886 -2906 0
-2887 -2907 0
-2888 -2908 0
-2885 -2993 0
-2886 -2994 0
-2887 -2995 0
-2888 -2996 0
-2885 -3381 0
-2886 -3382 0
-2887 -3383 0
-2888 -3384 0
-2885 -3477 0
-2886 -3478 0
-2887 -3479 0
-2888 -3480 0
-2885 -3717 0
-2886 -3718 0
-2887 -3719 0
-2888 -3720 0
-2889 -3001 0
-2890 -3002 0
-2891 -3003 0
-2892 -3004 0
-2889 -3145 0
-2890 -3146 0
-2891 -3147 0
-2892 -3148 0
-2889 -3725 0
-2890 -3726 0
-2891 -3727 0
-2892 -3728 0
-2893 -2897 0
-2894 -2898 0
-2895 -2899 0
-2896 -2900 0
-2893 -2941 0
-2894 -2942 0
-2895 -2943 0
-2896 -2944 0
-2893 -2945 0
-2894 -2946 0
-2895 -2947 0
-2896 -2948 0
-2893 -3261 0
-2894 -3262 0
-2895 -3263 0
-2896 -3264 0
-2893 -3353 0
-2894 -3354 0
-2895 -3355 0
-2896 -3356 0
-2893 -3729 0
-2894 -3730 0
-2895 -3731 0
-2896 -3732 0
-2897 -2901 0
-2898 -2902 0
-2899 -2903 0
-2900 -2904 0
-2897 -2973 0
-2898 -2974 0
-2899 -2975 0
-2900 -2976 0
-2897 -3161 0
-2898 -3162 0
-2899 -3163 0
-2900 -3164 0
-2897 -3281 0
-2898 -3282 0
-2899 -3283 0
-2900 -3284 0
-2897 -3393 0
-2898 -3394 0
-2899 -3395 0
-2900 -3396 0
-2897 -3465 0
-2898 -3466 0
-2899 -3467 0
-2900 -3468 0
-2897 -3729 0
-2898 -3730 0
-2899 -3731 0
-2900 -3732 0
-2901 -3177 0
-2902 -3178 0
-2903 -3179 0
-2904 -3180 0
-2901 -3473 0
-2902 -3474 0
-2903 -3475 0
-2904 -3476 0
-2901 -3693 0
-2902 -3694 0
-2903 -3695 0
-2904 -3696 0
-2901 -3737 0
-2902 -3738 0
-2903 -3739 0
-2904 -3740 0
-2905 -3021 0
-2906 -3022 0
-2907 -3023 0
-2908 -3024 0
-2905 -3025 0
-2906 -3026 0
-2907 -3027 0
-2908 -3028 0
-2905 -3413 0
-2906 -3414 0
-2907 -3415 0
-2908 -3416 0
-2909 -2913 0
-2910 -2914 0
-2911 -2915 0
-2912 -2916 0
-2909 -2917 0
-2910 -2918 0
-2911 -2919 0
-2912 -2920 0
-2909 -2921 0
-2910 -2922 0
-2911 -2923 0
-2912 -2924 0
-2909 -2941 0
-2910 -2942 0
-2911 -2943 0
-2912 -2944 0
-2909 -3029 0
-2910 -3030 0
-2911 -3031 0
-2912 -3032 0
-2909 -3609 0
-2910 -3610 0
-2911 -3611 0
-2912 -3612 0
-2913 -2941 0
-2914 -2942 0
-2915 -2943 0
-2916 -2944 0
-2913 -3757 0
-2914 -3758 0
-2915 -3759 0
-2916 -3760 0
-2917 -2925 0
-2918 -2926 0
-2919 -2927 0
-2920 -2928 0
-2917 -2949 0
-2918 -2950 0
-2919 -2951 0
-2920 -2952 0
-2917 -3029 0
-2918 -3030 0
-2919 -3031 0
-2920 -3032 0
-2917 -3205 0
-2918 -3206 0
-2919 -3207 0
-2920 -3208 0
-2917 -3517 0
-2918 -3518 0
-2919 -3519 0
-2920 -3520 0
-2921 -2925 0
-2922 -2926 0
-2923 -2927 0
-2924 -2928 0
-2921 -2933 0
-2922 -2934 0
-2923 -2935 0
-2924 -2936 0
-2921 -2957 0
-2922 -2958 0
-2923 -2959 0
-2924 -2960 0
-2921 -3033 0
-2922 -3034 0
-2923 -3035 0
-2924 -3036 0
-2921 -3521 0
-2922 -3522 0
-2923 -3523 0
-2924 -3524 0
-2925 -2929 0
-2926 -2930 0
-2927 -2931 0
-2928 -2932 0
-2925 -2937 0
-2926 -2938 0
-2927 -2939 0
-2928 -2940 0
-2925 -2961 0
-2926 -2962 0
-2927 -2963 0
-2928 -2964 0
-2925 -2981 0
-2926 -2982 0
-2927 -2983 0
-2928 -2984 0
-2925 -3033 0
-2926 -3034 0
-2927 -3035 0
-2928 -3036 0
-2925 -3209 0
-2926 -3210 0
-2927 -3211 0
-2928 -3212 0
-2925 -3373 0
-2926 -3374 0
-2927 -3375 0
-2928 -3376 0
-2925 -3537 0
-2926 -3538 0
-2927 -3539 0
-2928 -3540 0
-2925 -3721 0
-2926 -3722 0
-2927 -3723 0
-2928 -3724 0
-2929 -2965 0
-2930 -2966 0
-2931 -2967 0
-2932 -2968 0
-2929 -3137 0
-2930 -3138 0
-2931 -3139 0
-2932 -3140 0
-2929 -3545 0
-2930 -3546 0
-2931 -3547 0
-2932 -3548 0
-2933 -2937 0
-2934 -2938 0
-2935 -2939 0
-2936 -2940 0
-2933 -3041 0
-2934 -3042 0
-2935 -3043 0
-2936 -3044 0
-2933 -3141 0
-2934 -3142 0
-2935 -3143 0
-2936 -3144 0
-2933 -3245 0
-2934 -3246 0
-2935 -3247 0
-2936 -3248 0
-2933 -3617 0
-2934 -3618 0
-2935 -3619 0
-2936 -3620 0
-2933 -3705 0
-2934 -3706 0
-2935 -3707 0
-2936 -3708 0
-2937 -3041 0
-2938 -3042 0
-2939 -3043 0
-2940 -3044 0
-2937 -3153 0
-2938 -3154 0
-2939 -3155 0
-2940 -3156 0
-2937 -3381 0
-2938 -3382 0
-2939 -3383 0
-2940 -3384 0
-2937 -3557 0
-2938 -3558 0
-2939 -3559 0
-2940 -3560 0
-2937 -3721 0
-2938 -3722 0
-2939 -3723 0
-2940 -3724 0
-2941 -2945 0
-2942 -2946 0
-2943 -2947 0
-2944 -2948 0
-2941 -2949 0
-2942 -2950 0
-2943 -2951 0
-2944 -2952 0
-2941 -2957 0
-2942 -2958 0
-2943 -2959 0
-2944 -2960 0
-2941 -2969 0
-2942 -2970 0
-2943 -2971 0
-2944 -2972 0
-2941 -2973 0
-2942 -2974 0
-2943 -2975 0
-2944 -2976 0
-2941 -3249 0
-2942 -3250 0
-2943 -3251 0
-2944 -3252 0
-2941 -3745 0
-2942 -3746 0
-2943 -3747 0
-2944 -3748 0
-2945 -2953 0
-2946 -2954 0
-2947 -2955 0
-2948 -2956 0
-2945 -3253 0
-2946 -3254 0
-2947 -3255 0
-2948 -3256 0
-2945 -3521 0
-2946 -3522 0
-2947 -3523 0
-2948 -3524 0
-2945 -3749 0
-2946 -3750 0
-2947 -3751 0
-2948 -3752 0
-2949 -2953 0
-2950 -2954 0
-2951 -2955 0
-2952 -2956 0
-2949 -2961 0
-2950 -2962 0
-2951 -2963 0
-2952 -2964 0
-2949 -3057 0
-2950 -3058 0
-2951 -3059 0
-2952 -3060 0
-2949 -3217 0
-2950 -3218 0
-2951 -3219 0
-2952 -3220 0
-2949 -3525 0
-2950 -3526 0
-2951 -3527 0
-2952 -3528 0
-2953 -2965 0
-2954 -2966 0
-2955 -2967 0
-2956 -2968 0
-2953 -3385 0
-2954 -3386 0
-2955 -3387 0
-2956 -3388 0
-2953 -3537 0
-2954 -3538 0
-2955 -3539 0
-2956 -3540 0
-2957 -2961 0
-2958 -2962 0
-2959 -2963 0
-2960 -2964 0
-2957 -2977 0
-2958 -2978 0
-2959 -2979 0
-2960 -2980 0
-2957 -3753 0
-2958 -3754 0
-2959 -3755 0
-2960 -3756 0
-2961 -2965 0
-2962 -2966 0
-2963 -2967 0
-2964 -2968 0
-2961 -3065 0
-2962 -3066 0
-2963 -3067 0
-2964 -3068 0
-2965 -3169 0
-2966 -3170 0
-2967 -3171 0
-2968 -3172 0
-2965 -3553 0
-2966 -3554 0
-2967 -3555 0
-2968 -3556 0
-2969 -3269 0
-2970 -3270 0
-2971 -3271 0
-2972 -3272 0
-2969 -3297 0
-2970 -3298 0
-2971 -3299 0
-2972 -3300 0
-2973 -2977 0
-2974 -2978 0
-2975 -2979 0
-2976 -2980 0
-2973 -3053 0
-2974 -3054 0
-2975 -3055 0
-2976 -3056 0
-2973 -3225 0
-2974 -3226 0
-2975 -3227 0
-2976 -3228 0
-2973 -3441 0
-2974 -3442 0
-2975 -3443 0
-2976 -3444 0
-2973 -3745 0
-2974 -3746 0
-2975 -3747 0
-2976 -3748 0
-2977 -3061 0
-2978 -3062 0
-2979 -3063 0
-2980 -3064 0
-2977 -3453 0
-2978 -3454 0
-2979 -3455 0
-2980 -3456 0
-2977 -3753 0
-2978 -3754 0
-2979 -3755 0
-2980 -3756 0
-2981 -3241 0
-2982 -3242 0
-2983 -3243 0
-2984 -3244 0
-2981 -3569 0
-2982 -3570 0
-2983 -3571 0
-2984 -3572 0
-2981 -3725 0
-2982 -3726 0
-2983 -3727 0
-2984 -3728 0
-2985 -2989 0
-2986 -2990 0
-2987 -2991 0
-2988 -2992 0
-2985 -2993 0
-2986 -2994 0
-2987 -2995 0
-2988 -2996 0
-2985 -3001 0
-2986 -3002 0
-2987 -3003 0
-2988 -3004 0
-2985 -3009 0
-2986 -3010 0
-2987 -3011 0
-2988 -3012 0
-2985 -3013 0
-2986 -3014 0
-2987 -3015 0
-2988 -3016 0
-2985 -3729 0
-2986 -3730 0
-2987 -3731 0
-2988 -3732 0
-2989 -2997 0
-2990 -2998 0
-2991 -2999 0
-2992 -3000 0
-2989 -3001 0
-2990 -3002 0
-2991 -3003 0
-2992 -3004 0
-2989 -3305 0
-2990 -3306 0
-2991 -3307 0
-2992 -3308 0
-2989 -3733 0
-2990 -3734 0
-2991 -3735 0
-2992 -3736 0
-2993 -2997 0
-2994 -2998 0
-2995 -2999 0
-2996 -3000 0
-2993 -3005 0
-2994 -3006 0
-2995 -3007 0
-2996 -3008 0
-2993 -3017 0
-2994 -3018 0
-2995 -3019 0
-2996 -3020 0
-2993 -3021 0
-2994 -3022 0
-2995 -3023 0
-2996 -3024 0
-2993 -3729 0
-2994 -3730 0
-2995 -3731 0
-2996 -3732 0
-2997 -3005 0
-2998 -3006 0
-2999 -3007 0
-3000 -3008 0
-2997 -3077 0
-2998 -3078 0
-2999 -3079 0
-3000 -3080 0
-2997 -3733 0
-2998 -3734 0
-2999 -3735 0
-3000 -3736 0
-3001 -3005 0
-3002 -3006 0
-3003 -3007 0
-3004 -3008 0
-3001 -3621 0
-3002 -3622 0
-3003 -3623 0
-3004 -3624 0
-3001 -3741 0
-3002 -3742 0
-3003 -3743 0
-3004 -3744 0
-3005 -3085 0
-3006 -3086 0
-3007 -3087 0
-3008 -3088 0
-3005 -3741 0
-3006 -3742 0
-3007 -3743 0
-3008 -3744 0
-3009 -3013 0
-3010 -3014 0
-3011 -3015 0
-3012 -3016 0
-3009 -3017 0
-3010 -3018 0
-3011 -3019 0
-3012 -3020 0
-3009 -3745 0
-3010 -3746 0
-3011 -3747 0
-3012 -3748 0
-3013 -3021 0
-3014 -3022 0
-3015 -3023 0
-3016 -3024 0
-3013 -3221 0
-3014 -3222 0
-3015 -3223 0
-3016 -3224 0
-3013 -3309 0
-3014 -3310 0
-3015 -3311 0
-3016 -3312 0
-3013 -3749 0
-3014 -3750 0
-3015 -3751 0
-3016 -3752 0
-3017 -3021 0
-3018 -3022 0
-3019 -3023 0
-3020 -3024 0
-3017 -3105 0
-3018 -3106 0
-3019 -3107 0
-3020 -3108 0
-3017 -3745 0
-3018 -3746 0
-3019 -3747 0
-3020 -3748 0
-3017 -3753 0
-3018 -3754 0
-3019 -3755 0
-3020 -3756 0
-3021 -3025 0
-3022 -3026 0
-3023 -3027 0
-3024 -3028 0
-3021 -3225 0
-3022 -3226 0
-3023 -3227 0
-3024 -3228 0
-3021 -3749 0
-3022 -3750 0
-3023 -3751 0
-3024 -3752 0
-3025 -3229 0
-3026 -3230 0
-3027 -3231 0
-3028 -3232 0
-3025 -3421 0
-3026 -3422 0
-3027 -3423 0
-3028 -3424 0
-3025 -3597 0
-3026 -3598 0
-3027 -3599 0
-3028 -3600 0
-3029 -3033 0
-3030 -3034 0
-3031 -3035 0
-3032 -3036 0
-3029 -3329 0
-3030 -3330 0
-3031 -3331 0
-3032 -3332 0
-3029 -3429 0
-3030 -3430 0
-3031 -3431 0
-3032 -3432 0
-3029 -3629 0
-3030 -3630 0
-3031 -3631 0
-3032 -3632 0
-3033 -3041 0
-3034 -3042 0
-3035 -3043 0
-3036 -3044 0
-3033 -3337 0
-3034 -3338 0
-3035 -3339 0
-3036 -3340 0
-3033 -3437 0
-3034 -3438 0
-3035 -3439 0
-3036 -3440 0
-3033 -3601 0
-3034 -3602 0
-3035 -3603 0
-3036 -3604 0
-3033 -3633 0
-3034 -3634 0
-3035 -3635 0
-3036 -3636 0
-3033 -3733 0
-3034 -3734 0
-3035 -3735 0
-3036 -3736 0
-3037 -3041 0
-3038 -3042 0
-3039 -3043 0
-3040 -3044 0
-3037 -3149 0
-3038 -3150 0
-3039 -3151 0
-3040 -3152 0
-3037 -3257 0
-3038 -3258 0
-3039 -3259 0
-3040 -3260 0
-3037 -3325 0
-3038 -3326 0
-3039 -3327 0
-3040 -3328 0
-3037 -3585 0
-3038 -3586 0
-3039 -3587 0
-3040 -3588 0
-3037 -3729 0
-3038 -3730 0
-3039 -3731 0
-3040 -3732 0
-3037 -3737 0
-3038 -3738 0
-3039 -3739 0
-3040 -3740 0
-3041 -3045 0
-3042 -3046 0
-3043 -3047 0
-3044 -3048 0
-3041 -3049 0
-3042 -3050 0
-3043 -3051 0
-3044 -3052 0
-3041 -3133 0
-3042 -3134 0
-3043 -3135 0
-3044 -3136 0
-3041 -3201 0
-3042 -3202 0
-3043 -3203 0
-3044 -3204 0
-3041 -3265 0
-3042 -3266 0
-3043 -3267 0
-3044 -3268 0
-3041 -3653 0
-3042 -3654 0
-3043 -3655 0
-3044 -3656 0
-3041 -3733 0
-3042 -3734 0
-3043 -3735 0
-3044 -3736 0
-3045 -3269 0
-3046 -3270 0
-3047 -3271 0
-3048 -3272 0
-3045 -3341 0
-3046 -3342 0
-3047 -3343 0
-3048 -3344 0
-3049 -3157 0
-3050 -3158 0
-3051 -3159 0
-3052 -3160 0
-3049 -3453 0
-3050 -3454 0
-3051 -3455 0
-3052 -3456 0
-3053 -3057 0
-3054 -3058 0
-3055 -3059 0
-3056 -3060 0
-3053 -3061 0
-3054 -3062 0
-3055 -3063 0
-3056 -3064 0
-3053 -3069 0
-3054 -3070 0
-3055 -3071 0
-3056 -3072 0
-3053 -3517 0
-3054 -3518 0
-3055 -3519 0
-3056 -3520 0
-3057 -3065 0
-3058 -3066 0
-3059 -3067 0
-3060 -3068 0
-3057 -3349 0
-3058 -3350 0
-3059 -3351 0
-3060 -3352 0
-3057 -3465 0
-3058 -3466 0
-3059 -3467 0
-3060 -3468 0
-3057 -3757 0
-3058 -3758 0
-3059 -3759 0
-3060 -3760 0
-3061 -3065 0
-3062 -3066 0
-3063 -3067 0
-3064 -3068 0
-3061 -3073 0
-3062 -3074 0
-3063 -3075 0
-3064 -3076 0
-3061 -3161 0
-3062 -3162 0
-3063 -3163 0
-3064 -3164 0
-3061 -3169 0
-3062 -3170 0
-3063 -3171 0
-3064 -3172 0
-3061 -3537 0
-3062 -3538 0
-3063 -3539 0
-3064 -3540 0
-3061 -3761 0
-3062 -3762 0
-3063 -3763 0
-3064 -3764 0
-3065 -3469 0
-3066 -3470 0
-3067 -3471 0
-3068 -3472 0
-3065 -3765 0
-3066 -3766 0
-3067 -3767 0
-3068 -3768 0
-3069 -3073 0
-3070 -3074 0
-3071 -3075 0
-3072 -3076 0
-3069 -3361 0
-3070 -3362 0
-3071 -3363 0
-3072 -3364 0
-3073 -3177 0
-3074 -3178 0
-3075 -3179 0
-3076 -3180 0
-3073 -3185 0
-3074 -3186 0
-3075 -3187 0
-3076 -3188 0
-3073 -3281 0
-3074 -3282 0
-3075 -3283 0
-3076 -3284 0
-3073 -3477 0
-3074 -3478 0
-3075 -3479 0
-3076 -3480 0
-3073 -3557 0
-3074 -3558 0
-3075 -3559 0
-3076 -3560 0
-3077 -3081 0
-3078 -3082 0
-3079 -3083 0
-3080 -3084 0
-3077 -3085 0
-3078 -3086 0
-3079 -3087 0
-3080 -3088 0
-3077 -3113 0
-3078 -3114 0
-3079 -3115 0
-3080 -3116 0
-3081 -3089 0
-3082 -3090 0
-3083 -3091 0
-3084 -3092 0
-3081 -3125 0
-3082 -3126 0
-3083 -3127 0
-3084 -3128 0
-3081 -3129 0
-3082 -3130 0
-3083 -3131 0
-3084 -3132 0
-3081 -3481 0
-3082 -3482 0
-3083 -3483 0
-3084 -3484 0
-3085 -3089 0
-3086 -3090 0
-3087 -3091 0
-3088 -3092 0
-3085 -3145 0
-3086 -3146 0
-3087 -3147 0
-3088 -3148 0
-3089 -3173 0
-3090 -3174 0
-3091 -3175 0
-3092 -3176 0
-3089 -3177 0
-3090 -3178 0
-3091 -3179 0
-3092 -3180 0
-3089 -3729 0
-3090 -3730 0
-3091 -3731 0
-3092 -3732 0
-3093 -3097 0
-3094 -3098 0
-3095 -3099 0
-3096 -3100 0
-3093 -3109 0
-3094 -3110 0
-3095 -3111 0
-3096 -3112 0
-3093 -3121 0
-3094 -3122 0
-3095 -3123 0
-3096 -3124 0
-3097 -3113 0
-3098 -3114 0
-3099 -3115 0
-3100 -3116 0
-3097 -3121 0
-3098 -3122 0
-3099 -3123 0
-3100 -3124 0
-3097 -3757 0
-3098 -3758 0
-3099 -3759 0
-3100 -3760 0
-3101 -3105 0
-3102 -3106 0
-3103 -3107 0
-3104 -3108 0
-3101 -3109 0
-3102 -3110 0
-3103 -3111 0
-3104 -3112 0
-3101 -3141 0
-3102 -3142 0
-3103 -3143 0
-3104 -3144 0
-3101 -3373 0
-3102 -3374 0
-3103 -3375 0
-3104 -3376 0
-3101 -3729 0
-3102 -3730 0
-3103 -3731 0
-3104 -3732 0
-3105 -3113 0
-3106 -3114 0
-3107 -3115 0
-3108 -3116 0
-3105 -3145 0
-3106 -3146 0
-3107 -3147 0
-3108 -3148 0
-3105 -3585 0
-3106 -3586 0
-3107 -3587 0
-3108 -3588 0
-3105 -3761 0
-3106 -3762 0
-3107 -3763 0
-3108 -3764 0
-3109 -3113 0
-3110 -3114 0
-3111 -3115 0
-3112 -3116 0
-3109 -3125 0
-3110 -3126 0
-3111 -3127 0
-3112 -3128 0
-3109 -3141 0
-3110 -3142 0
-3111 -3143 0
-3112 -3144 0
-3109 -3205 0
-3110 -3206 0
-3111 -3207 0
-3112 -3208 0
-3109 -3637 0
-3110 -3638 0
-3111 -3639 0
-3112 -3640 0
-3109 -3733 0
-3110 -3734 0
-3111 -3735 0
-3112 -3736 0
-3113 -3117 0
-3114 -3118 0
-3115 -3119 0
-3116 -3120 0
-3113 -3125 0
-3114 -3126 0
-3115 -3127 0
-3116 -3128 0
-3113 -3145 0
-3114 -3146 0
-3115 -3147 0
-3116 -3148 0
-3113 -3409 0
-3114 -3410 0
-3115 -3411 0
-3116 -3412 0
-3113 -3641 0
-3114 -3642 0
-3115 -3643 0
-3116 -3644 0
-3113 -3757 0
-3114 -3758 0
-3115 -3759 0
-3116 -3760 0
-3113 -3765 0
-3114 -3766 0
-3115 -3767 0
-3116 -3768 0
-3121 -3125 0
-3122 -3126 0
-3123 -3127 0
-3124 -3128 0
-3125 -3129 0
-3126 -3130 0
-3127 -3131 0
-3128 -3132 0
-3125 -3173 0
-3126 -3174 0
-3127 -3175 0
-3128 -3176 0
-3125 -3217 0
-3126 -3218 0
-3127 -3219 0
-3128 -3220 0
-3125 -3417 0
-3126 -3418 0
-3127 -3419 0
-3128 -3420 0
-3125 -3685 0
-3126 -3686 0
-3127 -3687 0
-3128 -3688 0
-3129 -3177 0
-3130 -3178 0
-3131 -3179 0
-3132 -3180 0
-3129 -3313 0
-3130 -3314 0
-3131 -3315 0
-3132 -3316 0
-3129 -3649 0
-3130 -3650 0
-3131 -3651 0
-3132 -3652 0
-3129 -3689 0
-3130 -3690 0
-3131 -3691 0
-3132 -3692 0
-3133 -3157 0
-3134 -3158 0
-3135 -3159 0
-3136 -3160 0
-3133 -3189 0
-3134 -3190 0
-3135 -3191 0
-3136 -3192 0
-3133 -3321 0
-3134 -3322 0
-3135 -3323 0
-3136 -3324 0
-3133 -3509 0
-3134 -3510 0
-3135 -3511 0
-3136 -3512 0
-3137 -3157 0
-3138 -3158 0
-3139 -3159 0
-3140 -3160 0
-3137 -3165 0
-3138 -3166 0
-3139 -3167 0
-3140 -3168 0
-3137 -3169 0
-3138 -3170 0
-3139 -3171 0
-3140 -3172 0
-3137 -3513 0
-3138 -3514 0
-3139 -3515 0
-3140 -3516 0
-3137 -3661 0
-3138 -3662 0
-3139 -3663 0
-3140 -3664 0
-3141 -3145 0
-3142 -3146 0
-3143 -3147 0
-3144 -3148 0
-3141 -3149 0
-3142 -3150 0
-3143 -3151 0
-3144 -3152 0
-3141 -3153 0
-3142 -3154 0
-3143 -3155 0
-3144 -3156 0
-3141 -3173 0
-3142 -3174 0
-3143 -3175 0
-3144 -3176 0
-3141 -3193 0
-3142 -3194 0
-3143 -3195 0
-3144 -3196 0
-3141 -3201 0
-3142 -3202 0
-3143 -3203 0
-3144 -3204 0
-3141 -3233 0
-3142 -3234 0
-3143 -3235 0
-3144 -3236 0
-3141 -3697 0
-3142 -3698 0
-3143 -3699 0
-3144 -3700 0
-3141 -3741 0
-3142 -3742 0
-3143 -3743 0
-3144 -3744 0
-3145 -3173 0
-3146 -3174 0
-3147 -3175 0
-3148 -3176 0
-3145 -3433 0
-3146 -3434 0
-3147 -3435 0
-3148 -3436 0
-3149 -3157 0
-3150 -3158 0
-3151 -3159 0
-3152 -3160 0
-3149 -3177 0
-3150 -3178 0
-3151 -3179 0
-3152 -3180 0
-3149 -3193 0
-3150 -3194 0
-3151 -3195 0
-3152 -3196 0
-3149 -3521 0
-3150 -3522 0
-3151 -3523 0
-3152 -3524 0
-3149 -3701 0
-3150 -3702 0
-3151 -3703 0
-3152 -3704 0
-3153 -3157 0
-3154 -3158 0
-3155 -3159 0
-3156 -3160 0
-3153 -3197 0
-3154 -3198 0
-3155 -3199 0
-3156 -3200 0
-3153 -3201 0
-3154 -3202 0
-3155 -3203 0
-3156 -3204 0
-3153 -3337 0
-3154 -3338 0
-3155 -3339 0
-3156 -3340 0
-3153 -3381 0
-3154 -3382 0
-3155 -3383 0
-3156 -3384 0
-3153 -3525 0
-3154 -3526 0
-3155 -3527 0
-3156 -3528 0
-3153 -3669 0
-3154 -3670 0
-3155 -3671 0
-3156 -3672 0
-3157 -3181 0
-3158 -3182 0
-3159 -3183 0
-3160 -3184 0
-3157 -3185 0
-3158 -3186 0
-3159 -3187 0
-3160 -3188 0
-3157 -3197 0
-3158 -3198 0
-3159 -3199 0
-3160 -3200 0
-3157 -3341 0
-3158 -3342 0
-3159 -3343 0
-3160 -3344 0
-3157 -3357 0
-3158 -3358 0
-3159 -3359 0
-3160 -3360 0
-3157 -3537 0
-3158 -3538 0
-3159 -3539 0
-3160 -3540 0
-3157 -3625 0
-3158 -3626 0
-3159 -3627 0
-3160 -3628 0
-3161 -3169 0
-3162 -3170 0
-3163 -3171 0
-3164 -3172 0
-3161 -3177 0
-3162 -3178 0
-3163 -3179 0
-3164 -3180 0
-3161 -3601 0
-3162 -3602 0
-3163 -3603 0
-3164 -3604 0
-3165 -3169 0
-3166 -3170 0
-3167 -3171 0
-3168 -3172 0
-3165 -3181 0
-3166 -3182 0
-3167 -3183 0
-3168 -3184 0
-3165 -3561 0
-3166 -3562 0
-3167 -3563 0
-3168 -3564 0
-3165 -3629 0
-3166 -3630 0
-3167 -3631 0
-3168 -3632 0
-3169 -3185 0
-3170 -3186 0
-3171 -3187 0
-3172 -3188 0
-3169 -3605 0
-3170 -3606 0
-3171 -3607 0
-3172 -3608 0
-3169 -3665 0
-3170 -3666 0
-3171 -3667 0
-3172 -3668 0
-3173 -3177 0
-3174 -3178 0
-3175 -3179 0
-3176 -3180 0
-3173 -3261 0
-3174 -3262 0
-3175 -3263 0
-3176 -3264 0
-3173 -3449 0
-3174 -3450 0
-3175 -3451 0
-3176 -3452 0
-3173 -3745 0
-3174 -3746 0
-3175 -3747 0
-3176 -3748 0
-3177 -3185 0
-3178 -3186 0
-3179 -3187 0
-3180 -3188 0
-3177 -3405 0
-3178 -3406 0
-3179 -3407 0
-3180 -3408 0
-3177 -3641 0
-3178 -3642 0
-3179 -3643 0
-3180 -3644 0
-3177 -3749 0
-3178 -3750 0
-3179 -3751 0
-3180 -3752 0
-3181 -3185 0
-3182 -3186 0
-3183 -3187 0
-3184 -3188 0
-3181 -3345 0
-3182 -3346 0
-3183 -3347 0
-3184 -3348 0
-3181 -3565 0
-3182 -3566 0
-3183 -3567 0
-3184 -3568 0
-3181 -3645 0
-3182 -3646 0
-3183 -3647 0
-3184 -3648 0
-3185 -3673 0
-3186 -3674 0
-3187 -3675 0
-3188 -3676 0
-3189 -3197 0
-3190 -3198 0
-3191 -3199 0
-3192 -3200 0
-3189 -3329 0
-3190 -3330 0
-3191 -3331 0
-3192 -3332 0
-3189 -3585 0
-3190 -3586 0
-3191 -3587 0
-3192 -3588 0
-3189 -3757 0
-3190 -3758 0
-3191 -3759 0
-3192 -3760 0
-3193 -3197 0
-3194 -3198 0
-3195 -3199 0
-3196 -3200 0
-3193 -3289 0
-3194 -3290 0
-3195 -3291 0
-3196 -3292 0
-3193 -3437 0
-3194 -3438 0
-3195 -3439 0
-3196 -3440 0
-3197 -3413 0
-3198 -3414 0
-3199 -3415 0
-3200 -3416 0
-3197 -3577 0
-3198 -3578 0
-3199 -3579 0
-3200 -3580 0
-3197 -3593 0
-3198 -3594 0
-3199 -3595 0
-3200 -3596 0
-3201 -3321 0
-3202 -3322 0
-3203 -3323 0
-3204 -3324 0
-3205 -3209 0
-3206 -3210 0
-3207 -3211 0
-3208 -3212 0
-3205 -3213 0
-3206 -3214 0
-3207 -3215 0
-3208 -3216 0
-3205 -3217 0
-3206 -3218 0
-3207 -3219 0
-3208 -3220 0
-3205 -3233 0
-3206 -3234 0
-3207 -3235 0
-3208 -3236 0
-3205 -3237 0
-3206 -3238 0
-3207 -3239 0
-3208 -3240 0
-3205 -3681 0
-3206 -3682 0
-3207 -3683 0
-3208 -3684 0
-3209 -3241 0
-3210 -3242 0
-3211 -3243 0
-3212 -3244 0
-3209 -3245 0
-3210 -3246 0
-3211 -3247 0
-3212 -3248 0
-3209 -3373 0
-3210 -3374 0
-3211 -3375 0
-3212 -3376 0
-3209 -3689 0
-3210 -3690 0
-3211 -3691 0
-3212 -3692 0
-3213 -3229 0
-3214 -3230 0
-3215 -3231 0
-3216 -3232 0
-3213 -3305 0
-3214 -3306 0
-3215 -3307 0
-3216 -3308 0
-3213 -3409 0
-3214 -3410 0
-3215 -3411 0
-3216 -3412 0
-3213 -3609 0
-3214 -3610 0
-3215 -3611 0
-3216 -3612 0
-3213 -3693 0
-3214 -3694 0
-3215 -3695 0
-3216 -3696 0
-3217 -3229 0
-3218 -3230 0
-3219 -3231 0
-3220 -3232 0
-3217 -3261 0
-3218 -3262 0
-3219 -3263 0
-3220 -3264 0
-3217 -3269 0
-3218 -3270 0
-3219 -3271 0
-3220 -3272 0
-3217 -3349 0
-3218 -3350 0
-3219 -3351 0
-3220 -3352 0
-3217 -3493 0
-3218 -3494 0
-3219 -3495 0
-3220 -3496 0
-3217 -3685 0
-3218 -3686 0
-3219 -3687 0
-3220 -3688 0
-3221 -3225 0
-3222 -3226 0
-3223 -3227 0
-3224 -3228 0
-3221 -3465 0
-3222 -3466 0
-3223 -3467 0
-3224 -3468 0
-3225 -3229 0
-3226 -3230 0
-3227 -3231 0
-3228 -3232 0
-3225 -3313 0
-3226 -3314 0
-3227 -3315 0
-3228 -3316 0
-3225 -3469 0
-3226 -3470 0
-3227 -3471 0
-3228 -3472 0
-3225 -3637 0
-3226 -3638 0
-3227 -3639 0
-3228 -3640 0
-3229 -3281 0
-3230 -3282 0
-3231 -3283 0
-3232 -3284 0
-3229 -3285 0
-3230 -3286 0
-3231 -3287 0
-3232 -3288 0
-3229 -3313 0
-3230 -3314 0
-3231 -3315 0
-3232 -3316 0
-3229 -3421 0
-3230 -3422 0
-3231 -3423 0
-3232 -3424 0
-3229 -3645 0
-3230 -3646 0
-3231 -3647 0
-3232 -3648 0
-3229 -3697 0
-3230 -3698 0
-3231 -3699 0
-3232 -3700 0
-3229 -3717 0
-3230 -3718 0
-3231 -3719 0
-3232 -3720 0
-3233 -3237 0
-3234 -3238 0
-3235 -3239 0
-3236 -3240 0
-3233 -3241 0
-3234 -3242 0
-3235 -3243 0
-3236 -3244 0
-3233 -3257 0
-3234 -3258 0
-3235 -3259 0
-3236 -3260 0
-3233 -3261 0
-3234 -3262 0
-3235 -3263 0
-3236 -3264 0
-3233 -3289 0
-3234 -3290 0
-3235 -3291 0
-3236 -3292 0
-3233 -3317 0
-3234 -3318 0
-3235 -3319 0
-3236 -3320 0
-3233 -3321 0
-3234 -3322 0
-3235 -3323 0
-3236 -3324 0
-3233 -3425 0
-3234 -3426 0
-3235 -3427 0
-3236 -3428 0
-3233 -3717 0
-3234 -3718 0
-3235 -3719 0
-3236 -3720 0
-3237 -3245 0
-3238 -3246 0
-3239 -3247 0
-3240 -3248 0
-3237 -3265 0
-3238 -3266 0
-3239 -3267 0
-3240 -3268 0
-3237 -3269 0
-3238 -3270 0
-3239 -3271 0
-3240 -3272 0
-3237 -3501 0
-3238 -3502 0
-3239 -3503 0
-3240 -3504 0
-3237 -3721 0
-3238 -3722 0
-3239 -3723 0
-3240 -3724 0
-3241 -3245 0
-3242 -3246 0
-3243 -3247 0
-3244 -3248 0
-3241 -3277 0
-3242 -3278 0
-3243 -3279 0
-3244 -3280 0
-3241 -3293 0
-3242 -3294 0
-3243 -3295 0
-3244 -3296 0
-3241 -3325 0
-3242 -3326 0
-3243 -3327 0
-3244 -3328 0
-3245 -3705 0
-3246 -3706 0
-3247 -3707 0
-3248 -3708 0
-3249 -3253 0
-3250 -3254 0
-3251 -3255 0
-3252 -3256 0
-3249 -3269 0
-3250 -3270 0
-3251 -3271 0
-3252 -3272 0
-3249 -3513 0
-3250 -3514 0
-3251 -3515 0
-3252 -3516 0
-3253 -3273 0
-3254 -3274 0
-3255 -3275 0
-3256 -3276 0
-3253 -3541 0
-3254 -3542 0
-3255 -3543 0
-3256 -3544 0
-3257 -3261 0
-3258 -3262 0
-3259 -3263 0
-3260 -3264 0
-3257 -3265 0
-3258 -3266 0
-3259 -3267 0
-3260 -3268 0
-3257 -3277 0
-3258 -3278 0
-3259 -3279 0
-3260 -3280 0
-3257 -3297 0
-3258 -3298 0
-3259 -3299 0
-3260 -3300 0
-3257 -3485 0
-3258 -3486 0
-3259 -3487 0
-3260 -3488 0
-3261 -3269 0
-3262 -3270 0
-3263 -3271 0
-3264 -3272 0
-3261 -3281 0
-3262 -3282 0
-3263 -3283 0
-3264 -3284 0
-3261 -3353 0
-3262 -3354 0
-3263 -3355 0
-3264 -3356 0
-3261 -3529 0
-3262 -3530 0
-3263 -3531 0
-3264 -3532 0
-3265 -3269 0
-3266 -3270 0
-3267 -3271 0
-3268 -3272 0
-3265 -3533 0
-3266 -3534 0
-3267 -3535 0
-3268 -3536 0
-3269 -3273 0
-3270 -3274 0
-3271 -3275 0
-3272 -3276 0
-3269 -3285 0
-3270 -3286 0
-3271 -3287 0
-3272 -3288 0
-3269 -3389 0
-3270 -3390 0
-3271 -3391 0
-3272 -3392 0
-3269 -3537 0
-3270 -3538 0
-3271 -3539 0
-3272 -3540 0
-3269 -3757 0
-3270 -3758 0
-3271 -3759 0
-3272 -3760 0
-3273 -3397 0
-3274 -3398 0
-3275 -3399 0
-3276 -3400 0
-3273 -3545 0
-3274 -3546 0
-3275 -3547 0
-3276 -3548 0
-3273 -3705 0
-3274 -3706 0
-3275 -3707 0
-3276 -3708 0
-3277 -3301 0
-3278 -3302 0
-3279 -3303 0
-3280 -3304 0
-3277 -3685 0
-3278 -3686 0
-3279 -3687 0
-3280 -3688 0
-3281 -3285 0
-3282 -3286 0
-3283 -3287 0
-3284 -3288 0
-3281 -3477 0
-3282 -3478 0
-3283 -3479 0
-3284 -3480 0
-3281 -3669 0
-3282 -3670 0
-3283 -3671 0
-3284 -3672 0
-3285 -3361 0
-3286 -3362 0
-3287 -3363 0
-3288 -3364 0
-3285 -3457 0
-3286 -3458 0
-3287 -3459 0
-3288 -3460 0
-3285 -3481 0
-3286 -3482 0
-3287 -3483 0
-3288 -3484 0
-3285 -3561 0
-3286 -3562 0
-3287 -3563 0
-3288 -3564 0
-3285 -3621 0
-3286 -3622 0
-3287 -3623 0
-3288 -3624 0
-3285 -3725 0
-3286 -3726 0
-3287 -3727 0
-3288 -3728 0
-3289 -3293 0
-3290 -3294 0
-3291 -3295 0
-3292 -3296 0
-3289 -3297 0
-3290 -3298 0
-3291 -3299 0
-3292 -3300 0
-3289 -3333 0
-3290 -3334 0
-3291 -3335 0
-3292 -3336 0
-3289 -3505 0
-3290 -3506 0
-3291 -3507 0
-3292 -3508 0
-3293 -3301 0
-3294 -3302 0
-3295 -3303 0
-3296 -3304 0
-3293 -3341 0
-3294 -3342 0
-3295 -3343 0
-3296 -3344 0
-3293 -3433 0
-3294 -3434 0
-3295 -3435 0
-3296 -3436 0
-3297 -3301 0
-3298 -3302 0
-3299 -3303 0
-3300 -3304 0
-3297 -3537 0
-3298 -3538 0
-3299 -3539 0
-3300 -3540 0
-3301 -3345 0
-3302 -3346 0
-3303 -3347 0
-3304 -3348 0
-3301 -3449 0
-3302 -3450 0
-3303 -3451 0
-3304 -3452 0
-3301 -3553 0
-3302 -3554 0
-3303 -3555 0
-3304 -3556 0
-3301 -3709 0
-3302 -3710 0
-3303 -3711 0
-3304 -3712 0
-3305 -3309 0
-3306 -3310 0
-3307 -3311 0
-3308 -3312 0
-3305 -3313 0
-3306 -3314 0
-3307 -3315 0
-3308 -3316 0
-3305 -3593 0
-3306 -3594 0
-3307 -3595 0
-3308 -3596 0
-3309 -3313 0
-3310 -3314 0
-3311 -3315 0
-3312 -3316 0
-3309 -3465 0
-3310 -3466 0
-3311 -3467 0
-3312 -3468 0
-3313 -3385 0
-3314 -3386 0
-3315 -3387 0
-3316 -3388 0
-3313 -3729 0
-3314 -3730 0
-3315 -3731 0
-3316 -3732 0
-3317 -3321 0
-3318 -3322 0
-3319 -3323 0
-3320 -3324 0
-3317 -3729 0
-3318 -3730 0
-3319 -3731 0
-3320 -3732 0
-3321 -3325 0
-3322 -3326 0
-3323 -3327 0
-3324 -3328 0
-3321 -3329 0
-3322 -3330 0
-3323 -3331 0
-3324 -3332 0
-3321 -3333 0
-3322 -3334 0
-3323 -3335 0
-3324 -3336 0
-3325 -3337 0
-3326 -3338 0
-3327 -3339 0
-3328 -3340 0
-3325 -3341 0
-3326 -3342 0
-3327 -3343 0
-3328 -3344 0
-3325 -3485 0
-3326 -3486 0
-3327 -3487 0
-3328 -3488 0
-3329 -3333 0
-3330 -3334 0
-3331 -3335 0
-3332 -3336 0
-3329 -3337 0
-3330 -3338 0
-3331 -3339 0
-3332 -3340 0
-3329 -3429 0
-3330 -3430 0
-3331 -3431 0
-3332 -3432 0
-3329 -3585 0
-3330 -3586 0
-3331 -3587 0
-3332 -3588 0
-3333 -3341 0
-3334 -3342 0
-3335 -3343 0
-3336 -3344 0
-3333 -3517 0
-3334 -3518 0
-3335 -3519 0
-3336 -3520 0
-3337 -3341 0
-3338 -3342 0
-3339 -3343 0
-3340 -3344 0
-3337 -3437 0
-3338 -3438 0
-3339 -3439 0
-3340 -3440 0
-3337 -3525 0
-3338 -3526 0
-3339 -3527 0
-3340 -3528 0
-3337 -3589 0
-3338 -3590 0
-3339 -3591 0
-3340 -3592 0
-3341 -3345 0
-3342 -3346 0
-3343 -3347 0
-3344 -3348 0
-3341 -3537 0
-3342 -3538 0
-3343 -3539 0
-3344 -3540 0
-3345 -3565 0
-3346 -3566 0
-3347 -3567 0
-3348 -3568 0
-3345 -3713 0
-3346 -3714 0
-3347 -3715 0
-3348 -3716 0
-3349 -3353 0
-3350 -3354 0
-3351 -3355 0
-3352 -3356 0
-3349 -3465 0
-3350 -3466 0
-3351 -3467 0
-3352 -3468 0
-3353 -3361 0
-3354 -3362 0
-3355 -3363 0
-3356 -3364 0
-3353 -3397 0
-3354 -3398 0
-3355 -3399 0
-3356 -3400 0
-3353 -3773 0
-3354 -3774 0
-3355 -3775 0
-3356 -3776 0
-3357 -3361 0
-3358 -3362 0
-3359 -3363 0
-3360 -3364 0
-3357 -3365 0
-3358 -3366 0
-3359 -3367 0
-3360 -3368 0
-3357 -3393 0
-3358 -3394 0
-3359 -3395 0
-3360 -3396 0
-3357 -3537 0
-3358 -3538 0
-3359 -3539 0
-3360 -3540 0
-3361 -3397 0
-3362 -3398 0
-3363 -3399 0
-3364 -3400 0
-3361 -3541 0
-3362 -3542 0
-3363 -3543 0
-3364 -3544 0
-3361 -3725 0
-3362 -3726 0
-3363 -3727 0
-3364 -3728 0
-3365 -3369 0
-3366 -3370 0
-3367 -3371 0
-3368 -3372 0
-3365 -3401 0
-3366 -3402 0
-3367 -3403 0
-3368 -3404 0
-3365 -3553 0
-3366 -3554 0
-3367 -3555 0
-3368 -3556 0
-3365 -3721 0
-3366 -3722 0
-3367 -3723 0
-3368 -3724 0
-3369 -3453 0
-3370 -3454 0
-3371 -3455 0
-3372 -3456 0
-3369 -3461 0
-3370 -3462 0
-3371 -3463 0
-3372 -3464 0
-3369 -3617 0
-3370 -3618 0
-3371 -3619 0
-3372 -3620 0
-3369 -3697 0
-3370 -3698 0
-3371 -3699 0
-3372 -3700 0
-3373 -3381 0
-3374 -3382 0
-3375 -3383 0
-3376 -3384 0
-3373 -3409 0
-3374 -3410 0
-3375 -3411 0
-3376 -3412 0
-3373 -3729 0
-3374 -3730 0
-3375 -3731 0
-3376 -3732 0
-3377 -3381 0
-3378 -3382 0
-3379 -3383 0
-3380 -3384 0
-3377 -3585 0
-3378 -3586 0
-3379 -3587 0
-3380 -3588 0
-3381 -3413 0
-3382 -3414 0
-3383 -3415 0
-3384 -3416 0
-3381 -3589 0
-3382 -3590 0
-3383 -3591 0
-3384 -3592 0
-3381 -3685 0
-3382 -3686 0
-3383 -3687 0
-3384 -3688 0
-3381 -3737 0
-3382 -3738 0
-3383 -3739 0
-3384 -3740 0
-3385 -3397 0
-3386 -3398 0
-3387 -3399 0
-3388 -3400 0
-3385 -3729 0
-3386 -3730 0
-3387 -3731 0
-3388 -3732 0
-3389 -3397 0
-3390 -3398 0
-3391 -3399 0
-3392 -3400 0
-3389 -3445 0
-3390 -3446 0
-3391 -3447 0
-3392 -3448 0
-3389 -3657 0
-3390 -3658 0
-3391 -3659 0
-3392 -3660 0
-3393 -3397 0
-3394 -3398 0
-3395 -3399 0
-3396 -3400 0
-3393 -3401 0
-3394 -3402 0
-3395 -3403 0
-3396 -3404 0
-3393 -3441 0
-3394 -3442 0
-3395 -3443 0
-3396 -3444 0
-3393 -3601 0
-3394 -3602 0
-3395 -3603 0
-3396 -3604 0
-3393 -3669 0
-3394 -3670 0
-3395 -3671 0
-3396 -3672 0
-3397 -3405 0
-3398 -3406 0
-3399 -3407 0
-3400 -3408 0
-3397 -3445 0
-3398 -3446 0
-3399 -3447 0
-3400 -3448 0
-3397 -3661 0
-3398 -3662 0
-3399 -3663 0
-3400 -3664 0
-3397 -3741 0
-3398 -3742 0
-3399 -3743 0
-3400 -3744 0
-3401 -3405 0
-3402 -3406 0
-3403 -3407 0
-3404 -3408 0
-3401 -3453 0
-3402 -3454 0
-3403 -3455 0
-3404 -3456 0
-3401 -3489 0
-3402 -3490 0
-3403 -3491 0
-3404 -3492 0
-3401 -3673 0
-3402 -3674 0
-3403 -3675 0
-3404 -3676 0
-3401 -3733 0
-3402 -3734 0
-3403 -3735 0
-3404 -3736 0
-3405 -3457 0
-3406 -3458 0
-3407 -3459 0
-3408 -3460 0
-3409 -3413 0
-3410 -3414 0
-3411 -3415 0
-3412 -3416 0
-3409 -3417 0
-3410 -3418 0
-3411 -3419 0
-3412 -3420 0
-3409 -3421 0
-3410 -3422 0
-3411 -3423 0
-3412 -3424 0
-3409 -3433 0
-3410 -3434 0
-3411 -3435 0
-3412 -3436 0
-3409 -3437 0
-3410 -3438 0
-3411 -3439 0
-3412 -3440 0
-3409 -3609 0
-3410 -3610 0
-3411 -3611 0
-3412 -3612 0
-3409 -3749 0
-3410 -3750 0
-3411 -3751 0
-3412 -3752 0
-3413 -3593 0
-3414 -3594 0
-3415 -3595 0
-3416 -3596 0
-3413 -3613 0
-3414 -3614 0
-3415 -3615 0
-3416 -3616 0
-3413 -3709 0
-3414 -3710 0
-3415 -3711 0
-3416 -3712 0
-3417 -3421 0
-3418 -3422 0
-3419 -3423 0
-3420 -3424 0
-3417 -3449 0
-3418 -3450 0
-3419 -3451 0
-3420 -3452 0
-3417 -3453 0
-3418 -3454 0
-3419 -3455 0
-3420 -3456 0
-3417 -3493 0
-3418 -3494 0
-3419 -3495 0
-3420 -3496 0
-3417 -3633 0
-3418 -3634 0
-3419 -3635 0
-3420 -3636 0
-3421 -3457 0
-3422 -3458 0
-3423 -3459 0
-3424 -3460 0
-3421 -3713 0
-3422 -3714 0
-3423 -3715 0
-3424 -3716 0
-3421 -3753 0
-3422 -3754 0
-3423 -3755 0
-3424 -3756 0
-3421 -3761 0
-3422 -3762 0
-3423 -3763 0
-3424 -3764 0
-3425 -3433 0
-3426 -3434 0
-3427 -3435 0
-3428 -3436 0
-3425 -3761 0
-3426 -3762 0
-3427 -3763 0
-3428 -3764 0
-3425 -3777 0
-3426 -3778 0
-3427 -3779 0
-3428 -3780 0
-3429 -3437 0
-3430 -3438 0
-3431 -3439 0
-3432 -3440 0
-3429 -3441 0
-3430 -3442 0
-3431 -3443 0
-3432 -3444 0
-3429 -3445 0
-3430 -3446 0
-3431 -3447 0
-3432 -3448 0
-3433 -3437 0
-3434 -3438 0
-3435 -3439 0
-3436 -3440 0
-3433 -3449 0
-3434 -3450 0
-3435 -3451 0
-3436 -3452 0
-3433 -3781 0
-3434 -3782 0
-3435 -3783 0
-3436 -3784 0
-3437 -3453 0
-3438 -3454 0
-3439 -3455 0
-3440 -3456 0
-3437 -3457 0
-3438 -3458 0
-3439 -3459 0
-3440 -3460 0
-3437 -3505 0
-3438 -3506 0
-3439 -3507 0
-3440 -3508 0
-3441 -3445 0
-3442 -3446 0
-3443 -3447 0
-3444 -3448 0
-3441 -3453 0
-3442 -3454 0
-3443 -3455 0
-3444 -3456 0
-3441 -3517 0
-3442 -3518 0
-3443 -3519 0
-3444 -3520 0
-3441 -3637 0
-3442 -3638 0
-3443 -3639 0
-3444 -3640 0
-3445 -3457 0
-3446 -3458 0
-3447 -3459 0
-3448 -3460 0
-3445 -3641 0
-3446 -3642 0
-3447 -3643 0
-3448 -3644 0
-3445 -3677 0
-3446 -3678 0
-3447 -3679 0
-3448 -3680 0
-3449 -3453 0
-3450 -3454 0
-3451 -3455 0
-3452 -3456 0
-3449 -3529 0
-3450 -3530 0
-3451 -3531 0
-3452 -3532 0
-3449 -3665 0
-3450 -3666 0
-3451 -3667 0
-3452 -3668 0
-3449 -3745 0
-3450 -3746 0
-3451 -3747 0
-3452 -3748 0
-3453 -3457 0
-3454 -3458 0
-3455 -3459 0
-3456 -3460 0
-3453 -3537 0
-3454 -3538 0
-3455 -3539 0
-3456 -3540 0
-3453 -3649 0
-3454 -3650 0
-3455 -3651 0
-3456 -3652 0
-3457 -3541 0
-3458 -3542 0
-3459 -3543 0
-3460 -3544 0
-3461 -3537 0
-3462 -3538 0
-3463 -3539 0
-3464 -3540 0
-3461 -3549 0
-3462 -3550 0
-3463 -3551 0
-3464 -3552 0
-3461 -3717 0
-3462 -3718 0
-3463 -3719 0
-3464 -3720 0
-3465 -3469 0
-3466 -3470 0
-3467 -3471 0
-3468 -3472 0
-3465 -3473 0
-3466 -3474 0
-3467 -3475 0
-3468 -3476 0
-3465 -3769 0
-3466 -3770 0
-3467 -3771 0
-3468 -3772 0
-3469 -3481 0
-3470 -3482 0
-3471 -3483 0
-3472 -3484 0
-3469 -3733 0
-3470 -3734 0
-3471 -3735 0
-3472 -3736 0
-3469 -3769 0
-3470 -3770 0
-3471 -3771 0
-3472 -3772 0
-3473 -3481 0
-3474 -3482 0
-3475 -3483 0
-3476 -3484 0
-3473 -3641 0
-3474 -3642 0
-3475 -3643 0
-3476 -3644 0
-3473 -3693 0
-3474 -3694 0
-3475 -3695 0
-3476 -3696 0
-3473 -3773 0
-3474 -3774 0
-3475 -3775 0
-3476 -3776 0
-3477 -3481 0
-3478 -3482 0
-3479 -3483 0
-3480 -3484 0
-3477 -3737 0
-3478 -3738 0
-3479 -3739 0
-3480 -3740 0
-3481 -3621 0
-3482 -3622 0
-3483 -3623 0
-3484 -3624 0
-3481 -3701 0
-3482 -3702 0
-3483 -3703 0
-3484 -3704 0
-3481 -3773 0
-3482 -3774 0
-3483 -3775 0
-3484 -3776 0
-3485 -3489 0
-3486 -3490 0
-3487 -3491 0
-3488 -3492 0
-3485 -3525 0
-3486 -3526 0
-3487 -3527 0
-3488 -3528 0
-3485 -3537 0
-3486 -3538 0
-3487 -3539 0
-3488 -3540 0
-3485 -3725 0
-3486 -3726 0
-3487 -3727 0
-3488 -3728 0
-3489 -3537 0
-3490 -3538 0
-3491 -3539 0
-3492 -3540 0
-3489 -3545 0
-3490 -3546 0
-3491 -3547 0
-3492 -3548 0
-3493 -3497 0
-3494 -3498 0
-3495 -3499 0
-3496 -3500 0
-3493 -3529 0
-3494 -3530 0
-3495 -3531 0
-3496 -3532 0
-3493 -3537 0
-3494 -3538 0
-3495 -3539 0
-3496 -3540 0
-3497 -3537 0
-3498 -3538 0
-3499 -3539 0
-3500 -3540 0
-3497 -3629 0
-3498 -3630 0
-3499 -3631 0
-3500 -3632 0
-3501 -3505 0
-3502 -3506 0
-3503 -3507 0
-3504 -3508 0
-3501 -3533 0
-3502 -3534 0
-3503 -3535 0
-3504 -3536 0
-3501 -3537 0
-3502 -3538 0
-3503 -3539 0
-3504 -3540 0
-3505 -3537 0
-3506 -3538 0
-3507 -3539 0
-3508 -3540 0
-3505 -3541 0
-3506 -3542 0
-3507 -3543 0
-3508 -3544 0
-3509 -3537 0
-3510 -3538 0
-3511 -3539 0
-3512 -3540 0
-3509 -3777 0
-3510 -3778 0
-3511 -3779 0
-3512 -3780 0
-3513 -3537 0
-3514 -3538 0
-3515 -3539 0
-3516 -3540 0
-3513 -3769 0
-3514 -3770 0
-3515 -3771 0
-3516 -3772 0
-3517 -3537 0
-3518 -3538 0
-3519 -3539 0
-3520 -3540 0
-3517 -3681 0
-3518 -3682 0
-3519 -3683 0
-3520 -3684 0
-3521 -3537 0
-3522 -3538 0
-3523 -3539 0
-3524 -3540 0
-3521 -3601 0
-3522 -3602 0
-3523 -3603 0
-3524 -3604 0
-3525 -3537 0
-3526 -3538 0
-3527 -3539 0
-3528 -3540 0
-3525 -3577 0
-3526 -3578 0
-3527 -3579 0
-3528 -3580 0
-3525 -3685 0
-3526 -3686 0
-3527 -3687 0
-3528 -3688 0
-3529 -3537 0
-3530 -3538 0
-3531 -3539 0
-3532 -3540 0
-3529 -3569 0
-3530 -3570 0
-3531 -3571 0
-3532 -3572 0
-3533 -3537 0
-3534 -3538 0
-3535 -3539 0
-3536 -3540 0
-3533 -3565 0
-3534 -3566 0
-3535 -3567 0
-3536 -3568 0
-3537 -3541 0
-3538 -3542 0
-3539 -3543 0
-3540 -3544 0
-3537 -3545 0
-3538 -3546 0
-3539 -3547 0
-3540 -3548 0
-3537 -3549 0
-3538 -3550 0
-3539 -3551 0
-3540 -3552 0
-3537 -3553 0
-3538 -3554 0
-3539 -3555 0
-3540 -3556 0
-3537 -3557 0
-3538 -3558 0
-3539 -3559 0
-3540 -3560 0
-3537 -3561 0
-3538 -3562 0
-3539 -3563 0
-3540 -3564 0
-3537 -3565 0
-3538 -3566 0
-3539 -3567 0
-3540 -3568 0
-3537 -3569 0
-3538 -3570 0
-3539 -3571 0
-3540 -3572 0
-3537 -3573 0
-3538 -3574 0
-3539 -3575 0
-3540 -3576 0
-3537 -3577 0
-3538 -3578 0
-3539 -3579 0
-3540 -3580 0
-3537 -3581 0
-3538 -3582 0
-3539 -3583 0
-3540 -3584 0
-3537 -3601 0
-3538 -3602 0
-3539 -3603 0
-3540 -3604 0
-3537 -3605 0
-3538 -3606 0
-3539 -3607 0
-3540 -3608 0
-3537 -3657 0
-3538 -3658 0
-3539 -3659 0
-3540 -3660 0
-3537 -3689 0
-3538 -3690 0
-3539 -3691 0
-3540 -3692 0
-3537 -3729 0
-3538 -3730 0
-3539 -3731 0
-3540 -3732 0
-3537 -3757 0
-3538 -3758 0
-3539 -3759 0
-3540 -3760 0
-3537 -3769 0
-3538 -3770 0
-3539 -3771 0
-3540 -3772 0
-3537 -3773 0
-3538 -3774 0
-3539 -3775 0
-3540 -3776 0
-3537 -3777 0
-3538 -3778 0
-3539 -3779 0
-3540 -3780 0
-3537 -3781 0
-3538 -3782 0
-3539 -3783 0
-3540 -3784 0
-3537 -7317 0
-3538 -7318 0
-3539 -7319 0
-3540 -7320 0
-3545 -3581 0
-3546 -3582 0
-3547 -3583 0
-3548 -3584 0
-3545 -3661 0
-3546 -3662 0
-3547 -3663 0
-3548 -3664 0
-3549 -3605 0
-3550 -3606 0
-3551 -3607 0
-3552 -3608 0
-3553 -3665 0
-3554 -3666 0
-3555 -3667 0
-3556 -3668 0
-3553 -3765 0
-3554 -3766 0
-3555 -3767 0
-3556 -3768 0
-3557 -3669 0
-3558 -3670 0
-3559 -3671 0
-3560 -3672 0
-3557 -3737 0
-3558 -3738 0
-3559 -3739 0
-3560 -3740 0
-3557 -3773 0
-3558 -3774 0
-3559 -3775 0
-3560 -3776 0
-3561 -3701 0
-3562 -3702 0
-3563 -3703 0
-3564 -3704 0
-3561 -3781 0
-3562 -3782 0
-3563 -3783 0
-3564 -3784 0
-3569 -3573 0
-3570 -3574 0
-3571 -3575 0
-3572 -3576 0
-3573 -3705 0
-3574 -3706 0
-3575 -3707 0
-3576 -3708 0
-3573 -3741 0
-3574 -3742 0
-3575 -3743 0
-3576 -3744 0
-3577 -3581 0
-3578 -3582 0
-3579 -3583 0
-3580 -3584 0
-3577 -3709 0
-3578 -3710 0
-3579 -3711 0
-3580 -3712 0
-3577 -3745 0
-3578 -3746 0
-3579 -3747 0
-3580 -3748 0
-3581 -3677 0
-3582 -3678 0
-3583 -3679 0
-3584 -3680 0
-3581 -3749 0
-3582 -3750 0
-3583 -3751 0
-3584 -3752 0
-3585 -3589 0
-3586 -3590 0
-3587 -3591 0
-3588 -3592 0
-3585 -3593 0
-3586 -3594 0
-3587 -3595 0
-3588 -3596 0
-3585 -3777 0
-3586 -3778 0
-3587 -3779 0
-3588 -3780 0
-3589 -3597 0
-3590 -3598 0
-3591 -3599 0
-3592 -3600 0
-3589 -3685 0
-3590 -3686 0
-3591 -3687 0
-3592 -3688 0
-3589 -3777 0
-3590 -3778 0
-3591 -3779 0
-3592 -3780 0
-3593 -3597 0
-3594 -3598 0
-3595 -3599 0
-3596 -3600 0
-3593 -3745 0
-3594 -3746 0
-3595 -3747 0
-3596 -3748 0
-3593 -3781 0
-3594 -3782 0
-3595 -3783 0
-3596 -3784 0
-3597 -3697 0
-3598 -3698 0
-3599 -3699 0
-3600 -3700 0
-3597 -3753 0
-3598 -3754 0
-3599 -3755 0
-3600 -3756 0
-3597 -3781 0
-3598 -3782 0
-3599 -3783 0
-3600 -3784 0
-3601 -3605 0
-3602 -3606 0
-3603 -3607 0
-3604 -3608 0
-3609 -3613 0
-3610 -3614 0
-3611 -3615 0
-3612 -3616 0
-3609 -3629 0
-3610 -3630 0
-3611 -3631 0
-3612 -3632 0
-3609 -3769 0
-3610 -3770 0
-3611 -3771 0
-3612 -3772 0
-3613 -3617 0
-3614 -3618 0
-3615 -3619 0
-3616 -3620 0
-3613 -3637 0
-3614 -3638 0
-3615 -3639 0
-3616 -3640 0
-3613 -3645 0
-3614 -3646 0
-3615 -3647 0
-3616 -3648 0
-3613 -3709 0
-3614 -3710 0
-3615 -3711 0
-3616 -3712 0
-3613 -3721 0
-3614 -3722 0
-3615 -3723 0
-3616 -3724 0
-3613 -3773 0
-3614 -3774 0
-3615 -3775 0
-3616 -3776 0
-3617 -3649 0
-3618 -3650 0
-3619 -3651 0
-3620 -3652 0
-3617 -3653 0
-3618 -3654 0
-3619 -3655 0
-3620 -3656 0
-3617 -3697 0
-3618 -3698 0
-3619 -3699 0
-3620 -3700 0
-3625 -3645 0
-3626 -3646 0
-3627 -3647 0
-3628 -3648 0
-3625 -3757 0
-3626 -3758 0
-3627 -3759 0
-3628 -3760 0
-3629 -3633 0
-3630 -3634 0
-3631 -3635 0
-3632 -3636 0
-3629 -3645 0
-3630 -3646 0
-3631 -3647 0
-3632 -3648 0
-3629 -3657 0
-3630 -3658 0
-3631 -3659 0
-3632 -3660 0
-3633 -3653 0
-3634 -3654 0
-3635 -3655 0
-3636 -3656 0
-3633 -3665 0
-3634 -3666 0
-3635 -3667 0
-3636 -3668 0
-3637 -3641 0
-3638 -3642 0
-3639 -3643 0
-3640 -3644 0
-3637 -3645 0
-3638 -3646 0
-3639 -3647 0
-3640 -3648 0
-3637 -3649 0
-3638 -3650 0
-3639 -3651 0
-3640 -3652 0
-3637 -3681 0
-3638 -3682 0
-3639 -3683 0
-3640 -3684 0
-3637 -3733 0
-3638 -3734 0
-3639 -3735 0
-3640 -3736 0
-3641 -3749 0
-3642 -3750 0
-3643 -3751 0
-3644 -3752 0
-3645 -3653 0
-3646 -3654 0
-3647 -3655 0
-3648 -3656 0
-3645 -3669 0
-3646 -3670 0
-3647 -3671 0
-3648 -3672 0
-3645 -3713 0
-3646 -3714 0
-3647 -3715 0
-3648 -3716 0
-3649 -3653 0
-3650 -3654 0
-3651 -3655 0
-3652 -3656 0
-3649 -3689 0
-3650 -3690 0
-3651 -3691 0
-3652 -3692 0
-3653 -3673 0
-3654 -3674 0
-3655 -3675 0
-3656 -3676 0
-3657 -3661 0
-3658 -3662 0
-3659 -3663 0
-3660 -3664 0
-3657 -3665 0
-3658 -3666 0
-3659 -3667 0
-3660 -3668 0
-3657 -3669 0
-3658 -3670 0
-3659 -3671 0
-3660 -3672 0
-3657 -3677 0
-3658 -3678 0
-3659 -3679 0
-3660 -3680 0
-3657 -3729 0
-3658 -3730 0
-3659 -3731 0
-3660 -3732 0
-3661 -3677 0
-3662 -3678 0
-3663 -3679 0
-3664 -3680 0
-3665 -3673 0
-3666 -3674 0
-3667 -3675 0
-3668 -3676 0
-3669 -3673 0
-3670 -3674 0
-3671 -3675 0
-3672 -3676 0
-3669 -3737 0
-3670 -3738 0
-3671 -3739 0
-3672 -3740 0
-3673 -3781 0
-3674 -3782 0
-3675 -3783 0
-3676 -3784 0
-3677 -3749 0
-3678 -3750 0
-3679 -3751 0
-3680 -3752 0
-3681 -3689 0
-3682 -3690 0
-3683 -3691 0
-3684 -3692 0
-3681 -3693 0
-3682 -3694 0
-3683 -3695 0
-3684 -3696 0
-3685 -3689 0
-3686 -3690 0
-3687 -3691 0
-3688 -3692 0
-3685 -3697 0
-3686 -3698 0
-3687 -3699 0
-3688 -3700 0
-3685 -3709 0
-3686 -3710 0
-3687 -3711 0
-3688 -3712 0
-3689 -3701 0
-3690 -3702 0
-3691 -3703 0
-3692 -3704 0
-3689 -3705 0
-3690 -3706 0
-3691 -3707 0
-3692 -3708 0
-3689 -3709 0
-3690 -3710 0
-3691 -3711 0
-3692 -3712 0
-3689 -3729 0
-3690 -3730 0
-3691 -3731 0
-3692 -3732 0
-3693 -3701 0
-3694 -3702 0
-3695 -3703 0
-3696 -3704 0
-3693 -3749 0
-3694 -3750 0
-3695 -3751 0
-3696 -3752 0
-3697 -3701 0
-3698 -3702 0
-3699 -3703 0
-3700 -3704 0
-3697 -3717 0
-3698 -3718 0
-3699 -3719 0
-3700 -3720 0
-3697 -3753 0
-3698 -3754 0
-3699 -3755 0
-3700 -3756 0
-3705 -3741 0
-3706 -3742 0
-3707 -3743 0
-3708 -3744 0
-3709 -3713 0
-3710 -3714 0
-3711 -3715 0
-3712 -3716 0
-3709 -3745 0
-3710 -3746 0
-3711 -3747 0
-3712 -3748 0
-3709 -3765 0
-3710 -3766 0
-3711 -3767 0
-3712 -3768 0
-3713 -3777 0
-3714 -3778 0
-3715 -3779 0
-3716 -3780 0
-3717 -3721 0
-3718 -3722 0
-3719 -3723 0
-3720 -3724 0
-3717 -3725 0
-3718 -3726 0
-3719 -3727 0
-3720 -3728 0
-3717 -3729 0
-3718 -3730 0
-3719 -3731 0
-3720 -3732 0
-3717 -3761 0
-3718 -3762 0
-3719 -3763 0
-3720 -3764 0
-3721 -3725 0
-3722 -3726 0
-3723 -3727 0
-3724 -3728 0
-3721 -3733 0
-3722 -3734 0
-3723 -3735 0
-3724 -3736 0
-3721 -3765 0
-3722 -3766 0
-3723 -3767 0
-3724 -3768 0
-3721 -3773 0
-3722 -3774 0
-3723 -3775 0
-3724 -3776 0
-3725 -3741 0
-3726 -3742 0
-3727 -3743 0
-3728 -3744 0
-3729 -3733 0
-3730 -3734 0
-3731 -3735 0
-3732 -3736 0
-3729 -3737 0
-3730 -3738 0
-3731 -3739 0
-3732 -3740 0
-3729 -3741 0
-3730 -3742 0
-3731 -3743 0
-3732 -3744 0
-3729 -3745 0
-3730 -3746 0
-3731 -3747 0
-3732 -3748 0
-3729 -3749 0
-3730 -3750 0
-3731 -3751 0
-3732 -3752 0
-3733 -3741 0
-3734 -3742 0
-3735 -3743 0
-3736 -3744 0
-3745 -3749 0
-3746 -3750 0
-3747 -3751 0
-3748 -3752 0
-3745 -3753 0
-3746 -3754 0
-3747 -3755 0
-3748 -3756 0
-3753 -3761 0
-3754 -3762 0
-3755 -3763 0
-3756 -3764 0
-3757 -3765 0
-3758 -3766 0
-3759 -3767 0
-3760 -3768 0
-3761 -3765 0
-3762 -3766 0
-3763 -3767 0
-3764 -3768 0
-3761 -3777 0
-3762 -3778 0
-3763 -3779 0
-3764 -3780 0
-3769 -3773 0
-3770 -3774 0
-3771 -3775 0
-3772 -3776 0
-3777 -3781 0
-3778 -3782 0
-3779 -3783 0
-3780 -3784 0
-3785 -3813 0
-3786 -3814 0
-3787 -3815 0
-3788 -3816 0
-3785 -3853 0
-3786 -3854 0
-3787 -3855 0
-3788 -3856 0
-3785 -3949 0
-3786 -3950 0
-3787 -3951 0
-3788 -3952 0
-3785 -3973 0
-3786 -3974 0
-3787 -3975 0
-3788 -3976 0
-3785 -4009 0
-3786 -4010 0
-3787 -4011 0
-3788 -4012 0
-3785 -4017 0
-3786 -4018 0
-3787 -4019 0
-3788 -4020 0
-3785 -4029 0
-3786 -4030 0
-3787 -4031 0
-3788 -4032 0
-3785 -4033 0
-3786 -4034 0
-3787 -4035 0
-3788 -4036 0
-3789 -3821 0
-3790 -3822 0
-3791 -3823 0
-3792 -3824 0
-3789 -3901 0
-3790 -3902 0
-3791 -3903 0
-3792 -3904 0
-3789 -3937 0
-3790 -3938 0
-3791 -3939 0
-3792 -3940 0
-3789 -4081 0
-3790 -4082 0
-3791 -4083 0
-3792 -4084 0
-3789 -4165 0
-3790 -4166 0
-3791 -4167 0
-3792 -4168 0
-3789 -4233 0
-3790 -4234 0
-3791 -4235 0
-3792 -4236 0
-3789 -4449 0
-3790 -4450 0
-3791 -4451 0
-3792 -4452 0
-3793 -3817 0
-3794 -3818 0
-3795 -3819 0
-3796 -3820 0
-3793 -3861 0
-3794 -3862 0
-3795 -3863 0
-3796 -3864 0
-3793 -3997 0
-3794 -3998 0
-3795 -3999 0
-3796 -4000 0
-3793 -4117 0
-3794 -4118 0
-3795 -4119 0
-3796 -4120 0
-3793 -4177 0
-3794 -4178 0
-3795 -4179 0
-3796 -4180 0
-3793 -4193 0
-3794 -4194 0
-3795 -4195 0
-3796 -4196 0
-3793 -4505 0
-3794 -4506 0
-3795 -4507 0
-3796 -4508 0
-3797 -3801 0
-3798 -3802 0
-3799 -3803 0
-3800 -3804 0
-3797 -3805 0
-3798 -3806 0
-3799 -3807 0
-3800 -3808 0
-3797 -3977 0
-3798 -3978 0
-3799 -3979 0
-3800 -3980 0
-3797 -4049 0
-3798 -4050 0
-3799 -4051 0
-3800 -4052 0
-3797 -4313 0
-3798 -4314 0
-3799 -4315 0
-3800 -4316 0
-3797 -4377 0
-3798 -4378 0
-3799 -4379 0
-3800 -4380 0
-3797 -4597 0
-3798 -4598 0
-3799 -4599 0
-3800 -4600 0
-3801 -3809 0
-3802 -3810 0
-3803 -3811 0
-3804 -3812 0
-3801 -3833 0
-3802 -3834 0
-3803 -3835 0
-3804 -3836 0
-3801 -3897 0
-3802 -3898 0
-3803 -3899 0
-3804 -3900 0
-3801 -4053 0
-3802 -4054 0
-3803 -4055 0
-3804 -4056 0
-3801 -4177 0
-3802 -4178 0
-3803 -4179 0
-3804 -4180 0
-3801 -4313 0
-3802 -4314 0
-3803 -4315 0
-3804 -4316 0
-3801 -4317 0
-3802 -4318 0
-3803 -4319 0
-3804 -4320 0
-3801 -4381 0
-3802 -4382 0
-3803 -4383 0
-3804 -4384 0
-3801 -4433 0
-3802 -4434 0
-3803 -4435 0
-3804 -4436 0
-3801 -4605 0
-3802 -4606 0
-3803 -4607 0
-3804 -4608 0
-3805 -3809 0
-3806 -3810 0
-3807 -3811 0
-3808 -3812 0
-3805 -3841 0
-3806 -3842 0
-3807 -3843 0
-3808 -3844 0
-3805 -4321 0
-3806 -4322 0
-3807 -4323 0
-3808 -4324 0
-3805 -4469 0
-3806 -4470 0
-3807 -4471 0
-3808 -4472 0
-3809 -3845 0
-3810 -3846 0
-3811 -3847 0
-3812 -3848 0
-3809 -3945 0
-3810 -3946 0
-3811 -3947 0
-3812 -3948 0
-3809 -3973 0
-3810 -3974 0
-3811 -3975 0
-3812 -3976 0
-3809 -4057 0
-3810 -4058 0
-3811 -4059 0
-3812 -4060 0
-3809 -4209 0
-3810 -4210 0
-3811 -4211 0
-3812 -4212 0
-3809 -4321 0
-3810 -4322 0
-3811 -4323 0
-3812 -4324 0
-3809 -4325 0
-3810 -4326 0
-3811 -4327 0
-3812 -4328 0
-3809 -4433 0
-3810 -4434 0
-3811 -4435 0
-3812 -4436 0
-3809 -4473 0
-3810 -4474 0
-3811 -4475 0
-3812 -4476 0
-3809 -4613 0
-3810 -4614 0
-3811 -4615 0
-3812 -4616 0
-3813 -3865 0
-3814 -3866 0
-3815 -3867 0
-3816 -3868 0
-3813 -3909 0
-3814 -3910 0
-3815 -3911 0
-3816 -3912 0
-3813 -4061 0
-3814 -4062 0
-3815 -4063 0
-3816 -4064 0
-3813 -4265 0
-3814 -4266 0
-3815 -4267 0
-3816 -4268 0
-3813 -4433 0
-3814 -4434 0
-3815 -4435 0
-3816 -4436 0
-3813 -4689 0
-3814 -4690 0
-3815 -4691 0
-3816 -4692 0
-3817 -3821 0
-3818 -3822 0
-3819 -3823 0
-3820 -3824 0
-3817 -3825 0
-3818 -3826 0
-3819 -3827 0
-3820 -3828 0
-3817 -3861 0
-3818 -3862 0
-3819 -3863 0
-3820 -3864 0
-3817 -4093 0
-3818 -4094 0
-3819 -4095 0
-3820 -4096 0
-3817 -4281 0
-3818 -4282 0
-3819 -4283 0
-3820 -4284 0
-3817 -4385 0
-3818 -4386 0
-3819 -4387 0
-3820 -4388 0
-3817 -4525 0
-3818 -4526 0
-3819 -4527 0
-3820 -4528 0
-3817 -4737 0
-3818 -4738 0
-3819 -4739 0
-3820 -4740 0
-3821 -3829 0
-3822 -3830 0
-3823 -3831 0
-3824 -3832 0
-3821 -4025 0
-3822 -4026 0
-3823 -4027 0
-3824 -4028 0
-3821 -4041 0
-3822 -4042 0
-3823 -4043 0
-3824 -4044 0
-3821 -4097 0
-3822 -4098 0
-3823 -4099 0
-3824 -4100 0
-3821 -4285 0
-3822 -4286 0
-3823 -4287 0
-3824 -4288 0
-3821 -4389 0
-3822 -4390 0
-3823 -4391 0
-3824 -4392 0
-3821 -4433 0
-3822 -4434 0
-3823 -4435 0
-3824 -4436 0
-3821 -4525 0
-3822 -4526 0
-3823 -4527 0
-3824 -4528 0
-3821 -4533 0
-3822 -4534 0
-3823 -4535 0
-3824 -4536 0
-3821 -4749 0
-3822 -4750 0
-3823 -4751 0
-3824 -4752 0
-3825 -3829 0
-3826 -3830 0
-3827 -3831 0
-3828 -3832 0
-3825 -3877 0
-3826 -3878 0
-3827 -3879 0
-3828 -3880 0
-3825 -4109 0
-3826 -4110 0
-3827 -4111 0
-3828 -4112 0
-3825 -4289 0
-3826 -4290 0
-3827 -4291 0
-3828 -4292 0
-3825 -4461 0
-3826 -4462 0
-3827 -4463 0
-3828 -4464 0
-3825 -4537 0
-3826 -4538 0
-3827 -4539 0
-3828 -4540 0
-3829 -3857 0
-3830 -3858 0
-3831 -3859 0
-3832 -3860 0
-3829 -3881 0
-3830 -3882 0
-3831 -3883 0
-3832 -3884 0
-3829 -4029 0
-3830 -4030 0
-3831 -4031 0
-3832 -4032 0
-3829 -4293 0
-3830 -4294 0
-3831 -4295 0
-3832 -4296 0
-3829 -4433 0
-3830 -4434 0
-3831 -4435 0
-3832 -4436 0
-3829 -4465 0
-3830 -4466 0
-3831 -4467 0
-3832 -4468 0
-3829 -4537 0
-3830 -4538 0
-3831 -4539 0
-3832 -4540 0
-3829 -4541 0
-3830 -4542 0
-3831 -4543 0
-3832 -4544 0
-3833 -3837 0
-3834 -3838 0
-3835 -3839 0
-3836 -3840 0
-3833 -3841 0
-3834 -3842 0
-3835 -3843 0
-3836 -3844 0
-3833 -3897 0
-3834 -3898 0
-3835 -3899 0
-3836 -3900 0
-3833 -4385 0
-3834 -4386 0
-3835 -4387 0
-3836 -4388 0
-3833 -4625 0
-3834 -4626 0
-3835 -4627 0
-3836 -4628 0
-3833 -4693 0
-3834 -4694 0
-3835 -4695 0
-3836 -4696 0
-3833 -4705 0
-3834 -4706 0
-3835 -4707 0
-3836 -4708 0
-3833 -4857 0
-3834 -4858 0
-3835 -4859 0
-3836 -4860 0
-3837 -3889 0
-3838 -3890 0
-3839 -3891 0
-3840 -3892 0
-3837 -3937 0
-3838 -3938 0
-3839 -3939 0
-3840 -3940 0
-3837 -4173 0
-3838 -4174 0
-3839 -4175 0
-3840 -4176 0
-3837 -4629 0
-3838 -4630 0
-3839 -4631 0
-3840 -4632 0
-3837 -4633 0
-3838 -4634 0
-3839 -4635 0
-3840 -4636 0
-3837 -4717 0
-3838 -4718 0
-3839 -4719 0
-3840 -4720 0
-3841 -3845 0
-3842 -3846 0
-3843 -3847 0
-3844 -3848 0
-3841 -3913 0
-3842 -3914 0
-3843 -3915 0
-3844 -3916 0
-3841 -4021 0
-3842 -4022 0
-3843 -4023 0
-3844 -4024 0
-3841 -4125 0
-3842 -4126 0
-3843 -4127 0
-3844 -4128 0
-3841 -4221 0
-3842 -4222 0
-3843 -4223 0
-3844 -4224 0
-3841 -4677 0
-3842 -4678 0
-3843 -4679 0
-3844 -4680 0
-3841 -4733 0
-3842 -4734 0
-3843 -4735 0
-3844 -4736 0
-3841 -4753 0
-3842 -4754 0
-3843 -4755 0
-3844 -4756 0
-3841 -4937 0
-3842 -4938 0
-3843 -4939 0
-3844 -4940 0
-3845 -4045 0
-3846 -4046 0
-3847 -4047 0
-3848 -4048 0
-3845 -4229 0
-3846 -4230 0
-3847 -4231 0
-3848 -4232 0
-3845 -4677 0
-3846 -4678 0
-3847 -4679 0
-3848 -4680 0
-3845 -4745 0
-3846 -4746 0
-3847 -4747 0
-3848 -4748 0
-3845 -4757 0
-3846 -4758 0
-3847 -4759 0
-3848 -4760 0
-3845 -4945 0
-3846 -4946 0
-3847 -4947 0
-3848 -4948 0
-3849 -3869 0
-3850 -3870 0
-3851 -3871 0
-3852 -3872 0
-3849 -4033 0
-3850 -4034 0
-3851 -4035 0
-3852 -4036 0
-3849 -4149 0
-3850 -4150 0
-3851 -4151 0
-3852 -4152 0
-3849 -4557 0
-3850 -4558 0
-3851 -4559 0
-3852 -4560 0
-3849 -4685 0
-3850 -4686 0
-3851 -4687 0
-3852 -4688 0
-3849 -4689 0
-3850 -4690 0
-3851 -4691 0
-3852 -4692 0
-3849 -4737 0
-3850 -4738 0
-3851 -4739 0
-3852 -4740 0
-3849 -4749 0
-3850 -4750 0
-3851 -4751 0
-3852 -4752 0
-3853 -3857 0
-3854 -3858 0
-3855 -3859 0
-3856 -3860 0
-3853 -3873 0
-3854 -3874 0
-3855 -3875 0
-3856 -3876 0
-3853 -3877 0
-3854 -3878 0
-3855 -3879 0
-3856 -3880 0
-3853 -4061 0
-3854 -4062 0
-3855 -4063 0
-3856 -4064 0
-3853 -4241 0
-3854 -4242 0
-3855 -4243 0
-3856 -4244 0
-3853 -4309 0
-3854 -4310 0
-3855 -4311 0
-3856 -4312 0
-3853 -4621 0
-3854 -4622 0
-3855 -4623 0
-3856 -4624 0
-3853 -4765 0
-3854 -4766 0
-3855 -4767 0
-3856 -4768 0
-3853 -4805 0
-3854 -4806 0
-3855 -4807 0
-3856 -4808 0
-3853 -4809 0
-3854 -4810 0
-3855 -4811 0
-3856 -4812 0
-3853 -5057 0
-3854 -5058 0
-3855 -5059 0
-3856 -5060 0
-3857 -3989 0
-3858 -3990 0
-3859 -3991 0
-3860 -3992 0
-3857 -4065 0
-3858 -4066 0
-3859 -4067 0
-3860 -4068 0
-3857 -4185 0
-3858 -4186 0
-3859 -4187 0
-3860 -4188 0
-3857 -4633 0
-3858 -4634 0
-3859 -4635 0
-3860 -4636 0
-3857 -4637 0
-3858 -4638 0
-3859 -4639 0
-3860 -4640 0
-3857 -4773 0
-3858 -4774 0
-3859 -4775 0
-3860 -4776 0
-3857 -4813 0
-3858 -4814 0
-3859 -4815 0
-3860 -4816 0
-3857 -4925 0
-3858 -4926 0
-3859 -4927 0
-3860 -4928 0
-3861 -3865 0
-3862 -3866 0
-3863 -3867 0
-3864 -3868 0
-3861 -3873 0
-3862 -3874 0
-3863 -3875 0
-3864 -3876 0
-3861 -4085 0
-3862 -4086 0
-3863 -4087 0
-3864 -4088 0
-3861 -4353 0
-3862 -4354 0
-3863 -4355 0
-3864 -4356 0
-3861 -4697 0
-3862 -4698 0
-3863 -4699 0
-3864 -4700 0
-3861 -4821 0
-3862 -4822 0
-3863 -4823 0
-3864 -4824 0
-3861 -4869 0
-3862 -4870 0
-3863 -4871 0
-3864 -4872 0
-3861 -4873 0
-3862 -4874 0
-3863 -4875 0
-3864 -4876 0
-3861 -5173 0
-3862 -5174 0
-3863 -5175 0
-3864 -5176 0
-3865 -3869 0
-3866 -3870 0
-3867 -3871 0
-3868 -3872 0
-3865 -3885 0
-3866 -3886 0
-3867 -3887 0
-3868 -3888 0
-3865 -4089 0
-3866 -4090 0
-3867 -4091 0
-3868 -4092 0
-3865 -4713 0
-3866 -4714 0
-3867 -4715 0
-3868 -4716 0
-3865 -4885 0
-3866 -4886 0
-3867 -4887 0
-3868 -4888 0
-3865 -4909 0
-3866 -4910 0
-3867 -4911 0
-3868 -4912 0
-3869 -3885 0
-3870 -3886 0
-3871 -3887 0
-3872 -3888 0
-3869 -3905 0
-3870 -3906 0
-3871 -3907 0
-3872 -3908 0
-3869 -4033 0
-3870 -4034 0
-3871 -4035 0
-3872 -4036 0
-3869 -4369 0
-3870 -4370 0
-3871 -4371 0
-3872 -4372 0
-3869 -4893 0
-3870 -4894 0
-3871 -4895 0
-3872 -4896 0
-3869 -4917 0
-3870 -4918 0
-3871 -4919 0
-3872 -4920 0
-3873 -3877 0
-3874 -3878 0
-3875 -3879 0
-3876 -3880 0
-3873 -3885 0
-3874 -3886 0
-3875 -3887 0
-3876 -3888 0
-3873 -3889 0
-3874 -3890 0
-3875 -3891 0
-3876 -3892 0
-3873 -3977 0
-3874 -3978 0
-3875 -3979 0
-3876 -3980 0
-3873 -4433 0
-3874 -4434 0
-3875 -4435 0
-3876 -4436 0
-3873 -4721 0
-3874 -4722 0
-3875 -4723 0
-3876 -4724 0
-3873 -4825 0
-3874 -4826 0
-3875 -4827 0
-3876 -4828 0
-3873 -4841 0
-3874 -4842 0
-3875 -4843 0
-3876 -4844 0
-3873 -4949 0
-3874 -4950 0
-3875 -4951 0
-3876 -4952 0
-3873 -4957 0
-3874 -4958 0
-3875 -4959 0
-3876 -4960 0
-3873 -4985 0
-3874 -4986 0
-3875 -4987 0
-3876 -4988 0
-3873 -5193 0
-3874 -5194 0
-3875 -5195 0
-3876 -5196 0
-3877 -3881 0
-3878 -3882 0
-3879 -3883 0
-3880 -3884 0
-3877 -3981 0
-3878 -3982 0
-3879 -3983 0
-3880 -3984 0
-3877 -4113 0
-3878 -4114 0
-3879 -4115 0
-3880 -4116 0
-3877 -4289 0
-3878 -4290 0
-3879 -4291 0
-3880 -4292 0
-3877 -4453 0
-3878 -4454 0
-3879 -4455 0
-3880 -4456 0
-3877 -4833 0
-3878 -4834 0
-3879 -4835 0
-3880 -4836 0
-3877 -4845 0
-3878 -4846 0
-3879 -4847 0
-3880 -4848 0
-3877 -4953 0
-3878 -4954 0
-3879 -4955 0
-3880 -4956 0
-3877 -4961 0
-3878 -4962 0
-3879 -4963 0
-3880 -4964 0
-3881 -3989 0
-3882 -3990 0
-3883 -3991 0
-3884 -3992 0
-3881 -4121 0
-3882 -4122 0
-3883 -4123 0
-3884 -4124 0
-3881 -4293 0
-3882 -4294 0
-3883 -4295 0
-3884 -4296 0
-3881 -4837 0
-3882 -4838 0
-3883 -4839 0
-3884 -4840 0
-3881 -4849 0
-3882 -4850 0
-3883 -4851 0
-3884 -4852 0
-3881 -4961 0
-3882 -4962 0
-3883 -4963 0
-3884 -4964 0
-3885 -3929 0
-3886 -3930 0
-3887 -3931 0
-3888 -3932 0
-3885 -4125 0
-3886 -4126 0
-3887 -4127 0
-3888 -4128 0
-3885 -4473 0
-3886 -4474 0
-3887 -4475 0
-3888 -4476 0
-3885 -4965 0
-3886 -4966 0
-3887 -4967 0
-3888 -4968 0
-3885 -4969 0
-3886 -4970 0
-3887 -4971 0
-3888 -4972 0
-3885 -4985 0
-3886 -4986 0
-3887 -4987 0
-3888 -4988 0
-3889 -4041 0
-3890 -4042 0
-3891 -4043 0
-3892 -4044 0
-3889 -4489 0
-3890 -4490 0
-3891 -4491 0
-3892 -4492 0
-3889 -4733 0
-3890 -4734 0
-3891 -4735 0
-3892 -4736 0
-3889 -4973 0
-3890 -4974 0
-3891 -4975 0
-3892 -4976 0
-3893 -3913 0
-3894 -3914 0
-3895 -3915 0
-3896 -3916 0
-3893 -3925 0
-3894 -3926 0
-3895 -3927 0
-3896 -3928 0
-3893 -3969 0
-3894 -3970 0
-3895 -3971 0
-3896 -3972 0
-3893 -4193 0
-3894 -4194 0
-3895 -4195 0
-3896 -4196 0
-3893 -4305 0
-3894 -4306 0
-3895 -4307 0
-3896 -4308 0
-3893 -4989 0
-3894 -4990 0
-3895 -4991 0
-3896 -4992 0
-3897 -3909 0
-3898 -3910 0
-3899 -3911 0
-3900 -3912 0
-3897 -3913 0
-3898 -3914 0
-3899 -3915 0
-3900 -3916 0
-3897 -4069 0
-3898 -4070 0
-3899 -4071 0
-3900 -4072 0
-3897 -4161 0
-3898 -4162 0
-3899 -4163 0
-3900 -4164 0
-3897 -4993 0
-3898 -4994 0
-3899 -4995 0
-3900 -4996 0
-3897 -4997 0
-3898 -4998 0
-3899 -4999 0
-3900 -5000 0
-3901 -3905 0
-3902 -3906 0
-3903 -3907 0
-3904 -3908 0
-3901 -3917 0
-3902 -3918 0
-3903 -3919 0
-3904 -3920 0
-3901 -4025 0
-3902 -4026 0
-3903 -4027 0
-3904 -4028 0
-3901 -4833 0
-3902 -4834 0
-3903 -4835 0
-3904 -4836 0
-3901 -5025 0
-3902 -5026 0
-3903 -5027 0
-3904 -5028 0
-3901 -5041 0
-3902 -5042 0
-3903 -5043 0
-3904 -5044 0
-3905 -3921 0
-3906 -3922 0
-3907 -3923 0
-3908 -3924 0
-3905 -3925 0
-3906 -3926 0
-3907 -3927 0
-3908 -3928 0
-3905 -3929 0
-3906 -3930 0
-3907 -3931 0
-3908 -3932 0
-3905 -4177 0
-3906 -4178 0
-3907 -4179 0
-3908 -4180 0
-3905 -4369 0
-3906 -4370 0
-3907 -4371 0
-3908 -4372 0
-3905 -4413 0
-3906 -4414 0
-3907 -4415 0
-3908 -4416 0
-3905 -5029 0
-3906 -5030 0
-3907 -5031 0
-3908 -5032 0
-3905 -5045 0
-3906 -5046 0
-3907 -5047 0
-3908 -5048 0
-3909 -3913 0
-3910 -3914 0
-3911 -3915 0
-3912 -3916 0
-3909 -3917 0
-3910 -3918 0
-3911 -3919 0
-3912 -3920 0
-3909 -4089 0
-3910 -4090 0
-3911 -4091 0
-3912 -4092 0
-3909 -5061 0
-3910 -5062 0
-3911 -5063 0
-3912 -5064 0
-3909 -5077 0
-3910 -5078 0
-3911 -5079 0
-3912 -5080 0
-3909 -5321 0
-3910 -5322 0
-3911 -5323 0
-3912 -5324 0
-3913 -3925 0
-3914 -3926 0
-3915 -3927 0
-3916 -3928 0
-3913 -4021 0
-3914 -4022 0
-3915 -4023 0
-3916 -4024 0
-3913 -4417 0
-3914 -4418 0
-3915 -4419 0
-3916 -4420 0
-3913 -5065 0
-3914 -5066 0
-3915 -5067 0
-3916 -5068 0
-3913 -5081 0
-3914 -5082 0
-3915 -5083 0
-3916 -5084 0
-3913 -5325 0
-3914 -5326 0
-3915 -5327 0
-3916 -5328 0
-3917 -3925 0
-3918 -3926 0
-3919 -3927 0
-3920 -3928 0
-3917 -3973 0
-3918 -3974 0
-3919 -3975 0
-3920 -3976 0
-3917 -4093 0
-3918 -4094 0
-3919 -4095 0
-3920 -4096 0
-3917 -4421 0
-3918 -4422 0
-3919 -4423 0
-3920 -4424 0
-3917 -4481 0
-3918 -4482 0
-3919 -4483 0
-3920 -4484 0
-3917 -4561 0
-3918 -4562 0
-3919 -4563 0
-3920 -4564 0
-3917 -5069 0
-3918 -5070 0
-3919 -5071 0
-3920 -5072 0
-3917 -5089 0
-3918 -5090 0
-3919 -5091 0
-3920 -5092 0
-3921 -3925 0
-3922 -3926 0
-3923 -3927 0
-3924 -3928 0
-3921 -3937 0
-3922 -3938 0
-3923 -3939 0
-3924 -3940 0
-3921 -3945 0
-3922 -3946 0
-3923 -3947 0
-3924 -3948 0
-3921 -4037 0
-3922 -4038 0
-3923 -4039 0
-3924 -4040 0
-3921 -4109 0
-3922 -4110 0
-3923 -4111 0
-3924 -4112 0
-3921 -4217 0
-3922 -4218 0
-3923 -4219 0
-3924 -4220 0
-3921 -4349 0
-3922 -4350 0
-3923 -4351 0
-3924 -4352 0
-3921 -4429 0
-3922 -4430 0
-3923 -4431 0
-3924 -4432 0
-3921 -4565 0
-3922 -4566 0
-3923 -4567 0
-3924 -4568 0
-3921 -5093 0
-3922 -5094 0
-3923 -5095 0
-3924 -5096 0
-3921 -5173 0
-3922 -5174 0
-3923 -5175 0
-3924 -5176 0
-3925 -3941 0
-3926 -3942 0
-3927 -3943 0
-3928 -3944 0
-3925 -3949 0
-3926 -3950 0
-3927 -3951 0
-3928 -3952 0
-3925 -4049 0
-3926 -4050 0
-3927 -4051 0
-3928 -4052 0
-3925 -4273 0
-3926 -4274 0
-3927 -4275 0
-3928 -4276 0
-3925 -4433 0
-3926 -4434 0
-3927 -4435 0
-3928 -4436 0
-3925 -4569 0
-3926 -4570 0
-3927 -4571 0
-3928 -4572 0
-3925 -5073 0
-3926 -5074 0
-3927 -5075 0
-3928 -5076 0
-3925 -5097 0
-3926 -5098 0
-3927 -5099 0
-3928 -5100 0
-3929 -3933 0
-3930 -3934 0
-3931 -3935 0
-3932 -3936 0
-3929 -3937 0
-3930 -3938 0
-3931 -3939 0
-3932 -3940 0
-3929 -3941 0
-3930 -3942 0
-3931 -3943 0
-3932 -3944 0
-3929 -4221 0
-3930 -4222 0
-3931 -4223 0
-3932 -4224 0
-3929 -4365 0
-3930 -4366 0
-3931 -4367 0
-3932 -4368 0
-3929 -4589 0
-3930 -4590 0
-3931 -4591 0
-3932 -4592 0
-3929 -5121 0
-3930 -5122 0
-3931 -5123 0
-3932 -5124 0
-3929 -5369 0
-3930 -5370 0
-3931 -5371 0
-3932 -5372 0
-3933 -3953 0
-3934 -3954 0
-3935 -3955 0
-3936 -3956 0
-3933 -3957 0
-3934 -3958 0
-3935 -3959 0
-3936 -3960 0
-3933 -4057 0
-3934 -4058 0
-3935 -4059 0
-3936 -4060 0
-3933 -4229 0
-3934 -4230 0
-3935 -4231 0
-3936 -4232 0
-3933 -4373 0
-3934 -4374 0
-3935 -4375 0
-3936 -4376 0
-3933 -5121 0
-3934 -5122 0
-3935 -5123 0
-3936 -5124 0
-3933 -5385 0
-3934 -5386 0
-3935 -5387 0
-3936 -5388 0
-3937 -3941 0
-3938 -3942 0
-3939 -3943 0
-3940 -3944 0
-3937 -3945 0
-3938 -3946 0
-3939 -3947 0
-3940 -3948 0
-3937 -3953 0
-3938 -3954 0
-3939 -3955 0
-3940 -3956 0
-3937 -3965 0
-3938 -3966 0
-3939 -3967 0
-3940 -3968 0
-3937 -4041 0
-3938 -4042 0
-3939 -4043 0
-3940 -4044 0
-3937 -4073 0
-3938 -4074 0
-3939 -4075 0
-3940 -4076 0
-3937 -4081 0
-3938 -4082 0
-3939 -4083 0
-3940 -4084 0
-3937 -4249 0
-3938 -4250 0
-3939 -4251 0
-3940 -4252 0
-3937 -4885 0
-3938 -4886 0
-3939 -4887 0
-3940 -4888 0
-3937 -5005 0
-3938 -5006 0
-3939 -5007 0
-3940 -5008 0
-3937 -5013 0
-3938 -5014 0
-3939 -5015 0
-3940 -5016 0
-3937 -5137 0
-3938 -5138 0
-3939 -5139 0
-3940 -5140 0
-3937 -5189 0
-3938 -5190 0
-3939 -5191 0
-3940 -5192 0
-3937 -5405 0
-3938 -5406 0
-3939 -5407 0
-3940 -5408 0
-3941 -3949 0
-3942 -3950 0
-3943 -3951 0
-3944 -3952 0
-3941 -3957 0
-3942 -3958 0
-3943 -3959 0
-3944 -3960 0
-3941 -4289 0
-3942 -4290 0
-3943 -4291 0
-3944 -4292 0
-3941 -4405 0
-3942 -4406 0
-3943 -4407 0
-3944 -4408 0
-3941 -4497 0
-3942 -4498 0
-3943 -4499 0
-3944 -4500 0
-3941 -4889 0
-3942 -4890 0
-3943 -4891 0
-3944 -4892 0
-3941 -5129 0
-3942 -5130 0
-3943 -5131 0
-3944 -5132 0
-3941 -5141 0
-3942 -5142 0
-3943 -5143 0
-3944 -5144 0
-3941 -5409 0
-3942 -5410 0
-3943 -5411 0
-3944 -5412 0
-3945 -3949 0
-3946 -3950 0
-3947 -3951 0
-3948 -3952 0
-3945 -3961 0
-3946 -3962 0
-3947 -3963 0
-3948 -3964 0
-3945 -3985 0
-3946 -3986 0
-3947 -3987 0
-3948 -3988 0
-3945 -4045 0
-3946 -4046 0
-3947 -4047 0
-3948 -4048 0
-3945 -4141 0
-3946 -4142 0
-3947 -4143 0
-3948 -4144 0
-3945 -4261 0
-3946 -4262 0
-3947 -4263 0
-3948 -4264 0
-3945 -4409 0
-3946 -4410 0
-3947 -4411 0
-3948 -4412 0
-3945 -4613 0
-3946 -4614 0
-3947 -4615 0
-3948 -4616 0
-3945 -4617 0
-3946 -4618 0
-3947 -4619 0
-3948 -4620 0
-3945 -4893 0
-3946 -4894 0
-3947 -4895 0
-3948 -4896 0
-3945 -5145 0
-3946 -5146 0
-3947 -5147 0
-3948 -5148 0
-3945 -5193 0
-3946 -5194 0
-3947 -5195 0
-3948 -5196 0
-3949 -4133 0
-3950 -4134 0
-3951 -4135 0
-3952 -4136 0
-3949 -4265 0
-3950 -4266 0
-3951 -4267 0
-3952 -4268 0
-3949 -4501 0
-3950 -4502 0
-3951 -4503 0
-3952 -4504 0
-3949 -4621 0
-3950 -4622 0
-3951 -4623 0
-3952 -4624 0
-3949 -4897 0
-3950 -4898 0
-3951 -4899 0
-3952 -4900 0
-3949 -5133 0
-3950 -5134 0
-3951 -5135 0
-3952 -5136 0
-3949 -5149 0
-3950 -5150 0
-3951 -5151 0
-3952 -5152 0
-3949 -5197 0
-3950 -5198 0
-3951 -5199 0
-3952 -5200 0
-3953 -3957 0
-3954 -3958 0
-3955 -3959 0
-3956 -3960 0
-3953 -3961 0
-3954 -3962 0
-3955 -3963 0
-3956 -3964 0
-3953 -4253 0
-3954 -4254 0
-3955 -4255 0
-3956 -4256 0
-3953 -4433 0
-3954 -4434 0
-3955 -4435 0
-3956 -4436 0
-3953 -4909 0
-3954 -4910 0
-3955 -4911 0
-3956 -4912 0
-3953 -5009 0
-3954 -5010 0
-3955 -5011 0
-3956 -5012 0
-3953 -5017 0
-3954 -5018 0
-3955 -5019 0
-3956 -5020 0
-3953 -5137 0
-3954 -5138 0
-3955 -5139 0
-3956 -5140 0
-3953 -5201 0
-3954 -5202 0
-3955 -5203 0
-3956 -5204 0
-3953 -5421 0
-3954 -5422 0
-3955 -5423 0
-3956 -5424 0
-3957 -4293 0
-3958 -4294 0
-3959 -4295 0
-3960 -4296 0
-3957 -4437 0
-3958 -4438 0
-3959 -4439 0
-3960 -4440 0
-3957 -4913 0
-3958 -4914 0
-3959 -4915 0
-3960 -4916 0
-3957 -5141 0
-3958 -5142 0
-3959 -5143 0
-3960 -5144 0
-3957 -5425 0
-3958 -5426 0
-3959 -5427 0
-3960 -5428 0
-3961 -3993 0
-3962 -3994 0
-3963 -3995 0
-3964 -3996 0
-3961 -4441 0
-3962 -4442 0
-3963 -4443 0
-3964 -4444 0
-3961 -4917 0
-3962 -4918 0
-3963 -4919 0
-3964 -4920 0
-3961 -5145 0
-3962 -5146 0
-3963 -5147 0
-3964 -5148 0
-3961 -5205 0
-3962 -5206 0
-3963 -5207 0
-3964 -5208 0
-3965 -4005 0
-3966 -4006 0
-3967 -4007 0
-3968 -4008 0
-3965 -4101 0
-3966 -4102 0
-3967 -4103 0
-3968 -4104 0
-3965 -4129 0
-3966 -4130 0
-3967 -4131 0
-3968 -4132 0
-3965 -4509 0
-3966 -4510 0
-3967 -4511 0
-3968 -4512 0
-3965 -4977 0
-3966 -4978 0
-3967 -4979 0
-3968 -4980 0
-3965 -5105 0
-3966 -5106 0
-3967 -5107 0
-3968 -5108 0
-3965 -5113 0
-3966 -5114 0
-3967 -5115 0
-3968 -5116 0
-3965 -5169 0
-3966 -5170 0
-3967 -5171 0
-3968 -5172 0
-3969 -3973 0
-3970 -3974 0
-3971 -3975 0
-3972 -3976 0
-3969 -4021 0
-3970 -4022 0
-3971 -4023 0
-3972 -4024 0
-3969 -4585 0
-3970 -4586 0
-3971 -4587 0
-3972 -4588 0
-3969 -5217 0
-3970 -5218 0
-3971 -5219 0
-3972 -5220 0
-3969 -5229 0
-3970 -5230 0
-3971 -5231 0
-3972 -5232 0
-3969 -5301 0
-3970 -5302 0
-3971 -5303 0
-3972 -5304 0
-3969 -5493 0
-3970 -5494 0
-3971 -5495 0
-3972 -5496 0
-3973 -4209 0
-3974 -4210 0
-3975 -4211 0
-3976 -4212 0
-3973 -4409 0
-3974 -4410 0
-3975 -4411 0
-3976 -4412 0
-3973 -4765 0
-3974 -4766 0
-3975 -4767 0
-3976 -4768 0
-3973 -5221 0
-3974 -5222 0
-3975 -5223 0
-3976 -5224 0
-3973 -5233 0
-3974 -5234 0
-3975 -5235 0
-3976 -5236 0
-3973 -5309 0
-3974 -5310 0
-3975 -5311 0
-3976 -5312 0
-3977 -3981 0
-3978 -3982 0
-3979 -3983 0
-3980 -3984 0
-3977 -4773 0
-3978 -4774 0
-3979 -4775 0
-3980 -4776 0
-3977 -5021 0
-3978 -5022 0
-3979 -5023 0
-3980 -5024 0
-3977 -5249 0
-3978 -5250 0
-3979 -5251 0
-3980 -5252 0
-3977 -5349 0
-3978 -5350 0
-3979 -5351 0
-3980 -5352 0
-3977 -5541 0
-3978 -5542 0
-3979 -5543 0
-3980 -5544 0
-3981 -3985 0
-3982 -3986 0
-3983 -3987 0
-3984 -3988 0
-3981 -3989 0
-3982 -3990 0
-3983 -3991 0
-3984 -3992 0
-3981 -4009 0
-3982 -4010 0
-3983 -4011 0
-3984 -4012 0
-3981 -4113 0
-3982 -4114 0
-3983 -4115 0
-3984 -4116 0
-3981 -4153 0
-3982 -4154 0
-3983 -4155 0
-3984 -4156 0
-3981 -4329 0
-3982 -4330 0
-3983 -4331 0
-3984 -4332 0
-3981 -4629 0
-3982 -4630 0
-3983 -4631 0
-3984 -4632 0
-3981 -5025 0
-3982 -5026 0
-3983 -5027 0
-3984 -5028 0
-3981 -5253 0
-3982 -5254 0
-3983 -5255 0
-3984 -5256 0
-3981 -5365 0
-3982 -5366 0
-3983 -5367 0
-3984 -5368 0
-3985 -3993 0
-3986 -3994 0
-3987 -3995 0
-3988 -3996 0
-3985 -4009 0
-3986 -4010 0
-3987 -4011 0
-3988 -4012 0
-3985 -4117 0
-3986 -4118 0
-3987 -4119 0
-3988 -4120 0
-3985 -4313 0
-3986 -4314 0
-3987 -4315 0
-3988 -4316 0
-3985 -4333 0
-3986 -4334 0
-3987 -4335 0
-3988 -4336 0
-3985 -4617 0
-3986 -4618 0
-3987 -4619 0
-3988 -4620 0
-3985 -5029 0
-3986 -5030 0
-3987 -5031 0
-3988 -5032 0
-3985 -5257 0
-3986 -5258 0
-3987 -5259 0
-3988 -5260 0
-3985 -5333 0
-3986 -5334 0
-3987 -5335 0
-3988 -5336 0
-3985 -5369 0
-3986 -5370 0
-3987 -5371 0
-3988 -5372 0
-3989 -3993 0
-3990 -3994 0
-3991 -3995 0
-3992 -3996 0
-3989 -4017 0
-3990 -4018 0
-3991 -4019 0
-3992 -4020 0
-3989 -4121 0
-3990 -4122 0
-3991 -4123 0
-3992 -4124 0
-3989 -4157 0
-3990 -4158 0
-3991 -4159 0
-3992 -4160 0
-3989 -4233 0
-3990 -4234 0
-3991 -4235 0
-3992 -4236 0
-3989 -4337 0
-3990 -4338 0
-3991 -4339 0
-3992 -4340 0
-3989 -4633 0
-3990 -4634 0
-3991 -4635 0
-3992 -4636 0
-3989 -5041 0
-3990 -5042 0
-3991 -5043 0
-3992 -5044 0
-3989 -5253 0
-3990 -5254 0
-3991 -5255 0
-3992 -5256 0
-3989 -5261 0
-3990 -5262 0
-3991 -5263 0
-3992 -5264 0
-3989 -5381 0
-3990 -5382 0
-3991 -5383 0
-3992 -5384 0
-3993 -4017 0
-3994 -4018 0
-3995 -4019 0
-3996 -4020 0
-3993 -4081 0
-3994 -4082 0
-3995 -4083 0
-3996 -4084 0
-3993 -4317 0
-3994 -4318 0
-3995 -4319 0
-3996 -4320 0
-3993 -4341 0
-3994 -4342 0
-3995 -4343 0
-3996 -4344 0
-3993 -4573 0
-3994 -4574 0
-3995 -4575 0
-3996 -4576 0
-3993 -5045 0
-3994 -5046 0
-3995 -5047 0
-3996 -5048 0
-3993 -5257 0
-3994 -5258 0
-3995 -5259 0
-3996 -5260 0
-3993 -5265 0
-3994 -5266 0
-3995 -5267 0
-3996 -5268 0
-3993 -5337 0
-3994 -5338 0
-3995 -5339 0
-3996 -5340 0
-3993 -5385 0
-3994 -5386 0
-3995 -5387 0
-3996 -5388 0
-3997 -4013 0
-3998 -4014 0
-3999 -4015 0
-4000 -4016 0
-3997 -4017 0
-3998 -4018 0
-3999 -4019 0
-4000 -4020 0
-3997 -4037 0
-3998 -4038 0
-3999 -4039 0
-4000 -4040 0
-3997 -4093 0
-3998 -4094 0
-3999 -4095 0
-4000 -4096 0
-3997 -4353 0
-3998 -4354 0
-3999 -4355 0
-4000 -4356 0
-3997 -4505 0
-3998 -4506 0
-3999 -4507 0
-4000 -4508 0
-3997 -4649 0
-3998 -4650 0
-3999 -4651 0
-4000 -4652 0
-3997 -4661 0
-3998 -4662 0
-3999 -4663 0
-4000 -4664 0
-3997 -5097 0
-3998 -5098 0
-3999 -5099 0
-4000 -5100 0
-3997 -5273 0
-3998 -5274 0
-3999 -5275 0
-4000 -5276 0
-4001 -4017 0
-4002 -4018 0
-4003 -4019 0
-4004 -4020 0
-4001 -4181 0
-4002 -4182 0
-4003 -4183 0
-4004 -4184 0
-4001 -4389 0
-4002 -4390 0
-4003 -4391 0
-4004 -4392 0
-4001 -4529 0
-4002 -4530 0
-4003 -4531 0
-4004 -4532 0
-4001 -4677 0
-4002 -4678 0
-4003 -4679 0
-4004 -4680 0
-4001 -5233 0
-4002 -5234 0
-4003 -5235 0
-4004 -5236 0
-4001 -5429 0
-4002 -5430 0
-4003 -5431 0
-4004 -5432 0
-4001 -5625 0
-4002 -5626 0
-4003 -5627 0
-4004 -5628 0
-4005 -4009 0
-4006 -4010 0
-4007 -4011 0
-4008 -4012 0
-4005 -4013 0
-4006 -4014 0
-4007 -4015 0
-4008 -4016 0
-4005 -4189 0
-4006 -4190 0
-4007 -4191 0
-4008 -4192 0
-4005 -4225 0
-4006 -4226 0
-4007 -4227 0
-4008 -4228 0
-4005 -4401 0
-4006 -4402 0
-4007 -4403 0
-4008 -4404 0
-4005 -5129 0
-4006 -5130 0
-4007 -5131 0
-4008 -5132 0
-4005 -5217 0
-4006 -5218 0
-4007 -5219 0
-4008 -5220 0
-4005 -5277 0
-4006 -5278 0
-4007 -5279 0
-4008 -5280 0
-4009 -4017 0
-4010 -4018 0
-4011 -4019 0
-4012 -4020 0
-4009 -4193 0
-4010 -4194 0
-4011 -4195 0
-4012 -4196 0
-4009 -4665 0
-4010 -4666 0
-4011 -4667 0
-4012 -4668 0
-4009 -4793 0
-4010 -4794 0
-4011 -4795 0
-4012 -4796 0
-4009 -4805 0
-4010 -4806 0
-4011 -4807 0
-4012 -4808 0
-4009 -5133 0
-4010 -5134 0
-4011 -5135 0
-4012 -5136 0
-4009 -5221 0
-4010 -5222 0
-4011 -5223 0
-4012 -5224 0
-4009 -5281 0
-4010 -5282 0
-4011 -5283 0
-4012 -5284 0
-4009 -5433 0
-4010 -5434 0
-4011 -5435 0
-4012 -5436 0
-4009 -5441 0
-4010 -5442 0
-4011 -5443 0
-4012 -5444 0
-4013 -4017 0
-4014 -4018 0
-4015 -4019 0
-4016 -4020 0
-4013 -4041 0
-4014 -4042 0
-4015 -4043 0
-4016 -4044 0
-4013 -4201 0
-4014 -4202 0
-4015 -4203 0
-4016 -4204 0
-4013 -4237 0
-4014 -4238 0
-4015 -4239 0
-4016 -4240 0
-4013 -4425 0
-4014 -4426 0
-4015 -4427 0
-4016 -4428 0
-4013 -4537 0
-4014 -4538 0
-4015 -4539 0
-4016 -4540 0
-4013 -4641 0
-4014 -4642 0
-4015 -4643 0
-4016 -4644 0
-4013 -5141 0
-4014 -5142 0
-4015 -5143 0
-4016 -5144 0
-4013 -5229 0
-4014 -5230 0
-4015 -5231 0
-4016 -5232 0
-4013 -5241 0
-4014 -5242 0
-4015 -5243 0
-4016 -5244 0
-4013 -5277 0
-4014 -5278 0
-4015 -5279 0
-4016 -5280 0
-4013 -5285 0
-4014 -5286 0
-4015 -5287 0
-4016 -5288 0
-4013 -5645 0
-4014 -5646 0
-4015 -5647 0
-4016 -5648 0
-4017 -4045 0
-4018 -4046 0
-4019 -4047 0
-4020 -4048 0
-4017 -4129 0
-4018 -4130 0
-4019 -4131 0
-4020 -4132 0
-4017 -4205 0
-4018 -4206 0
-4019 -4207 0
-4020 -4208 0
-4017 -4433 0
-4018 -4434 0
-4019 -4435 0
-4020 -4436 0
-4017 -4673 0
-4018 -4674 0
-4019 -4675 0
-4020 -4676 0
-4017 -4681 0
-4018 -4682 0
-4019 -4683 0
-4020 -4684 0
-4017 -4801 0
-4018 -4802 0
-4019 -4803 0
-4020 -4804 0
-4017 -4809 0
-4018 -4810 0
-4019 -4811 0
-4020 -4812 0
-4017 -5149 0
-4018 -5150 0
-4019 -5151 0
-4020 -5152 0
-4017 -5153 0
-4018 -5154 0
-4019 -5155 0
-4020 -5156 0
-4017 -5233 0
-4018 -5234 0
-4019 -5235 0
-4020 -5236 0
-4017 -5281 0
-4018 -5282 0
-4019 -5283 0
-4020 -5284 0
-4017 -5289 0
-4018 -5290 0
-4019 -5291 0
-4020 -5292 0
-4017 -5437 0
-4018 -5438 0
-4019 -5439 0
-4020 -5440 0
-4017 -5445 0
-4018 -5446 0
-4019 -5447 0
-4020 -5448 0
-4021 -4545 0
-4022 -4546 0
-4023 -4547 0
-4024 -4548 0
-4021 -5389 0
-4022 -5390 0
-4023 -5391 0
-4024 -5392 0
-4021 -5669 0
-4022 -5670 0
-4023 -5671 0
-4024 -5672 0
-4025 -4029 0
-4026 -4030 0
-4027 -4031 0
-4028 -4032 0
-4025 -4733 0
-4026 -4734 0
-4027 -4735 0
-4028 -4736 0
-4025 -5181 0
-4026 -5182 0
-4027 -5183 0
-4028 -5184 0
-4025 -5309 0
-4026 -5310 0
-4027 -5311 0
-4028 -5312 0
-4025 -5429 0
-4026 -5430 0
-4027 -5431 0
-4028 -5432 0
-4029 -4033 0
-4030 -4034 0
-4031 -4035 0
-4032 -4036 0
-4029 -4185 0
-4030 -4186 0
-4031 -4187 0
-4032 -4188 0
-4029 -5197 0
-4030 -5198 0
-4031 -5199 0
-4032 -5200 0
-4029 -5309 0
-4030 -5310 0
-4031 -5311 0
-4032 -5312 0
-4029 -5433 0
-4030 -5434 0
-4031 -5435 0
-4032 -5436 0
-4029 -5437 0
-4030 -5438 0
-4031 -5439 0
-4032 -5440 0
-4033 -4213 0
-4034 -4214 0
-4035 -4215 0
-4036 -4216 0
-4033 -4517 0
-4034 -4518 0
-4035 -4519 0
-4036 -4520 0
-4033 -5441 0
-4034 -5442 0
-4035 -5443 0
-4036 -5444 0
-4033 -5445 0
-4034 -5446 0
-4035 -5447 0
-4036 -5448 0
-4037 -4041 0
-4038 -4042 0
-4039 -4043 0
-4040 -4044 0
-4037 -4045 0
-4038 -4046 0
-4039 -4047 0
-4040 -4048 0
-4037 -4521 0
-4038 -4522 0
-4039 -4523 0
-4040 -4524 0
-4037 -4741 0
-4038 -4742 0
-4039 -4743 0
-4040 -4744 0
-4037 -4873 0
-4038 -4874 0
-4039 -4875 0
-4040 -4876 0
-4037 -5325 0
-4038 -5326 0
-4039 -5327 0
-4040 -5328 0
-4041 -4045 0
-4042 -4046 0
-4043 -4047 0
-4044 -4048 0
-4041 -4249 0
-4042 -4250 0
-4043 -4251 0
-4044 -4252 0
-4041 -4285 0
-4042 -4286 0
-4043 -4287 0
-4044 -4288 0
-4041 -4733 0
-4042 -4734 0
-4043 -4735 0
-4044 -4736 0
-4041 -4941 0
-4042 -4942 0
-4043 -4943 0
-4044 -4944 0
-4041 -5389 0
-4042 -5390 0
-4043 -5391 0
-4044 -5392 0
-4041 -5401 0
-4042 -5402 0
-4043 -5403 0
-4044 -5404 0
-4041 -5453 0
-4042 -5454 0
-4043 -5455 0
-4044 -5456 0
-4041 -5709 0
-4042 -5710 0
-4043 -5711 0
-4044 -5712 0
-4045 -4117 0
-4046 -4118 0
-4047 -4119 0
-4048 -4120 0
-4045 -4553 0
-4046 -4554 0
-4047 -4555 0
-4048 -4556 0
-4045 -4945 0
-4046 -4946 0
-4047 -4947 0
-4048 -4948 0
-4045 -4957 0
-4046 -4958 0
-4047 -4959 0
-4048 -4960 0
-4045 -5449 0
-4046 -5450 0
-4047 -5451 0
-4048 -5452 0
-4049 -4053 0
-4050 -4054 0
-4051 -4055 0
-4052 -4056 0
-4049 -4597 0
-4050 -4598 0
-4051 -4599 0
-4052 -4600 0
-4049 -4773 0
-4050 -4774 0
-4051 -4775 0
-4052 -4776 0
-4049 -5465 0
-4050 -5466 0
-4051 -5467 0
-4052 -5468 0
-4049 -5481 0
-4050 -5482 0
-4051 -5483 0
-4052 -5484 0
-4049 -5493 0
-4050 -5494 0
-4051 -5495 0
-4052 -5496 0
-4053 -4605 0
-4054 -4606 0
-4055 -4607 0
-4056 -4608 0
-4053 -4781 0
-4054 -4782 0
-4055 -4783 0
-4056 -4784 0
-4053 -5465 0
-4054 -5466 0
-4055 -5467 0
-4056 -5468 0
-4053 -5485 0
-4054 -5486 0
-4055 -5487 0
-4056 -5488 0
-4053 -5501 0
-4054 -5502 0
-4055 -5503 0
-4056 -5504 0
-4057 -4077 0
-4058 -4078 0
-4059 -4079 0
-4060 -4080 0
-4057 -4081 0
-4058 -4082 0
-4059 -4083 0
-4060 -4084 0
-4057 -4229 0
-4058 -4230 0
-4059 -4231 0
-4060 -4232 0
-4057 -4617 0
-4058 -4618 0
-4059 -4619 0
-4060 -4620 0
-4057 -4765 0
-4058 -4766 0
-4059 -4767 0
-4060 -4768 0
-4057 -5513 0
-4058 -5514 0
-4059 -5515 0
-4060 -5516 0
-4057 -5741 0
-4058 -5742 0
-4059 -5743 0
-4060 -5744 0
-4061 -4065 0
-4062 -4066 0
-4063 -4067 0
-4064 -4068 0
-4061 -4069 0
-4062 -4070 0
-4063 -4071 0
-4064 -4072 0
-4061 -4085 0
-4062 -4086 0
-4063 -4087 0
-4064 -4088 0
-4061 -5505 0
-4062 -5506 0
-4063 -5507 0
-4064 -5508 0
-4061 -5513 0
-4062 -5514 0
-4063 -5515 0
-4064 -5516 0
-4061 -5797 0
-4062 -5798 0
-4063 -5799 0
-4064 -5800 0
-4065 -4069 0
-4066 -4070 0
-4067 -4071 0
-4068 -4072 0
-4065 -4073 0
-4066 -4074 0
-4067 -4075 0
-4068 -4076 0
-4065 -4101 0
-4066 -4102 0
-4067 -4103 0
-4068 -4104 0
-4065 -4337 0
-4066 -4338 0
-4067 -4339 0
-4068 -4340 0
-4065 -4817 0
-4066 -4818 0
-4067 -4819 0
-4068 -4820 0
-4065 -5297 0
-4066 -5298 0
-4067 -5299 0
-4068 -5300 0
-4065 -5533 0
-4066 -5534 0
-4067 -5535 0
-4068 -5536 0
-4065 -5553 0
-4066 -5554 0
-4067 -5555 0
-4068 -5556 0
-4069 -4161 0
-4070 -4162 0
-4071 -4163 0
-4072 -4164 0
-4069 -4425 0
-4070 -4426 0
-4071 -4427 0
-4072 -4428 0
-4069 -5301 0
-4070 -5302 0
-4071 -5303 0
-4072 -5304 0
-4069 -5537 0
-4070 -5538 0
-4071 -5539 0
-4072 -5540 0
-4069 -5557 0
-4070 -5558 0
-4071 -5559 0
-4072 -5560 0
-4073 -4101 0
-4074 -4102 0
-4075 -4103 0
-4076 -4104 0
-4073 -4341 0
-4074 -4342 0
-4075 -4343 0
-4076 -4344 0
-4073 -4821 0
-4074 -4822 0
-4075 -4823 0
-4076 -4824 0
-4073 -5569 0
-4074 -5570 0
-4075 -5571 0
-4076 -5572 0
-4077 -4081 0
-4078 -4082 0
-4079 -4083 0
-4080 -4084 0
-4077 -4125 0
-4078 -4126 0
-4079 -4127 0
-4080 -4128 0
-4077 -4497 0
-4078 -4498 0
-4079 -4499 0
-4080 -4500 0
-4077 -4825 0
-4078 -4826 0
-4079 -4827 0
-4080 -4828 0
-4077 -5009 0
-4078 -5010 0
-4079 -5011 0
-4080 -5012 0
-4077 -5681 0
-4078 -5682 0
-4079 -5683 0
-4080 -5684 0
-4077 -5829 0
-4078 -5830 0
-4079 -5831 0
-4080 -5832 0
-4081 -4129 0
-4082 -4130 0
-4083 -4131 0
-4084 -4132 0
-4081 -4133 0
-4082 -4134 0
-4083 -4135 0
-4084 -4136 0
-4081 -4285 0
-4082 -4286 0
-4083 -4287 0
-4084 -4288 0
-4081 -4341 0
-4082 -4342 0
-4083 -4343 0
-4084 -4344 0
-4081 -4625 0
-4082 -4626 0
-4083 -4627 0
-4084 -4628 0
-4081 -4833 0
-4082 -4834 0
-4083 -4835 0
-4084 -4836 0
-4081 -5341 0
-4082 -5342 0
-4083 -5343 0
-4084 -5344 0
-4081 -5589 0
-4082 -5590 0
-4083 -5591 0
-4084 -5592 0
-4081 -5685 0
-4082 -5686 0
-4083 -5687 0
-4084 -5688 0
-4085 -4101 0
-4086 -4102 0
-4087 -4103 0
-4088 -4104 0
-4085 -4145 0
-4086 -4146 0
-4087 -4147 0
-4088 -4148 0
-4085 -4297 0
-4086 -4298 0
-4087 -4299 0
-4088 -4300 0
-4085 -4373 0
-4086 -4374 0
-4087 -4375 0
-4088 -4376 0
-4085 -5361 0
-4086 -5362 0
-4087 -5363 0
-4088 -5364 0
-4085 -5593 0
-4086 -5594 0
-4087 -5595 0
-4088 -5596 0
-4085 -5597 0
-4086 -5598 0
-4087 -5599 0
-4088 -5600 0
-4085 -5845 0
-4086 -5846 0
-4087 -5847 0
-4088 -5848 0
-4089 -4093 0
-4090 -4094 0
-4091 -4095 0
-4092 -4096 0
-4089 -4101 0
-4090 -4102 0
-4091 -4103 0
-4092 -4104 0
-4089 -4125 0
-4090 -4126 0
-4091 -4127 0
-4092 -4128 0
-4089 -4389 0
-4090 -4390 0
-4091 -4391 0
-4092 -4392 0
-4089 -4729 0
-4090 -4730 0
-4091 -4731 0
-4092 -4732 0
-4089 -5389 0
-4090 -5390 0
-4091 -5391 0
-4092 -5392 0
-4089 -5489 0
-4090 -5490 0
-4091 -5491 0
-4092 -5492 0
-4089 -5609 0
-4090 -5610 0
-4091 -5611 0
-4092 -5612 0
-4089 -5613 0
-4090 -5614 0
-4091 -5615 0
-4092 -5616 0
-4089 -5853 0
-4090 -5854 0
-4091 -5855 0
-4092 -5856 0
-4093 -4097 0
-4094 -4098 0
-4095 -4099 0
-4096 -4100 0
-4093 -4109 0
-4094 -4110 0
-4095 -4111 0
-4096 -4112 0
-4093 -4129 0
-4094 -4130 0
-4095 -4131 0
-4096 -4132 0
-4093 -4209 0
-4094 -4210 0
-4095 -4211 0
-4096 -4212 0
-4093 -4353 0
-4094 -4354 0
-4095 -4355 0
-4096 -4356 0
-4093 -4737 0
-4094 -4738 0
-4095 -4739 0
-4096 -4740 0
-4093 -4901 0
-4094 -4902 0
-4095 -4903 0
-4096 -4904 0
-4093 -4933 0
-4094 -4934 0
-4095 -4935 0
-4096 -4936 0
-4093 -5393 0
-4094 -5394 0
-4095 -5395 0
-4096 -5396 0
-4093 -5493 0
-4094 -5494 0
-4095 -5495 0
-4096 -5496 0
-4093 -5621 0
-4094 -5622 0
-4095 -5623 0
-4096 -5624 0
-4097 -4137 0
-4098 -4138 0
-4099 -4139 0
-4100 -4140 0
-4097 -4749 0
-4098 -4750 0
-4099 -4751 0
-4100 -4752 0
-4097 -4941 0
-4098 -4942 0
-4099 -4943 0
-4100 -4944 0
-4097 -5501 0
-4098 -5502 0
-4099 -5503 0
-4100 -5504 0
-4097 -5621 0
-4098 -5622 0
-4099 -5623 0
-4100 -5624 0
-4101 -4105 0
-4102 -4106 0
-4103 -4107 0
-4104 -4108 0
-4101 -4109 0
-4102 -4110 0
-4103 -4111 0
-4104 -4112 0
-4101 -4149 0
-4102 -4150 0
-4103 -4151 0
-4104 -4152 0
-4101 -4189 0
-4102 -4190 0
-4103 -4191 0
-4104 -4192 0
-4101 -4433 0
-4102 -4434 0
-4103 -4435 0
-4104 -4436 0
-4101 -4865 0
-4102 -4866 0
-4103 -4867 0
-4104 -4868 0
-4101 -5401 0
-4102 -5402 0
-4103 -5403 0
-4104 -5404 0
-4101 -5489 0
-4102 -5490 0
-4103 -5491 0
-4104 -5492 0
-4101 -5629 0
-4102 -5630 0
-4103 -5631 0
-4104 -5632 0
-4101 -5633 0
-4102 -5634 0
-4103 -5635 0
-4104 -5636 0
-4105 -4193 0
-4106 -4194 0
-4107 -4195 0
-4108 -4196 0
-4105 -4277 0
-4106 -4278 0
-4107 -4279 0
-4108 -4280 0
-4105 -4441 0
-4106 -4442 0
-4107 -4443 0
-4108 -4444 0
-4105 -5049 0
-4106 -5050 0
-4107 -5051 0
-4108 -5052 0
-4105 -5641 0
-4106 -5642 0
-4107 -5643 0
-4108 -5644 0
-4109 -4141 0
-4110 -4142 0
-4111 -4143 0
-4112 -4144 0
-4109 -4149 0
-4110 -4150 0
-4111 -4151 0
-4112 -4152 0
-4109 -4217 0
-4110 -4218 0
-4111 -4219 0
-4112 -4220 0
-4109 -4453 0
-4110 -4454 0
-4111 -4455 0
-4112 -4456 0
-4109 -4925 0
-4110 -4926 0
-4111 -4927 0
-4112 -4928 0
-4109 -5409 0
-4110 -5410 0
-4111 -5411 0
-4112 -5412 0
-4109 -5493 0
-4110 -5494 0
-4111 -5495 0
-4112 -5496 0
-4109 -5645 0
-4110 -5646 0
-4111 -5647 0
-4112 -5648 0
-4113 -4117 0
-4114 -4118 0
-4115 -4119 0
-4116 -4120 0
-4113 -4121 0
-4114 -4122 0
-4115 -4123 0
-4116 -4124 0
-4113 -4129 0
-4114 -4130 0
-4115 -4131 0
-4116 -4132 0
-4113 -4381 0
-4114 -4382 0
-4115 -4383 0
-4116 -4384 0
-4113 -4525 0
-4114 -4526 0
-4115 -4527 0
-4116 -4528 0
-4113 -4693 0
-4114 -4694 0
-4115 -4695 0
-4116 -4696 0
-4113 -5089 0
-4114 -5090 0
-4115 -5091 0
-4116 -5092 0
-4113 -5525 0
-4114 -5526 0
-4115 -5527 0
-4116 -5528 0
-4113 -5545 0
-4114 -5546 0
-4115 -5547 0
-4116 -5548 0
-4113 -5649 0
-4114 -5650 0
-4115 -5651 0
-4116 -5652 0
-4113 -5693 0
-4114 -5694 0
-4115 -5695 0
-4116 -5696 0
-4113 -5889 0
-4114 -5890 0
-4115 -5891 0
-4116 -5892 0
-4117 -4133 0
-4118 -4134 0
-4119 -4135 0
-4120 -4136 0
-4117 -4281 0
-4118 -4282 0
-4119 -4283 0
-4120 -4284 0
-4117 -4313 0
-4118 -4314 0
-4119 -4315 0
-4120 -4316 0
-4117 -4697 0
-4118 -4698 0
-4119 -4699 0
-4120 -4700 0
-4117 -4957 0
-4118 -4958 0
-4119 -4959 0
-4120 -4960 0
-4117 -5097 0
-4118 -5098 0
-4119 -5099 0
-4120 -5100 0
-4117 -5549 0
-4118 -5550 0
-4119 -5551 0
-4120 -5552 0
-4117 -5653 0
-4118 -5654 0
-4119 -5655 0
-4120 -5656 0
-4117 -5701 0
-4118 -5702 0
-4119 -5703 0
-4120 -5704 0
-4117 -5893 0
-4118 -5894 0
-4119 -5895 0
-4120 -5896 0
-4121 -4137 0
-4122 -4138 0
-4123 -4139 0
-4124 -4140 0
-4121 -4533 0
-4122 -4534 0
-4123 -4535 0
-4124 -4536 0
-4121 -4973 0
-4122 -4974 0
-4123 -4975 0
-4124 -4976 0
-4121 -5429 0
-4122 -5430 0
-4123 -5431 0
-4124 -5432 0
-4121 -5529 0
-4122 -5530 0
-4123 -5531 0
-4124 -5532 0
-4121 -5565 0
-4122 -5566 0
-4123 -5567 0
-4124 -5568 0
-4121 -5649 0
-4122 -5650 0
-4123 -5651 0
-4124 -5652 0
-4121 -5705 0
-4122 -5706 0
-4123 -5707 0
-4124 -5708 0
-4125 -4129 0
-4126 -4130 0
-4127 -4131 0
-4128 -4132 0
-4125 -4221 0
-4126 -4222 0
-4127 -4223 0
-4128 -4224 0
-4125 -4417 0
-4126 -4418 0
-4127 -4419 0
-4128 -4420 0
-4125 -5109 0
-4126 -5110 0
-4127 -5111 0
-4128 -5112 0
-4125 -5657 0
-4126 -5658 0
-4127 -5659 0
-4128 -5660 0
-4125 -5909 0
-4126 -5910 0
-4127 -5911 0
-4128 -5912 0
-4129 -4133 0
-4130 -4134 0
-4131 -4135 0
-4132 -4136 0
-4129 -4137 0
-4130 -4138 0
-4131 -4139 0
-4132 -4140 0
-4129 -4141 0
-4130 -4142 0
-4131 -4143 0
-4132 -4144 0
-4129 -4225 0
-4130 -4226 0
-4131 -4227 0
-4132 -4228 0
-4129 -4433 0
-4130 -4434 0
-4131 -4435 0
-4132 -4436 0
-4129 -4705 0
-4130 -4706 0
-4131 -4707 0
-4132 -4708 0
-4129 -4881 0
-4130 -4882 0
-4131 -4883 0
-4132 -4884 0
-4129 -4977 0
-4130 -4978 0
-4131 -4979 0
-4132 -4980 0
-4129 -5117 0
-4130 -5118 0
-4131 -5119 0
-4132 -5120 0
-4129 -5581 0
-4130 -5582 0
-4131 -5583 0
-4132 -5584 0
-4129 -5661 0
-4130 -5662 0
-4131 -5663 0
-4132 -5664 0
-4129 -5693 0
-4130 -5694 0
-4131 -5695 0
-4132 -5696 0
-4129 -5921 0
-4130 -5922 0
-4131 -5923 0
-4132 -5924 0
-4133 -4321 0
-4134 -4322 0
-4135 -4323 0
-4136 -4324 0
-4133 -4445 0
-4134 -4446 0
-4135 -4447 0
-4136 -4448 0
-4133 -4677 0
-4134 -4678 0
-4135 -4679 0
-4136 -4680 0
-4133 -4713 0
-4134 -4714 0
-4135 -4715 0
-4136 -4716 0
-4133 -4897 0
-4134 -4898 0
-4135 -4899 0
-4136 -4900 0
-4133 -4969 0
-4134 -4970 0
-4135 -4971 0
-4136 -4972 0
-4133 -5121 0
-4134 -5122 0
-4135 -5123 0
-4136 -5124 0
-4133 -5665 0
-4134 -5666 0
-4135 -5667 0
-4136 -5668 0
-4133 -5701 0
-4134 -5702 0
-4135 -5703 0
-4136 -5704 0
-4137 -4237 0
-4138 -4238 0
-4139 -4239 0
-4140 -4240 0
-4137 -4457 0
-4138 -4458 0
-4139 -4459 0
-4140 -4460 0
-4137 -4905 0
-4138 -4906 0
-4139 -4907 0
-4140 -4908 0
-4137 -4981 0
-4138 -4982 0
-4139 -4983 0
-4140 -4984 0
-4137 -5585 0
-4138 -5586 0
-4139 -5587 0
-4140 -5588 0
-4137 -5661 0
-4138 -5662 0
-4139 -5663 0
-4140 -5664 0
-4137 -5705 0
-4138 -5706 0
-4139 -5707 0
-4140 -5708 0
-4141 -4465 0
-4142 -4466 0
-4143 -4467 0
-4144 -4468 0
-4141 -4717 0
-4142 -4718 0
-4143 -4719 0
-4144 -4720 0
-4141 -5441 0
-4142 -5442 0
-4143 -5443 0
-4144 -5444 0
-4141 -5581 0
-4142 -5582 0
-4143 -5583 0
-4144 -5584 0
-4145 -4149 0
-4146 -4150 0
-4147 -4151 0
-4148 -4152 0
-4145 -4733 0
-4146 -4734 0
-4147 -4735 0
-4148 -4736 0
-4145 -4985 0
-4146 -4986 0
-4147 -4987 0
-4148 -4988 0
-4145 -5689 0
-4146 -5690 0
-4147 -5691 0
-4148 -5692 0
-4145 -5701 0
-4146 -5702 0
-4147 -5703 0
-4148 -5704 0
-4149 -4269 0
-4150 -4270 0
-4151 -4271 0
-4152 -4272 0
-4149 -4477 0
-4150 -4478 0
-4151 -4479 0
-4152 -4480 0
-4149 -4557 0
-4150 -4558 0
-4151 -4559 0
-4152 -4560 0
-4149 -5189 0
-4150 -5190 0
-4151 -5191 0
-4152 -5192 0
-4149 -5669 0
-4150 -5670 0
-4151 -5671 0
-4152 -5672 0
-4149 -5709 0
-4150 -5710 0
-4151 -5711 0
-4152 -5712 0
-4153 -4157 0
-4154 -4158 0
-4155 -4159 0
-4156 -4160 0
-4153 -4165 0
-4154 -4166 0
-4155 -4167 0
-4156 -4168 0
-4153 -4185 0
-4154 -4186 0
-4155 -4187 0
-4156 -4188 0
-4153 -4193 0
-4154 -4194 0
-4155 -4195 0
-4156 -4196 0
-4153 -4329 0
-4154 -4330 0
-4155 -4331 0
-4156 -4332 0
-4153 -4381 0
-4154 -4382 0
-4155 -4383 0
-4156 -4384 0
-4153 -4565 0
-4154 -4566 0
-4155 -4567 0
-4156 -4568 0
-4153 -5469 0
-4154 -5470 0
-4155 -5471 0
-4156 -5472 0
-4153 -5713 0
-4154 -5714 0
-4155 -5715 0
-4156 -5716 0
-4153 -5717 0
-4154 -5718 0
-4155 -5719 0
-4156 -5720 0
-4153 -5797 0
-4154 -5798 0
-4155 -5799 0
-4156 -5800 0
-4157 -4197 0
-4158 -4198 0
-4159 -4199 0
-4160 -4200 0
-4157 -4205 0
-4158 -4206 0
-4159 -4207 0
-4160 -4208 0
-4157 -4337 0
-4158 -4338 0
-4159 -4339 0
-4160 -4340 0
-4157 -4577 0
-4158 -4578 0
-4159 -4579 0
-4160 -4580 0
-4157 -5473 0
-4158 -5474 0
-4159 -5475 0
-4160 -5476 0
-4157 -5717 0
-4158 -5718 0
-4159 -5719 0
-4160 -5720 0
-4161 -4169 0
-4162 -4170 0
-4163 -4171 0
-4164 -4172 0
-4161 -4265 0
-4162 -4266 0
-4163 -4267 0
-4164 -4268 0
-4161 -4841 0
-4162 -4842 0
-4163 -4843 0
-4164 -4844 0
-4161 -5721 0
-4162 -5722 0
-4163 -5723 0
-4164 -5724 0
-4161 -5737 0
-4162 -5738 0
-4163 -5739 0
-4164 -5740 0
-4161 -5981 0
-4162 -5982 0
-4163 -5983 0
-4164 -5984 0
-4165 -4169 0
-4166 -4170 0
-4167 -4171 0
-4168 -4172 0
-4165 -4173 0
-4166 -4174 0
-4167 -4175 0
-4168 -4176 0
-4165 -4213 0
-4166 -4214 0
-4167 -4215 0
-4168 -4216 0
-4165 -4217 0
-4166 -4218 0
-4167 -4219 0
-4168 -4220 0
-4165 -4261 0
-4166 -4262 0
-4167 -4263 0
-4168 -4264 0
-4165 -4433 0
-4166 -4434 0
-4167 -4435 0
-4168 -4436 0
-4165 -4773 0
-4166 -4774 0
-4167 -4775 0
-4168 -4776 0
-4165 -5013 0
-4166 -5014 0
-4167 -5015 0
-4168 -5016 0
-4165 -5477 0
-4166 -5478 0
-4167 -5479 0
-4168 -5480 0
-4165 -5725 0
-4166 -5726 0
-4167 -5727 0
-4168 -5728 0
-4165 -5741 0
-4166 -5742 0
-4167 -5743 0
-4168 -5744 0
-4165 -5797 0
-4166 -5798 0
-4167 -5799 0
-4168 -5800 0
-4169 -4173 0
-4170 -4174 0
-4171 -4175 0
-4172 -4176 0
-4169 -4265 0
-4170 -4266 0
-4171 -4267 0
-4172 -4268 0
-4169 -4437 0
-4170 -4438 0
-4171 -4439 0
-4172 -4440 0
-4169 -4589 0
-4170 -4590 0
-4171 -4591 0
-4172 -4592 0
-4169 -4845 0
-4170 -4846 0
-4171 -4847 0
-4172 -4848 0
-4169 -5729 0
-4170 -5730 0
-4171 -5731 0
-4172 -5732 0
-4169 -5745 0
-4170 -5746 0
-4171 -5747 0
-4172 -5748 0
-4173 -4489 0
-4174 -4490 0
-4175 -4491 0
-4176 -4492 0
-4173 -5493 0
-4174 -5494 0
-4175 -5495 0
-4176 -5496 0
-4173 -5749 0
-4174 -5750 0
-4175 -5751 0
-4176 -5752 0
-4177 -4181 0
-4178 -4182 0
-4179 -4183 0
-4180 -4184 0
-4177 -4193 0
-4178 -4194 0
-4179 -4195 0
-4180 -4196 0
-4177 -4209 0
-4178 -4210 0
-4179 -4211 0
-4180 -4212 0
-4177 -4221 0
-4178 -4222 0
-4179 -4223 0
-4180 -4224 0
-4177 -4385 0
-4178 -4386 0
-4179 -4387 0
-4180 -4388 0
-4177 -4641 0
-4178 -4642 0
-4179 -4643 0
-4180 -4644 0
-4177 -5033 0
-4178 -5034 0
-4179 -5035 0
-4180 -5036 0
-4177 -5065 0
-4178 -5066 0
-4179 -5067 0
-4180 -5068 0
-4177 -5753 0
-4178 -5754 0
-4179 -5755 0
-4180 -5756 0
-4177 -5837 0
-4178 -5838 0
-4179 -5839 0
-4180 -5840 0
-4177 -6009 0
-4178 -6010 0
-4179 -6011 0
-4180 -6012 0
-4181 -4205 0
-4182 -4206 0
-4183 -4207 0
-4184 -4208 0
-4181 -4229 0
-4182 -4230 0
-4183 -4231 0
-4184 -4232 0
-4181 -4389 0
-4182 -4390 0
-4183 -4391 0
-4184 -4392 0
-4181 -4653 0
-4182 -4654 0
-4183 -4655 0
-4184 -4656 0
-4181 -4877 0
-4182 -4878 0
-4183 -4879 0
-4184 -4880 0
-4181 -5081 0
-4182 -5082 0
-4183 -5083 0
-4184 -5084 0
-4181 -5753 0
-4182 -5754 0
-4183 -5755 0
-4184 -5756 0
-4181 -5841 0
-4182 -5842 0
-4183 -5843 0
-4184 -5844 0
-4181 -6017 0
-4182 -6018 0
-4183 -6019 0
-4184 -6020 0
-4185 -4193 0
-4186 -4194 0
-4187 -4195 0
-4188 -4196 0
-4185 -4197 0
-4186 -4198 0
-4187 -4199 0
-4188 -4200 0
-4185 -4213 0
-4186 -4214 0
-4187 -4215 0
-4188 -4216 0
-4185 -4397 0
-4186 -4398 0
-4187 -4399 0
-4188 -4400 0
-4185 -4637 0
-4186 -4638 0
-4187 -4639 0
-4188 -4640 0
-4185 -4817 0
-4186 -4818 0
-4187 -4819 0
-4188 -4820 0
-4185 -5545 0
-4186 -5546 0
-4187 -5547 0
-4188 -5548 0
-4185 -5757 0
-4186 -5758 0
-4187 -5759 0
-4188 -5760 0
-4189 -4193 0
-4190 -4194 0
-4191 -4195 0
-4192 -4196 0
-4189 -4201 0
-4190 -4202 0
-4191 -4203 0
-4192 -4204 0
-4189 -4241 0
-4190 -4242 0
-4191 -4243 0
-4192 -4244 0
-4189 -4269 0
-4190 -4270 0
-4191 -4271 0
-4192 -4272 0
-4189 -4401 0
-4190 -4402 0
-4191 -4403 0
-4192 -4404 0
-4189 -4569 0
-4190 -4570 0
-4191 -4571 0
-4192 -4572 0
-4189 -5761 0
-4190 -5762 0
-4191 -5763 0
-4192 -5764 0
-4193 -4205 0
-4194 -4206 0
-4195 -4207 0
-4196 -4208 0
-4193 -4217 0
-4194 -4218 0
-4195 -4219 0
-4196 -4220 0
-4193 -4241 0
-4194 -4242 0
-4195 -4243 0
-4196 -4244 0
-4193 -4273 0
-4194 -4274 0
-4195 -4275 0
-4196 -4276 0
-4193 -4573 0
-4194 -4574 0
-4195 -4575 0
-4196 -4576 0
-4193 -4645 0
-4194 -4646 0
-4195 -4647 0
-4196 -4648 0
-4193 -4821 0
-4194 -4822 0
-4195 -4823 0
-4196 -4824 0
-4193 -5049 0
-4194 -5050 0
-4195 -5051 0
-4196 -5052 0
-4193 -5549 0
-4194 -5550 0
-4195 -5551 0
-4196 -5552 0
-4193 -5765 0
-4194 -5766 0
-4195 -5767 0
-4196 -5768 0
-4193 -5845 0
-4194 -5846 0
-4195 -5847 0
-4196 -5848 0
-4197 -4205 0
-4198 -4206 0
-4199 -4207 0
-4200 -4208 0
-4197 -4421 0
-4198 -4422 0
-4199 -4423 0
-4200 -4424 0
-4197 -4649 0
-4198 -4650 0
-4199 -4651 0
-4200 -4652 0
-4197 -5101 0
-4198 -5102 0
-4199 -5103 0
-4200 -5104 0
-4197 -5565 0
-4198 -5566 0
-4199 -5567 0
-4200 -5568 0
-4197 -5757 0
-4198 -5758 0
-4199 -5759 0
-4200 -5760 0
-4201 -4205 0
-4202 -4206 0
-4203 -4207 0
-4204 -4208 0
-4201 -4245 0
-4202 -4246 0
-4203 -4247 0
-4204 -4248 0
-4201 -4425 0
-4202 -4426 0
-4203 -4427 0
-4204 -4428 0
-4201 -4581 0
-4202 -4582 0
-4203 -4583 0
-4204 -4584 0
-4201 -5761 0
-4202 -5762 0
-4203 -5763 0
-4204 -5764 0
-4205 -4245 0
-4206 -4246 0
-4207 -4247 0
-4208 -4248 0
-4205 -4433 0
-4206 -4434 0
-4207 -4435 0
-4208 -4436 0
-4205 -4657 0
-4206 -4658 0
-4207 -4659 0
-4208 -4660 0
-4205 -5577 0
-4206 -5578 0
-4207 -5579 0
-4208 -5580 0
-4205 -5765 0
-4206 -5766 0
-4207 -5767 0
-4208 -5768 0
-4205 -5849 0
-4206 -5850 0
-4207 -5851 0
-4208 -5852 0
-4209 -4217 0
-4210 -4218 0
-4211 -4219 0
-4212 -4220 0
-4209 -4893 0
-4210 -4894 0
-4211 -4895 0
-4212 -4896 0
-4209 -5837 0
-4210 -5838 0
-4211 -5839 0
-4212 -5840 0
-4213 -4217 0
-4214 -4218 0
-4215 -4219 0
-4216 -4220 0
-4213 -4277 0
-4214 -4278 0
-4215 -4279 0
-4216 -4280 0
-4213 -4301 0
-4214 -4302 0
-4215 -4303 0
-4216 -4304 0
-4213 -4517 0
-4214 -4518 0
-4215 -4519 0
-4216 -4520 0
-4213 -5113 0
-4214 -5114 0
-4215 -5115 0
-4216 -5116 0
-4213 -5581 0
-4214 -5582 0
-4215 -5583 0
-4216 -5584 0
-4213 -5769 0
-4214 -5770 0
-4215 -5771 0
-4216 -5772 0
-4217 -4469 0
-4218 -4470 0
-4219 -4471 0
-4220 -4472 0
-4217 -4521 0
-4218 -4522 0
-4219 -4523 0
-4220 -4524 0
-4217 -4593 0
-4218 -4594 0
-4219 -4595 0
-4220 -4596 0
-4217 -4789 0
-4218 -4790 0
-4219 -4791 0
-4220 -4792 0
-4217 -5773 0
-4218 -5774 0
-4219 -5775 0
-4220 -5776 0
-4217 -5845 0
-4218 -5846 0
-4219 -5847 0
-4220 -5848 0
-4221 -4225 0
-4222 -4226 0
-4223 -4227 0
-4224 -4228 0
-4221 -4229 0
-4222 -4230 0
-4223 -4231 0
-4224 -4232 0
-4221 -4241 0
-4222 -4242 0
-4223 -4243 0
-4224 -4244 0
-4221 -4249 0
-4222 -4250 0
-4223 -4251 0
-4224 -4252 0
-4221 -4281 0
-4222 -4282 0
-4223 -4283 0
-4224 -4284 0
-4221 -4949 0
-4222 -4950 0
-4223 -4951 0
-4224 -4952 0
-4221 -5229 0
-4222 -5230 0
-4223 -5231 0
-4224 -5232 0
-4221 -5721 0
-4222 -5722 0
-4223 -5723 0
-4224 -5724 0
-4221 -5777 0
-4222 -5778 0
-4223 -5779 0
-4224 -5780 0
-4221 -5861 0
-4222 -5862 0
-4223 -5863 0
-4224 -5864 0
-4221 -5869 0
-4222 -5870 0
-4223 -5871 0
-4224 -5872 0
-4221 -6077 0
-4222 -6078 0
-4223 -6079 0
-4224 -6080 0
-4225 -4237 0
-4226 -4238 0
-4227 -4239 0
-4228 -4240 0
-4225 -4281 0
-4226 -4282 0
-4227 -4283 0
-4228 -4284 0
-4225 -4569 0
-4226 -4570 0
-4227 -4571 0
-4228 -4572 0
-4225 -4829 0
-4226 -4830 0
-4227 -4831 0
-4228 -4832 0
-4225 -4953 0
-4226 -4954 0
-4227 -4955 0
-4228 -4956 0
-4225 -5117 0
-4226 -5118 0
-4227 -5119 0
-4228 -5120 0
-4225 -5129 0
-4226 -5130 0
-4227 -5131 0
-4228 -5132 0
-4225 -5729 0
-4226 -5730 0
-4227 -5731 0
-4228 -5732 0
-4225 -5781 0
-4226 -5782 0
-4227 -5783 0
-4228 -5784 0
-4225 -6093 0
-4226 -6094 0
-4227 -6095 0
-4228 -6096 0
-4229 -4237 0
-4230 -4238 0
-4231 -4239 0
-4232 -4240 0
-4229 -4245 0
-4230 -4246 0
-4231 -4247 0
-4232 -4248 0
-4229 -4253 0
-4230 -4254 0
-4231 -4255 0
-4232 -4256 0
-4229 -4285 0
-4230 -4286 0
-4231 -4287 0
-4232 -4288 0
-4229 -4957 0
-4230 -4958 0
-4231 -4959 0
-4232 -4960 0
-4229 -5037 0
-4230 -5038 0
-4231 -5039 0
-4232 -5040 0
-4229 -5737 0
-4230 -5738 0
-4231 -5739 0
-4232 -5740 0
-4229 -5777 0
-4230 -5778 0
-4231 -5779 0
-4232 -5780 0
-4229 -5865 0
-4230 -5866 0
-4231 -5867 0
-4232 -5868 0
-4229 -5877 0
-4230 -5878 0
-4231 -5879 0
-4232 -5880 0
-4229 -6113 0
-4230 -6114 0
-4231 -6115 0
-4232 -6116 0
-4233 -4237 0
-4234 -4238 0
-4235 -4239 0
-4236 -4240 0
-4233 -4257 0
-4234 -4258 0
-4235 -4259 0
-4236 -4260 0
-4233 -4533 0
-4234 -4534 0
-4235 -4535 0
-4236 -4536 0
-4233 -4577 0
-4234 -4578 0
-4235 -4579 0
-4236 -4580 0
-4233 -5041 0
-4234 -5042 0
-4235 -5043 0
-4236 -5044 0
-4233 -5137 0
-4234 -5138 0
-4235 -5139 0
-4236 -5140 0
-4233 -5589 0
-4234 -5590 0
-4235 -5591 0
-4236 -5592 0
-4233 -5741 0
-4234 -5742 0
-4235 -5743 0
-4236 -5744 0
-4237 -4257 0
-4238 -4258 0
-4239 -4259 0
-4240 -4260 0
-4237 -4285 0
-4238 -4286 0
-4239 -4287 0
-4240 -4288 0
-4237 -4581 0
-4238 -4582 0
-4239 -4583 0
-4240 -4584 0
-4237 -4961 0
-4238 -4962 0
-4239 -4963 0
-4240 -4964 0
-4237 -5141 0
-4238 -5142 0
-4239 -5143 0
-4240 -5144 0
-4237 -5745 0
-4238 -5746 0
-4239 -5747 0
-4240 -5748 0
-4237 -5781 0
-4238 -5782 0
-4239 -5783 0
-4240 -5784 0
-4237 -6129 0
-4238 -6130 0
-4239 -6131 0
-4240 -6132 0
-4241 -4245 0
-4242 -4246 0
-4243 -4247 0
-4244 -4248 0
-4241 -4289 0
-4242 -4290 0
-4243 -4291 0
-4244 -4292 0
-4241 -4621 0
-4242 -4622 0
-4243 -4623 0
-4244 -4624 0
-4241 -5241 0
-4242 -5242 0
-4243 -5243 0
-4244 -5244 0
-4241 -5593 0
-4242 -5594 0
-4243 -5595 0
-4244 -5596 0
-4241 -5721 0
-4242 -5722 0
-4243 -5723 0
-4244 -5724 0
-4241 -5785 0
-4242 -5786 0
-4243 -5787 0
-4244 -5788 0
-4241 -6133 0
-4242 -6134 0
-4243 -6135 0
-4244 -6136 0
-4245 -4293 0
-4246 -4294 0
-4247 -4295 0
-4248 -4296 0
-4245 -4497 0
-4246 -4498 0
-4247 -4499 0
-4248 -4500 0
-4245 -5053 0
-4246 -5054 0
-4247 -5055 0
-4248 -5056 0
-4245 -5245 0
-4246 -5246 0
-4247 -5247 0
-4248 -5248 0
-4245 -5597 0
-4246 -5598 0
-4247 -5599 0
-4248 -5600 0
-4245 -5737 0
-4246 -5738 0
-4247 -5739 0
-4248 -5740 0
-4245 -5785 0
-4246 -5786 0
-4247 -5787 0
-4248 -5788 0
-4245 -6137 0
-4246 -6138 0
-4247 -6139 0
-4248 -6140 0
-4249 -4253 0
-4250 -4254 0
-4251 -4255 0
-4252 -4256 0
-4249 -4625 0
-4250 -4626 0
-4251 -4627 0
-4252 -4628 0
-4249 -5061 0
-4250 -5062 0
-4251 -5063 0
-4252 -5064 0
-4249 -5609 0
-4250 -5610 0
-4251 -5611 0
-4252 -5612 0
-4249 -5789 0
-4250 -5790 0
-4251 -5791 0
-4252 -5792 0
-4249 -5905 0
-4250 -5906 0
-4251 -5907 0
-4252 -5908 0
-4249 -6149 0
-4250 -6150 0
-4251 -6151 0
-4252 -6152 0
-4253 -4257 0
-4254 -4258 0
-4255 -4259 0
-4256 -4260 0
-4253 -5077 0
-4254 -5078 0
-4255 -5079 0
-4256 -5080 0
-4253 -5613 0
-4254 -5614 0
-4255 -5615 0
-4256 -5616 0
-4253 -5789 0
-4254 -5790 0
-4255 -5791 0
-4256 -5792 0
-4253 -6157 0
-4254 -6158 0
-4255 -6159 0
-4256 -6160 0
-4257 -4325 0
-4258 -4326 0
-4259 -4327 0
-4260 -4328 0
-4257 -4609 0
-4258 -4610 0
-4259 -4611 0
-4260 -4612 0
-4257 -5089 0
-4258 -5090 0
-4259 -5091 0
-4260 -5092 0
-4257 -5621 0
-4258 -5622 0
-4259 -5623 0
-4260 -5624 0
-4257 -5749 0
-4258 -5750 0
-4259 -5751 0
-4260 -5752 0
-4261 -4265 0
-4262 -4266 0
-4263 -4267 0
-4264 -4268 0
-4261 -4277 0
-4262 -4278 0
-4263 -4279 0
-4264 -4280 0
-4261 -4333 0
-4262 -4334 0
-4263 -4335 0
-4264 -4336 0
-4261 -4553 0
-4262 -4554 0
-4263 -4555 0
-4264 -4556 0
-4261 -4717 0
-4262 -4718 0
-4263 -4719 0
-4264 -4720 0
-4261 -4853 0
-4262 -4854 0
-4263 -4855 0
-4264 -4856 0
-4261 -5293 0
-4262 -5294 0
-4263 -5295 0
-4264 -5296 0
-4261 -5817 0
-4262 -5818 0
-4263 -5819 0
-4264 -5820 0
-4261 -5829 0
-4262 -5830 0
-4263 -5831 0
-4264 -5832 0
-4265 -4713 0
-4266 -4714 0
-4267 -4715 0
-4268 -4716 0
-4265 -5821 0
-4266 -5822 0
-4267 -5823 0
-4268 -5824 0
-4265 -5833 0
-4266 -5834 0
-4267 -5835 0
-4268 -5836 0
-4269 -4273 0
-4270 -4274 0
-4271 -4275 0
-4272 -4276 0
-4269 -4289 0
-4270 -4290 0
-4271 -4291 0
-4272 -4292 0
-4269 -4413 0
-4270 -4414 0
-4271 -4415 0
-4272 -4416 0
-4269 -5189 0
-4270 -5190 0
-4271 -5191 0
-4272 -5192 0
-4269 -5801 0
-4270 -5802 0
-4271 -5803 0
-4272 -5804 0
-4273 -4289 0
-4274 -4290 0
-4275 -4291 0
-4276 -4292 0
-4273 -4549 0
-4274 -4550 0
-4275 -4551 0
-4276 -4552 0
-4273 -4597 0
-4274 -4598 0
-4275 -4599 0
-4276 -4600 0
-4273 -5193 0
-4274 -5194 0
-4275 -5195 0
-4276 -5196 0
-4273 -5333 0
-4274 -5334 0
-4275 -5335 0
-4276 -5336 0
-4273 -5893 0
-4274 -5894 0
-4275 -5895 0
-4276 -5896 0
-4277 -4709 0
-4278 -4710 0
-4279 -4711 0
-4280 -4712 0
-4277 -5349 0
-4278 -5350 0
-4279 -5351 0
-4280 -5352 0
-4277 -5897 0
-4278 -5898 0
-4279 -5899 0
-4280 -5900 0
-4277 -5909 0
-4278 -5910 0
-4279 -5911 0
-4280 -5912 0
-4281 -4285 0
-4282 -4286 0
-4283 -4287 0
-4284 -4288 0
-4281 -4289 0
-4282 -4290 0
-4283 -4291 0
-4284 -4292 0
-4281 -4697 0
-4282 -4698 0
-4283 -4699 0
-4284 -4700 0
-4281 -5393 0
-4282 -5394 0
-4283 -5395 0
-4284 -5396 0
-4281 -5821 0
-4282 -5822 0
-4283 -5823 0
-4284 -5824 0
-4281 -5925 0
-4282 -5926 0
-4283 -5927 0
-4284 -5928 0
-4281 -6225 0
-4282 -6226 0
-4283 -6227 0
-4284 -6228 0
-4285 -4293 0
-4286 -4294 0
-4287 -4295 0
-4288 -4296 0
-4285 -4625 0
-4286 -4626 0
-4287 -4627 0
-4288 -4628 0
-4285 -4701 0
-4286 -4702 0
-4287 -4703 0
-4288 -4704 0
-4285 -5181 0
-4286 -5182 0
-4287 -5183 0
-4288 -5184 0
-4285 -5833 0
-4286 -5834 0
-4287 -5835 0
-4288 -5836 0
-4285 -5925 0
-4286 -5926 0
-4287 -5927 0
-4288 -5928 0
-4285 -5929 0
-4286 -5930 0
-4287 -5931 0
-4288 -5932 0
-4285 -6233 0
-4286 -6234 0
-4287 -6235 0
-4288 -6236 0
-4289 -4293 0
-4290 -4294 0
-4291 -4295 0
-4292 -4296 0
-4289 -4629 0
-4290 -4630 0
-4291 -4631 0
-4292 -4632 0
-4289 -5409 0
-4290 -5410 0
-4291 -5411 0
-4292 -5412 0
-4289 -5689 0
-4290 -5690 0
-4291 -5691 0
-4292 -5692 0
-4289 -5821 0
-4290 -5822 0
-4291 -5823 0
-4292 -5824 0
-4289 -5933 0
-4290 -5934 0
-4291 -5935 0
-4292 -5936 0
-4293 -4633 0
-4294 -4634 0
-4295 -4635 0
-4296 -4636 0
-4293 -4973 0
-4294 -4974 0
-4295 -4975 0
-4296 -4976 0
-4293 -5197 0
-4294 -5198 0
-4295 -5199 0
-4296 -5200 0
-4293 -5425 0
-4294 -5426 0
-4295 -5427 0
-4296 -5428 0
-4293 -5701 0
-4294 -5702 0
-4295 -5703 0
-4296 -5704 0
-4293 -5833 0
-4294 -5834 0
-4295 -5835 0
-4296 -5836 0
-4293 -5933 0
-4294 -5934 0
-4295 -5935 0
-4296 -5936 0
-4293 -5937 0
-4294 -5938 0
-4295 -5939 0
-4296 -5940 0
-4297 -4301 0
-4298 -4302 0
-4299 -4303 0
-4300 -4304 0
-4297 -4305 0
-4298 -4306 0
-4299 -4307 0
-4300 -4308 0
-4297 -4393 0
-4298 -4394 0
-4299 -4395 0
-4300 -4396 0
-4297 -4765 0
-4298 -4766 0
-4299 -4767 0
-4300 -4768 0
-4297 -5721 0
-4298 -5722 0
-4299 -5723 0
-4300 -5724 0
-4297 -5945 0
-4298 -5946 0
-4299 -5947 0
-4300 -5948 0
-4297 -6249 0
-4298 -6250 0
-4299 -6251 0
-4300 -6252 0
-4301 -4309 0
-4302 -4310 0
-4303 -4311 0
-4304 -4312 0
-4301 -4641 0
-4302 -4642 0
-4303 -4643 0
-4304 -4644 0
-4301 -5729 0
-4302 -5730 0
-4303 -5731 0
-4304 -5732 0
-4301 -5949 0
-4302 -5950 0
-4303 -5951 0
-4304 -5952 0
-4305 -4309 0
-4306 -4310 0
-4307 -4311 0
-4308 -4312 0
-4305 -4417 0
-4306 -4418 0
-4307 -4419 0
-4308 -4420 0
-4305 -4433 0
-4306 -4434 0
-4307 -4435 0
-4308 -4436 0
-4305 -4585 0
-4306 -4586 0
-4307 -4587 0
-4308 -4588 0
-4305 -4769 0
-4306 -4770 0
-4307 -4771 0
-4308 -4772 0
-4305 -5049 0
-4306 -5050 0
-4307 -5051 0
-4308 -5052 0
-4305 -5737 0
-4306 -5738 0
-4307 -5739 0
-4308 -5740 0
-4305 -5945 0
-4306 -5946 0
-4307 -5947 0
-4308 -5948 0
-4305 -5953 0
-4306 -5954 0
-4307 -5955 0
-4308 -5956 0
-4305 -6253 0
-4306 -6254 0
-4307 -6255 0
-4308 -6256 0
-4309 -4433 0
-4310 -4434 0
-4311 -4435 0
-4312 -4436 0
-4309 -4453 0
-4310 -4454 0
-4311 -4455 0
-4312 -4456 0
-4309 -4653 0
-4310 -4654 0
-4311 -4655 0
-4312 -4656 0
-4309 -5057 0
-4310 -5058 0
-4311 -5059 0
-4312 -5060 0
-4309 -5241 0
-4310 -5242 0
-4311 -5243 0
-4312 -5244 0
-4309 -5745 0
-4310 -5746 0
-4311 -5747 0
-4312 -5748 0
-4309 -5949 0
-4310 -5950 0
-4311 -5951 0
-4312 -5952 0
-4309 -5957 0
-4310 -5958 0
-4311 -5959 0
-4312 -5960 0
-4313 -4317 0
-4314 -4318 0
-4315 -4319 0
-4316 -4320 0
-4313 -4321 0
-4314 -4322 0
-4315 -4323 0
-4316 -4324 0
-4313 -4993 0
-4314 -4994 0
-4315 -4995 0
-4316 -4996 0
-4313 -5249 0
-4314 -5250 0
-4315 -5251 0
-4316 -5252 0
-4313 -5465 0
-4314 -5466 0
-4315 -5467 0
-4316 -5468 0
-4313 -5965 0
-4314 -5966 0
-4315 -5967 0
-4316 -5968 0
-4313 -6037 0
-4314 -6038 0
-4315 -6039 0
-4316 -6040 0
-4313 -6077 0
-4314 -6078 0
-4315 -6079 0
-4316 -6080 0
-4313 -6293 0
-4314 -6294 0
-4315 -6295 0
-4316 -6296 0
-4317 -4325 0
-4318 -4326 0
-4319 -4327 0
-4320 -4328 0
-4317 -4625 0
-4318 -4626 0
-4319 -4627 0
-4320 -4628 0
-4317 -4997 0
-4318 -4998 0
-4319 -4999 0
-4320 -5000 0
-4317 -5753 0
-4318 -5754 0
-4319 -5755 0
-4320 -5756 0
-4317 -5965 0
-4318 -5966 0
-4319 -5967 0
-4320 -5968 0
-4317 -6041 0
-4318 -6042 0
-4319 -6043 0
-4320 -6044 0
-4317 -6113 0
-4318 -6114 0
-4319 -6115 0
-4320 -6116 0
-4317 -6301 0
-4318 -6302 0
-4319 -6303 0
-4320 -6304 0
-4321 -4325 0
-4322 -4326 0
-4323 -4327 0
-4324 -4328 0
-4321 -4677 0
-4322 -4678 0
-4323 -4679 0
-4324 -4680 0
-4321 -4777 0
-4322 -4778 0
-4323 -4779 0
-4324 -4780 0
-4321 -5005 0
-4322 -5006 0
-4323 -5007 0
-4324 -5008 0
-4321 -5221 0
-4322 -5222 0
-4323 -5223 0
-4324 -5224 0
-4321 -5969 0
-4322 -5970 0
-4323 -5971 0
-4324 -5972 0
-4321 -6077 0
-4322 -6078 0
-4323 -6079 0
-4324 -6080 0
-4321 -6141 0
-4322 -6142 0
-4323 -6143 0
-4324 -6144 0
-4321 -6309 0
-4322 -6310 0
-4323 -6311 0
-4324 -6312 0
-4325 -4785 0
-4326 -4786 0
-4327 -4787 0
-4328 -4788 0
-4325 -5009 0
-4326 -5010 0
-4327 -5011 0
-4328 -5012 0
-4325 -5145 0
-4326 -5146 0
-4327 -5147 0
-4328 -5148 0
-4325 -5233 0
-4326 -5234 0
-4327 -5235 0
-4328 -5236 0
-4325 -5969 0
-4326 -5970 0
-4327 -5971 0
-4328 -5972 0
-4325 -6113 0
-4326 -6114 0
-4327 -6115 0
-4328 -6116 0
-4325 -6145 0
-4326 -6146 0
-4327 -6147 0
-4328 -6148 0
-4329 -4333 0
-4330 -4334 0
-4331 -4335 0
-4332 -4336 0
-4329 -4337 0
-4330 -4338 0
-4331 -4339 0
-4332 -4340 0
-4329 -4397 0
-4330 -4398 0
-4331 -4399 0
-4332 -4400 0
-4329 -4693 0
-4330 -4694 0
-4331 -4695 0
-4332 -4696 0
-4329 -5985 0
-4330 -5986 0
-4331 -5987 0
-4332 -5988 0
-4333 -4341 0
-4334 -4342 0
-4335 -4343 0
-4336 -4344 0
-4333 -4413 0
-4334 -4414 0
-4335 -4415 0
-4336 -4416 0
-4333 -4697 0
-4334 -4698 0
-4335 -4699 0
-4336 -4700 0
-4333 -4993 0
-4334 -4994 0
-4335 -4995 0
-4336 -4996 0
-4333 -5293 0
-4334 -5294 0
-4335 -5295 0
-4336 -5296 0
-4333 -5989 0
-4334 -5990 0
-4335 -5991 0
-4336 -5992 0
-4337 -4341 0
-4338 -4342 0
-4339 -4343 0
-4340 -4344 0
-4337 -4421 0
-4338 -4422 0
-4339 -4423 0
-4340 -4424 0
-4337 -4433 0
-4338 -4434 0
-4339 -4435 0
-4340 -4436 0
-4337 -5793 0
-4338 -5794 0
-4339 -5795 0
-4340 -5796 0
-4337 -5985 0
-4338 -5986 0
-4339 -5987 0
-4340 -5988 0
-4337 -5993 0
-4338 -5994 0
-4339 -5995 0
-4340 -5996 0
-4341 -4433 0
-4342 -4434 0
-4343 -4435 0
-4344 -4436 0
-4341 -4445 0
-4342 -4446 0
-4343 -4447 0
-4344 -4448 0
-4341 -4701 0
-4342 -4702 0
-4343 -4703 0
-4344 -4704 0
-4341 -4997 0
-4342 -4998 0
-4343 -4999 0
-4344 -5000 0
-4341 -5989 0
-4342 -5990 0
-4343 -5991 0
-4344 -5992 0
-4341 -5997 0
-4342 -5998 0
-4343 -5999 0
-4344 -6000 0
-4345 -4349 0
-4346 -4350 0
-4347 -4351 0
-4348 -4352 0
-4345 -4353 0
-4346 -4354 0
-4347 -4355 0
-4348 -4356 0
-4345 -4401 0
-4346 -4402 0
-4347 -4403 0
-4348 -4404 0
-4345 -5297 0
-4346 -5298 0
-4347 -5299 0
-4348 -5300 0
-4345 -5801 0
-4346 -5802 0
-4347 -5803 0
-4348 -5804 0
-4345 -6005 0
-4346 -6006 0
-4347 -6007 0
-4348 -6008 0
-4349 -4357 0
-4350 -4358 0
-4351 -4359 0
-4352 -4360 0
-4349 -4409 0
-4350 -4410 0
-4351 -4411 0
-4352 -4412 0
-4349 -5305 0
-4350 -5306 0
-4351 -5307 0
-4352 -5308 0
-4349 -5469 0
-4350 -5470 0
-4351 -5471 0
-4352 -5472 0
-4349 -6009 0
-4350 -6010 0
-4351 -6011 0
-4352 -6012 0
-4353 -4357 0
-4354 -4358 0
-4355 -4359 0
-4356 -4360 0
-4353 -4425 0
-4354 -4426 0
-4355 -4427 0
-4356 -4428 0
-4353 -4433 0
-4354 -4434 0
-4355 -4435 0
-4356 -4436 0
-4353 -5173 0
-4354 -5174 0
-4355 -5175 0
-4356 -5176 0
-4353 -5313 0
-4354 -5314 0
-4355 -5315 0
-4356 -5316 0
-4353 -5809 0
-4354 -5810 0
-4355 -5811 0
-4356 -5812 0
-4353 -6005 0
-4354 -6006 0
-4355 -6007 0
-4356 -6008 0
-4353 -6013 0
-4354 -6014 0
-4355 -6015 0
-4356 -6016 0
-4357 -4433 0
-4358 -4434 0
-4359 -4435 0
-4360 -4436 0
-4357 -4441 0
-4358 -4442 0
-4359 -4443 0
-4360 -4444 0
-4357 -4685 0
-4358 -4686 0
-4359 -4687 0
-4360 -4688 0
-4357 -5317 0
-4358 -5318 0
-4359 -5319 0
-4360 -5320 0
-4357 -5325 0
-4358 -5326 0
-4359 -5327 0
-4360 -5328 0
-4357 -5473 0
-4358 -5474 0
-4359 -5475 0
-4360 -5476 0
-4357 -6009 0
-4358 -6010 0
-4359 -6011 0
-4360 -6012 0
-4357 -6017 0
-4358 -6018 0
-4359 -6019 0
-4360 -6020 0
-4361 -4365 0
-4362 -4366 0
-4363 -4367 0
-4364 -4368 0
-4361 -4369 0
-4362 -4370 0
-4363 -4371 0
-4364 -4372 0
-4361 -4721 0
-4362 -4722 0
-4363 -4723 0
-4364 -4724 0
-4361 -5021 0
-4362 -5022 0
-4363 -5023 0
-4364 -5024 0
-4361 -5477 0
-4362 -5478 0
-4363 -5479 0
-4364 -5480 0
-4361 -6021 0
-4362 -6022 0
-4363 -6023 0
-4364 -6024 0
-4365 -4373 0
-4366 -4374 0
-4367 -4375 0
-4368 -4376 0
-4365 -4405 0
-4366 -4406 0
-4367 -4407 0
-4368 -4408 0
-4365 -6025 0
-4366 -6026 0
-4367 -6027 0
-4368 -6028 0
-4369 -4373 0
-4370 -4374 0
-4371 -4375 0
-4372 -4376 0
-4369 -4429 0
-4370 -4430 0
-4371 -4431 0
-4372 -4432 0
-4369 -4433 0
-4370 -4434 0
-4371 -4435 0
-4372 -4436 0
-4369 -4725 0
-4370 -4726 0
-4371 -4727 0
-4372 -4728 0
-4369 -5033 0
-4370 -5034 0
-4371 -5035 0
-4372 -5036 0
-4369 -5357 0
-4370 -5358 0
-4371 -5359 0
-4372 -5360 0
-4369 -6021 0
-4370 -6022 0
-4371 -6023 0
-4372 -6024 0
-4369 -6029 0
-4370 -6030 0
-4371 -6031 0
-4372 -6032 0
-4373 -4433 0
-4374 -4434 0
-4375 -4435 0
-4376 -4436 0
-4373 -4437 0
-4374 -4438 0
-4375 -4439 0
-4376 -4440 0
-4373 -4765 0
-4374 -4766 0
-4375 -4767 0
-4376 -4768 0
-4373 -5037 0
-4374 -5038 0
-4375 -5039 0
-4376 -5040 0
-4373 -5361 0
-4374 -5362 0
-4375 -5363 0
-4376 -5364 0
-4373 -6025 0
-4374 -6026 0
-4375 -6027 0
-4376 -6028 0
-4373 -6033 0
-4374 -6034 0
-4375 -6035 0
-4376 -6036 0
-4373 -6353 0
-4374 -6354 0
-4375 -6355 0
-4376 -6356 0
-4377 -4381 0
-4378 -4382 0
-4379 -4383 0
-4380 -4384 0
-4377 -4869 0
-4378 -4870 0
-4379 -4871 0
-4380 -4872 0
-4377 -5481 0
-4378 -5482 0
-4379 -5483 0
-4380 -5484 0
-4377 -6037 0
-4378 -6038 0
-4379 -6039 0
-4380 -6040 0
-4377 -6201 0
-4378 -6202 0
-4379 -6203 0
-4380 -6204 0
-4381 -4433 0
-4382 -4434 0
-4383 -4435 0
-4384 -4436 0
-4381 -4693 0
-4382 -4694 0
-4383 -4695 0
-4384 -4696 0
-4381 -4873 0
-4382 -4874 0
-4383 -4875 0
-4384 -4876 0
-4381 -5053 0
-4382 -5054 0
-4383 -5055 0
-4384 -5056 0
-4381 -5485 0
-4382 -5486 0
-4383 -5487 0
-4384 -5488 0
-4381 -6037 0
-4382 -6038 0
-4383 -6039 0
-4384 -6040 0
-4381 -6041 0
-4382 -6042 0
-4383 -6043 0
-4384 -6044 0
-4381 -6205 0
-4382 -6206 0
-4383 -6207 0
-4384 -6208 0
-4385 -4389 0
-4386 -4390 0
-4387 -4391 0
-4388 -4392 0
-4385 -6045 0
-4386 -6046 0
-4387 -6047 0
-4388 -6048 0
-4385 -6357 0
-4386 -6358 0
-4387 -6359 0
-4388 -6360 0
-4389 -4433 0
-4390 -4434 0
-4391 -4435 0
-4392 -4436 0
-4389 -5177 0
-4390 -5178 0
-4391 -5179 0
-4392 -5180 0
-4389 -5389 0
-4390 -5390 0
-4391 -5391 0
-4392 -5392 0
-4389 -5973 0
-4390 -5974 0
-4391 -5975 0
-4392 -5976 0
-4389 -6045 0
-4390 -6046 0
-4391 -6047 0
-4392 -6048 0
-4389 -6049 0
-4390 -6050 0
-4391 -6051 0
-4392 -6052 0
-4389 -6361 0
-4390 -6362 0
-4391 -6363 0
-4392 -6364 0
-4393 -4417 0
-4394 -4418 0
-4395 -4419 0
-4396 -4420 0
-4393 -4545 0
-4394 -4546 0
-4395 -4547 0
-4396 -4548 0
-4393 -4825 0
-4394 -4826 0
-4395 -4827 0
-4396 -4828 0
-4393 -5489 0
-4394 -5490 0
-4395 -5491 0
-4396 -5492 0
-4393 -6057 0
-4394 -6058 0
-4395 -6059 0
-4396 -6060 0
-4393 -6365 0
-4394 -6366 0
-4395 -6367 0
-4396 -6368 0
-4397 -4421 0
-4398 -4422 0
-4399 -4423 0
-4400 -4424 0
-4397 -4509 0
-4398 -4510 0
-4399 -4511 0
-4400 -4512 0
-4397 -4817 0
-4398 -4818 0
-4399 -4819 0
-4400 -4820 0
-4397 -6065 0
-4398 -6066 0
-4399 -6067 0
-4400 -6068 0
-4401 -4425 0
-4402 -4426 0
-4403 -4427 0
-4404 -4428 0
-4401 -4829 0
-4402 -4830 0
-4403 -4831 0
-4404 -4832 0
-4401 -6069 0
-4402 -6070 0
-4403 -6071 0
-4404 -6072 0
-4405 -4437 0
-4406 -4438 0
-4407 -4439 0
-4408 -4440 0
-4405 -4481 0
-4406 -4482 0
-4407 -4483 0
-4408 -4484 0
-4405 -4889 0
-4406 -4890 0
-4407 -4891 0
-4408 -4892 0
-4405 -5353 0
-4406 -5354 0
-4407 -5355 0
-4408 -5356 0
-4405 -6081 0
-4406 -6082 0
-4407 -6083 0
-4408 -6084 0
-4409 -4441 0
-4410 -4442 0
-4411 -4443 0
-4412 -4444 0
-4409 -4493 0
-4410 -4494 0
-4411 -4495 0
-4412 -4496 0
-4409 -4893 0
-4410 -4894 0
-4411 -4895 0
-4412 -4896 0
-4409 -5509 0
-4410 -5510 0
-4411 -5511 0
-4412 -5512 0
-4409 -6085 0
-4410 -6086 0
-4411 -6087 0
-4412 -6088 0
-4413 -4445 0
-4414 -4446 0
-4415 -4447 0
-4416 -4448 0
-4413 -4513 0
-4414 -4514 0
-4415 -4515 0
-4416 -4516 0
-4413 -5065 0
-4414 -5066 0
-4415 -5067 0
-4416 -5068 0
-4413 -5357 0
-4414 -5358 0
-4415 -5359 0
-4416 -5360 0
-4413 -6089 0
-4414 -6090 0
-4415 -6091 0
-4416 -6092 0
-4417 -4433 0
-4418 -4434 0
-4419 -4435 0
-4420 -4436 0
-4417 -4553 0
-4418 -4554 0
-4419 -4555 0
-4420 -4556 0
-4417 -5497 0
-4418 -5498 0
-4419 -5499 0
-4420 -5500 0
-4417 -6057 0
-4418 -6058 0
-4419 -6059 0
-4420 -6060 0
-4417 -6097 0
-4418 -6098 0
-4419 -6099 0
-4420 -6100 0
-4417 -6377 0
-4418 -6378 0
-4419 -6379 0
-4420 -6380 0
-4421 -4433 0
-4422 -4434 0
-4423 -4435 0
-4424 -4436 0
-4421 -4517 0
-4422 -4518 0
-4423 -4519 0
-4424 -4520 0
-4421 -4561 0
-4422 -4562 0
-4423 -4563 0
-4424 -4564 0
-4421 -4901 0
-4422 -4902 0
-4423 -4903 0
-4424 -4904 0
-4421 -5397 0
-4422 -5398 0
-4423 -5399 0
-4424 -5400 0
-4421 -5825 0
-4422 -5826 0
-4423 -5827 0
-4424 -5828 0
-4421 -6065 0
-4422 -6066 0
-4423 -6067 0
-4424 -6068 0
-4421 -6101 0
-4422 -6102 0
-4423 -6103 0
-4424 -6104 0
-4425 -4433 0
-4426 -4434 0
-4427 -4435 0
-4428 -4436 0
-4425 -4497 0
-4426 -4498 0
-4427 -4499 0
-4428 -4500 0
-4425 -5189 0
-4426 -5190 0
-4427 -5191 0
-4428 -5192 0
-4425 -5301 0
-4426 -5302 0
-4427 -5303 0
-4428 -5304 0
-4425 -6069 0
-4426 -6070 0
-4427 -6071 0
-4428 -6072 0
-4425 -6105 0
-4426 -6106 0
-4427 -6107 0
-4428 -6108 0
-4429 -4433 0
-4430 -4434 0
-4431 -4435 0
-4432 -4436 0
-4429 -4449 0
-4430 -4450 0
-4431 -4451 0
-4432 -4452 0
-4429 -4485 0
-4430 -4486 0
-4431 -4487 0
-4432 -4488 0
-4429 -4565 0
-4430 -4566 0
-4431 -4567 0
-4432 -4568 0
-4429 -4741 0
-4430 -4742 0
-4431 -4743 0
-4432 -4744 0
-4429 -4925 0
-4430 -4926 0
-4431 -4927 0
-4432 -4928 0
-4429 -5305 0
-4430 -5306 0
-4431 -5307 0
-4432 -5308 0
-4429 -5829 0
-4430 -5830 0
-4431 -5831 0
-4432 -5832 0
-4429 -6073 0
-4430 -6074 0
-4431 -6075 0
-4432 -6076 0
-4429 -6109 0
-4430 -6110 0
-4431 -6111 0
-4432 -6112 0
-4433 -4437 0
-4434 -4438 0
-4435 -4439 0
-4436 -4440 0
-4433 -4441 0
-4434 -4442 0
-4435 -4443 0
-4436 -4444 0
-4433 -4445 0
-4434 -4446 0
-4435 -4447 0
-4436 -4448 0
-4433 -4453 0
-4434 -4454 0
-4435 -4455 0
-4436 -4456 0
-4433 -4457 0
-4434 -4458 0
-4435 -4459 0
-4436 -4460 0
-4433 -4465 0
-4434 -4466 0
-4435 -4467 0
-4436 -4468 0
-4433 -4473 0
-4434 -4474 0
-4435 -4475 0
-4436 -4476 0
-4433 -4485 0
-4434 -4486 0
-4435 -4487 0
-4436 -4488 0
-4433 -4489 0
-4434 -4490 0
-4435 -4491 0
-4436 -4492 0
-4433 -4497 0
-4434 -4498 0
-4435 -4499 0
-4436 -4500 0
-4433 -4501 0
-4434 -4502 0
-4435 -4503 0
-4436 -4504 0
-4433 -4517 0
-4434 -4518 0
-4435 -4519 0
-4436 -4520 0
-4433 -4521 0
-4434 -4522 0
-4435 -4523 0
-4436 -4524 0
-4433 -4553 0
-4434 -4554 0
-4435 -4555 0
-4436 -4556 0
-4433 -4557 0
-4434 -4558 0
-4435 -4559 0
-4436 -4560 0
-4433 -4569 0
-4434 -4570 0
-4435 -4571 0
-4436 -4572 0
-4433 -4705 0
-4434 -4706 0
-4435 -4707 0
-4436 -4708 0
-4433 -4745 0
-4434 -4746 0
-4435 -4747 0
-4436 -4748 0
-4433 -4773 0
-4434 -4774 0
-4435 -4775 0
-4436 -4776 0
-4433 -4837 0
-4434 -4838 0
-4435 -4839 0
-4436 -4840 0
-4433 -4909 0
-4434 -4910 0
-4435 -4911 0
-4436 -4912 0
-4433 -5077 0
-4434 -5078 0
-4435 -5079 0
-4436 -5080 0
-4433 -5193 0
-4434 -5194 0
-4435 -5195 0
-4436 -5196 0
-4433 -5309 0
-4434 -5310 0
-4435 -5311 0
-4436 -5312 0
-4433 -5373 0
-4434 -5374 0
-4435 -5375 0
-4436 -5376 0
-4433 -5401 0
-4434 -5402 0
-4435 -5403 0
-4436 -5404 0
-4433 -5501 0
-4434 -5502 0
-4435 -5503 0
-4436 -5504 0
-4433 -5513 0
-4434 -5514 0
-4435 -5515 0
-4436 -5516 0
-4433 -5833 0
-4434 -5834 0
-4435 -5835 0
-4436 -5836 0
-4433 -5837 0
-4434 -5838 0
-4435 -5839 0
-4436 -5840 0
-4433 -5973 0
-4434 -5974 0
-4435 -5975 0
-4436 -5976 0
-4433 -5981 0
-4434 -5982 0
-4435 -5983 0
-4436 -5984 0
-4433 -6077 0
-4434 -6078 0
-4435 -6079 0
-4436 -6080 0
-4433 -6113 0
-4434 -6114 0
-4435 -6115 0
-4436 -6116 0
-4433 -6205 0
-4434 -6206 0
-4435 -6207 0
-4436 -6208 0
-4433 -6213 0
-4434 -6214 0
-4435 -6215 0
-4436 -6216 0
-4433 -6381 0
-4434 -6382 0
-4435 -6383 0
-4436 -6384 0
-4437 -4489 0
-4438 -4490 0
-4439 -4491 0
-4440 -4492 0
-4437 -4913 0
-4438 -4914 0
-4439 -4915 0
-4440 -4916 0
-4437 -5197 0
-4438 -5198 0
-4439 -5199 0
-4440 -5200 0
-4437 -6081 0
-4438 -6082 0
-4439 -6083 0
-4440 -6084 0
-4437 -6117 0
-4438 -6118 0
-4439 -6119 0
-4440 -6120 0
-4441 -4501 0
-4442 -4502 0
-4443 -4503 0
-4444 -4504 0
-4441 -4573 0
-4442 -4574 0
-4443 -4575 0
-4444 -4576 0
-4441 -4709 0
-4442 -4710 0
-4443 -4711 0
-4444 -4712 0
-4441 -4917 0
-4442 -4918 0
-4443 -4919 0
-4444 -4920 0
-4441 -5517 0
-4442 -5518 0
-4443 -5519 0
-4444 -5520 0
-4441 -6085 0
-4442 -6086 0
-4443 -6087 0
-4444 -6088 0
-4441 -6121 0
-4442 -6122 0
-4443 -6123 0
-4444 -6124 0
-4445 -4521 0
-4446 -4522 0
-4447 -4523 0
-4448 -4524 0
-4445 -4713 0
-4446 -4714 0
-4447 -4715 0
-4448 -4716 0
-4445 -4777 0
-4446 -4778 0
-4447 -4779 0
-4448 -4780 0
-4445 -5081 0
-4446 -5082 0
-4447 -5083 0
-4448 -5084 0
-4445 -5377 0
-4446 -5378 0
-4447 -5379 0
-4448 -5380 0
-4445 -5521 0
-4446 -5522 0
-4447 -5523 0
-4448 -5524 0
-4445 -6089 0
-4446 -6090 0
-4447 -6091 0
-4448 -6092 0
-4445 -6125 0
-4446 -6126 0
-4447 -6127 0
-4448 -6128 0
-4449 -4453 0
-4450 -4454 0
-4451 -4455 0
-4452 -4456 0
-4449 -4749 0
-4450 -4750 0
-4451 -4751 0
-4452 -4752 0
-4449 -5085 0
-4450 -5086 0
-4451 -5087 0
-4452 -5088 0
-4449 -5405 0
-4450 -5406 0
-4451 -5407 0
-4452 -5408 0
-4453 -4557 0
-4454 -4558 0
-4455 -4559 0
-4456 -4560 0
-4453 -4593 0
-4454 -4594 0
-4455 -4595 0
-4456 -4596 0
-4453 -5089 0
-4454 -5090 0
-4455 -5091 0
-4456 -5092 0
-4453 -5381 0
-4454 -5382 0
-4455 -5383 0
-4456 -5384 0
-4453 -5409 0
-4454 -5410 0
-4455 -5411 0
-4456 -5412 0
-4453 -6093 0
-4454 -6094 0
-4455 -6095 0
-4456 -6096 0
-4453 -6129 0
-4454 -6130 0
-4455 -6131 0
-4456 -6132 0
-4457 -4581 0
-4458 -4582 0
-4459 -4583 0
-4460 -4584 0
-4457 -4781 0
-4458 -4782 0
-4459 -4783 0
-4460 -4784 0
-4457 -5205 0
-4458 -5206 0
-4459 -5207 0
-4460 -5208 0
-4457 -5417 0
-4458 -5418 0
-4459 -5419 0
-4460 -5420 0
-4457 -5841 0
-4458 -5842 0
-4459 -5843 0
-4460 -5844 0
-4457 -6113 0
-4458 -6114 0
-4459 -6115 0
-4460 -6116 0
-4461 -4465 0
-4462 -4466 0
-4463 -4467 0
-4464 -4468 0
-4461 -4845 0
-4462 -4846 0
-4463 -4847 0
-4464 -4848 0
-4461 -5977 0
-4462 -5978 0
-4463 -5979 0
-4464 -5980 0
-4461 -6133 0
-4462 -6134 0
-4463 -6135 0
-4464 -6136 0
-4465 -4717 0
-4466 -4718 0
-4467 -4719 0
-4468 -4720 0
-4465 -4849 0
-4466 -4850 0
-4467 -4851 0
-4468 -4852 0
-4465 -4929 0
-4466 -4930 0
-4467 -4931 0
-4468 -4932 0
-4465 -5101 0
-4466 -5102 0
-4467 -5103 0
-4468 -5104 0
-4465 -5845 0
-4466 -5846 0
-4467 -5847 0
-4468 -5848 0
-4465 -5981 0
-4466 -5982 0
-4467 -5983 0
-4468 -5984 0
-4465 -6133 0
-4466 -6134 0
-4467 -6135 0
-4468 -6136 0
-4465 -6137 0
-4466 -6138 0
-4467 -6139 0
-4468 -6140 0
-4469 -4473 0
-4470 -4474 0
-4471 -4475 0
-4472 -4476 0
-4469 -4753 0
-4470 -4754 0
-4471 -4755 0
-4472 -4756 0
-4469 -5105 0
-4470 -5106 0
-4471 -5107 0
-4472 -5108 0
-4469 -6141 0
-4470 -6142 0
-4471 -6143 0
-4472 -6144 0
-4469 -6209 0
-4470 -6210 0
-4471 -6211 0
-4472 -6212 0
-4473 -4589 0
-4474 -4590 0
-4475 -4591 0
-4476 -4592 0
-4473 -4757 0
-4474 -4758 0
-4475 -4759 0
-4476 -4760 0
-4473 -5109 0
-4474 -5110 0
-4475 -5111 0
-4476 -5112 0
-4473 -6141 0
-4474 -6142 0
-4475 -6143 0
-4476 -6144 0
-4473 -6145 0
-4474 -6146 0
-4475 -6147 0
-4476 -6148 0
-4473 -6213 0
-4474 -6214 0
-4475 -6215 0
-4476 -6216 0
-4477 -4481 0
-4478 -4482 0
-4479 -4483 0
-4480 -4484 0
-4477 -4485 0
-4478 -4486 0
-4479 -4487 0
-4480 -4488 0
-4477 -4857 0
-4478 -4858 0
-4479 -4859 0
-4480 -4860 0
-4477 -5113 0
-4478 -5114 0
-4479 -5115 0
-4480 -5116 0
-4477 -5533 0
-4478 -5534 0
-4479 -5535 0
-4480 -5536 0
-4477 -6149 0
-4478 -6150 0
-4479 -6151 0
-4480 -6152 0
-4481 -4489 0
-4482 -4490 0
-4483 -4491 0
-4484 -4492 0
-4481 -4933 0
-4482 -4934 0
-4483 -4935 0
-4484 -4936 0
-4481 -5397 0
-4482 -5398 0
-4483 -5399 0
-4484 -5400 0
-4481 -5537 0
-4482 -5538 0
-4483 -5539 0
-4484 -5540 0
-4481 -6153 0
-4482 -6154 0
-4483 -6155 0
-4484 -6156 0
-4485 -4489 0
-4486 -4490 0
-4487 -4491 0
-4488 -4492 0
-4485 -4601 0
-4486 -4602 0
-4487 -4603 0
-4488 -4604 0
-4485 -4861 0
-4486 -4862 0
-4487 -4863 0
-4488 -4864 0
-4485 -5321 0
-4486 -5322 0
-4487 -5323 0
-4488 -5324 0
-4485 -5553 0
-4486 -5554 0
-4487 -5555 0
-4488 -5556 0
-4485 -5853 0
-4486 -5854 0
-4487 -5855 0
-4488 -5856 0
-4485 -6149 0
-4486 -6150 0
-4487 -6151 0
-4488 -6152 0
-4485 -6157 0
-4486 -6158 0
-4487 -6159 0
-4488 -6160 0
-4489 -4941 0
-4490 -4942 0
-4491 -4943 0
-4492 -4944 0
-4489 -5413 0
-4490 -5414 0
-4491 -5415 0
-4492 -5416 0
-4489 -5557 0
-4490 -5558 0
-4491 -5559 0
-4492 -5560 0
-4489 -5857 0
-4490 -5858 0
-4491 -5859 0
-4492 -5860 0
-4489 -6153 0
-4490 -6154 0
-4491 -6155 0
-4492 -6156 0
-4489 -6161 0
-4490 -6162 0
-4491 -6163 0
-4492 -6164 0
-4493 -4501 0
-4494 -4502 0
-4495 -4503 0
-4496 -4504 0
-4493 -4841 0
-4494 -4842 0
-4495 -4843 0
-4496 -4844 0
-4493 -4965 0
-4494 -4966 0
-4495 -4967 0
-4496 -4968 0
-4493 -5581 0
-4494 -5582 0
-4495 -5583 0
-4496 -5584 0
-4493 -6169 0
-4494 -6170 0
-4495 -6171 0
-4496 -6172 0
-4497 -4501 0
-4498 -4502 0
-4499 -4503 0
-4500 -4504 0
-4497 -5353 0
-4498 -5354 0
-4499 -5355 0
-4500 -5356 0
-4497 -5869 0
-4498 -5870 0
-4499 -5871 0
-4500 -5872 0
-4497 -6001 0
-4498 -6002 0
-4499 -6003 0
-4500 -6004 0
-4497 -6165 0
-4498 -6166 0
-4499 -6167 0
-4500 -6168 0
-4497 -6173 0
-4498 -6174 0
-4499 -6175 0
-4500 -6176 0
-4497 -6421 0
-4498 -6422 0
-4499 -6423 0
-4500 -6424 0
-4501 -4621 0
-4502 -4622 0
-4503 -4623 0
-4504 -4624 0
-4501 -4969 0
-4502 -4970 0
-4503 -4971 0
-4504 -4972 0
-4501 -5585 0
-4502 -5586 0
-4503 -5587 0
-4504 -5588 0
-4501 -5873 0
-4502 -5874 0
-4503 -5875 0
-4504 -5876 0
-4501 -6169 0
-4502 -6170 0
-4503 -6171 0
-4504 -6172 0
-4501 -6177 0
-4502 -6178 0
-4503 -6179 0
-4504 -6180 0
-4505 -4537 0
-4506 -4538 0
-4507 -4539 0
-4508 -4540 0
-4505 -4737 0
-4506 -4738 0
-4507 -4739 0
-4508 -4740 0
-4505 -5173 0
-4506 -5174 0
-4507 -5175 0
-4508 -5176 0
-4505 -5893 0
-4506 -5894 0
-4507 -5895 0
-4508 -5896 0
-4505 -6009 0
-4506 -6010 0
-4507 -6011 0
-4508 -6012 0
-4509 -4513 0
-4510 -4514 0
-4511 -4515 0
-4512 -4516 0
-4509 -4517 0
-4510 -4518 0
-4511 -4519 0
-4512 -4520 0
-4509 -4865 0
-4510 -4866 0
-4511 -4867 0
-4512 -4868 0
-4509 -4881 0
-4510 -4882 0
-4511 -4883 0
-4512 -4884 0
-4509 -5901 0
-4510 -5902 0
-4511 -5903 0
-4512 -5904 0
-4509 -6181 0
-4510 -6182 0
-4511 -6183 0
-4512 -6184 0
-4513 -4521 0
-4514 -4522 0
-4515 -4523 0
-4516 -4524 0
-4513 -4897 0
-4514 -4898 0
-4515 -4899 0
-4516 -4900 0
-4513 -5593 0
-4514 -5594 0
-4515 -5595 0
-4516 -5596 0
-4513 -6185 0
-4514 -6186 0
-4515 -6187 0
-4516 -6188 0
-4517 -4521 0
-4518 -4522 0
-4519 -4523 0
-4520 -4524 0
-4517 -4641 0
-4518 -4642 0
-4519 -4643 0
-4520 -4644 0
-4517 -4905 0
-4518 -4906 0
-4519 -4907 0
-4520 -4908 0
-4517 -5913 0
-4518 -5914 0
-4519 -5915 0
-4520 -5916 0
-4517 -6181 0
-4518 -6182 0
-4519 -6183 0
-4520 -6184 0
-4517 -6189 0
-4518 -6190 0
-4519 -6191 0
-4520 -6192 0
-4521 -4753 0
-4522 -4754 0
-4523 -4755 0
-4524 -4756 0
-4521 -4789 0
-4522 -4790 0
-4523 -4791 0
-4524 -4792 0
-4521 -4921 0
-4522 -4922 0
-4523 -4923 0
-4524 -4924 0
-4521 -5597 0
-4522 -5598 0
-4523 -5599 0
-4524 -5600 0
-4521 -6185 0
-4522 -6186 0
-4523 -6187 0
-4524 -6188 0
-4521 -6193 0
-4522 -6194 0
-4523 -6195 0
-4524 -6196 0
-4525 -4529 0
-4526 -4530 0
-4527 -4531 0
-4528 -4532 0
-4525 -4533 0
-4526 -4534 0
-4527 -4535 0
-4528 -4536 0
-4525 -4537 0
-4526 -4538 0
-4527 -4539 0
-4528 -4540 0
-4525 -4873 0
-4526 -4874 0
-4527 -4875 0
-4528 -4876 0
-4525 -5165 0
-4526 -5166 0
-4527 -5167 0
-4528 -5168 0
-4525 -5621 0
-4526 -5622 0
-4527 -5623 0
-4528 -5624 0
-4525 -5925 0
-4526 -5926 0
-4527 -5927 0
-4528 -5928 0
-4525 -6045 0
-4526 -6046 0
-4527 -6047 0
-4528 -6048 0
-4525 -6077 0
-4526 -6078 0
-4527 -6079 0
-4528 -6080 0
-4525 -6437 0
-4526 -6438 0
-4527 -6439 0
-4528 -6440 0
-4529 -4877 0
-4530 -4878 0
-4531 -4879 0
-4532 -4880 0
-4529 -5177 0
-4530 -5178 0
-4531 -5179 0
-4532 -5180 0
-4529 -5449 0
-4530 -5450 0
-4531 -5451 0
-4532 -5452 0
-4529 -5625 0
-4530 -5626 0
-4531 -5627 0
-4532 -5628 0
-4529 -6085 0
-4530 -6086 0
-4531 -6087 0
-4532 -6088 0
-4533 -4541 0
-4534 -4542 0
-4535 -4543 0
-4536 -4544 0
-4533 -5429 0
-4534 -5430 0
-4535 -5431 0
-4536 -5432 0
-4533 -5453 0
-4534 -5454 0
-4535 -5455 0
-4536 -5456 0
-4533 -5929 0
-4534 -5930 0
-4535 -5931 0
-4536 -5932 0
-4533 -6049 0
-4534 -6050 0
-4535 -6051 0
-4536 -6052 0
-4533 -6113 0
-4534 -6114 0
-4535 -6115 0
-4536 -6116 0
-4537 -4541 0
-4538 -4542 0
-4539 -4543 0
-4540 -4544 0
-4537 -4669 0
-4538 -4670 0
-4539 -4671 0
-4540 -4672 0
-4537 -4961 0
-4538 -4962 0
-4539 -4963 0
-4540 -4964 0
-4537 -5189 0
-4538 -5190 0
-4539 -5191 0
-4540 -5192 0
-4537 -5433 0
-4538 -5434 0
-4539 -5435 0
-4540 -5436 0
-4537 -5645 0
-4538 -5646 0
-4539 -5647 0
-4540 -5648 0
-4537 -5933 0
-4538 -5934 0
-4539 -5935 0
-4540 -5936 0
-4537 -6077 0
-4538 -6078 0
-4539 -6079 0
-4540 -6080 0
-4537 -6133 0
-4538 -6134 0
-4539 -6135 0
-4540 -6136 0
-4537 -6197 0
-4538 -6198 0
-4539 -6199 0
-4540 -6200 0
-4541 -4761 0
-4542 -4762 0
-4543 -4763 0
-4544 -4764 0
-4541 -4813 0
-4542 -4814 0
-4543 -4815 0
-4544 -4816 0
-4541 -5201 0
-4542 -5202 0
-4543 -5203 0
-4544 -5204 0
-4541 -5437 0
-4542 -5438 0
-4543 -5439 0
-4544 -5440 0
-4541 -5937 0
-4542 -5938 0
-4543 -5939 0
-4544 -5940 0
-4541 -5941 0
-4542 -5942 0
-4543 -5943 0
-4544 -5944 0
-4541 -6113 0
-4542 -6114 0
-4543 -6115 0
-4544 -6116 0
-4541 -6137 0
-4542 -6138 0
-4543 -6139 0
-4544 -6140 0
-4541 -6197 0
-4542 -6198 0
-4543 -6199 0
-4544 -6200 0
-4545 -4549 0
-4546 -4550 0
-4547 -4551 0
-4548 -4552 0
-4545 -4553 0
-4546 -4554 0
-4547 -4555 0
-4548 -4556 0
-4545 -5669 0
-4546 -5670 0
-4547 -5671 0
-4548 -5672 0
-4545 -6221 0
-4546 -6222 0
-4547 -6223 0
-4548 -6224 0
-4549 -4557 0
-4550 -4558 0
-4551 -4559 0
-4552 -4560 0
-4549 -5457 0
-4550 -5458 0
-4551 -5459 0
-4552 -5460 0
-4549 -5677 0
-4550 -5678 0
-4551 -5679 0
-4552 -5680 0
-4549 -6225 0
-4550 -6226 0
-4551 -6227 0
-4552 -6228 0
-4553 -4557 0
-4554 -4558 0
-4555 -4559 0
-4556 -4560 0
-4553 -4697 0
-4554 -4698 0
-4555 -4699 0
-4556 -4700 0
-4553 -4853 0
-4554 -4854 0
-4555 -4855 0
-4556 -4856 0
-4553 -5673 0
-4554 -5674 0
-4555 -5675 0
-4556 -5676 0
-4553 -5681 0
-4554 -5682 0
-4555 -5683 0
-4556 -5684 0
-4553 -6221 0
-4554 -6222 0
-4555 -6223 0
-4556 -6224 0
-4553 -6229 0
-4554 -6230 0
-4555 -6231 0
-4556 -6232 0
-4557 -4857 0
-4558 -4858 0
-4559 -4859 0
-4560 -4860 0
-4557 -5461 0
-4558 -5462 0
-4559 -5463 0
-4560 -5464 0
-4557 -5685 0
-4558 -5686 0
-4559 -5687 0
-4560 -5688 0
-4557 -6225 0
-4558 -6226 0
-4559 -6227 0
-4560 -6228 0
-4557 -6233 0
-4558 -6234 0
-4559 -6235 0
-4560 -6236 0
-4561 -4569 0
-4562 -4570 0
-4563 -4571 0
-4564 -4572 0
-4561 -4641 0
-4562 -4642 0
-4563 -4643 0
-4564 -4644 0
-4561 -4693 0
-4562 -4694 0
-4563 -4695 0
-4564 -4696 0
-4561 -4765 0
-4562 -4766 0
-4563 -4767 0
-4564 -4768 0
-4561 -5537 0
-4562 -5538 0
-4563 -5539 0
-4564 -5540 0
-4565 -4569 0
-4566 -4570 0
-4567 -4571 0
-4568 -4572 0
-4565 -4577 0
-4566 -4578 0
-4567 -4579 0
-4568 -4580 0
-4565 -4601 0
-4566 -4602 0
-4567 -4603 0
-4568 -4604 0
-4565 -4617 0
-4566 -4618 0
-4567 -4619 0
-4568 -4620 0
-4565 -4637 0
-4566 -4638 0
-4567 -4639 0
-4568 -4640 0
-4565 -4645 0
-4566 -4646 0
-4567 -4647 0
-4568 -4648 0
-4565 -4873 0
-4566 -4874 0
-4567 -4875 0
-4568 -4876 0
-4565 -5209 0
-4566 -5210 0
-4567 -5211 0
-4568 -5212 0
-4565 -5469 0
-4566 -5470 0
-4567 -5471 0
-4568 -5472 0
-4565 -5989 0
-4566 -5990 0
-4567 -5991 0
-4568 -5992 0
-4565 -6261 0
-4566 -6262 0
-4567 -6263 0
-4568 -6264 0
-4569 -4573 0
-4570 -4574 0
-4571 -4575 0
-4572 -4576 0
-4569 -4581 0
-4570 -4582 0
-4571 -4583 0
-4572 -4584 0
-4569 -4589 0
-4570 -4590 0
-4571 -4591 0
-4572 -4592 0
-4569 -4601 0
-4570 -4602 0
-4571 -4603 0
-4572 -4604 0
-4569 -4621 0
-4570 -4622 0
-4571 -4623 0
-4572 -4624 0
-4569 -4641 0
-4570 -4642 0
-4571 -4643 0
-4572 -4644 0
-4569 -4697 0
-4570 -4698 0
-4571 -4699 0
-4572 -4700 0
-4569 -4829 0
-4570 -4830 0
-4571 -4831 0
-4572 -4832 0
-4569 -5213 0
-4570 -5214 0
-4571 -5215 0
-4572 -5216 0
-4569 -5333 0
-4570 -5334 0
-4571 -5335 0
-4572 -5336 0
-4569 -5513 0
-4570 -5514 0
-4571 -5515 0
-4572 -5516 0
-4569 -6265 0
-4570 -6266 0
-4571 -6267 0
-4572 -6268 0
-4569 -6497 0
-4570 -6498 0
-4571 -6499 0
-4572 -6500 0
-4573 -4593 0
-4574 -4594 0
-4575 -4595 0
-4576 -4596 0
-4573 -4605 0
-4574 -4606 0
-4575 -4607 0
-4576 -4608 0
-4573 -4621 0
-4574 -4622 0
-4575 -4623 0
-4576 -4624 0
-4573 -4833 0
-4574 -4834 0
-4575 -4835 0
-4576 -4836 0
-4573 -5045 0
-4574 -5046 0
-4575 -5047 0
-4576 -5048 0
-4573 -5517 0
-4574 -5518 0
-4575 -5519 0
-4576 -5520 0
-4573 -5549 0
-4574 -5550 0
-4575 -5551 0
-4576 -5552 0
-4573 -6269 0
-4574 -6270 0
-4575 -6271 0
-4576 -6272 0
-4573 -6353 0
-4574 -6354 0
-4575 -6355 0
-4576 -6356 0
-4577 -4581 0
-4578 -4582 0
-4579 -4583 0
-4580 -4584 0
-4577 -4609 0
-4578 -4610 0
-4579 -4611 0
-4580 -4612 0
-4577 -4649 0
-4578 -4650 0
-4579 -4651 0
-4580 -4652 0
-4577 -4657 0
-4578 -4658 0
-4579 -4659 0
-4580 -4660 0
-4577 -5473 0
-4578 -5474 0
-4579 -5475 0
-4580 -5476 0
-4577 -5569 0
-4578 -5570 0
-4579 -5571 0
-4580 -5572 0
-4577 -5997 0
-4578 -5998 0
-4579 -5999 0
-4580 -6000 0
-4577 -6261 0
-4578 -6262 0
-4579 -6263 0
-4580 -6264 0
-4581 -4609 0
-4582 -4610 0
-4583 -4611 0
-4584 -4612 0
-4581 -4653 0
-4582 -4654 0
-4583 -4655 0
-4584 -4656 0
-4581 -4701 0
-4582 -4702 0
-4583 -4703 0
-4584 -4704 0
-4581 -5337 0
-4582 -5338 0
-4583 -5339 0
-4584 -5340 0
-4581 -6265 0
-4582 -6266 0
-4583 -6267 0
-4584 -6268 0
-4585 -4705 0
-4586 -4706 0
-4587 -4707 0
-4588 -4708 0
-4585 -5349 0
-4586 -5350 0
-4587 -5351 0
-4588 -5352 0
-4585 -6001 0
-4586 -6002 0
-4587 -6003 0
-4588 -6004 0
-4585 -6273 0
-4586 -6274 0
-4587 -6275 0
-4588 -6276 0
-4585 -6505 0
-4586 -6506 0
-4587 -6507 0
-4588 -6508 0
-4589 -4593 0
-4590 -4594 0
-4591 -4595 0
-4592 -4596 0
-4589 -4713 0
-4590 -4714 0
-4591 -4715 0
-4592 -4716 0
-4589 -4913 0
-4590 -4914 0
-4591 -4915 0
-4592 -4916 0
-4589 -5229 0
-4590 -5230 0
-4591 -5231 0
-4592 -5232 0
-4589 -5369 0
-4590 -5370 0
-4591 -5371 0
-4592 -5372 0
-4589 -6285 0
-4590 -6286 0
-4591 -6287 0
-4592 -6288 0
-4593 -4613 0
-4594 -4614 0
-4595 -4615 0
-4596 -4616 0
-4593 -4921 0
-4594 -4922 0
-4595 -4923 0
-4596 -4924 0
-4593 -5233 0
-4594 -5234 0
-4595 -5235 0
-4596 -5236 0
-4593 -6353 0
-4594 -6354 0
-4595 -6355 0
-4596 -6356 0
-4597 -4605 0
-4598 -4606 0
-4599 -4607 0
-4600 -4608 0
-4597 -4629 0
-4598 -4630 0
-4599 -4631 0
-4600 -4632 0
-4597 -5541 0
-4598 -5542 0
-4599 -5543 0
-4600 -5544 0
-4597 -5713 0
-4598 -5714 0
-4599 -5715 0
-4600 -5716 0
-4597 -6293 0
-4598 -6294 0
-4599 -6295 0
-4600 -6296 0
-4597 -6373 0
-4598 -6374 0
-4599 -6375 0
-4600 -6376 0
-4601 -4605 0
-4602 -4606 0
-4603 -4607 0
-4604 -4608 0
-4601 -4609 0
-4602 -4610 0
-4603 -4611 0
-4604 -4612 0
-4601 -4633 0
-4602 -4634 0
-4603 -4635 0
-4604 -4636 0
-4601 -4661 0
-4602 -4662 0
-4603 -4663 0
-4604 -4664 0
-4601 -4777 0
-4602 -4778 0
-4603 -4779 0
-4604 -4780 0
-4601 -5001 0
-4602 -5002 0
-4603 -5003 0
-4604 -5004 0
-4601 -5241 0
-4602 -5242 0
-4603 -5243 0
-4604 -5244 0
-4601 -5481 0
-4602 -5482 0
-4603 -5483 0
-4604 -5484 0
-4601 -5553 0
-4602 -5554 0
-4603 -5555 0
-4604 -5556 0
-4601 -6005 0
-4602 -6006 0
-4603 -6007 0
-4604 -6008 0
-4601 -6289 0
-4602 -6290 0
-4603 -6291 0
-4604 -6292 0
-4601 -6297 0
-4602 -6298 0
-4603 -6299 0
-4604 -6300 0
-4605 -4613 0
-4606 -4614 0
-4607 -4615 0
-4608 -4616 0
-4605 -4633 0
-4606 -4634 0
-4607 -4635 0
-4608 -4636 0
-4605 -4857 0
-4606 -4858 0
-4607 -4859 0
-4608 -4860 0
-4605 -5093 0
-4606 -5094 0
-4607 -5095 0
-4608 -5096 0
-4605 -5561 0
-4606 -5562 0
-4607 -5563 0
-4608 -5564 0
-4605 -5717 0
-4606 -5718 0
-4607 -5719 0
-4608 -5720 0
-4605 -6009 0
-4606 -6010 0
-4607 -6011 0
-4608 -6012 0
-4605 -6293 0
-4606 -6294 0
-4607 -6295 0
-4608 -6296 0
-4605 -6301 0
-4606 -6302 0
-4607 -6303 0
-4608 -6304 0
-4605 -6381 0
-4606 -6382 0
-4607 -6383 0
-4608 -6384 0
-4609 -4785 0
-4610 -4786 0
-4611 -4787 0
-4612 -4788 0
-4609 -5245 0
-4610 -5246 0
-4611 -5247 0
-4612 -5248 0
-4609 -5485 0
-4610 -5486 0
-4611 -5487 0
-4612 -5488 0
-4609 -6013 0
-4610 -6014 0
-4611 -6015 0
-4612 -6016 0
-4609 -6297 0
-4610 -6298 0
-4611 -6299 0
-4612 -6300 0
-4613 -4945 0
-4614 -4946 0
-4615 -4947 0
-4616 -4948 0
-4613 -5741 0
-4614 -5742 0
-4615 -5743 0
-4616 -5744 0
-4613 -6309 0
-4614 -6310 0
-4615 -6311 0
-4616 -6312 0
-4613 -6381 0
-4614 -6382 0
-4615 -6383 0
-4616 -6384 0
-4617 -4621 0
-4618 -4622 0
-4619 -4623 0
-4620 -4624 0
-4617 -4633 0
-4618 -4634 0
-4619 -4635 0
-4620 -4636 0
-4617 -4665 0
-4618 -4666 0
-4619 -4667 0
-4620 -4668 0
-4617 -4669 0
-4618 -4670 0
-4619 -4671 0
-4620 -4672 0
-4617 -4957 0
-4618 -4958 0
-4619 -4959 0
-4620 -4960 0
-4617 -5249 0
-4618 -5250 0
-4619 -5251 0
-4620 -5252 0
-4617 -5293 0
-4618 -5294 0
-4619 -5295 0
-4620 -5296 0
-4617 -5509 0
-4618 -5510 0
-4619 -5511 0
-4620 -5512 0
-4617 -5741 0
-4618 -5742 0
-4619 -5743 0
-4620 -5744 0
-4617 -6021 0
-4618 -6022 0
-4619 -6023 0
-4620 -6024 0
-4617 -6313 0
-4618 -6314 0
-4619 -6315 0
-4620 -6316 0
-4621 -4633 0
-4622 -4634 0
-4623 -4635 0
-4624 -4636 0
-4621 -5121 0
-4622 -5122 0
-4623 -5123 0
-4624 -5124 0
-4621 -5745 0
-4622 -5746 0
-4623 -5747 0
-4624 -5748 0
-4621 -6025 0
-4622 -6026 0
-4623 -6027 0
-4624 -6028 0
-4621 -6317 0
-4622 -6318 0
-4623 -6319 0
-4624 -6320 0
-4621 -6545 0
-4622 -6546 0
-4623 -6547 0
-4624 -6548 0
-4625 -4633 0
-4626 -4634 0
-4627 -4635 0
-4628 -4636 0
-4625 -4677 0
-4626 -4678 0
-4627 -4679 0
-4628 -4680 0
-4625 -4997 0
-4626 -4998 0
-4627 -4999 0
-4628 -5000 0
-4625 -5269 0
-4626 -5270 0
-4627 -5271 0
-4628 -5272 0
-4625 -5525 0
-4626 -5526 0
-4627 -5527 0
-4628 -5528 0
-4625 -6045 0
-4626 -6046 0
-4627 -6047 0
-4628 -6048 0
-4625 -6237 0
-4626 -6238 0
-4627 -6239 0
-4628 -6240 0
-4625 -6321 0
-4626 -6322 0
-4627 -6323 0
-4628 -6324 0
-4625 -6385 0
-4626 -6386 0
-4627 -6387 0
-4628 -6388 0
-4625 -6405 0
-4626 -6406 0
-4627 -6407 0
-4628 -6408 0
-4625 -6553 0
-4626 -6554 0
-4627 -6555 0
-4628 -6556 0
-4629 -4633 0
-4630 -4634 0
-4631 -4635 0
-4632 -4636 0
-4629 -6053 0
-4630 -6054 0
-4631 -6055 0
-4632 -6056 0
-4629 -6325 0
-4630 -6326 0
-4631 -6327 0
-4632 -6328 0
-4629 -6417 0
-4630 -6418 0
-4631 -6419 0
-4632 -6420 0
-4633 -4681 0
-4634 -4682 0
-4635 -4683 0
-4636 -4684 0
-4633 -4973 0
-4634 -4974 0
-4635 -4975 0
-4636 -4976 0
-4633 -5137 0
-4634 -5138 0
-4635 -5139 0
-4636 -5140 0
-4633 -5545 0
-4634 -5546 0
-4635 -5547 0
-4636 -5548 0
-4633 -5749 0
-4634 -5750 0
-4635 -5751 0
-4636 -5752 0
-4633 -6077 0
-4634 -6078 0
-4635 -6079 0
-4636 -6080 0
-4633 -6237 0
-4634 -6238 0
-4635 -6239 0
-4636 -6240 0
-4633 -6325 0
-4634 -6326 0
-4635 -6327 0
-4636 -6328 0
-4633 -6329 0
-4634 -6330 0
-4635 -6331 0
-4636 -6332 0
-4633 -6393 0
-4634 -6394 0
-4635 -6395 0
-4636 -6396 0
-4633 -6421 0
-4634 -6422 0
-4635 -6423 0
-4636 -6424 0
-4637 -4641 0
-4638 -4642 0
-4639 -4643 0
-4640 -4644 0
-4637 -4645 0
-4638 -4646 0
-4639 -4647 0
-4640 -4648 0
-4637 -4649 0
-4638 -4650 0
-4639 -4651 0
-4640 -4652 0
-4637 -4665 0
-4638 -4666 0
-4639 -4667 0
-4640 -4668 0
-4637 -4729 0
-4638 -4730 0
-4639 -4731 0
-4640 -4732 0
-4637 -4737 0
-4638 -4738 0
-4639 -4739 0
-4640 -4740 0
-4637 -5041 0
-4638 -5042 0
-4639 -5043 0
-4640 -5044 0
-4637 -5297 0
-4638 -5298 0
-4639 -5299 0
-4640 -5300 0
-4637 -5629 0
-4638 -5630 0
-4639 -5631 0
-4640 -5632 0
-4637 -6077 0
-4638 -6078 0
-4639 -6079 0
-4640 -6080 0
-4637 -6241 0
-4638 -6242 0
-4639 -6243 0
-4640 -6244 0
-4637 -6249 0
-4638 -6250 0
-4639 -6251 0
-4640 -6252 0
-4637 -6333 0
-4638 -6334 0
-4639 -6335 0
-4640 -6336 0
-4641 -4653 0
-4642 -4654 0
-4643 -4655 0
-4644 -4656 0
-4641 -4733 0
-4642 -4734 0
-4643 -4735 0
-4644 -4736 0
-4641 -5301 0
-4642 -5302 0
-4643 -5303 0
-4644 -5304 0
-4641 -5433 0
-4642 -5434 0
-4643 -5435 0
-4644 -5436 0
-4641 -6081 0
-4642 -6082 0
-4643 -6083 0
-4644 -6084 0
-4641 -6337 0
-4642 -6338 0
-4643 -6339 0
-4644 -6340 0
-4641 -6561 0
-4642 -6562 0
-4643 -6563 0
-4644 -6564 0
-4645 -4657 0
-4646 -4658 0
-4647 -4659 0
-4648 -4660 0
-4645 -4661 0
-4646 -4662 0
-4647 -4663 0
-4648 -4664 0
-4645 -4669 0
-4646 -4670 0
-4647 -4671 0
-4648 -4672 0
-4645 -4885 0
-4646 -4886 0
-4647 -4887 0
-4648 -4888 0
-4645 -5045 0
-4646 -5046 0
-4647 -5047 0
-4648 -5048 0
-4645 -6089 0
-4646 -6090 0
-4647 -6091 0
-4648 -6092 0
-4645 -6341 0
-4646 -6342 0
-4647 -6343 0
-4648 -6344 0
-4649 -4653 0
-4650 -4654 0
-4651 -4655 0
-4652 -4656 0
-4649 -4657 0
-4650 -4658 0
-4651 -4659 0
-4652 -4660 0
-4649 -4673 0
-4650 -4674 0
-4651 -4675 0
-4652 -4676 0
-4649 -4741 0
-4650 -4742 0
-4651 -4743 0
-4652 -4744 0
-4649 -4749 0
-4650 -4750 0
-4651 -4751 0
-4652 -4752 0
-4649 -4901 0
-4650 -4902 0
-4651 -4903 0
-4652 -4904 0
-4649 -5313 0
-4650 -5314 0
-4651 -5315 0
-4652 -5316 0
-4649 -5633 0
-4650 -5634 0
-4651 -5635 0
-4652 -5636 0
-4649 -6113 0
-4650 -6114 0
-4651 -6115 0
-4652 -6116 0
-4649 -6245 0
-4650 -6246 0
-4651 -6247 0
-4652 -6248 0
-4649 -6253 0
-4650 -6254 0
-4651 -6255 0
-4652 -6256 0
-4649 -6333 0
-4650 -6334 0
-4651 -6335 0
-4652 -6336 0
-4653 -4745 0
-4654 -4746 0
-4655 -4747 0
-4656 -4748 0
-4653 -5437 0
-4654 -5438 0
-4655 -5439 0
-4656 -5440 0
-4653 -5637 0
-4654 -5638 0
-4655 -5639 0
-4656 -5640 0
-4653 -6117 0
-4654 -6118 0
-4655 -6119 0
-4656 -6120 0
-4653 -6337 0
-4654 -6338 0
-4655 -6339 0
-4656 -6340 0
-4657 -4909 0
-4658 -4910 0
-4659 -4911 0
-4660 -4912 0
-4657 -6125 0
-4658 -6126 0
-4659 -6127 0
-4660 -6128 0
-4657 -6341 0
-4658 -6342 0
-4659 -6343 0
-4660 -6344 0
-4661 -4681 0
-4662 -4682 0
-4663 -4683 0
-4664 -4684 0
-4661 -4933 0
-4662 -4934 0
-4663 -4935 0
-4664 -4936 0
-4661 -5097 0
-4662 -5098 0
-4663 -5099 0
-4664 -5100 0
-4661 -5633 0
-4662 -5634 0
-4663 -5635 0
-4664 -5636 0
-4661 -5761 0
-4662 -5762 0
-4663 -5763 0
-4664 -5764 0
-4665 -4669 0
-4666 -4670 0
-4667 -4671 0
-4668 -4672 0
-4665 -4673 0
-4666 -4674 0
-4667 -4675 0
-4668 -4676 0
-4665 -4805 0
-4666 -4806 0
-4667 -4807 0
-4668 -4808 0
-4665 -5049 0
-4666 -5050 0
-4667 -5051 0
-4668 -5052 0
-4665 -5349 0
-4666 -5350 0
-4667 -5351 0
-4668 -5352 0
-4665 -5769 0
-4666 -5770 0
-4667 -5771 0
-4668 -5772 0
-4665 -6169 0
-4666 -6170 0
-4667 -6171 0
-4668 -6172 0
-4665 -6345 0
-4666 -6346 0
-4667 -6347 0
-4668 -6348 0
-4669 -4681 0
-4670 -4682 0
-4671 -4683 0
-4672 -4684 0
-4669 -4965 0
-4670 -4966 0
-4671 -4967 0
-4672 -4968 0
-4669 -5357 0
-4670 -5358 0
-4671 -5359 0
-4672 -5360 0
-4669 -5773 0
-4670 -5774 0
-4671 -5775 0
-4672 -5776 0
-4673 -4809 0
-4674 -4810 0
-4675 -4811 0
-4676 -4812 0
-4673 -5373 0
-4674 -5374 0
-4675 -5375 0
-4676 -5376 0
-4673 -6177 0
-4674 -6178 0
-4675 -6179 0
-4676 -6180 0
-4673 -6277 0
-4674 -6278 0
-4675 -6279 0
-4676 -6280 0
-4673 -6345 0
-4674 -6346 0
-4675 -6347 0
-4676 -6348 0
-4677 -4681 0
-4678 -4682 0
-4679 -4683 0
-4680 -4684 0
-4677 -5081 0
-4678 -5082 0
-4679 -5083 0
-4680 -5084 0
-4677 -5389 0
-4678 -5390 0
-4679 -5391 0
-4680 -5392 0
-4677 -5449 0
-4678 -5450 0
-4679 -5451 0
-4680 -5452 0
-4677 -5657 0
-4678 -5658 0
-4679 -5659 0
-4680 -5660 0
-4677 -5777 0
-4678 -5778 0
-4679 -5779 0
-4680 -5780 0
-4677 -6305 0
-4678 -6306 0
-4679 -6307 0
-4680 -6308 0
-4677 -6433 0
-4678 -6434 0
-4679 -6435 0
-4680 -6436 0
-4677 -6449 0
-4678 -6450 0
-4679 -6451 0
-4680 -6452 0
-4677 -6613 0
-4678 -6614 0
-4679 -6615 0
-4680 -6616 0
-4681 -4977 0
-4682 -4978 0
-4683 -4979 0
-4684 -4980 0
-4681 -5149 0
-4682 -5150 0
-4683 -5151 0
-4684 -5152 0
-4681 -5401 0
-4682 -5402 0
-4683 -5403 0
-4684 -5404 0
-4681 -5785 0
-4682 -5786 0
-4683 -5787 0
-4684 -5788 0
-4681 -6185 0
-4682 -6186 0
-4683 -6187 0
-4684 -6188 0
-4681 -6305 0
-4682 -6306 0
-4683 -6307 0
-4684 -6308 0
-4685 -4689 0
-4686 -4690 0
-4687 -4691 0
-4688 -4692 0
-4685 -4705 0
-4686 -4706 0
-4687 -4707 0
-4688 -4708 0
-4685 -4709 0
-4686 -4710 0
-4687 -4711 0
-4688 -4712 0
-4685 -5669 0
-4686 -5670 0
-4687 -5671 0
-4688 -5672 0
-4685 -5793 0
-4686 -5794 0
-4687 -5795 0
-4688 -5796 0
-4685 -6357 0
-4686 -6358 0
-4687 -6359 0
-4688 -6360 0
-4685 -6361 0
-4686 -6362 0
-4687 -6363 0
-4688 -6364 0
-4689 -4717 0
-4690 -4718 0
-4691 -4719 0
-4692 -4720 0
-4689 -5321 0
-4690 -5322 0
-4691 -5323 0
-4692 -5324 0
-4689 -5797 0
-4690 -5798 0
-4691 -5799 0
-4692 -5800 0
-4689 -6373 0
-4690 -6374 0
-4691 -6375 0
-4692 -6376 0
-4689 -6381 0
-4690 -6382 0
-4691 -6383 0
-4692 -6384 0
-4693 -4697 0
-4694 -4698 0
-4695 -4699 0
-4696 -4700 0
-4693 -4705 0
-4694 -4706 0
-4695 -4707 0
-4696 -4708 0
-4693 -4733 0
-4694 -4734 0
-4695 -4735 0
-4696 -4736 0
-4693 -4825 0
-4694 -4826 0
-4695 -4827 0
-4696 -4828 0
-4693 -5353 0
-4694 -5354 0
-4695 -5355 0
-4696 -5356 0
-4693 -5805 0
-4694 -5806 0
-4695 -5807 0
-4696 -5808 0
-4693 -6385 0
-4694 -6386 0
-4695 -6387 0
-4696 -6388 0
-4697 -4701 0
-4698 -4702 0
-4699 -4703 0
-4700 -4704 0
-4697 -4713 0
-4698 -4714 0
-4699 -4715 0
-4700 -4716 0
-4697 -4733 0
-4698 -4734 0
-4699 -4735 0
-4700 -4736 0
-4697 -4993 0
-4698 -4994 0
-4699 -4995 0
-4700 -4996 0
-4697 -5361 0
-4698 -5362 0
-4699 -5363 0
-4700 -5364 0
-4697 -5681 0
-4698 -5682 0
-4699 -5683 0
-4700 -5684 0
-4697 -5809 0
-4698 -5810 0
-4699 -5811 0
-4700 -5812 0
-4697 -6389 0
-4698 -6390 0
-4699 -6391 0
-4700 -6392 0
-4701 -4745 0
-4702 -4746 0
-4703 -4747 0
-4704 -4748 0
-4701 -4997 0
-4702 -4998 0
-4703 -4999 0
-4704 -5000 0
-4701 -6389 0
-4702 -6390 0
-4703 -6391 0
-4704 -6392 0
-4705 -4709 0
-4706 -4710 0
-4707 -4711 0
-4708 -4712 0
-4705 -4713 0
-4706 -4714 0
-4707 -4715 0
-4708 -4716 0
-4705 -4717 0
-4706 -4718 0
-4707 -4719 0
-4708 -4720 0
-4705 -4753 0
-4706 -4754 0
-4707 -4755 0
-4708 -4756 0
-4705 -4829 0
-4706 -4830 0
-4707 -4831 0
-4708 -4832 0
-4705 -5457 0
-4706 -5458 0
-4707 -5459 0
-4708 -5460 0
-4705 -6397 0
-4706 -6398 0
-4707 -6399 0
-4708 -6400 0
-4705 -6405 0
-4706 -6406 0
-4707 -6407 0
-4708 -6408 0
-4709 -4833 0
-4710 -4834 0
-4711 -4835 0
-4712 -4836 0
-4709 -5813 0
-4710 -5814 0
-4711 -5815 0
-4712 -5816 0
-4709 -6409 0
-4710 -6410 0
-4711 -6411 0
-4712 -6412 0
-4713 -4753 0
-4714 -4754 0
-4715 -4755 0
-4716 -4756 0
-4713 -5005 0
-4714 -5006 0
-4715 -5007 0
-4716 -5008 0
-4713 -5389 0
-4714 -5390 0
-4715 -5391 0
-4716 -5392 0
-4713 -6401 0
-4714 -6402 0
-4715 -6403 0
-4716 -6404 0
-4713 -6413 0
-4714 -6414 0
-4715 -6415 0
-4716 -6416 0
-4717 -5397 0
-4718 -5398 0
-4719 -5399 0
-4720 -5400 0
-4717 -6209 0
-4718 -6210 0
-4719 -6211 0
-4720 -6212 0
-4717 -6417 0
-4718 -6418 0
-4719 -6419 0
-4720 -6420 0
-4717 -6421 0
-4718 -6422 0
-4719 -6423 0
-4720 -6424 0
-4721 -4725 0
-4722 -4726 0
-4723 -4727 0
-4724 -4728 0
-4721 -4729 0
-4722 -4730 0
-4723 -4731 0
-4724 -4732 0
-4721 -4733 0
-4722 -4734 0
-4723 -4735 0
-4724 -4736 0
-4721 -5021 0
-4722 -5022 0
-4723 -5023 0
-4724 -5024 0
-4721 -5837 0
-4722 -5838 0
-4723 -5839 0
-4724 -5840 0
-4721 -6349 0
-4722 -6350 0
-4723 -6351 0
-4724 -6352 0
-4721 -6425 0
-4722 -6426 0
-4723 -6427 0
-4724 -6428 0
-4725 -4741 0
-4726 -4742 0
-4727 -4743 0
-4728 -4744 0
-4725 -4745 0
-4726 -4746 0
-4727 -4747 0
-4728 -4748 0
-4725 -5033 0
-4726 -5034 0
-4727 -5035 0
-4728 -5036 0
-4725 -5841 0
-4726 -5842 0
-4727 -5843 0
-4728 -5844 0
-4725 -6425 0
-4726 -6426 0
-4727 -6427 0
-4728 -6428 0
-4729 -4733 0
-4730 -4734 0
-4731 -4735 0
-4732 -4736 0
-4729 -4737 0
-4730 -4738 0
-4731 -4739 0
-4732 -4740 0
-4729 -4741 0
-4730 -4742 0
-4731 -4743 0
-4732 -4744 0
-4729 -4869 0
-4730 -4870 0
-4731 -4871 0
-4732 -4872 0
-4729 -5177 0
-4730 -5178 0
-4731 -5179 0
-4732 -5180 0
-4729 -5853 0
-4730 -5854 0
-4731 -5855 0
-4732 -5856 0
-4729 -6221 0
-4730 -6222 0
-4731 -6223 0
-4732 -6224 0
-4729 -6365 0
-4730 -6366 0
-4731 -6367 0
-4732 -6368 0
-4729 -6429 0
-4730 -6430 0
-4731 -6431 0
-4732 -6432 0
-4733 -4745 0
-4734 -4746 0
-4735 -4747 0
-4736 -4748 0
-4733 -4753 0
-4734 -4754 0
-4735 -4755 0
-4736 -4756 0
-4733 -5061 0
-4734 -5062 0
-4735 -5063 0
-4736 -5064 0
-4733 -5181 0
-4734 -5182 0
-4735 -5183 0
-4736 -5184 0
-4733 -5857 0
-4734 -5858 0
-4735 -5859 0
-4736 -5860 0
-4733 -5861 0
-4734 -5862 0
-4735 -5863 0
-4736 -5864 0
-4733 -6369 0
-4734 -6370 0
-4735 -6371 0
-4736 -6372 0
-4733 -6433 0
-4734 -6434 0
-4735 -6435 0
-4736 -6436 0
-4733 -6641 0
-4734 -6642 0
-4735 -6643 0
-4736 -6644 0
-4737 -4749 0
-4738 -4750 0
-4739 -4751 0
-4740 -4752 0
-4737 -4893 0
-4738 -4894 0
-4739 -4895 0
-4740 -4896 0
-4737 -5173 0
-4738 -5174 0
-4739 -5175 0
-4740 -5176 0
-4737 -5441 0
-4738 -5442 0
-4739 -5443 0
-4740 -5444 0
-4737 -6225 0
-4738 -6226 0
-4739 -6227 0
-4740 -6228 0
-4737 -6357 0
-4738 -6358 0
-4739 -6359 0
-4740 -6360 0
-4737 -6373 0
-4738 -6374 0
-4739 -6375 0
-4740 -6376 0
-4737 -6437 0
-4738 -6438 0
-4739 -6439 0
-4740 -6440 0
-4741 -4745 0
-4742 -4746 0
-4743 -4747 0
-4744 -4748 0
-4741 -4749 0
-4742 -4750 0
-4743 -4751 0
-4744 -4752 0
-4741 -4873 0
-4742 -4874 0
-4743 -4875 0
-4744 -4876 0
-4741 -5185 0
-4742 -5186 0
-4743 -5187 0
-4744 -5188 0
-4741 -6229 0
-4742 -6230 0
-4743 -6231 0
-4744 -6232 0
-4741 -6377 0
-4742 -6378 0
-4743 -6379 0
-4744 -6380 0
-4741 -6429 0
-4742 -6430 0
-4743 -6431 0
-4744 -6432 0
-4745 -4757 0
-4746 -4758 0
-4747 -4759 0
-4748 -4760 0
-4745 -5077 0
-4746 -5078 0
-4747 -5079 0
-4748 -5080 0
-4745 -5865 0
-4746 -5866 0
-4747 -5867 0
-4748 -5868 0
-4745 -6433 0
-4746 -6434 0
-4747 -6435 0
-4748 -6436 0
-4745 -6645 0
-4746 -6646 0
-4747 -6647 0
-4748 -6648 0
-4749 -4761 0
-4750 -4762 0
-4751 -4763 0
-4752 -4764 0
-4749 -4917 0
-4750 -4918 0
-4751 -4919 0
-4752 -4920 0
-4749 -5085 0
-4750 -5086 0
-4751 -5087 0
-4752 -5088 0
-4749 -5445 0
-4750 -5446 0
-4751 -5447 0
-4752 -5448 0
-4749 -5709 0
-4750 -5710 0
-4751 -5711 0
-4752 -5712 0
-4749 -6233 0
-4750 -6234 0
-4751 -6235 0
-4752 -6236 0
-4749 -6361 0
-4750 -6362 0
-4751 -6363 0
-4752 -6364 0
-4749 -6381 0
-4750 -6382 0
-4751 -6383 0
-4752 -6384 0
-4749 -6437 0
-4750 -6438 0
-4751 -6439 0
-4752 -6440 0
-4753 -4757 0
-4754 -4758 0
-4755 -4759 0
-4756 -4760 0
-4753 -4889 0
-4754 -4890 0
-4755 -4891 0
-4756 -4892 0
-4753 -5105 0
-4754 -5106 0
-4755 -5107 0
-4756 -5108 0
-4753 -5869 0
-4754 -5870 0
-4755 -5871 0
-4756 -5872 0
-4753 -6445 0
-4754 -6446 0
-4755 -6447 0
-4756 -6448 0
-4753 -6449 0
-4754 -6450 0
-4755 -6451 0
-4756 -6452 0
-4757 -4913 0
-4758 -4914 0
-4759 -4915 0
-4760 -4916 0
-4757 -5109 0
-4758 -5110 0
-4759 -5111 0
-4760 -5112 0
-4757 -5877 0
-4758 -5878 0
-4759 -5879 0
-4760 -5880 0
-4757 -6449 0
-4758 -6450 0
-4759 -6451 0
-4760 -6452 0
-4761 -4969 0
-4762 -4970 0
-4763 -4971 0
-4764 -4972 0
-4761 -5201 0
-4762 -5202 0
-4763 -5203 0
-4764 -5204 0
-4761 -5693 0
-4762 -5694 0
-4763 -5695 0
-4764 -5696 0
-4761 -6405 0
-4762 -6406 0
-4763 -6407 0
-4764 -6408 0
-4761 -6421 0
-4762 -6422 0
-4763 -6423 0
-4764 -6424 0
-4765 -4769 0
-4766 -4770 0
-4767 -4771 0
-4768 -4772 0
-4765 -4773 0
-4766 -4774 0
-4767 -4775 0
-4768 -4776 0
-4765 -4825 0
-4766 -4826 0
-4767 -4827 0
-4768 -4828 0
-4765 -4833 0
-4766 -4834 0
-4767 -4835 0
-4768 -4836 0
-4765 -5037 0
-4766 -5038 0
-4767 -5039 0
-4768 -5040 0
-4765 -5509 0
-4766 -5510 0
-4767 -5511 0
-4768 -5512 0
-4765 -5721 0
-4766 -5722 0
-4767 -5723 0
-4768 -5724 0
-4765 -6453 0
-4766 -6454 0
-4767 -6455 0
-4768 -6456 0
-4765 -6661 0
-4766 -6662 0
-4767 -6663 0
-4768 -6664 0
-4769 -4781 0
-4770 -4782 0
-4771 -4783 0
-4772 -4784 0
-4769 -4837 0
-4770 -4838 0
-4771 -4839 0
-4772 -4840 0
-4769 -5517 0
-4770 -5518 0
-4771 -5519 0
-4772 -5520 0
-4769 -5737 0
-4770 -5738 0
-4771 -5739 0
-4772 -5740 0
-4769 -6453 0
-4770 -6454 0
-4771 -6455 0
-4772 -6456 0
-4773 -4777 0
-4774 -4778 0
-4775 -4779 0
-4776 -4780 0
-4773 -4781 0
-4774 -4782 0
-4775 -4783 0
-4776 -4784 0
-4773 -4789 0
-4774 -4790 0
-4775 -4791 0
-4776 -4792 0
-4773 -4853 0
-4774 -4854 0
-4775 -4855 0
-4776 -4856 0
-4773 -4857 0
-4774 -4858 0
-4775 -4859 0
-4776 -4860 0
-4773 -5077 0
-4774 -5078 0
-4775 -5079 0
-4776 -5080 0
-4773 -5225 0
-4774 -5226 0
-4775 -5227 0
-4776 -5228 0
-4773 -5541 0
-4774 -5542 0
-4775 -5543 0
-4776 -5544 0
-4773 -6237 0
-4774 -6238 0
-4775 -6239 0
-4776 -6240 0
-4773 -6241 0
-4774 -6242 0
-4775 -6243 0
-4776 -6244 0
-4773 -6461 0
-4774 -6462 0
-4775 -6463 0
-4776 -6464 0
-4773 -6489 0
-4774 -6490 0
-4775 -6491 0
-4776 -6492 0
-4773 -6505 0
-4774 -6506 0
-4775 -6507 0
-4776 -6508 0
-4777 -4785 0
-4778 -4786 0
-4779 -4787 0
-4780 -4788 0
-4777 -4789 0
-4778 -4790 0
-4779 -4791 0
-4780 -4792 0
-4777 -5005 0
-4778 -5006 0
-4779 -5007 0
-4780 -5008 0
-4777 -5081 0
-4778 -5082 0
-4779 -5083 0
-4780 -5084 0
-4777 -5241 0
-4778 -5242 0
-4779 -5243 0
-4780 -5244 0
-4777 -5733 0
-4778 -5734 0
-4779 -5735 0
-4780 -5736 0
-4777 -6457 0
-4778 -6458 0
-4779 -6459 0
-4780 -6460 0
-4777 -6469 0
-4778 -6470 0
-4779 -6471 0
-4780 -6472 0
-4777 -6493 0
-4778 -6494 0
-4779 -6495 0
-4780 -6496 0
-4777 -6509 0
-4778 -6510 0
-4779 -6511 0
-4780 -6512 0
-4781 -4785 0
-4782 -4786 0
-4783 -4787 0
-4784 -4788 0
-4781 -4797 0
-4782 -4798 0
-4783 -4799 0
-4784 -4800 0
-4781 -4861 0
-4782 -4862 0
-4783 -4863 0
-4784 -4864 0
-4781 -5561 0
-4782 -5562 0
-4783 -5563 0
-4784 -5564 0
-4781 -6245 0
-4782 -6246 0
-4783 -6247 0
-4784 -6248 0
-4781 -6461 0
-4782 -6462 0
-4783 -6463 0
-4784 -6464 0
-4785 -4797 0
-4786 -4798 0
-4787 -4799 0
-4788 -4800 0
-4785 -5009 0
-4786 -5010 0
-4787 -5011 0
-4788 -5012 0
-4785 -5245 0
-4786 -5246 0
-4787 -5247 0
-4788 -5248 0
-4785 -5573 0
-4786 -5574 0
-4787 -5575 0
-4788 -5576 0
-4785 -6469 0
-4786 -6470 0
-4787 -6471 0
-4788 -6472 0
-4789 -4793 0
-4790 -4794 0
-4791 -4795 0
-4792 -4796 0
-4789 -4797 0
-4790 -4798 0
-4791 -4799 0
-4792 -4800 0
-4789 -4937 0
-4790 -4938 0
-4791 -4939 0
-4792 -4940 0
-4789 -5105 0
-4790 -5106 0
-4791 -5107 0
-4792 -5108 0
-4789 -5233 0
-4790 -5234 0
-4791 -5235 0
-4792 -5236 0
-4789 -5489 0
-4790 -5490 0
-4791 -5491 0
-4792 -5492 0
-4789 -5945 0
-4790 -5946 0
-4791 -5947 0
-4792 -5948 0
-4789 -6305 0
-4790 -6306 0
-4791 -6307 0
-4792 -6308 0
-4789 -6473 0
-4790 -6474 0
-4791 -6475 0
-4792 -6476 0
-4789 -6557 0
-4790 -6558 0
-4791 -6559 0
-4792 -6560 0
-4793 -4801 0
-4794 -4802 0
-4795 -4803 0
-4796 -4804 0
-4793 -4937 0
-4794 -4938 0
-4795 -4939 0
-4796 -4940 0
-4793 -5161 0
-4794 -5162 0
-4795 -5163 0
-4796 -5164 0
-4793 -5493 0
-4794 -5494 0
-4795 -5495 0
-4796 -5496 0
-4793 -5769 0
-4794 -5770 0
-4795 -5771 0
-4796 -5772 0
-4793 -5949 0
-4794 -5950 0
-4795 -5951 0
-4796 -5952 0
-4793 -6477 0
-4794 -6478 0
-4795 -6479 0
-4796 -6480 0
-4793 -6561 0
-4794 -6562 0
-4795 -6563 0
-4796 -6564 0
-4797 -4801 0
-4798 -4802 0
-4799 -4803 0
-4800 -4804 0
-4797 -4945 0
-4798 -4946 0
-4799 -4947 0
-4800 -4948 0
-4797 -4989 0
-4798 -4990 0
-4799 -4991 0
-4800 -4992 0
-4797 -5109 0
-4798 -5110 0
-4799 -5111 0
-4800 -5112 0
-4797 -5497 0
-4798 -5498 0
-4799 -5499 0
-4800 -5500 0
-4797 -5641 0
-4798 -5642 0
-4799 -5643 0
-4800 -5644 0
-4797 -5953 0
-4798 -5954 0
-4799 -5955 0
-4800 -5956 0
-4797 -6473 0
-4798 -6474 0
-4799 -6475 0
-4800 -6476 0
-4801 -4945 0
-4802 -4946 0
-4803 -4947 0
-4804 -4948 0
-4801 -5501 0
-4802 -5502 0
-4803 -5503 0
-4804 -5504 0
-4801 -5957 0
-4802 -5958 0
-4803 -5959 0
-4804 -5960 0
-4801 -6477 0
-4802 -6478 0
-4803 -6479 0
-4804 -6480 0
-4805 -4809 0
-4806 -4810 0
-4807 -4811 0
-4808 -4812 0
-4805 -4949 0
-4806 -4950 0
-4807 -4951 0
-4808 -4952 0
-4805 -4953 0
-4806 -4954 0
-4807 -4955 0
-4808 -4956 0
-4805 -5505 0
-4806 -5506 0
-4807 -5507 0
-4808 -5508 0
-4805 -5949 0
-4806 -5950 0
-4807 -5951 0
-4808 -5952 0
-4809 -4813 0
-4810 -4814 0
-4811 -4815 0
-4812 -4816 0
-4809 -4957 0
-4810 -4958 0
-4811 -4959 0
-4812 -4960 0
-4809 -4961 0
-4810 -4962 0
-4811 -4963 0
-4812 -4964 0
-4809 -5117 0
-4810 -5118 0
-4811 -5119 0
-4812 -5120 0
-4809 -5513 0
-4810 -5514 0
-4811 -5515 0
-4812 -5516 0
-4809 -5785 0
-4810 -5786 0
-4811 -5787 0
-4812 -5788 0
-4809 -5957 0
-4810 -5958 0
-4811 -5959 0
-4812 -5960 0
-4809 -6317 0
-4810 -6318 0
-4811 -6319 0
-4812 -6320 0
-4809 -6453 0
-4810 -6454 0
-4811 -6455 0
-4812 -6456 0
-4809 -6717 0
-4810 -6718 0
-4811 -6719 0
-4812 -6720 0
-4813 -5261 0
-4814 -5262 0
-4815 -5263 0
-4816 -5264 0
-4813 -5553 0
-4814 -5554 0
-4815 -5555 0
-4816 -5556 0
-4813 -5757 0
-4814 -5758 0
-4815 -5759 0
-4816 -5760 0
-4813 -6329 0
-4814 -6330 0
-4815 -6331 0
-4816 -6332 0
-4813 -6333 0
-4814 -6334 0
-4815 -6335 0
-4816 -6336 0
-4813 -6461 0
-4814 -6462 0
-4815 -6463 0
-4816 -6464 0
-4817 -4821 0
-4818 -4822 0
-4819 -4823 0
-4820 -4824 0
-4817 -4865 0
-4818 -4866 0
-4819 -4867 0
-4820 -4868 0
-4817 -5297 0
-4818 -5298 0
-4819 -5299 0
-4820 -5300 0
-4817 -6489 0
-4818 -6490 0
-4819 -6491 0
-4820 -6492 0
-4821 -4841 0
-4822 -4842 0
-4823 -4843 0
-4824 -4844 0
-4821 -4865 0
-4822 -4866 0
-4823 -4867 0
-4824 -4868 0
-4821 -6485 0
-4822 -6486 0
-4823 -6487 0
-4824 -6488 0
-4821 -6493 0
-4822 -6494 0
-4823 -6495 0
-4824 -6496 0
-4825 -4833 0
-4826 -4834 0
-4827 -4835 0
-4828 -4836 0
-4825 -4841 0
-4826 -4842 0
-4827 -4843 0
-4828 -4844 0
-4825 -4853 0
-4826 -4854 0
-4827 -4855 0
-4828 -4856 0
-4825 -5353 0
-4826 -5354 0
-4827 -5355 0
-4828 -5356 0
-4825 -5973 0
-4826 -5974 0
-4827 -5975 0
-4828 -5976 0
-4825 -6513 0
-4826 -6514 0
-4827 -6515 0
-4828 -6516 0
-4825 -6769 0
-4826 -6770 0
-4827 -6771 0
-4828 -6772 0
-4829 -4833 0
-4830 -4834 0
-4831 -4835 0
-4832 -4836 0
-4829 -4889 0
-4830 -4890 0
-4831 -4891 0
-4832 -4892 0
-4829 -5677 0
-4830 -5678 0
-4831 -5679 0
-4832 -5680 0
-4829 -6517 0
-4830 -6518 0
-4831 -6519 0
-4832 -6520 0
-4833 -4837 0
-4834 -4838 0
-4835 -4839 0
-4836 -4840 0
-4833 -4845 0
-4834 -4846 0
-4835 -4847 0
-4836 -4848 0
-4833 -4857 0
-4834 -4858 0
-4835 -4859 0
-4836 -4860 0
-4833 -4881 0
-4834 -4882 0
-4835 -4883 0
-4836 -4884 0
-4833 -4897 0
-4834 -4898 0
-4835 -4899 0
-4836 -4900 0
-4833 -5181 0
-4834 -5182 0
-4835 -5183 0
-4836 -5184 0
-4833 -5341 0
-4834 -5342 0
-4835 -5343 0
-4836 -5344 0
-4833 -5525 0
-4834 -5526 0
-4835 -5527 0
-4836 -5528 0
-4833 -5813 0
-4834 -5814 0
-4835 -5815 0
-4836 -5816 0
-4833 -5821 0
-4834 -5822 0
-4835 -5823 0
-4836 -5824 0
-4833 -6525 0
-4834 -6526 0
-4835 -6527 0
-4836 -6528 0
-4837 -4849 0
-4838 -4850 0
-4839 -4851 0
-4840 -4852 0
-4837 -4861 0
-4838 -4862 0
-4839 -4863 0
-4840 -4864 0
-4837 -4905 0
-4838 -4906 0
-4839 -4907 0
-4840 -4908 0
-4837 -4921 0
-4838 -4922 0
-4839 -4923 0
-4840 -4924 0
-4837 -5345 0
-4838 -5346 0
-4839 -5347 0
-4840 -5348 0
-4837 -5529 0
-4838 -5530 0
-4839 -5531 0
-4840 -5532 0
-4837 -5833 0
-4838 -5834 0
-4839 -5835 0
-4840 -5836 0
-4837 -6525 0
-4838 -6526 0
-4839 -6527 0
-4840 -6528 0
-4841 -4845 0
-4842 -4846 0
-4843 -4847 0
-4844 -4848 0
-4841 -5357 0
-4842 -5358 0
-4843 -5359 0
-4844 -5360 0
-4841 -5981 0
-4842 -5982 0
-4843 -5983 0
-4844 -5984 0
-4841 -6349 0
-4842 -6350 0
-4843 -6351 0
-4844 -6352 0
-4841 -6529 0
-4842 -6530 0
-4843 -6531 0
-4844 -6532 0
-4841 -6537 0
-4842 -6538 0
-4843 -6539 0
-4844 -6540 0
-4845 -4849 0
-4846 -4850 0
-4847 -4851 0
-4848 -4852 0
-4845 -5197 0
-4846 -5198 0
-4847 -5199 0
-4848 -5200 0
-4845 -5369 0
-4846 -5370 0
-4847 -5371 0
-4848 -5372 0
-4845 -5545 0
-4846 -5546 0
-4847 -5547 0
-4848 -5548 0
-4845 -6545 0
-4846 -6546 0
-4847 -6547 0
-4848 -6548 0
-4849 -5385 0
-4850 -5386 0
-4851 -5387 0
-4852 -5388 0
-4849 -5565 0
-4850 -5566 0
-4851 -5567 0
-4852 -5568 0
-4849 -6353 0
-4850 -6354 0
-4851 -6355 0
-4852 -6356 0
-4849 -6545 0
-4850 -6546 0
-4851 -6547 0
-4852 -6548 0
-4853 -4857 0
-4854 -4858 0
-4855 -4859 0
-4856 -4860 0
-4853 -4993 0
-4854 -4994 0
-4855 -4995 0
-4856 -4996 0
-4853 -5397 0
-4854 -5398 0
-4855 -5399 0
-4856 -5400 0
-4857 -4861 0
-4858 -4862 0
-4859 -4863 0
-4860 -4864 0
-4857 -4937 0
-4858 -4938 0
-4859 -4939 0
-4860 -4940 0
-4857 -5581 0
-4858 -5582 0
-4859 -5583 0
-4860 -5584 0
-4857 -5985 0
-4858 -5986 0
-4859 -5987 0
-4860 -5988 0
-4857 -6357 0
-4858 -6358 0
-4859 -6359 0
-4860 -6360 0
-4857 -6553 0
-4858 -6554 0
-4859 -6555 0
-4860 -6556 0
-4861 -4945 0
-4862 -4946 0
-4863 -4947 0
-4864 -4948 0
-4861 -5001 0
-4862 -5002 0
-4863 -5003 0
-4864 -5004 0
-4861 -5585 0
-4862 -5586 0
-4863 -5587 0
-4864 -5588 0
-4861 -5993 0
-4862 -5994 0
-4863 -5995 0
-4864 -5996 0
-4861 -6361 0
-4862 -6362 0
-4863 -6363 0
-4864 -6364 0
-4861 -6553 0
-4862 -6554 0
-4863 -6555 0
-4864 -6556 0
-4865 -5309 0
-4866 -5310 0
-4867 -5311 0
-4868 -5312 0
-4865 -6369 0
-4866 -6370 0
-4867 -6371 0
-4868 -6372 0
-4865 -6557 0
-4866 -6558 0
-4867 -6559 0
-4868 -6560 0
-4869 -4873 0
-4870 -4874 0
-4871 -4875 0
-4872 -4876 0
-4869 -4885 0
-4870 -4886 0
-4871 -4887 0
-4872 -4888 0
-4869 -4949 0
-4870 -4950 0
-4871 -4951 0
-4872 -4952 0
-4869 -5593 0
-4870 -5594 0
-4871 -5595 0
-4872 -5596 0
-4869 -6005 0
-4870 -6006 0
-4871 -6007 0
-4872 -6008 0
-4869 -6485 0
-4870 -6486 0
-4871 -6487 0
-4872 -6488 0
-4869 -6565 0
-4870 -6566 0
-4871 -6567 0
-4872 -6568 0
-4873 -4877 0
-4874 -4878 0
-4875 -4879 0
-4876 -4880 0
-4873 -4909 0
-4874 -4910 0
-4875 -4911 0
-4876 -4912 0
-4873 -4957 0
-4874 -4958 0
-4875 -4959 0
-4876 -4960 0
-4873 -5209 0
-4874 -5210 0
-4875 -5211 0
-4876 -5212 0
-4873 -5329 0
-4874 -5330 0
-4875 -5331 0
-4876 -5332 0
-4873 -5597 0
-4874 -5598 0
-4875 -5599 0
-4876 -5600 0
-4873 -6013 0
-4874 -6014 0
-4875 -6015 0
-4876 -6016 0
-4873 -6389 0
-4874 -6390 0
-4875 -6391 0
-4876 -6392 0
-4873 -6481 0
-4874 -6482 0
-4875 -6483 0
-4876 -6484 0
-4873 -6493 0
-4874 -6494 0
-4875 -6495 0
-4876 -6496 0
-4873 -6565 0
-4874 -6566 0
-4875 -6567 0
-4876 -6568 0
-4873 -6569 0
-4874 -6570 0
-4875 -6571 0
-4876 -6572 0
-4877 -4917 0
-4878 -4918 0
-4879 -4919 0
-4880 -4920 0
-4877 -4957 0
-4878 -4958 0
-4879 -4959 0
-4880 -4960 0
-4877 -5177 0
-4878 -5178 0
-4879 -5179 0
-4880 -5180 0
-4877 -5437 0
-4878 -5438 0
-4879 -5439 0
-4880 -5440 0
-4877 -6017 0
-4878 -6018 0
-4879 -6019 0
-4880 -6020 0
-4881 -4897 0
-4882 -4898 0
-4883 -4899 0
-4884 -4900 0
-4881 -4905 0
-4882 -4906 0
-4883 -4907 0
-4884 -4908 0
-4881 -5309 0
-4882 -5310 0
-4883 -5311 0
-4884 -5312 0
-4881 -5901 0
-4882 -5902 0
-4883 -5903 0
-4884 -5904 0
-4881 -6573 0
-4882 -6574 0
-4883 -6575 0
-4884 -6576 0
-4885 -4889 0
-4886 -4890 0
-4887 -4891 0
-4888 -4892 0
-4885 -4893 0
-4886 -4894 0
-4887 -4895 0
-4888 -4896 0
-4885 -4909 0
-4886 -4910 0
-4887 -4911 0
-4888 -4912 0
-4885 -4933 0
-4886 -4934 0
-4887 -4935 0
-4888 -4936 0
-4885 -4965 0
-4886 -4966 0
-4887 -4967 0
-4888 -4968 0
-4885 -5341 0
-4886 -5342 0
-4887 -5343 0
-4888 -5344 0
-4885 -5609 0
-4886 -5610 0
-4887 -5611 0
-4888 -5612 0
-4885 -6401 0
-4886 -6402 0
-4887 -6403 0
-4888 -6404 0
-4885 -6501 0
-4886 -6502 0
-4887 -6503 0
-4888 -6504 0
-4885 -6577 0
-4886 -6578 0
-4887 -6579 0
-4888 -6580 0
-4889 -4897 0
-4890 -4898 0
-4891 -4899 0
-4892 -4900 0
-4889 -4913 0
-4890 -4914 0
-4891 -4915 0
-4892 -4916 0
-4889 -4933 0
-4890 -4934 0
-4891 -4935 0
-4892 -4936 0
-4889 -5217 0
-4890 -5218 0
-4891 -5219 0
-4892 -5220 0
-4889 -5689 0
-4890 -5690 0
-4891 -5691 0
-4892 -5692 0
-4889 -5869 0
-4890 -5870 0
-4891 -5871 0
-4892 -5872 0
-4889 -6581 0
-4890 -6582 0
-4891 -6583 0
-4892 -6584 0
-4893 -4897 0
-4894 -4898 0
-4895 -4899 0
-4896 -4900 0
-4893 -4917 0
-4894 -4918 0
-4895 -4919 0
-4896 -4920 0
-4893 -4937 0
-4894 -4938 0
-4895 -4939 0
-4896 -4940 0
-4893 -4965 0
-4894 -4966 0
-4895 -4967 0
-4896 -4968 0
-4893 -5029 0
-4894 -5030 0
-4895 -5031 0
-4896 -5032 0
-4893 -5441 0
-4894 -5442 0
-4895 -5443 0
-4896 -5444 0
-4893 -6021 0
-4894 -6022 0
-4895 -6023 0
-4896 -6024 0
-4893 -6585 0
-4894 -6586 0
-4895 -6587 0
-4896 -6588 0
-4897 -4921 0
-4898 -4922 0
-4899 -4923 0
-4900 -4924 0
-4897 -4937 0
-4898 -4938 0
-4899 -4939 0
-4900 -4940 0
-4897 -5221 0
-4898 -5222 0
-4899 -5223 0
-4900 -5224 0
-4897 -5873 0
-4898 -5874 0
-4899 -5875 0
-4900 -5876 0
-4897 -6025 0
-4898 -6026 0
-4899 -6027 0
-4900 -6028 0
-4897 -6589 0
-4898 -6590 0
-4899 -6591 0
-4900 -6592 0
-4901 -4909 0
-4902 -4910 0
-4903 -4911 0
-4904 -4912 0
-4901 -4925 0
-4902 -4926 0
-4903 -4927 0
-4904 -4928 0
-4901 -5313 0
-4902 -5314 0
-4903 -5315 0
-4904 -5316 0
-4901 -5905 0
-4902 -5906 0
-4903 -5907 0
-4904 -5908 0
-4901 -6405 0
-4902 -6406 0
-4903 -6407 0
-4904 -6408 0
-4901 -6505 0
-4902 -6506 0
-4903 -6507 0
-4904 -6508 0
-4905 -4921 0
-4906 -4922 0
-4907 -4923 0
-4908 -4924 0
-4905 -5913 0
-4906 -5914 0
-4907 -5915 0
-4908 -5916 0
-4905 -6573 0
-4906 -6574 0
-4907 -6575 0
-4908 -6576 0
-4909 -4913 0
-4910 -4914 0
-4911 -4915 0
-4912 -4916 0
-4909 -4917 0
-4910 -4918 0
-4911 -4919 0
-4912 -4920 0
-4909 -4929 0
-4910 -4930 0
-4911 -4931 0
-4912 -4932 0
-4909 -4941 0
-4910 -4942 0
-4911 -4943 0
-4912 -4944 0
-4909 -4969 0
-4910 -4970 0
-4911 -4971 0
-4912 -4972 0
-4909 -5225 0
-4910 -5226 0
-4911 -5227 0
-4912 -5228 0
-4909 -5345 0
-4910 -5346 0
-4911 -5347 0
-4912 -5348 0
-4909 -5613 0
-4910 -5614 0
-4911 -5615 0
-4912 -5616 0
-4909 -5697 0
-4910 -5698 0
-4911 -5699 0
-4912 -5700 0
-4909 -5837 0
-4910 -5838 0
-4911 -5839 0
-4912 -5840 0
-4909 -6413 0
-4910 -6414 0
-4911 -6415 0
-4912 -6416 0
-4909 -6509 0
-4910 -6510 0
-4911 -6511 0
-4912 -6512 0
-4909 -6577 0
-4910 -6578 0
-4911 -6579 0
-4912 -6580 0
-4909 -6593 0
-4910 -6594 0
-4911 -6595 0
-4912 -6596 0
-4913 -4921 0
-4914 -4922 0
-4915 -4923 0
-4916 -4924 0
-4913 -4941 0
-4914 -4942 0
-4915 -4943 0
-4916 -4944 0
-4913 -5229 0
-4914 -5230 0
-4915 -5231 0
-4916 -5232 0
-4913 -5701 0
-4914 -5702 0
-4915 -5703 0
-4916 -5704 0
-4913 -5877 0
-4914 -5878 0
-4915 -5879 0
-4916 -5880 0
-4913 -6581 0
-4914 -6582 0
-4915 -6583 0
-4916 -6584 0
-4913 -6597 0
-4914 -6598 0
-4915 -6599 0
-4916 -6600 0
-4913 -6805 0
-4914 -6806 0
-4915 -6807 0
-4916 -6808 0
-4917 -4921 0
-4918 -4922 0
-4919 -4923 0
-4920 -4924 0
-4917 -4945 0
-4918 -4946 0
-4919 -4947 0
-4920 -4948 0
-4917 -4969 0
-4918 -4970 0
-4919 -4971 0
-4920 -4972 0
-4917 -5045 0
-4918 -5046 0
-4919 -5047 0
-4920 -5048 0
-4917 -5445 0
-4918 -5446 0
-4919 -5447 0
-4920 -5448 0
-4917 -5617 0
-4918 -5618 0
-4919 -5619 0
-4920 -5620 0
-4917 -5917 0
-4918 -5918 0
-4919 -5919 0
-4920 -5920 0
-4917 -6029 0
-4918 -6030 0
-4919 -6031 0
-4920 -6032 0
-4917 -6585 0
-4918 -6586 0
-4919 -6587 0
-4920 -6588 0
-4921 -4945 0
-4922 -4946 0
-4923 -4947 0
-4924 -4948 0
-4921 -5233 0
-4922 -5234 0
-4923 -5235 0
-4924 -5236 0
-4921 -5881 0
-4922 -5882 0
-4923 -5883 0
-4924 -5884 0
-4921 -6033 0
-4922 -6034 0
-4923 -6035 0
-4924 -6036 0
-4921 -6589 0
-4922 -6590 0
-4923 -6591 0
-4924 -6592 0
-4925 -4929 0
-4926 -4930 0
-4927 -4931 0
-4928 -4932 0
-4925 -5381 0
-4926 -5382 0
-4927 -5383 0
-4928 -5384 0
-4925 -6421 0
-4926 -6422 0
-4927 -6423 0
-4928 -6424 0
-4925 -6505 0
-4926 -6506 0
-4927 -6507 0
-4928 -6508 0
-4929 -5237 0
-4930 -5238 0
-4931 -5239 0
-4932 -5240 0
-4929 -5385 0
-4930 -5386 0
-4931 -5387 0
-4932 -5388 0
-4929 -5633 0
-4930 -5634 0
-4931 -5635 0
-4932 -5636 0
-4929 -5845 0
-4930 -5846 0
-4931 -5847 0
-4932 -5848 0
-4929 -6509 0
-4930 -6510 0
-4931 -6511 0
-4932 -6512 0
-4929 -6601 0
-4930 -6602 0
-4931 -6603 0
-4932 -6604 0
-4933 -4937 0
-4934 -4938 0
-4935 -4939 0
-4936 -4940 0
-4933 -4941 0
-4934 -4942 0
-4935 -4943 0
-4936 -4944 0
-4933 -4977 0
-4934 -4978 0
-4935 -4979 0
-4936 -4980 0
-4933 -5393 0
-4934 -5394 0
-4935 -5395 0
-4936 -5396 0
-4933 -5905 0
-4934 -5906 0
-4935 -5907 0
-4936 -5908 0
-4933 -6069 0
-4934 -6070 0
-4935 -6071 0
-4936 -6072 0
-4933 -6609 0
-4934 -6610 0
-4935 -6611 0
-4936 -6612 0
-4937 -4945 0
-4938 -4946 0
-4939 -4947 0
-4940 -4948 0
-4937 -4977 0
-4938 -4978 0
-4939 -4979 0
-4940 -4980 0
-4937 -5073 0
-4938 -5074 0
-4939 -5075 0
-4940 -5076 0
-4937 -5325 0
-4938 -5326 0
-4939 -5327 0
-4940 -5328 0
-4937 -5669 0
-4938 -5670 0
-4939 -5671 0
-4940 -5672 0
-4937 -5909 0
-4938 -5910 0
-4939 -5911 0
-4940 -5912 0
-4937 -6077 0
-4938 -6078 0
-4939 -6079 0
-4940 -6080 0
-4937 -6613 0
-4938 -6614 0
-4939 -6615 0
-4940 -6616 0
-4937 -6641 0
-4938 -6642 0
-4939 -6643 0
-4940 -6644 0
-4941 -4945 0
-4942 -4946 0
-4943 -4947 0
-4944 -4948 0
-4941 -4981 0
-4942 -4982 0
-4943 -4983 0
-4944 -4984 0
-4941 -5709 0
-4942 -5710 0
-4943 -5711 0
-4944 -5712 0
-4941 -5857 0
-4942 -5858 0
-4943 -5859 0
-4944 -5860 0
-4941 -6105 0
-4942 -6106 0
-4943 -6107 0
-4944 -6108 0
-4941 -6609 0
-4942 -6610 0
-4943 -6611 0
-4944 -6612 0
-4941 -6617 0
-4942 -6618 0
-4943 -6619 0
-4944 -6620 0
-4945 -4981 0
-4946 -4982 0
-4947 -4983 0
-4948 -4984 0
-4945 -5097 0
-4946 -5098 0
-4947 -5099 0
-4948 -5100 0
-4945 -5673 0
-4946 -5674 0
-4947 -5675 0
-4948 -5676 0
-4945 -6113 0
-4946 -6114 0
-4947 -6115 0
-4948 -6116 0
-4945 -6613 0
-4946 -6614 0
-4947 -6615 0
-4948 -6616 0
-4945 -6645 0
-4946 -6646 0
-4947 -6647 0
-4948 -6648 0
-4949 -4953 0
-4950 -4954 0
-4951 -4955 0
-4952 -4956 0
-4949 -4957 0
-4950 -4958 0
-4951 -4959 0
-4952 -4960 0
-4949 -4965 0
-4950 -4966 0
-4951 -4967 0
-4952 -4968 0
-4949 -6077 0
-4950 -6078 0
-4951 -6079 0
-4952 -6080 0
-4949 -6529 0
-4950 -6530 0
-4951 -6531 0
-4952 -6532 0
-4949 -6621 0
-4950 -6622 0
-4951 -6623 0
-4952 -6624 0
-4953 -4961 0
-4954 -4962 0
-4955 -4963 0
-4956 -4964 0
-4953 -5333 0
-4954 -5334 0
-4955 -5335 0
-4956 -5336 0
-4953 -5677 0
-4954 -5678 0
-4955 -5679 0
-4956 -5680 0
-4953 -6093 0
-4954 -6094 0
-4955 -6095 0
-4956 -6096 0
-4953 -6625 0
-4954 -6626 0
-4955 -6627 0
-4956 -6628 0
-4957 -4961 0
-4958 -4962 0
-4959 -4963 0
-4960 -4964 0
-4957 -4969 0
-4958 -4970 0
-4959 -4971 0
-4960 -4972 0
-4957 -4973 0
-4958 -4974 0
-4959 -4975 0
-4960 -4976 0
-4957 -5249 0
-4958 -5250 0
-4959 -5251 0
-4960 -5252 0
-4957 -5681 0
-4958 -5682 0
-4959 -5683 0
-4960 -5684 0
-4957 -6113 0
-4958 -6114 0
-4959 -6115 0
-4960 -6116 0
-4957 -6425 0
-4958 -6426 0
-4959 -6427 0
-4960 -6428 0
-4957 -6513 0
-4958 -6514 0
-4959 -6515 0
-4960 -6516 0
-4957 -6537 0
-4958 -6538 0
-4959 -6539 0
-4960 -6540 0
-4957 -6621 0
-4958 -6622 0
-4959 -6623 0
-4960 -6624 0
-4957 -6629 0
-4958 -6630 0
-4959 -6631 0
-4960 -6632 0
-4957 -6649 0
-4958 -6650 0
-4959 -6651 0
-4960 -6652 0
-4957 -6821 0
-4958 -6822 0
-4959 -6823 0
-4960 -6824 0
-4961 -5253 0
-4962 -5254 0
-4963 -5255 0
-4964 -5256 0
-4961 -5337 0
-4962 -5338 0
-4963 -5339 0
-4964 -5340 0
-4961 -5649 0
-4962 -5650 0
-4963 -5651 0
-4964 -5652 0
-4961 -5685 0
-4962 -5686 0
-4963 -5687 0
-4964 -5688 0
-4961 -5933 0
-4962 -5934 0
-4963 -5935 0
-4964 -5936 0
-4961 -6129 0
-4962 -6130 0
-4963 -6131 0
-4964 -6132 0
-4961 -6525 0
-4962 -6526 0
-4963 -6527 0
-4964 -6528 0
-4961 -6545 0
-4962 -6546 0
-4963 -6547 0
-4964 -6548 0
-4961 -6625 0
-4962 -6626 0
-4963 -6627 0
-4964 -6628 0
-4965 -4969 0
-4966 -4970 0
-4967 -4971 0
-4968 -4972 0
-4965 -4977 0
-4966 -4978 0
-4967 -4979 0
-4968 -4980 0
-4965 -5357 0
-4966 -5358 0
-4967 -5359 0
-4968 -5360 0
-4965 -6141 0
-4966 -6142 0
-4967 -6143 0
-4968 -6144 0
-4965 -6633 0
-4966 -6634 0
-4967 -6635 0
-4968 -6636 0
-4969 -4981 0
-4970 -4982 0
-4971 -4983 0
-4972 -4984 0
-4969 -5121 0
-4970 -5122 0
-4971 -5123 0
-4972 -5124 0
-4969 -5377 0
-4970 -5378 0
-4971 -5379 0
-4972 -5380 0
-4969 -5657 0
-4970 -5658 0
-4971 -5659 0
-4972 -5660 0
-4969 -5873 0
-4970 -5874 0
-4971 -5875 0
-4972 -5876 0
-4969 -6145 0
-4970 -6146 0
-4971 -6147 0
-4972 -6148 0
-4969 -6633 0
-4970 -6634 0
-4971 -6635 0
-4972 -6636 0
-4969 -6649 0
-4970 -6650 0
-4971 -6651 0
-4972 -6652 0
-4969 -6829 0
-4970 -6830 0
-4971 -6831 0
-4972 -6832 0
-4973 -4981 0
-4974 -4982 0
-4975 -4983 0
-4976 -4984 0
-4973 -5453 0
-4974 -5454 0
-4975 -5455 0
-4976 -5456 0
-4973 -6161 0
-4974 -6162 0
-4975 -6163 0
-4976 -6164 0
-4973 -6433 0
-4974 -6434 0
-4975 -6435 0
-4976 -6436 0
-4973 -6549 0
-4974 -6550 0
-4975 -6551 0
-4976 -6552 0
-4973 -6653 0
-4974 -6654 0
-4975 -6655 0
-4976 -6656 0
-4977 -4981 0
-4978 -4982 0
-4979 -4983 0
-4980 -4984 0
-4977 -5129 0
-4978 -5130 0
-4979 -5131 0
-4980 -5132 0
-4977 -5401 0
-4978 -5402 0
-4979 -5403 0
-4980 -5404 0
-4977 -5901 0
-4978 -5902 0
-4979 -5903 0
-4980 -5904 0
-4977 -6165 0
-4978 -6166 0
-4979 -6167 0
-4980 -6168 0
-4977 -6445 0
-4978 -6446 0
-4979 -6447 0
-4980 -6448 0
-4977 -6637 0
-4978 -6638 0
-4979 -6639 0
-4980 -6640 0
-4981 -5141 0
-4982 -5142 0
-4983 -5143 0
-4984 -5144 0
-4981 -5417 0
-4982 -5418 0
-4983 -5419 0
-4984 -5420 0
-4981 -5913 0
-4982 -5914 0
-4983 -5915 0
-4984 -5916 0
-4981 -6173 0
-4982 -6174 0
-4983 -6175 0
-4984 -6176 0
-4981 -6449 0
-4982 -6450 0
-4983 -6451 0
-4984 -6452 0
-4981 -6637 0
-4982 -6638 0
-4983 -6639 0
-4984 -6640 0
-4981 -6653 0
-4982 -6654 0
-4983 -6655 0
-4984 -6656 0
-4985 -5349 0
-4986 -5350 0
-4987 -5351 0
-4988 -5352 0
-4985 -6213 0
-4986 -6214 0
-4987 -6215 0
-4988 -6216 0
-4985 -6649 0
-4986 -6650 0
-4987 -6651 0
-4988 -6652 0
-4989 -5081 0
-4990 -5082 0
-4991 -5083 0
-4992 -5084 0
-4989 -5097 0
-4990 -5098 0
-4991 -5099 0
-4992 -5100 0
-4989 -5229 0
-4990 -5230 0
-4991 -5231 0
-4992 -5232 0
-4989 -5765 0
-4990 -5766 0
-4991 -5767 0
-4992 -5768 0
-4989 -5953 0
-4990 -5954 0
-4991 -5955 0
-4992 -5956 0
-4989 -6685 0
-4990 -6686 0
-4991 -6687 0
-4992 -6688 0
-4993 -4997 0
-4994 -4998 0
-4995 -4999 0
-4996 -5000 0
-4993 -5005 0
-4994 -5006 0
-4995 -5007 0
-4996 -5008 0
-4993 -5061 0
-4994 -5062 0
-4995 -5063 0
-4996 -5064 0
-4993 -5065 0
-4994 -5066 0
-4995 -5067 0
-4996 -5068 0
-4993 -5537 0
-4994 -5538 0
-4995 -5539 0
-4996 -5540 0
-4993 -5721 0
-4994 -5722 0
-4995 -5723 0
-4996 -5724 0
-4993 -6673 0
-4994 -6674 0
-4995 -6675 0
-4996 -6676 0
-4993 -6765 0
-4994 -6766 0
-4995 -6767 0
-4996 -6768 0
-4997 -5001 0
-4998 -5002 0
-4999 -5003 0
-5000 -5004 0
-4997 -5009 0
-4998 -5010 0
-4999 -5011 0
-5000 -5012 0
-4997 -5077 0
-4998 -5078 0
-4999 -5079 0
-5000 -5080 0
-4997 -5081 0
-4998 -5082 0
-4999 -5083 0
-5000 -5084 0
-4997 -5557 0
-4998 -5558 0
-4999 -5559 0
-5000 -5560 0
-4997 -5737 0
-4998 -5738 0
-4999 -5739 0
-5000 -5740 0
-4997 -6481 0
-4998 -6482 0
-4999 -6483 0
-5000 -6484 0
-4997 -6673 0
-4998 -6674 0
-4999 -6675 0
-5000 -6676 0
-4997 -6773 0
-4998 -6774 0
-4999 -6775 0
-5000 -6776 0
-4997 -6861 0
-4998 -6862 0
-4999 -6863 0
-5000 -6864 0
-5001 -5089 0
-5002 -5090 0
-5003 -5091 0
-5004 -5092 0
-5001 -5097 0
-5002 -5098 0
-5003 -5099 0
-5004 -5100 0
-5001 -5745 0
-5002 -5746 0
-5003 -5747 0
-5004 -5748 0
-5001 -5993 0
-5002 -5994 0
-5003 -5995 0
-5004 -5996 0
-5005 -5009 0
-5006 -5010 0
-5007 -5011 0
-5008 -5012 0
-5005 -5013 0
-5006 -5014 0
-5007 -5015 0
-5008 -5016 0
-5005 -5105 0
-5006 -5106 0
-5007 -5107 0
-5008 -5108 0
-5005 -5389 0
-5006 -5390 0
-5007 -5391 0
-5008 -5392 0
-5005 -5817 0
-5006 -5818 0
-5007 -5819 0
-5008 -5820 0
-5005 -6677 0
-5006 -6678 0
-5007 -6679 0
-5008 -6680 0
-5005 -6765 0
-5006 -6766 0
-5007 -6767 0
-5008 -6768 0
-5009 -5017 0
-5010 -5018 0
-5011 -5019 0
-5012 -5020 0
-5009 -5109 0
-5010 -5110 0
-5011 -5111 0
-5012 -5112 0
-5009 -5829 0
-5010 -5830 0
-5011 -5831 0
-5012 -5832 0
-5009 -5973 0
-5010 -5974 0
-5011 -5975 0
-5012 -5976 0
-5009 -6677 0
-5010 -6678 0
-5011 -6679 0
-5012 -6680 0
-5009 -6773 0
-5010 -6774 0
-5011 -6775 0
-5012 -6776 0
-5013 -5017 0
-5014 -5018 0
-5015 -5019 0
-5016 -5020 0
-5013 -5113 0
-5014 -5114 0
-5015 -5115 0
-5016 -5116 0
-5013 -5401 0
-5014 -5402 0
-5015 -5403 0
-5016 -5404 0
-5013 -5977 0
-5014 -5978 0
-5015 -5979 0
-5016 -5980 0
-5013 -6501 0
-5014 -6502 0
-5015 -6503 0
-5016 -6504 0
-5013 -6681 0
-5014 -6682 0
-5015 -6683 0
-5016 -6684 0
-5017 -5417 0
-5018 -5418 0
-5019 -5419 0
-5020 -5420 0
-5017 -5981 0
-5018 -5982 0
-5019 -5983 0
-5020 -5984 0
-5017 -6509 0
-5018 -6510 0
-5019 -6511 0
-5020 -6512 0
-5017 -6681 0
-5018 -6682 0
-5019 -6683 0
-5020 -6684 0
-5021 -5025 0
-5022 -5026 0
-5023 -5027 0
-5024 -5028 0
-5021 -5033 0
-5022 -5034 0
-5023 -5035 0
-5024 -5036 0
-5021 -5061 0
-5022 -5062 0
-5023 -5063 0
-5024 -5064 0
-5021 -6241 0
-5022 -6242 0
-5023 -6243 0
-5024 -6244 0
-5021 -6689 0
-5022 -6690 0
-5023 -6691 0
-5024 -6692 0
-5021 -6873 0
-5022 -6874 0
-5023 -6875 0
-5024 -6876 0
-5025 -5029 0
-5026 -5030 0
-5027 -5031 0
-5028 -5032 0
-5025 -5041 0
-5026 -5042 0
-5027 -5043 0
-5028 -5044 0
-5025 -5069 0
-5026 -5070 0
-5027 -5071 0
-5028 -5072 0
-5025 -5469 0
-5026 -5470 0
-5027 -5471 0
-5028 -5472 0
-5025 -6053 0
-5026 -6054 0
-5027 -6055 0
-5028 -6056 0
-5025 -6697 0
-5026 -6698 0
-5027 -6699 0
-5028 -6700 0
-5029 -5045 0
-5030 -5046 0
-5031 -5047 0
-5032 -5048 0
-5029 -5073 0
-5030 -5074 0
-5031 -5075 0
-5032 -5076 0
-5029 -6021 0
-5030 -6022 0
-5031 -6023 0
-5032 -6024 0
-5033 -5037 0
-5034 -5038 0
-5035 -5039 0
-5036 -5040 0
-5033 -5041 0
-5034 -5042 0
-5035 -5043 0
-5036 -5044 0
-5033 -5049 0
-5034 -5050 0
-5035 -5051 0
-5036 -5052 0
-5033 -5077 0
-5034 -5078 0
-5035 -5079 0
-5036 -5080 0
-5033 -5177 0
-5034 -5178 0
-5035 -5179 0
-5036 -5180 0
-5033 -6057 0
-5034 -6058 0
-5035 -6059 0
-5036 -6060 0
-5033 -6245 0
-5034 -6246 0
-5035 -6247 0
-5036 -6248 0
-5033 -6513 0
-5034 -6514 0
-5035 -6515 0
-5036 -6516 0
-5033 -6689 0
-5034 -6690 0
-5035 -6691 0
-5036 -6692 0
-5033 -6701 0
-5034 -6702 0
-5035 -6703 0
-5036 -6704 0
-5033 -6889 0
-5034 -6890 0
-5035 -6891 0
-5036 -6892 0
-5037 -5053 0
-5038 -5054 0
-5039 -5055 0
-5040 -5056 0
-5037 -5077 0
-5038 -5078 0
-5039 -5079 0
-5040 -5080 0
-5037 -5181 0
-5038 -5182 0
-5039 -5183 0
-5040 -5184 0
-5037 -6061 0
-5038 -6062 0
-5039 -6063 0
-5040 -6064 0
-5037 -6693 0
-5038 -6694 0
-5039 -6695 0
-5040 -6696 0
-5037 -6893 0
-5038 -6894 0
-5039 -6895 0
-5040 -6896 0
-5041 -5045 0
-5042 -5046 0
-5043 -5047 0
-5044 -5048 0
-5041 -5057 0
-5042 -5058 0
-5043 -5059 0
-5044 -5060 0
-5041 -5085 0
-5042 -5086 0
-5043 -5087 0
-5044 -5088 0
-5041 -5089 0
-5042 -5090 0
-5043 -5091 0
-5044 -5092 0
-5041 -5117 0
-5042 -5118 0
-5043 -5119 0
-5044 -5120 0
-5041 -5153 0
-5042 -5154 0
-5043 -5155 0
-5044 -5156 0
-5041 -5177 0
-5042 -5178 0
-5043 -5179 0
-5044 -5180 0
-5041 -5429 0
-5042 -5430 0
-5043 -5431 0
-5044 -5432 0
-5041 -5473 0
-5042 -5474 0
-5043 -5475 0
-5044 -5476 0
-5041 -5793 0
-5042 -5794 0
-5043 -5795 0
-5044 -5796 0
-5041 -6077 0
-5042 -6078 0
-5043 -6079 0
-5044 -6080 0
-5041 -6525 0
-5042 -6526 0
-5043 -6527 0
-5044 -6528 0
-5041 -6661 0
-5042 -6662 0
-5043 -6663 0
-5044 -6664 0
-5041 -6697 0
-5042 -6698 0
-5043 -6699 0
-5044 -6700 0
-5041 -6705 0
-5042 -6706 0
-5043 -6707 0
-5044 -6708 0
-5045 -5093 0
-5046 -5094 0
-5047 -5095 0
-5048 -5096 0
-5045 -5097 0
-5046 -5098 0
-5047 -5099 0
-5048 -5100 0
-5045 -5121 0
-5046 -5122 0
-5047 -5123 0
-5048 -5124 0
-5045 -5153 0
-5046 -5154 0
-5047 -5155 0
-5048 -5156 0
-5045 -5341 0
-5046 -5342 0
-5047 -5343 0
-5048 -5344 0
-5045 -5605 0
-5046 -5606 0
-5047 -5607 0
-5048 -5608 0
-5045 -5753 0
-5046 -5754 0
-5047 -5755 0
-5048 -5756 0
-5045 -6029 0
-5046 -6030 0
-5047 -6031 0
-5048 -6032 0
-5045 -6089 0
-5046 -6090 0
-5047 -6091 0
-5048 -6092 0
-5045 -6709 0
-5046 -6710 0
-5047 -6711 0
-5048 -6712 0
-5049 -5053 0
-5050 -5054 0
-5051 -5055 0
-5052 -5056 0
-5049 -5057 0
-5050 -5058 0
-5051 -5059 0
-5052 -5060 0
-5049 -5101 0
-5050 -5102 0
-5051 -5103 0
-5052 -5104 0
-5049 -5193 0
-5050 -5194 0
-5051 -5195 0
-5052 -5196 0
-5049 -5349 0
-5050 -5350 0
-5051 -5351 0
-5052 -5352 0
-5049 -5517 0
-5050 -5518 0
-5051 -5519 0
-5052 -5520 0
-5049 -6253 0
-5050 -6254 0
-5051 -6255 0
-5052 -6256 0
-5049 -6537 0
-5050 -6538 0
-5051 -6539 0
-5052 -6540 0
-5049 -6713 0
-5050 -6714 0
-5051 -6715 0
-5052 -6716 0
-5053 -5101 0
-5054 -5102 0
-5055 -5103 0
-5056 -5104 0
-5053 -5197 0
-5054 -5198 0
-5055 -5199 0
-5056 -5200 0
-5053 -5353 0
-5054 -5354 0
-5055 -5355 0
-5056 -5356 0
-5053 -5597 0
-5054 -5598 0
-5055 -5599 0
-5056 -5600 0
-5057 -5193 0
-5058 -5194 0
-5059 -5195 0
-5060 -5196 0
-5057 -5365 0
-5058 -5366 0
-5059 -5367 0
-5060 -5368 0
-5057 -5437 0
-5058 -5438 0
-5059 -5439 0
-5060 -5440 0
-5057 -5601 0
-5058 -5602 0
-5059 -5603 0
-5060 -5604 0
-5057 -5757 0
-5058 -5758 0
-5059 -5759 0
-5060 -5760 0
-5057 -5797 0
-5058 -5798 0
-5059 -5799 0
-5060 -5800 0
-5057 -6133 0
-5058 -6134 0
-5059 -6135 0
-5060 -6136 0
-5057 -6545 0
-5058 -6546 0
-5059 -6547 0
-5060 -6548 0
-5057 -6661 0
-5058 -6662 0
-5059 -6663 0
-5060 -6664 0
-5057 -6717 0
-5058 -6718 0
-5059 -6719 0
-5060 -6720 0
-5061 -5065 0
-5062 -5066 0
-5063 -5067 0
-5064 -5068 0
-5061 -5069 0
-5062 -5070 0
-5063 -5071 0
-5064 -5072 0
-5061 -5077 0
-5062 -5078 0
-5063 -5079 0
-5064 -5080 0
-5061 -5105 0
-5062 -5106 0
-5063 -5107 0
-5064 -5108 0
-5061 -5525 0
-5062 -5526 0
-5063 -5527 0
-5064 -5528 0
-5061 -5609 0
-5062 -5610 0
-5063 -5611 0
-5064 -5612 0
-5061 -6721 0
-5062 -6722 0
-5063 -6723 0
-5064 -6724 0
-5061 -6789 0
-5062 -6790 0
-5063 -6791 0
-5064 -6792 0
-5061 -6901 0
-5062 -6902 0
-5063 -6903 0
-5064 -6904 0
-5065 -5073 0
-5066 -5074 0
-5067 -5075 0
-5068 -5076 0
-5065 -5081 0
-5066 -5082 0
-5067 -5083 0
-5068 -5084 0
-5065 -6057 0
-5066 -6058 0
-5067 -6059 0
-5068 -6060 0
-5065 -6725 0
-5066 -6726 0
-5067 -6727 0
-5068 -6728 0
-5065 -6793 0
-5066 -6794 0
-5067 -6795 0
-5068 -6796 0
-5069 -5073 0
-5070 -5074 0
-5071 -5075 0
-5072 -5076 0
-5069 -5089 0
-5070 -5090 0
-5071 -5091 0
-5072 -5092 0
-5069 -5221 0
-5070 -5222 0
-5071 -5223 0
-5072 -5224 0
-5069 -5481 0
-5070 -5482 0
-5071 -5483 0
-5072 -5484 0
-5069 -6065 0
-5070 -6066 0
-5071 -6067 0
-5072 -6068 0
-5069 -6729 0
-5070 -6730 0
-5071 -6731 0
-5072 -6732 0
-5073 -5097 0
-5074 -5098 0
-5075 -5099 0
-5076 -5100 0
-5073 -5129 0
-5074 -5130 0
-5075 -5131 0
-5076 -5132 0
-5073 -5133 0
-5074 -5134 0
-5075 -5135 0
-5076 -5136 0
-5073 -5801 0
-5074 -5802 0
-5075 -5803 0
-5076 -5804 0
-5073 -6077 0
-5074 -6078 0
-5075 -6079 0
-5076 -6080 0
-5073 -6733 0
-5074 -6734 0
-5075 -6735 0
-5076 -6736 0
-5077 -5081 0
-5078 -5082 0
-5079 -5083 0
-5080 -5084 0
-5077 -5089 0
-5078 -5090 0
-5079 -5091 0
-5080 -5092 0
-5077 -5101 0
-5078 -5102 0
-5079 -5103 0
-5080 -5104 0
-5077 -5109 0
-5078 -5110 0
-5079 -5111 0
-5080 -5112 0
-5077 -5213 0
-5078 -5214 0
-5079 -5215 0
-5080 -5216 0
-5077 -5529 0
-5078 -5530 0
-5079 -5531 0
-5080 -5532 0
-5077 -5613 0
-5078 -5614 0
-5079 -5615 0
-5080 -5616 0
-5077 -5885 0
-5078 -5886 0
-5079 -5887 0
-5080 -5888 0
-5077 -6549 0
-5078 -6550 0
-5079 -6551 0
-5080 -6552 0
-5077 -6721 0
-5078 -6722 0
-5079 -6723 0
-5080 -6724 0
-5077 -6737 0
-5078 -6738 0
-5079 -6739 0
-5080 -6740 0
-5077 -6797 0
-5078 -6798 0
-5079 -6799 0
-5080 -6800 0
-5077 -6905 0
-5078 -6906 0
-5079 -6907 0
-5080 -6908 0
-5081 -5097 0
-5082 -5098 0
-5083 -5099 0
-5084 -5100 0
-5081 -5389 0
-5082 -5390 0
-5083 -5391 0
-5084 -5392 0
-5081 -5637 0
-5082 -5638 0
-5083 -5639 0
-5084 -5640 0
-5081 -6097 0
-5082 -6098 0
-5083 -6099 0
-5084 -6100 0
-5081 -6257 0
-5082 -6258 0
-5083 -6259 0
-5084 -6260 0
-5081 -6725 0
-5082 -6726 0
-5083 -6727 0
-5084 -6728 0
-5081 -6801 0
-5082 -6802 0
-5083 -6803 0
-5084 -6804 0
-5081 -6909 0
-5082 -6910 0
-5083 -6911 0
-5084 -6912 0
-5085 -5089 0
-5086 -5090 0
-5087 -5091 0
-5088 -5092 0
-5085 -5093 0
-5086 -5094 0
-5087 -5095 0
-5088 -5096 0
-5085 -5157 0
-5086 -5158 0
-5087 -5159 0
-5088 -5160 0
-5085 -5769 0
-5086 -5770 0
-5087 -5771 0
-5088 -5772 0
-5085 -6149 0
-5086 -6150 0
-5087 -6151 0
-5088 -6152 0
-5085 -6553 0
-5086 -6554 0
-5087 -6555 0
-5088 -6556 0
-5089 -5097 0
-5090 -5098 0
-5091 -5099 0
-5092 -5100 0
-5089 -5161 0
-5090 -5162 0
-5091 -5163 0
-5092 -5164 0
-5089 -5233 0
-5090 -5234 0
-5091 -5235 0
-5092 -5236 0
-5089 -5485 0
-5090 -5486 0
-5091 -5487 0
-5092 -5488 0
-5089 -5621 0
-5090 -5622 0
-5091 -5623 0
-5092 -5624 0
-5089 -5805 0
-5090 -5806 0
-5091 -5807 0
-5092 -5808 0
-5089 -5889 0
-5090 -5890 0
-5091 -5891 0
-5092 -5892 0
-5089 -6101 0
-5090 -6102 0
-5091 -6103 0
-5092 -6104 0
-5089 -6153 0
-5090 -6154 0
-5091 -6155 0
-5092 -6156 0
-5089 -6729 0
-5090 -6730 0
-5091 -6731 0
-5092 -6732 0
-5089 -6741 0
-5090 -6742 0
-5091 -6743 0
-5092 -6744 0
-5093 -5097 0
-5094 -5098 0
-5095 -5099 0
-5096 -5100 0
-5093 -5137 0
-5094 -5138 0
-5095 -5139 0
-5096 -5140 0
-5093 -5145 0
-5094 -5146 0
-5095 -5147 0
-5096 -5148 0
-5093 -5157 0
-5094 -5158 0
-5095 -5159 0
-5096 -5160 0
-5093 -5645 0
-5094 -5646 0
-5095 -5647 0
-5096 -5648 0
-5093 -5773 0
-5094 -5774 0
-5095 -5775 0
-5096 -5776 0
-5093 -6009 0
-5094 -6010 0
-5095 -6011 0
-5096 -6012 0
-5093 -6109 0
-5094 -6110 0
-5095 -6111 0
-5096 -6112 0
-5093 -6261 0
-5094 -6262 0
-5095 -6263 0
-5096 -6264 0
-5097 -5141 0
-5098 -5142 0
-5099 -5143 0
-5100 -5144 0
-5097 -5149 0
-5098 -5150 0
-5099 -5151 0
-5100 -5152 0
-5097 -5161 0
-5098 -5162 0
-5099 -5163 0
-5100 -5164 0
-5097 -5393 0
-5098 -5394 0
-5099 -5395 0
-5100 -5396 0
-5097 -5465 0
-5098 -5466 0
-5099 -5467 0
-5100 -5468 0
-5097 -5809 0
-5098 -5810 0
-5099 -5811 0
-5100 -5812 0
-5097 -5893 0
-5098 -5894 0
-5099 -5895 0
-5100 -5896 0
-5097 -6113 0
-5098 -6114 0
-5099 -6115 0
-5100 -6116 0
-5097 -6265 0
-5098 -6266 0
-5099 -6267 0
-5100 -6268 0
-5097 -6733 0
-5098 -6734 0
-5099 -6735 0
-5100 -6736 0
-5097 -6745 0
-5098 -6746 0
-5099 -6747 0
-5100 -6748 0
-5097 -6805 0
-5098 -6806 0
-5099 -6807 0
-5100 -6808 0
-5101 -5397 0
-5102 -5398 0
-5103 -5399 0
-5104 -5400 0
-5101 -5565 0
-5102 -5566 0
-5103 -5567 0
-5104 -5568 0
-5101 -5633 0
-5102 -5634 0
-5103 -5635 0
-5104 -5636 0
-5101 -6557 0
-5102 -6558 0
-5103 -6559 0
-5104 -6560 0
-5101 -6749 0
-5102 -6750 0
-5103 -6751 0
-5104 -6752 0
-5105 -5109 0
-5106 -5110 0
-5107 -5111 0
-5108 -5112 0
-5105 -5113 0
-5106 -5114 0
-5107 -5115 0
-5108 -5116 0
-5105 -5217 0
-5106 -5218 0
-5107 -5219 0
-5108 -5220 0
-5105 -5489 0
-5106 -5490 0
-5107 -5491 0
-5108 -5492 0
-5105 -5897 0
-5106 -5898 0
-5107 -5899 0
-5108 -5900 0
-5105 -6753 0
-5106 -6754 0
-5107 -6755 0
-5108 -6756 0
-5105 -6789 0
-5106 -6790 0
-5107 -6791 0
-5108 -6792 0
-5109 -5229 0
-5110 -5230 0
-5111 -5231 0
-5112 -5232 0
-5109 -5497 0
-5110 -5498 0
-5111 -5499 0
-5112 -5500 0
-5109 -5909 0
-5110 -5910 0
-5111 -5911 0
-5112 -5912 0
-5109 -6273 0
-5110 -6274 0
-5111 -6275 0
-5112 -6276 0
-5109 -6753 0
-5110 -6754 0
-5111 -6755 0
-5112 -6756 0
-5109 -6757 0
-5110 -6758 0
-5111 -6759 0
-5112 -6760 0
-5109 -6797 0
-5110 -6798 0
-5111 -6799 0
-5112 -6800 0
-5113 -5581 0
-5114 -5582 0
-5115 -5583 0
-5116 -5584 0
-5117 -5121 0
-5118 -5122 0
-5119 -5123 0
-5120 -5124 0
-5117 -5165 0
-5118 -5166 0
-5119 -5167 0
-5120 -5168 0
-5117 -5513 0
-5118 -5514 0
-5119 -5515 0
-5120 -5516 0
-5117 -6165 0
-5118 -6166 0
-5119 -6167 0
-5120 -6168 0
-5117 -6669 0
-5118 -6670 0
-5119 -6671 0
-5120 -6672 0
-5117 -6761 0
-5118 -6762 0
-5119 -6763 0
-5120 -6764 0
-5117 -6933 0
-5118 -6934 0
-5119 -6935 0
-5120 -6936 0
-5121 -5137 0
-5122 -5138 0
-5123 -5139 0
-5124 -5140 0
-5121 -5141 0
-5122 -5142 0
-5123 -5143 0
-5124 -5144 0
-5121 -5165 0
-5122 -5166 0
-5123 -5167 0
-5124 -5168 0
-5121 -5521 0
-5122 -5522 0
-5123 -5523 0
-5124 -5524 0
-5121 -5777 0
-5122 -5778 0
-5123 -5779 0
-5124 -5780 0
-5121 -6025 0
-5122 -6026 0
-5123 -6027 0
-5124 -6028 0
-5121 -6285 0
-5122 -6286 0
-5123 -6287 0
-5124 -6288 0
-5121 -6937 0
-5122 -6938 0
-5123 -6939 0
-5124 -6940 0
-5125 -5137 0
-5126 -5138 0
-5127 -5139 0
-5128 -5140 0
-5125 -5785 0
-5126 -5786 0
-5127 -5787 0
-5128 -5788 0
-5125 -6037 0
-5126 -6038 0
-5127 -6039 0
-5128 -6040 0
-5125 -6297 0
-5126 -6298 0
-5127 -6299 0
-5128 -6300 0
-5125 -6565 0
-5126 -6566 0
-5127 -6567 0
-5128 -6568 0
-5125 -6673 0
-5126 -6674 0
-5127 -6675 0
-5128 -6676 0
-5125 -6817 0
-5126 -6818 0
-5127 -6819 0
-5128 -6820 0
-5129 -5133 0
-5130 -5134 0
-5131 -5135 0
-5132 -5136 0
-5129 -5141 0
-5130 -5142 0
-5131 -5143 0
-5132 -5144 0
-5129 -6165 0
-5130 -6166 0
-5131 -6167 0
-5132 -6168 0
-5133 -5149 0
-5134 -5150 0
-5135 -5151 0
-5136 -5152 0
-5133 -5549 0
-5134 -5550 0
-5135 -5551 0
-5136 -5552 0
-5133 -5821 0
-5134 -5822 0
-5135 -5823 0
-5136 -5824 0
-5133 -6169 0
-5134 -6170 0
-5135 -6171 0
-5136 -6172 0
-5137 -5141 0
-5138 -5142 0
-5139 -5143 0
-5140 -5144 0
-5137 -5145 0
-5138 -5146 0
-5139 -5147 0
-5140 -5148 0
-5137 -5169 0
-5138 -5170 0
-5139 -5171 0
-5140 -5172 0
-5137 -5453 0
-5138 -5454 0
-5139 -5455 0
-5140 -5456 0
-5137 -5569 0
-5138 -5570 0
-5139 -5571 0
-5140 -5572 0
-5137 -5589 0
-5138 -5590 0
-5139 -5591 0
-5140 -5592 0
-5137 -5789 0
-5138 -5790 0
-5139 -5791 0
-5140 -5792 0
-5137 -6077 0
-5138 -6078 0
-5139 -6079 0
-5140 -6080 0
-5137 -6577 0
-5138 -6578 0
-5139 -6579 0
-5140 -6580 0
-5137 -6677 0
-5138 -6678 0
-5139 -6679 0
-5140 -6680 0
-5137 -6681 0
-5138 -6682 0
-5139 -6683 0
-5140 -6684 0
-5137 -6817 0
-5138 -6818 0
-5139 -6819 0
-5140 -6820 0
-5137 -6961 0
-5138 -6962 0
-5139 -6963 0
-5140 -6964 0
-5141 -5149 0
-5142 -5150 0
-5143 -5151 0
-5144 -5152 0
-5141 -5933 0
-5142 -5934 0
-5143 -5935 0
-5144 -5936 0
-5141 -6081 0
-5142 -6082 0
-5143 -6083 0
-5144 -6084 0
-5141 -6173 0
-5142 -6174 0
-5143 -6175 0
-5144 -6176 0
-5141 -6581 0
-5142 -6582 0
-5143 -6583 0
-5144 -6584 0
-5141 -6965 0
-5142 -6966 0
-5143 -6967 0
-5144 -6968 0
-5145 -5149 0
-5146 -5150 0
-5147 -5151 0
-5148 -5152 0
-5145 -5257 0
-5146 -5258 0
-5147 -5259 0
-5148 -5260 0
-5145 -5573 0
-5146 -5574 0
-5147 -5575 0
-5148 -5576 0
-5145 -5829 0
-5146 -5830 0
-5147 -5831 0
-5148 -5832 0
-5145 -6085 0
-5146 -6086 0
-5147 -6087 0
-5148 -6088 0
-5145 -6313 0
-5146 -6314 0
-5147 -6315 0
-5148 -6316 0
-5145 -6585 0
-5146 -6586 0
-5147 -6587 0
-5148 -6588 0
-5145 -6821 0
-5146 -6822 0
-5147 -6823 0
-5148 -6824 0
-5145 -6829 0
-5146 -6830 0
-5147 -6831 0
-5148 -6832 0
-5149 -5577 0
-5150 -5578 0
-5151 -5579 0
-5152 -5580 0
-5149 -5665 0
-5150 -5666 0
-5151 -5667 0
-5152 -5668 0
-5149 -5833 0
-5150 -5834 0
-5151 -5835 0
-5152 -5836 0
-5149 -6177 0
-5150 -6178 0
-5151 -6179 0
-5152 -6180 0
-5149 -6317 0
-5150 -6318 0
-5151 -6319 0
-5152 -6320 0
-5149 -6589 0
-5150 -6590 0
-5151 -6591 0
-5152 -6592 0
-5149 -6825 0
-5150 -6826 0
-5151 -6827 0
-5152 -6828 0
-5153 -5157 0
-5154 -5158 0
-5155 -5159 0
-5156 -5160 0
-5153 -5161 0
-5154 -5162 0
-5155 -5163 0
-5156 -5164 0
-5153 -5165 0
-5154 -5166 0
-5155 -5167 0
-5156 -5168 0
-5153 -5837 0
-5154 -5838 0
-5155 -5839 0
-5156 -5840 0
-5153 -6185 0
-5154 -6186 0
-5155 -6187 0
-5156 -6188 0
-5153 -6589 0
-5154 -6590 0
-5155 -6591 0
-5156 -6592 0
-5157 -5161 0
-5158 -5162 0
-5159 -5163 0
-5160 -5164 0
-5157 -5169 0
-5158 -5170 0
-5159 -5171 0
-5160 -5172 0
-5157 -5273 0
-5158 -5274 0
-5159 -5275 0
-5160 -5276 0
-5157 -5625 0
-5158 -5626 0
-5159 -5627 0
-5160 -5628 0
-5157 -5853 0
-5158 -5854 0
-5159 -5855 0
-5160 -5856 0
-5157 -6333 0
-5158 -6334 0
-5159 -6335 0
-5160 -6336 0
-5157 -6613 0
-5158 -6614 0
-5159 -6615 0
-5160 -6616 0
-5161 -5857 0
-5162 -5858 0
-5163 -5859 0
-5164 -5860 0
-5161 -6189 0
-5162 -6190 0
-5163 -6191 0
-5164 -6192 0
-5161 -6337 0
-5162 -6338 0
-5163 -6339 0
-5164 -6340 0
-5165 -5169 0
-5166 -5170 0
-5167 -5171 0
-5168 -5172 0
-5165 -5597 0
-5166 -5598 0
-5167 -5599 0
-5168 -5600 0
-5165 -5869 0
-5166 -5870 0
-5167 -5871 0
-5168 -5872 0
-5165 -6977 0
-5166 -6978 0
-5167 -6979 0
-5168 -6980 0
-5169 -5277 0
-5170 -5278 0
-5171 -5279 0
-5172 -5280 0
-5169 -5633 0
-5170 -5634 0
-5171 -5635 0
-5172 -5636 0
-5169 -5661 0
-5170 -5662 0
-5171 -5663 0
-5172 -5664 0
-5169 -5905 0
-5170 -5906 0
-5171 -5907 0
-5172 -5908 0
-5169 -6181 0
-5170 -6182 0
-5171 -6183 0
-5172 -6184 0
-5169 -6637 0
-5170 -6638 0
-5171 -6639 0
-5172 -6640 0
-5169 -6753 0
-5170 -6754 0
-5171 -6755 0
-5172 -6756 0
-5173 -5189 0
-5174 -5190 0
-5175 -5191 0
-5176 -5192 0
-5173 -5193 0
-5174 -5194 0
-5175 -5195 0
-5176 -5196 0
-5173 -5845 0
-5174 -5846 0
-5175 -5847 0
-5176 -5848 0
-5177 -5181 0
-5178 -5182 0
-5179 -5183 0
-5180 -5184 0
-5177 -5185 0
-5178 -5186 0
-5179 -5187 0
-5180 -5188 0
-5177 -5193 0
-5178 -5194 0
-5179 -5195 0
-5180 -5196 0
-5177 -5693 0
-5178 -5694 0
-5179 -5695 0
-5180 -5696 0
-5177 -5873 0
-5178 -5874 0
-5179 -5875 0
-5180 -5876 0
-5177 -6221 0
-5178 -6222 0
-5179 -6223 0
-5180 -6224 0
-5177 -6361 0
-5178 -6362 0
-5179 -6363 0
-5180 -6364 0
-5177 -6769 0
-5178 -6770 0
-5179 -6771 0
-5180 -6772 0
-5177 -6809 0
-5178 -6810 0
-5179 -6811 0
-5180 -6812 0
-5177 -6813 0
-5178 -6814 0
-5179 -6815 0
-5180 -6816 0
-5181 -5197 0
-5182 -5198 0
-5183 -5199 0
-5184 -5200 0
-5181 -5525 0
-5182 -5526 0
-5183 -5527 0
-5184 -5528 0
-5185 -5205 0
-5186 -5206 0
-5187 -5207 0
-5188 -5208 0
-5185 -5329 0
-5186 -5330 0
-5187 -5331 0
-5188 -5332 0
-5185 -5705 0
-5186 -5706 0
-5187 -5707 0
-5188 -5708 0
-5185 -5881 0
-5186 -5882 0
-5187 -5883 0
-5188 -5884 0
-5185 -6229 0
-5186 -6230 0
-5187 -6231 0
-5188 -6232 0
-5185 -6777 0
-5186 -6778 0
-5187 -6779 0
-5188 -6780 0
-5185 -6813 0
-5186 -6814 0
-5187 -6815 0
-5188 -6816 0
-5189 -5193 0
-5190 -5194 0
-5191 -5195 0
-5192 -5196 0
-5189 -5201 0
-5190 -5202 0
-5191 -5203 0
-5192 -5204 0
-5189 -5357 0
-5190 -5358 0
-5191 -5359 0
-5192 -5360 0
-5189 -5533 0
-5190 -5534 0
-5191 -5535 0
-5192 -5536 0
-5189 -5685 0
-5190 -5686 0
-5191 -5687 0
-5192 -5688 0
-5189 -6201 0
-5190 -6202 0
-5191 -6203 0
-5192 -6204 0
-5189 -6765 0
-5190 -6766 0
-5191 -6767 0
-5192 -6768 0
-5189 -6817 0
-5190 -6818 0
-5191 -6819 0
-5192 -6820 0
-5193 -5197 0
-5194 -5198 0
-5195 -5199 0
-5196 -5200 0
-5193 -5205 0
-5194 -5206 0
-5195 -5207 0
-5196 -5208 0
-5193 -5333 0
-5194 -5334 0
-5195 -5335 0
-5196 -5336 0
-5193 -5457 0
-5194 -5458 0
-5195 -5459 0
-5196 -5460 0
-5193 -5541 0
-5194 -5542 0
-5195 -5543 0
-5196 -5544 0
-5193 -5697 0
-5194 -5698 0
-5195 -5699 0
-5196 -5700 0
-5193 -5885 0
-5194 -5886 0
-5195 -5887 0
-5196 -5888 0
-5193 -6381 0
-5194 -6382 0
-5195 -6383 0
-5196 -6384 0
-5193 -6769 0
-5194 -6770 0
-5195 -6771 0
-5196 -6772 0
-5193 -6821 0
-5194 -6822 0
-5195 -6823 0
-5196 -6824 0
-5197 -5545 0
-5198 -5546 0
-5199 -5547 0
-5200 -5548 0
-5197 -5701 0
-5198 -5702 0
-5199 -5703 0
-5200 -5704 0
-5197 -6825 0
-5198 -6826 0
-5199 -6827 0
-5200 -6828 0
-5201 -5205 0
-5202 -5206 0
-5203 -5207 0
-5204 -5208 0
-5201 -5377 0
-5202 -5378 0
-5203 -5379 0
-5204 -5380 0
-5201 -5553 0
-5202 -5554 0
-5203 -5555 0
-5204 -5556 0
-5201 -6205 0
-5202 -6206 0
-5203 -6207 0
-5204 -6208 0
-5201 -6773 0
-5202 -6774 0
-5203 -6775 0
-5204 -6776 0
-5201 -6817 0
-5202 -6818 0
-5203 -6819 0
-5204 -6820 0
-5205 -5337 0
-5206 -5338 0
-5207 -5339 0
-5208 -5340 0
-5205 -5461 0
-5206 -5462 0
-5207 -5463 0
-5208 -5464 0
-5205 -5561 0
-5206 -5562 0
-5207 -5563 0
-5208 -5564 0
-5205 -6777 0
-5206 -6778 0
-5207 -6779 0
-5208 -6780 0
-5205 -6821 0
-5206 -6822 0
-5207 -6823 0
-5208 -6824 0
-5209 -5213 0
-5210 -5214 0
-5211 -5215 0
-5212 -5216 0
-5209 -5225 0
-5210 -5226 0
-5211 -5227 0
-5212 -5228 0
-5209 -5249 0
-5210 -5250 0
-5211 -5251 0
-5212 -5252 0
-5209 -5945 0
-5210 -5946 0
-5211 -5947 0
-5212 -5948 0
-5209 -6673 0
-5210 -6674 0
-5211 -6675 0
-5212 -6676 0
-5209 -6881 0
-5210 -6882 0
-5211 -6883 0
-5212 -6884 0
-5213 -5229 0
-5214 -5230 0
-5215 -5231 0
-5216 -5232 0
-5213 -6037 0
-5214 -6038 0
-5215 -6039 0
-5216 -6040 0
-5213 -6885 0
-5214 -6886 0
-5215 -6887 0
-5216 -6888 0
-5213 -6997 0
-5214 -6998 0
-5215 -6999 0
-5216 -7000 0
-5217 -5221 0
-5218 -5222 0
-5219 -5223 0
-5220 -5224 0
-5217 -5229 0
-5218 -5230 0
-5219 -5231 0
-5220 -5232 0
-5217 -6053 0
-5218 -6054 0
-5219 -6055 0
-5220 -6056 0
-5217 -6833 0
-5218 -6834 0
-5219 -6835 0
-5220 -6836 0
-5221 -5233 0
-5222 -5234 0
-5223 -5235 0
-5224 -5236 0
-5221 -6837 0
-5222 -6838 0
-5223 -6839 0
-5224 -6840 0
-5221 -6877 0
-5222 -6878 0
-5223 -6879 0
-5224 -6880 0
-5225 -5229 0
-5226 -5230 0
-5227 -5231 0
-5228 -5232 0
-5225 -5237 0
-5226 -5238 0
-5227 -5239 0
-5228 -5240 0
-5225 -5613 0
-5226 -5614 0
-5227 -5615 0
-5228 -5616 0
-5225 -6073 0
-5226 -6074 0
-5227 -6075 0
-5228 -6076 0
-5225 -6241 0
-5226 -6242 0
-5227 -6243 0
-5228 -6244 0
-5225 -6677 0
-5226 -6678 0
-5227 -6679 0
-5228 -6680 0
-5225 -6881 0
-5226 -6882 0
-5227 -6883 0
-5228 -6884 0
-5229 -5233 0
-5230 -5234 0
-5231 -5235 0
-5232 -5236 0
-5229 -5241 0
-5230 -5242 0
-5231 -5243 0
-5232 -5244 0
-5229 -5269 0
-5230 -5270 0
-5231 -5271 0
-5232 -5272 0
-5229 -5389 0
-5230 -5390 0
-5231 -5391 0
-5232 -5392 0
-5229 -5393 0
-5230 -5394 0
-5231 -5395 0
-5232 -5396 0
-5229 -6077 0
-5230 -6078 0
-5231 -6079 0
-5232 -6080 0
-5229 -6273 0
-5230 -6274 0
-5231 -6275 0
-5232 -6276 0
-5229 -6833 0
-5230 -6834 0
-5231 -6835 0
-5232 -6836 0
-5229 -6841 0
-5230 -6842 0
-5231 -6843 0
-5232 -6844 0
-5229 -6885 0
-5230 -6886 0
-5231 -6887 0
-5232 -6888 0
-5229 -7009 0
-5230 -7010 0
-5231 -7011 0
-5232 -7012 0
-5233 -5269 0
-5234 -5270 0
-5235 -5271 0
-5236 -5272 0
-5233 -5973 0
-5234 -5974 0
-5235 -5975 0
-5236 -5976 0
-5233 -6085 0
-5234 -6086 0
-5235 -6087 0
-5236 -6088 0
-5233 -6277 0
-5234 -6278 0
-5235 -6279 0
-5236 -6280 0
-5233 -6305 0
-5234 -6306 0
-5235 -6307 0
-5236 -6308 0
-5233 -6453 0
-5234 -6454 0
-5235 -6455 0
-5236 -6456 0
-5233 -6837 0
-5234 -6838 0
-5235 -6839 0
-5236 -6840 0
-5233 -6845 0
-5234 -6846 0
-5235 -6847 0
-5236 -6848 0
-5233 -6893 0
-5234 -6894 0
-5235 -6895 0
-5236 -6896 0
-5233 -6897 0
-5234 -6898 0
-5235 -6899 0
-5236 -6900 0
-5237 -5241 0
-5238 -5242 0
-5239 -5243 0
-5240 -5244 0
-5237 -5405 0
-5238 -5406 0
-5239 -5407 0
-5240 -5408 0
-5237 -5633 0
-5238 -5634 0
-5239 -5635 0
-5240 -5636 0
-5237 -5741 0
-5238 -5742 0
-5239 -5743 0
-5240 -5744 0
-5237 -6249 0
-5238 -6250 0
-5239 -6251 0
-5240 -6252 0
-5237 -6681 0
-5238 -6682 0
-5239 -6683 0
-5240 -6684 0
-5241 -5245 0
-5242 -5246 0
-5243 -5247 0
-5244 -5248 0
-5241 -5401 0
-5242 -5402 0
-5243 -5403 0
-5244 -5404 0
-5241 -5409 0
-5242 -5410 0
-5243 -5411 0
-5244 -5412 0
-5241 -5637 0
-5242 -5638 0
-5243 -5639 0
-5244 -5640 0
-5241 -5745 0
-5242 -5746 0
-5243 -5747 0
-5244 -5748 0
-5241 -5961 0
-5242 -5962 0
-5243 -5963 0
-5244 -5964 0
-5241 -6133 0
-5242 -6134 0
-5243 -6135 0
-5244 -6136 0
-5241 -6849 0
-5242 -6850 0
-5243 -6851 0
-5244 -6852 0
-5241 -6853 0
-5242 -6854 0
-5243 -6855 0
-5244 -6856 0
-5245 -5417 0
-5246 -5418 0
-5247 -5419 0
-5248 -5420 0
-5245 -5425 0
-5246 -5426 0
-5247 -5427 0
-5248 -5428 0
-5245 -6137 0
-5246 -6138 0
-5247 -6139 0
-5248 -6140 0
-5245 -6685 0
-5246 -6686 0
-5247 -6687 0
-5248 -6688 0
-5245 -6853 0
-5246 -6854 0
-5247 -6855 0
-5248 -6856 0
-5249 -5253 0
-5250 -5254 0
-5251 -5255 0
-5252 -5256 0
-5249 -6461 0
-5250 -6462 0
-5251 -6463 0
-5252 -6464 0
-5249 -6689 0
-5250 -6690 0
-5251 -6691 0
-5252 -6692 0
-5249 -6921 0
-5250 -6922 0
-5251 -6923 0
-5252 -6924 0
-5249 -7045 0
-5250 -7046 0
-5251 -7047 0
-5252 -7048 0
-5253 -5257 0
-5254 -5258 0
-5255 -5259 0
-5256 -5260 0
-5253 -5261 0
-5254 -5262 0
-5255 -5263 0
-5256 -5264 0
-5253 -5281 0
-5254 -5282 0
-5255 -5283 0
-5256 -5284 0
-5253 -5649 0
-5254 -5650 0
-5255 -5651 0
-5256 -5652 0
-5253 -5717 0
-5254 -5718 0
-5255 -5719 0
-5256 -5720 0
-5253 -5985 0
-5254 -5986 0
-5255 -5987 0
-5256 -5988 0
-5253 -6325 0
-5254 -6326 0
-5255 -6327 0
-5256 -6328 0
-5253 -6697 0
-5254 -6698 0
-5255 -6699 0
-5256 -6700 0
-5253 -6933 0
-5254 -6934 0
-5255 -6935 0
-5256 -6936 0
-5257 -5265 0
-5258 -5266 0
-5259 -5267 0
-5260 -5268 0
-5257 -5281 0
-5258 -5282 0
-5259 -5283 0
-5260 -5284 0
-5257 -5653 0
-5258 -5654 0
-5259 -5655 0
-5260 -5656 0
-5257 -5965 0
-5258 -5966 0
-5259 -5967 0
-5260 -5968 0
-5257 -5989 0
-5258 -5990 0
-5259 -5991 0
-5260 -5992 0
-5257 -6313 0
-5258 -6314 0
-5259 -6315 0
-5260 -6316 0
-5257 -6913 0
-5258 -6914 0
-5259 -6915 0
-5260 -6916 0
-5257 -6937 0
-5258 -6938 0
-5259 -6939 0
-5260 -6940 0
-5261 -5265 0
-5262 -5266 0
-5263 -5267 0
-5264 -5268 0
-5261 -5289 0
-5262 -5290 0
-5263 -5291 0
-5264 -5292 0
-5261 -5993 0
-5262 -5994 0
-5263 -5995 0
-5264 -5996 0
-5261 -6329 0
-5262 -6330 0
-5263 -6331 0
-5264 -6332 0
-5261 -6705 0
-5262 -6706 0
-5263 -6707 0
-5264 -6708 0
-5265 -5289 0
-5266 -5290 0
-5267 -5291 0
-5268 -5292 0
-5265 -5589 0
-5266 -5590 0
-5267 -5591 0
-5268 -5592 0
-5265 -5997 0
-5266 -5998 0
-5267 -5999 0
-5268 -6000 0
-5265 -6269 0
-5266 -6270 0
-5267 -6271 0
-5268 -6272 0
-5265 -6709 0
-5266 -6710 0
-5267 -6711 0
-5268 -6712 0
-5269 -5737 0
-5270 -5738 0
-5271 -5739 0
-5272 -5740 0
-5269 -6001 0
-5270 -6002 0
-5271 -6003 0
-5272 -6004 0
-5269 -6169 0
-5270 -6170 0
-5271 -6171 0
-5272 -6172 0
-5269 -6925 0
-5270 -6926 0
-5271 -6927 0
-5272 -6928 0
-5269 -7065 0
-5270 -7066 0
-5271 -7067 0
-5272 -7068 0
-5273 -5277 0
-5274 -5278 0
-5275 -5279 0
-5276 -5280 0
-5273 -5281 0
-5274 -5282 0
-5275 -5283 0
-5276 -5284 0
-5273 -6005 0
-5274 -6006 0
-5275 -6007 0
-5276 -6008 0
-5273 -6333 0
-5274 -6334 0
-5275 -6335 0
-5276 -6336 0
-5273 -6733 0
-5274 -6734 0
-5275 -6735 0
-5276 -6736 0
-5277 -5281 0
-5278 -5282 0
-5279 -5283 0
-5280 -5284 0
-5277 -5285 0
-5278 -5286 0
-5279 -5287 0
-5280 -5288 0
-5277 -5761 0
-5278 -5762 0
-5279 -5763 0
-5280 -5764 0
-5277 -5781 0
-5278 -5782 0
-5279 -5783 0
-5280 -5784 0
-5277 -6069 0
-5278 -6070 0
-5279 -6071 0
-5280 -6072 0
-5277 -6833 0
-5278 -6834 0
-5279 -6835 0
-5280 -6836 0
-5277 -6849 0
-5278 -6850 0
-5279 -6851 0
-5280 -6852 0
-5281 -5289 0
-5282 -5290 0
-5283 -5291 0
-5284 -5292 0
-5281 -5449 0
-5282 -5450 0
-5283 -5451 0
-5284 -5452 0
-5281 -5765 0
-5282 -5766 0
-5283 -5767 0
-5284 -5768 0
-5281 -6077 0
-5282 -6078 0
-5283 -6079 0
-5284 -6080 0
-5281 -6345 0
-5282 -6346 0
-5283 -6347 0
-5284 -6348 0
-5281 -6477 0
-5282 -6478 0
-5283 -6479 0
-5284 -6480 0
-5281 -6837 0
-5282 -6838 0
-5283 -6839 0
-5284 -6840 0
-5281 -6969 0
-5282 -6970 0
-5283 -6971 0
-5284 -6972 0
-5281 -6977 0
-5282 -6978 0
-5283 -6979 0
-5284 -6980 0
-5285 -5289 0
-5286 -5290 0
-5287 -5291 0
-5288 -5292 0
-5285 -5453 0
-5286 -5454 0
-5287 -5455 0
-5288 -5456 0
-5285 -6105 0
-5286 -6106 0
-5287 -6107 0
-5288 -6108 0
-5285 -6197 0
-5286 -6198 0
-5287 -6199 0
-5288 -6200 0
-5285 -6337 0
-5286 -6338 0
-5287 -6339 0
-5288 -6340 0
-5285 -6841 0
-5286 -6842 0
-5287 -6843 0
-5288 -6844 0
-5285 -6853 0
-5286 -6854 0
-5287 -6855 0
-5288 -6856 0
-5289 -5661 0
-5290 -5662 0
-5291 -5663 0
-5292 -5664 0
-5289 -6113 0
-5290 -6114 0
-5291 -6115 0
-5292 -6116 0
-5289 -6845 0
-5290 -6846 0
-5291 -6847 0
-5292 -6848 0
-5293 -5349 0
-5294 -5350 0
-5295 -5351 0
-5296 -5352 0
-5293 -5357 0
-5294 -5358 0
-5295 -5359 0
-5296 -5360 0
-5293 -5681 0
-5294 -5682 0
-5295 -5683 0
-5296 -5684 0
-5297 -5301 0
-5298 -5302 0
-5299 -5303 0
-5300 -5304 0
-5297 -5305 0
-5298 -5306 0
-5299 -5307 0
-5300 -5308 0
-5297 -5313 0
-5298 -5314 0
-5299 -5315 0
-5300 -5316 0
-5297 -5349 0
-5298 -5350 0
-5299 -5351 0
-5300 -5352 0
-5297 -5793 0
-5298 -5794 0
-5299 -5795 0
-5300 -5796 0
-5297 -6765 0
-5298 -6766 0
-5299 -6767 0
-5300 -6768 0
-5297 -6881 0
-5298 -6882 0
-5299 -6883 0
-5300 -6884 0
-5301 -5309 0
-5302 -5310 0
-5303 -5311 0
-5304 -5312 0
-5301 -5353 0
-5302 -5354 0
-5303 -5355 0
-5304 -5356 0
-5301 -6201 0
-5302 -6202 0
-5303 -6203 0
-5304 -6204 0
-5301 -6885 0
-5302 -6886 0
-5303 -6887 0
-5304 -6888 0
-5305 -5309 0
-5306 -5310 0
-5307 -5311 0
-5308 -5312 0
-5305 -5317 0
-5306 -5318 0
-5307 -5319 0
-5308 -5320 0
-5305 -5321 0
-5306 -5322 0
-5307 -5323 0
-5308 -5324 0
-5305 -5349 0
-5306 -5350 0
-5307 -5351 0
-5308 -5352 0
-5305 -5469 0
-5306 -5470 0
-5307 -5471 0
-5308 -5472 0
-5305 -6365 0
-5306 -6366 0
-5307 -6367 0
-5308 -6368 0
-5305 -6769 0
-5306 -6770 0
-5307 -6771 0
-5308 -6772 0
-5305 -6873 0
-5306 -6874 0
-5307 -6875 0
-5308 -6876 0
-5305 -6889 0
-5306 -6890 0
-5307 -6891 0
-5308 -6892 0
-5309 -5321 0
-5310 -5322 0
-5311 -5323 0
-5312 -5324 0
-5309 -5353 0
-5310 -5354 0
-5311 -5355 0
-5312 -5356 0
-5309 -5837 0
-5310 -5838 0
-5311 -5839 0
-5312 -5840 0
-5309 -6369 0
-5310 -6370 0
-5311 -6371 0
-5312 -6372 0
-5309 -6877 0
-5310 -6878 0
-5311 -6879 0
-5312 -6880 0
-5309 -6893 0
-5310 -6894 0
-5311 -6895 0
-5312 -6896 0
-5313 -5317 0
-5314 -5318 0
-5315 -5319 0
-5316 -5320 0
-5313 -5373 0
-5314 -5374 0
-5315 -5375 0
-5316 -5376 0
-5313 -6773 0
-5314 -6774 0
-5315 -6775 0
-5316 -6776 0
-5313 -6881 0
-5314 -6882 0
-5315 -6883 0
-5316 -6884 0
-5317 -5373 0
-5318 -5374 0
-5319 -5375 0
-5320 -5376 0
-5317 -5473 0
-5318 -5474 0
-5319 -5475 0
-5320 -5476 0
-5317 -6377 0
-5318 -6378 0
-5319 -6379 0
-5320 -6380 0
-5317 -6777 0
-5318 -6778 0
-5319 -6779 0
-5320 -6780 0
-5317 -6889 0
-5318 -6890 0
-5319 -6891 0
-5320 -6892 0
-5321 -5325 0
-5322 -5326 0
-5323 -5327 0
-5324 -5328 0
-5321 -5397 0
-5322 -5398 0
-5323 -5399 0
-5324 -5400 0
-5321 -5481 0
-5322 -5482 0
-5323 -5483 0
-5324 -5484 0
-5321 -5853 0
-5322 -5854 0
-5323 -5855 0
-5324 -5856 0
-5321 -6489 0
-5322 -6490 0
-5323 -6491 0
-5324 -6492 0
-5321 -6901 0
-5322 -6902 0
-5323 -6903 0
-5324 -6904 0
-5321 -6905 0
-5322 -6906 0
-5323 -6907 0
-5324 -6908 0
-5325 -5401 0
-5326 -5402 0
-5327 -5403 0
-5328 -5404 0
-5325 -5669 0
-5326 -5670 0
-5327 -5671 0
-5328 -5672 0
-5325 -6377 0
-5326 -6378 0
-5327 -6379 0
-5328 -6380 0
-5325 -6493 0
-5326 -6494 0
-5327 -6495 0
-5328 -6496 0
-5325 -6909 0
-5326 -6910 0
-5327 -6911 0
-5328 -6912 0
-5329 -5337 0
-5330 -5338 0
-5331 -5339 0
-5332 -5340 0
-5329 -5345 0
-5330 -5346 0
-5331 -5347 0
-5332 -5348 0
-5329 -5429 0
-5330 -5430 0
-5331 -5431 0
-5332 -5432 0
-5329 -6033 0
-5330 -6034 0
-5331 -6035 0
-5332 -6036 0
-5329 -6389 0
-5330 -6390 0
-5331 -6391 0
-5332 -6392 0
-5329 -6857 0
-5330 -6858 0
-5331 -6859 0
-5332 -6860 0
-5333 -5337 0
-5334 -5338 0
-5335 -5339 0
-5336 -5340 0
-5333 -5369 0
-5334 -5370 0
-5335 -5371 0
-5336 -5372 0
-5333 -5433 0
-5334 -5434 0
-5335 -5435 0
-5336 -5436 0
-5333 -5677 0
-5334 -5678 0
-5335 -5679 0
-5336 -5680 0
-5333 -5713 0
-5334 -5714 0
-5335 -5715 0
-5336 -5716 0
-5333 -6037 0
-5334 -6038 0
-5335 -6039 0
-5336 -6040 0
-5333 -6497 0
-5334 -6498 0
-5335 -6499 0
-5336 -6500 0
-5333 -6913 0
-5334 -6914 0
-5335 -6915 0
-5336 -6916 0
-5337 -5385 0
-5338 -5386 0
-5339 -5387 0
-5340 -5388 0
-5337 -5437 0
-5338 -5438 0
-5339 -5439 0
-5340 -5440 0
-5337 -5685 0
-5338 -5686 0
-5339 -5687 0
-5340 -5688 0
-5337 -5717 0
-5338 -5718 0
-5339 -5719 0
-5340 -5720 0
-5337 -6041 0
-5338 -6042 0
-5339 -6043 0
-5340 -6044 0
-5337 -6857 0
-5338 -6858 0
-5339 -6859 0
-5340 -6860 0
-5337 -6913 0
-5338 -6914 0
-5339 -6915 0
-5340 -6916 0
-5341 -5345 0
-5342 -5346 0
-5343 -5347 0
-5344 -5348 0
-5341 -5369 0
-5342 -5370 0
-5343 -5371 0
-5344 -5372 0
-5341 -5393 0
-5342 -5394 0
-5343 -5395 0
-5344 -5396 0
-5341 -6045 0
-5342 -6046 0
-5343 -6047 0
-5344 -6048 0
-5341 -6401 0
-5342 -6402 0
-5343 -6403 0
-5344 -6404 0
-5341 -6917 0
-5342 -6918 0
-5343 -6919 0
-5344 -6920 0
-5345 -5385 0
-5346 -5386 0
-5347 -5387 0
-5348 -5388 0
-5345 -6049 0
-5346 -6050 0
-5347 -6051 0
-5348 -6052 0
-5345 -6217 0
-5346 -6218 0
-5347 -6219 0
-5348 -6220 0
-5345 -6413 0
-5346 -6414 0
-5347 -6415 0
-5348 -6416 0
-5345 -6917 0
-5346 -6918 0
-5347 -6919 0
-5348 -6920 0
-5349 -5353 0
-5350 -5354 0
-5351 -5355 0
-5352 -5356 0
-5349 -5357 0
-5350 -5358 0
-5351 -5359 0
-5352 -5360 0
-5349 -5365 0
-5350 -5366 0
-5351 -5367 0
-5352 -5368 0
-5349 -5373 0
-5350 -5374 0
-5351 -5375 0
-5352 -5376 0
-5349 -5397 0
-5350 -5398 0
-5351 -5399 0
-5352 -5400 0
-5349 -5457 0
-5350 -5458 0
-5351 -5459 0
-5352 -5460 0
-5349 -5505 0
-5350 -5506 0
-5351 -5507 0
-5352 -5508 0
-5349 -5813 0
-5350 -5814 0
-5351 -5815 0
-5352 -5816 0
-5349 -6505 0
-5350 -6506 0
-5351 -6507 0
-5352 -6508 0
-5349 -6781 0
-5350 -6782 0
-5351 -6783 0
-5352 -6784 0
-5349 -6921 0
-5350 -6922 0
-5351 -6923 0
-5352 -6924 0
-5353 -5361 0
-5354 -5362 0
-5355 -5363 0
-5356 -5364 0
-5353 -5397 0
-5354 -5398 0
-5355 -5399 0
-5356 -5400 0
-5353 -5869 0
-5354 -5870 0
-5355 -5871 0
-5356 -5872 0
-5353 -6925 0
-5354 -6926 0
-5355 -6927 0
-5356 -6928 0
-5357 -5361 0
-5358 -5362 0
-5359 -5363 0
-5360 -5364 0
-5357 -5369 0
-5358 -5370 0
-5359 -5371 0
-5360 -5372 0
-5357 -5377 0
-5358 -5378 0
-5359 -5379 0
-5360 -5380 0
-5357 -5401 0
-5358 -5402 0
-5359 -5403 0
-5360 -5404 0
-5357 -6057 0
-5358 -6058 0
-5359 -6059 0
-5360 -6060 0
-5357 -6349 0
-5358 -6350 0
-5359 -6351 0
-5360 -6352 0
-5357 -6509 0
-5358 -6510 0
-5359 -6511 0
-5360 -6512 0
-5357 -6929 0
-5358 -6930 0
-5359 -6931 0
-5360 -6932 0
-5361 -5401 0
-5362 -5402 0
-5363 -5403 0
-5364 -5404 0
-5361 -5721 0
-5362 -5722 0
-5363 -5723 0
-5364 -5724 0
-5361 -6061 0
-5362 -6062 0
-5363 -6063 0
-5364 -6064 0
-5365 -5369 0
-5366 -5370 0
-5367 -5371 0
-5368 -5372 0
-5365 -5381 0
-5366 -5382 0
-5367 -5383 0
-5368 -5384 0
-5365 -5441 0
-5366 -5442 0
-5367 -5443 0
-5368 -5444 0
-5365 -5457 0
-5366 -5458 0
-5367 -5459 0
-5368 -5460 0
-5365 -5693 0
-5366 -5694 0
-5367 -5695 0
-5368 -5696 0
-5365 -5797 0
-5366 -5798 0
-5367 -5799 0
-5368 -5800 0
-5365 -6065 0
-5366 -6066 0
-5367 -6067 0
-5368 -6068 0
-5365 -6417 0
-5366 -6418 0
-5367 -6419 0
-5368 -6420 0
-5365 -6933 0
-5366 -6934 0
-5367 -6935 0
-5368 -6936 0
-5369 -5385 0
-5370 -5386 0
-5371 -5387 0
-5372 -5388 0
-5369 -5405 0
-5370 -5406 0
-5371 -5407 0
-5372 -5408 0
-5369 -5409 0
-5370 -5410 0
-5371 -5411 0
-5372 -5412 0
-5369 -5441 0
-5370 -5442 0
-5371 -5443 0
-5372 -5444 0
-5369 -5701 0
-5370 -5702 0
-5371 -5703 0
-5372 -5704 0
-5369 -5725 0
-5370 -5726 0
-5371 -5727 0
-5372 -5728 0
-5369 -6077 0
-5370 -6078 0
-5371 -6079 0
-5372 -6080 0
-5369 -6937 0
-5370 -6938 0
-5371 -6939 0
-5372 -6940 0
-5373 -5377 0
-5374 -5378 0
-5375 -5379 0
-5376 -5380 0
-5373 -5381 0
-5374 -5382 0
-5375 -5383 0
-5376 -5384 0
-5373 -5413 0
-5374 -5414 0
-5375 -5415 0
-5376 -5416 0
-5373 -5461 0
-5374 -5462 0
-5375 -5463 0
-5376 -5464 0
-5373 -5513 0
-5374 -5514 0
-5375 -5515 0
-5376 -5516 0
-5373 -6785 0
-5374 -6786 0
-5375 -6787 0
-5376 -6788 0
-5373 -6921 0
-5374 -6922 0
-5375 -6923 0
-5376 -6924 0
-5377 -5385 0
-5378 -5386 0
-5379 -5387 0
-5380 -5388 0
-5377 -5417 0
-5378 -5418 0
-5379 -5419 0
-5380 -5420 0
-5377 -5521 0
-5378 -5522 0
-5379 -5523 0
-5380 -5524 0
-5377 -5733 0
-5378 -5734 0
-5379 -5735 0
-5380 -5736 0
-5377 -6097 0
-5378 -6098 0
-5379 -6099 0
-5380 -6100 0
-5377 -6929 0
-5378 -6930 0
-5379 -6931 0
-5380 -6932 0
-5381 -5385 0
-5382 -5386 0
-5383 -5387 0
-5384 -5388 0
-5381 -5445 0
-5382 -5446 0
-5383 -5447 0
-5384 -5448 0
-5381 -5461 0
-5382 -5462 0
-5383 -5463 0
-5384 -5464 0
-5381 -5705 0
-5382 -5706 0
-5383 -5707 0
-5384 -5708 0
-5381 -6101 0
-5382 -6102 0
-5383 -6103 0
-5384 -6104 0
-5381 -6421 0
-5382 -6422 0
-5383 -6423 0
-5384 -6424 0
-5381 -6933 0
-5382 -6934 0
-5383 -6935 0
-5384 -6936 0
-5385 -5421 0
-5386 -5422 0
-5387 -5423 0
-5388 -5424 0
-5385 -5425 0
-5386 -5426 0
-5387 -5427 0
-5388 -5428 0
-5385 -5445 0
-5386 -5446 0
-5387 -5447 0
-5388 -5448 0
-5385 -5741 0
-5386 -5742 0
-5387 -5743 0
-5388 -5744 0
-5385 -6113 0
-5386 -6114 0
-5387 -6115 0
-5388 -6116 0
-5385 -6353 0
-5386 -6354 0
-5387 -6355 0
-5388 -6356 0
-5385 -6937 0
-5386 -6938 0
-5387 -6939 0
-5388 -6940 0
-5389 -5393 0
-5390 -5394 0
-5391 -5395 0
-5392 -5396 0
-5389 -5401 0
-5390 -5402 0
-5391 -5403 0
-5392 -5404 0
-5389 -6221 0
-5390 -6222 0
-5391 -6223 0
-5392 -6224 0
-5389 -6941 0
-5390 -6942 0
-5391 -6943 0
-5392 -6944 0
-5389 -7093 0
-5390 -7094 0
-5391 -7095 0
-5392 -7096 0
-5393 -5409 0
-5394 -5410 0
-5395 -5411 0
-5396 -5412 0
-5393 -5809 0
-5394 -5810 0
-5395 -5811 0
-5396 -5812 0
-5393 -6225 0
-5394 -6226 0
-5395 -6227 0
-5396 -6228 0
-5393 -6405 0
-5394 -6406 0
-5395 -6407 0
-5396 -6408 0
-5393 -6517 0
-5394 -6518 0
-5395 -6519 0
-5396 -6520 0
-5393 -6949 0
-5394 -6950 0
-5395 -6951 0
-5396 -6952 0
-5397 -5401 0
-5398 -5402 0
-5399 -5403 0
-5400 -5404 0
-5397 -5413 0
-5398 -5414 0
-5399 -5415 0
-5400 -5416 0
-5397 -5537 0
-5398 -5538 0
-5399 -5539 0
-5400 -5540 0
-5397 -5825 0
-5398 -5826 0
-5399 -5827 0
-5400 -5828 0
-5397 -5905 0
-5398 -5906 0
-5399 -5907 0
-5400 -5908 0
-5397 -6789 0
-5398 -6790 0
-5399 -6791 0
-5400 -6792 0
-5397 -6953 0
-5398 -6954 0
-5399 -6955 0
-5400 -6956 0
-5401 -5409 0
-5402 -5410 0
-5403 -5411 0
-5404 -5412 0
-5401 -5417 0
-5402 -5418 0
-5403 -5419 0
-5404 -5420 0
-5401 -5833 0
-5402 -5834 0
-5403 -5835 0
-5404 -5836 0
-5401 -6369 0
-5402 -6370 0
-5403 -6371 0
-5404 -6372 0
-5401 -6533 0
-5402 -6534 0
-5403 -6535 0
-5404 -6536 0
-5401 -6793 0
-5402 -6794 0
-5403 -6795 0
-5404 -6796 0
-5401 -6957 0
-5402 -6958 0
-5403 -6959 0
-5404 -6960 0
-5405 -5409 0
-5406 -5410 0
-5407 -5411 0
-5408 -5412 0
-5405 -5421 0
-5406 -5422 0
-5407 -5423 0
-5408 -5424 0
-5405 -5709 0
-5406 -5710 0
-5407 -5711 0
-5408 -5712 0
-5405 -6149 0
-5406 -6150 0
-5407 -6151 0
-5408 -6152 0
-5405 -6373 0
-5406 -6374 0
-5407 -6375 0
-5408 -6376 0
-5405 -6961 0
-5406 -6962 0
-5407 -6963 0
-5408 -6964 0
-5409 -5425 0
-5410 -5426 0
-5411 -5427 0
-5412 -5428 0
-5409 -6153 0
-5410 -6154 0
-5411 -6155 0
-5412 -6156 0
-5409 -6421 0
-5410 -6422 0
-5411 -6423 0
-5412 -6424 0
-5409 -6541 0
-5410 -6542 0
-5411 -6543 0
-5412 -6544 0
-5409 -6965 0
-5410 -6966 0
-5411 -6967 0
-5412 -6968 0
-5413 -5417 0
-5414 -5418 0
-5415 -5419 0
-5416 -5420 0
-5413 -5557 0
-5414 -5558 0
-5415 -5559 0
-5416 -5560 0
-5413 -6797 0
-5414 -6798 0
-5415 -6799 0
-5416 -6800 0
-5413 -6953 0
-5414 -6954 0
-5415 -6955 0
-5416 -6956 0
-5417 -5425 0
-5418 -5426 0
-5419 -5427 0
-5420 -5428 0
-5417 -6801 0
-5418 -6802 0
-5419 -6803 0
-5420 -6804 0
-5417 -6957 0
-5418 -6958 0
-5419 -6959 0
-5420 -6960 0
-5421 -5425 0
-5422 -5426 0
-5423 -5427 0
-5424 -5428 0
-5421 -6157 0
-5422 -6158 0
-5423 -6159 0
-5424 -6160 0
-5421 -6381 0
-5422 -6382 0
-5423 -6383 0
-5424 -6384 0
-5421 -6961 0
-5422 -6962 0
-5423 -6963 0
-5424 -6964 0
-5425 -5749 0
-5426 -5750 0
-5427 -5751 0
-5428 -5752 0
-5425 -6161 0
-5426 -6162 0
-5427 -6163 0
-5428 -6164 0
-5425 -6805 0
-5426 -6806 0
-5427 -6807 0
-5428 -6808 0
-5425 -6965 0
-5426 -6966 0
-5427 -6967 0
-5428 -6968 0
-5429 -5437 0
-5430 -5438 0
-5431 -5439 0
-5432 -5440 0
-5429 -6433 0
-5430 -6434 0
-5431 -6435 0
-5432 -6436 0
-5429 -6893 0
-5430 -6894 0
-5431 -6895 0
-5432 -6896 0
-5433 -5437 0
-5434 -5438 0
-5435 -5439 0
-5436 -5440 0
-5433 -5441 0
-5434 -5442 0
-5435 -5443 0
-5436 -5444 0
-5433 -6201 0
-5434 -6202 0
-5435 -6203 0
-5436 -6204 0
-5433 -6561 0
-5434 -6562 0
-5435 -6563 0
-5436 -6564 0
-5433 -6877 0
-5434 -6878 0
-5435 -6879 0
-5436 -6880 0
-5433 -6969 0
-5434 -6970 0
-5435 -6971 0
-5436 -6972 0
-5437 -5445 0
-5438 -5446 0
-5439 -5447 0
-5440 -5448 0
-5437 -5693 0
-5438 -5694 0
-5439 -5695 0
-5440 -5696 0
-5437 -5757 0
-5438 -5758 0
-5439 -5759 0
-5440 -5760 0
-5437 -5941 0
-5438 -5942 0
-5439 -5943 0
-5440 -5944 0
-5437 -6205 0
-5438 -6206 0
-5439 -6207 0
-5440 -6208 0
-5437 -6825 0
-5438 -6826 0
-5439 -6827 0
-5440 -6828 0
-5437 -6893 0
-5438 -6894 0
-5439 -6895 0
-5440 -6896 0
-5437 -6969 0
-5438 -6970 0
-5439 -6971 0
-5440 -6972 0
-5441 -5445 0
-5442 -5446 0
-5443 -5447 0
-5444 -5448 0
-5441 -5845 0
-5442 -5846 0
-5443 -5847 0
-5444 -5848 0
-5441 -6181 0
-5442 -6182 0
-5443 -6183 0
-5444 -6184 0
-5441 -6209 0
-5442 -6210 0
-5443 -6211 0
-5444 -6212 0
-5441 -6977 0
-5442 -6978 0
-5443 -6979 0
-5444 -6980 0
-5445 -5605 0
-5446 -5606 0
-5447 -5607 0
-5448 -5608 0
-5445 -5769 0
-5446 -5770 0
-5447 -5771 0
-5448 -5772 0
-5445 -5849 0
-5446 -5850 0
-5447 -5851 0
-5448 -5852 0
-5445 -6189 0
-5446 -6190 0
-5447 -6191 0
-5448 -6192 0
-5445 -6213 0
-5446 -6214 0
-5447 -6215 0
-5448 -6216 0
-5445 -6897 0
-5446 -6898 0
-5447 -6899 0
-5448 -6900 0
-5445 -6977 0
-5446 -6978 0
-5447 -6979 0
-5448 -6980 0
-5449 -6221 0
-5450 -6222 0
-5451 -6223 0
-5452 -6224 0
-5449 -6613 0
-5450 -6614 0
-5451 -6615 0
-5452 -6616 0
-5449 -6621 0
-5450 -6622 0
-5451 -6623 0
-5452 -6624 0
-5453 -5789 0
-5454 -5790 0
-5455 -5791 0
-5456 -5792 0
-5453 -5929 0
-5454 -5930 0
-5455 -5931 0
-5456 -5932 0
-5453 -6433 0
-5454 -6434 0
-5455 -6435 0
-5456 -6436 0
-5453 -6617 0
-5454 -6618 0
-5455 -6619 0
-5456 -6620 0
-5453 -6941 0
-5454 -6942 0
-5455 -6943 0
-5456 -6944 0
-5453 -6957 0
-5454 -6958 0
-5455 -6959 0
-5456 -6960 0
-5453 -7125 0
-5454 -7126 0
-5455 -7127 0
-5456 -7128 0
-5457 -5461 0
-5458 -5462 0
-5459 -5463 0
-5460 -5464 0
-5457 -5677 0
-5458 -5678 0
-5459 -5679 0
-5460 -5680 0
-5457 -6981 0
-5458 -6982 0
-5459 -6983 0
-5460 -6984 0
-5461 -5685 0
-5462 -5686 0
-5463 -5687 0
-5464 -5688 0
-5461 -6981 0
-5462 -6982 0
-5463 -6983 0
-5464 -6984 0
-5465 -6293 0
-5466 -6294 0
-5467 -6295 0
-5468 -6296 0
-5465 -6461 0
-5466 -6462 0
-5467 -6463 0
-5468 -6464 0
-5465 -6997 0
-5466 -6998 0
-5467 -6999 0
-5468 -7000 0
-5465 -7009 0
-5466 -7010 0
-5467 -7011 0
-5468 -7012 0
-5469 -5473 0
-5470 -5474 0
-5471 -5475 0
-5472 -5476 0
-5469 -5477 0
-5470 -5478 0
-5471 -5479 0
-5472 -5480 0
-5469 -5481 0
-5470 -5482 0
-5471 -5483 0
-5472 -5484 0
-5469 -5505 0
-5470 -5506 0
-5471 -5507 0
-5472 -5508 0
-5469 -5509 0
-5470 -5510 0
-5471 -5511 0
-5472 -5512 0
-5469 -6485 0
-5470 -6486 0
-5471 -6487 0
-5472 -6488 0
-5469 -6985 0
-5470 -6986 0
-5471 -6987 0
-5472 -6988 0
-5473 -5485 0
-5474 -5486 0
-5475 -5487 0
-5476 -5488 0
-5473 -5513 0
-5474 -5514 0
-5475 -5515 0
-5476 -5516 0
-5473 -5517 0
-5474 -5518 0
-5475 -5519 0
-5476 -5520 0
-5473 -5793 0
-5474 -5794 0
-5475 -5795 0
-5476 -5796 0
-5473 -6493 0
-5474 -6494 0
-5475 -6495 0
-5476 -6496 0
-5473 -6857 0
-5474 -6858 0
-5475 -6859 0
-5476 -6860 0
-5473 -6985 0
-5474 -6986 0
-5475 -6987 0
-5476 -6988 0
-5473 -6989 0
-5474 -6990 0
-5475 -6991 0
-5476 -6992 0
-5477 -5493 0
-5478 -5494 0
-5479 -5495 0
-5480 -5496 0
-5477 -5837 0
-5478 -5838 0
-5479 -5839 0
-5480 -5840 0
-5477 -6241 0
-5478 -6242 0
-5479 -6243 0
-5480 -6244 0
-5477 -6501 0
-5478 -6502 0
-5479 -6503 0
-5480 -6504 0
-5477 -6993 0
-5478 -6994 0
-5479 -6995 0
-5480 -6996 0
-5481 -5485 0
-5482 -5486 0
-5483 -5487 0
-5484 -5488 0
-5481 -5493 0
-5482 -5494 0
-5483 -5495 0
-5484 -5496 0
-5481 -5537 0
-5482 -5538 0
-5483 -5539 0
-5484 -5540 0
-5481 -5545 0
-5482 -5546 0
-5483 -5547 0
-5484 -5548 0
-5481 -6005 0
-5482 -6006 0
-5483 -6007 0
-5484 -6008 0
-5481 -6489 0
-5482 -6490 0
-5483 -6491 0
-5484 -6492 0
-5481 -6997 0
-5482 -6998 0
-5483 -6999 0
-5484 -7000 0
-5485 -5501 0
-5486 -5502 0
-5487 -5503 0
-5488 -5504 0
-5485 -5557 0
-5486 -5558 0
-5487 -5559 0
-5488 -5560 0
-5485 -5565 0
-5486 -5566 0
-5487 -5567 0
-5488 -5568 0
-5485 -5805 0
-5486 -5806 0
-5487 -5807 0
-5488 -5808 0
-5485 -6013 0
-5486 -6014 0
-5487 -6015 0
-5488 -6016 0
-5485 -6997 0
-5486 -6998 0
-5487 -6999 0
-5488 -7000 0
-5489 -5493 0
-5490 -5494 0
-5491 -5495 0
-5492 -5496 0
-5489 -5497 0
-5490 -5498 0
-5491 -5499 0
-5492 -5500 0
-5489 -5669 0
-5490 -5670 0
-5491 -5671 0
-5492 -5672 0
-5489 -5973 0
-5490 -5974 0
-5491 -5975 0
-5492 -5976 0
-5489 -6365 0
-5490 -6366 0
-5491 -6367 0
-5492 -6368 0
-5489 -7001 0
-5490 -7002 0
-5491 -7003 0
-5492 -7004 0
-5489 -7005 0
-5490 -7006 0
-5491 -7007 0
-5492 -7008 0
-5493 -5501 0
-5494 -5502 0
-5495 -5503 0
-5496 -5504 0
-5493 -5581 0
-5494 -5582 0
-5495 -5583 0
-5496 -5584 0
-5493 -5669 0
-5494 -5670 0
-5495 -5671 0
-5496 -5672 0
-5493 -5857 0
-5494 -5858 0
-5495 -5859 0
-5496 -5860 0
-5493 -6373 0
-5494 -6374 0
-5495 -6375 0
-5496 -6376 0
-5493 -6505 0
-5494 -6506 0
-5495 -6507 0
-5496 -6508 0
-5493 -6657 0
-5494 -6658 0
-5495 -6659 0
-5496 -6660 0
-5493 -7009 0
-5494 -7010 0
-5495 -7011 0
-5496 -7012 0
-5497 -5501 0
-5498 -5502 0
-5499 -5503 0
-5500 -5504 0
-5497 -5673 0
-5498 -5674 0
-5499 -5675 0
-5500 -5676 0
-5497 -6377 0
-5498 -6378 0
-5499 -6379 0
-5500 -6380 0
-5497 -7005 0
-5498 -7006 0
-5499 -7007 0
-5500 -7008 0
-5501 -5585 0
-5502 -5586 0
-5503 -5587 0
-5504 -5588 0
-5501 -5673 0
-5502 -5674 0
-5503 -5675 0
-5504 -5676 0
-5501 -6381 0
-5502 -6382 0
-5503 -6383 0
-5504 -6384 0
-5501 -6665 0
-5502 -6666 0
-5503 -6667 0
-5504 -6668 0
-5501 -7009 0
-5502 -7010 0
-5503 -7011 0
-5504 -7012 0
-5505 -5509 0
-5506 -5510 0
-5507 -5511 0
-5508 -5512 0
-5505 -5513 0
-5506 -5514 0
-5507 -5515 0
-5508 -5516 0
-5505 -5533 0
-5506 -5534 0
-5507 -5535 0
-5508 -5536 0
-5505 -5537 0
-5506 -5538 0
-5507 -5539 0
-5508 -5540 0
-5505 -5593 0
-5506 -5594 0
-5507 -5595 0
-5508 -5596 0
-5505 -5677 0
-5506 -5678 0
-5507 -5679 0
-5508 -5680 0
-5505 -5861 0
-5506 -5862 0
-5507 -5863 0
-5508 -5864 0
-5505 -6657 0
-5506 -6658 0
-5507 -6659 0
-5508 -6660 0
-5505 -7013 0
-5506 -7014 0
-5507 -7015 0
-5508 -7016 0
-5505 -7157 0
-5506 -7158 0
-5507 -7159 0
-5508 -7160 0
-5509 -5517 0
-5510 -5518 0
-5511 -5519 0
-5512 -5520 0
-5509 -5541 0
-5510 -5542 0
-5511 -5543 0
-5512 -5544 0
-5509 -5545 0
-5510 -5546 0
-5511 -5547 0
-5512 -5548 0
-5509 -6021 0
-5510 -6022 0
-5511 -6023 0
-5512 -6024 0
-5509 -6529 0
-5510 -6530 0
-5511 -6531 0
-5512 -6532 0
-5509 -6661 0
-5510 -6662 0
-5511 -6663 0
-5512 -6664 0
-5509 -7017 0
-5510 -7018 0
-5511 -7019 0
-5512 -7020 0
-5513 -5517 0
-5514 -5518 0
-5515 -5519 0
-5516 -5520 0
-5513 -5521 0
-5514 -5522 0
-5515 -5523 0
-5516 -5524 0
-5513 -5553 0
-5514 -5554 0
-5515 -5555 0
-5516 -5556 0
-5513 -5557 0
-5514 -5558 0
-5515 -5559 0
-5516 -5560 0
-5513 -5597 0
-5514 -5598 0
-5515 -5599 0
-5516 -5600 0
-5513 -5681 0
-5514 -5682 0
-5515 -5683 0
-5516 -5684 0
-5513 -5685 0
-5514 -5686 0
-5515 -5687 0
-5516 -5688 0
-5513 -5865 0
-5514 -5866 0
-5515 -5867 0
-5516 -5868 0
-5513 -6533 0
-5514 -6534 0
-5515 -6535 0
-5516 -6536 0
-5513 -6665 0
-5514 -6666 0
-5515 -6667 0
-5516 -6668 0
-5513 -6865 0
-5514 -6866 0
-5515 -6867 0
-5516 -6868 0
-5513 -7013 0
-5514 -7014 0
-5515 -7015 0
-5516 -7016 0
-5513 -7021 0
-5514 -7022 0
-5515 -7023 0
-5516 -7024 0
-5513 -7161 0
-5514 -7162 0
-5515 -7163 0
-5516 -7164 0
-5517 -5561 0
-5518 -5562 0
-5519 -5563 0
-5520 -5564 0
-5517 -5565 0
-5518 -5566 0
-5519 -5567 0
-5520 -5568 0
-5517 -5813 0
-5518 -5814 0
-5519 -5815 0
-5520 -5816 0
-5517 -6029 0
-5518 -6030 0
-5519 -6031 0
-5520 -6032 0
-5517 -6537 0
-5518 -6538 0
-5519 -6539 0
-5520 -6540 0
-5517 -7017 0
-5518 -7018 0
-5519 -7019 0
-5520 -7020 0
-5517 -7025 0
-5518 -7026 0
-5519 -7027 0
-5520 -7028 0
-5521 -5569 0
-5522 -5570 0
-5523 -5571 0
-5524 -5572 0
-5521 -5597 0
-5522 -5598 0
-5523 -5599 0
-5524 -5600 0
-5521 -6257 0
-5522 -6258 0
-5523 -6259 0
-5524 -6260 0
-5525 -5529 0
-5526 -5530 0
-5527 -5531 0
-5528 -5532 0
-5525 -5545 0
-5526 -5546 0
-5527 -5547 0
-5528 -5548 0
-5525 -6045 0
-5526 -6046 0
-5527 -6047 0
-5528 -6048 0
-5525 -7029 0
-5526 -7030 0
-5527 -7031 0
-5528 -7032 0
-5529 -5565 0
-5530 -5566 0
-5531 -5567 0
-5532 -5568 0
-5529 -6049 0
-5530 -6050 0
-5531 -6051 0
-5532 -6052 0
-5529 -6549 0
-5530 -6550 0
-5531 -6551 0
-5532 -6552 0
-5529 -7029 0
-5530 -7030 0
-5531 -7031 0
-5532 -7032 0
-5533 -5537 0
-5534 -5538 0
-5535 -5539 0
-5536 -5540 0
-5533 -5541 0
-5534 -5542 0
-5535 -5543 0
-5536 -5544 0
-5533 -5553 0
-5534 -5554 0
-5535 -5555 0
-5536 -5556 0
-5533 -5629 0
-5534 -5630 0
-5535 -5631 0
-5536 -5632 0
-5533 -5985 0
-5534 -5986 0
-5535 -5987 0
-5536 -5988 0
-5533 -7037 0
-5534 -7038 0
-5535 -7039 0
-5536 -7040 0
-5537 -5545 0
-5538 -5546 0
-5539 -5547 0
-5540 -5548 0
-5537 -5557 0
-5538 -5558 0
-5539 -5559 0
-5540 -5560 0
-5537 -5721 0
-5538 -5722 0
-5539 -5723 0
-5540 -5724 0
-5537 -6069 0
-5538 -6070 0
-5539 -6071 0
-5540 -6072 0
-5537 -7041 0
-5538 -7042 0
-5539 -7043 0
-5540 -7044 0
-5541 -5545 0
-5542 -5546 0
-5543 -5547 0
-5544 -5548 0
-5541 -5561 0
-5542 -5562 0
-5543 -5563 0
-5544 -5564 0
-5541 -5713 0
-5542 -5714 0
-5543 -5715 0
-5544 -5716 0
-5541 -5885 0
-5542 -5886 0
-5543 -5887 0
-5544 -5888 0
-5541 -6073 0
-5542 -6074 0
-5543 -6075 0
-5544 -6076 0
-5541 -6873 0
-5542 -6874 0
-5543 -6875 0
-5544 -6876 0
-5541 -7045 0
-5542 -7046 0
-5543 -7047 0
-5544 -7048 0
-5545 -5549 0
-5546 -5550 0
-5547 -5551 0
-5548 -5552 0
-5545 -5565 0
-5546 -5566 0
-5547 -5567 0
-5548 -5568 0
-5545 -5581 0
-5546 -5582 0
-5547 -5583 0
-5548 -5584 0
-5545 -6077 0
-5546 -6078 0
-5547 -6079 0
-5548 -6080 0
-5545 -6877 0
-5546 -6878 0
-5547 -6879 0
-5548 -6880 0
-5545 -7049 0
-5546 -7050 0
-5547 -7051 0
-5548 -7052 0
-5549 -5577 0
-5550 -5578 0
-5551 -5579 0
-5552 -5580 0
-5549 -5821 0
-5550 -5822 0
-5551 -5823 0
-5552 -5824 0
-5549 -6089 0
-5550 -6090 0
-5551 -6091 0
-5552 -6092 0
-5549 -6537 0
-5550 -6538 0
-5551 -6539 0
-5552 -6540 0
-5549 -7053 0
-5550 -7054 0
-5551 -7055 0
-5552 -7056 0
-5553 -5557 0
-5554 -5558 0
-5555 -5559 0
-5556 -5560 0
-5553 -5561 0
-5554 -5562 0
-5555 -5563 0
-5556 -5564 0
-5553 -5569 0
-5554 -5570 0
-5555 -5571 0
-5556 -5572 0
-5553 -5633 0
-5554 -5634 0
-5555 -5635 0
-5556 -5636 0
-5553 -5733 0
-5554 -5734 0
-5555 -5735 0
-5556 -5736 0
-5553 -5993 0
-5554 -5994 0
-5555 -5995 0
-5556 -5996 0
-5553 -6489 0
-5554 -6490 0
-5555 -6491 0
-5556 -6492 0
-5553 -6869 0
-5554 -6870 0
-5555 -6871 0
-5556 -6872 0
-5553 -6881 0
-5554 -6882 0
-5555 -6883 0
-5556 -6884 0
-5553 -7037 0
-5554 -7038 0
-5555 -7039 0
-5556 -7040 0
-5553 -7057 0
-5554 -7058 0
-5555 -7059 0
-5556 -7060 0
-5557 -5565 0
-5558 -5566 0
-5559 -5567 0
-5560 -5568 0
-5557 -5637 0
-5558 -5638 0
-5559 -5639 0
-5560 -5640 0
-5557 -5737 0
-5558 -5738 0
-5559 -5739 0
-5560 -5740 0
-5557 -6105 0
-5558 -6106 0
-5559 -6107 0
-5560 -6108 0
-5557 -6393 0
-5558 -6394 0
-5559 -6395 0
-5560 -6396 0
-5557 -6885 0
-5558 -6886 0
-5559 -6887 0
-5560 -6888 0
-5557 -7041 0
-5558 -7042 0
-5559 -7043 0
-5560 -7044 0
-5561 -5565 0
-5562 -5566 0
-5563 -5567 0
-5564 -5568 0
-5561 -5573 0
-5562 -5574 0
-5563 -5575 0
-5564 -5576 0
-5561 -5641 0
-5562 -5642 0
-5563 -5643 0
-5564 -5644 0
-5561 -5717 0
-5562 -5718 0
-5563 -5719 0
-5564 -5720 0
-5561 -6109 0
-5562 -6110 0
-5563 -6111 0
-5564 -6112 0
-5561 -6889 0
-5562 -6890 0
-5563 -6891 0
-5564 -6892 0
-5561 -7045 0
-5562 -7046 0
-5563 -7047 0
-5564 -7048 0
-5565 -5577 0
-5566 -5578 0
-5567 -5579 0
-5568 -5580 0
-5565 -5585 0
-5566 -5586 0
-5567 -5587 0
-5568 -5588 0
-5565 -5825 0
-5566 -5826 0
-5567 -5827 0
-5568 -5828 0
-5565 -6113 0
-5566 -6114 0
-5567 -6115 0
-5568 -6116 0
-5565 -6893 0
-5566 -6894 0
-5567 -6895 0
-5568 -6896 0
-5565 -7049 0
-5566 -7050 0
-5567 -7051 0
-5568 -7052 0
-5569 -5573 0
-5570 -5574 0
-5571 -5575 0
-5572 -5576 0
-5569 -5633 0
-5570 -5634 0
-5571 -5635 0
-5572 -5636 0
-5569 -5997 0
-5570 -5998 0
-5571 -5999 0
-5572 -6000 0
-5569 -6493 0
-5570 -6494 0
-5571 -6495 0
-5572 -6496 0
-5573 -5577 0
-5574 -5578 0
-5575 -5579 0
-5576 -5580 0
-5573 -5641 0
-5574 -5642 0
-5575 -5643 0
-5576 -5644 0
-5573 -5829 0
-5574 -5830 0
-5575 -5831 0
-5576 -5832 0
-5573 -6137 0
-5574 -6138 0
-5575 -6139 0
-5576 -6140 0
-5577 -5833 0
-5578 -5834 0
-5579 -5835 0
-5580 -5836 0
-5577 -6125 0
-5578 -6126 0
-5579 -6127 0
-5580 -6128 0
-5577 -7053 0
-5578 -7054 0
-5579 -7055 0
-5580 -7056 0
-5581 -5585 0
-5582 -5586 0
-5583 -5587 0
-5584 -5588 0
-5581 -5729 0
-5582 -5730 0
-5583 -5731 0
-5584 -5732 0
-5581 -5913 0
-5582 -5914 0
-5583 -5915 0
-5584 -5916 0
-5581 -5981 0
-5582 -5982 0
-5583 -5983 0
-5584 -5984 0
-5581 -6141 0
-5582 -6142 0
-5583 -6143 0
-5584 -6144 0
-5581 -6669 0
-5582 -6670 0
-5583 -6671 0
-5584 -6672 0
-5581 -7065 0
-5582 -7066 0
-5583 -7067 0
-5584 -7068 0
-5585 -5745 0
-5586 -5746 0
-5587 -5747 0
-5588 -5748 0
-5585 -6145 0
-5586 -6146 0
-5587 -6147 0
-5588 -6148 0
-5585 -6897 0
-5586 -6898 0
-5587 -6899 0
-5588 -6900 0
-5585 -7065 0
-5586 -7066 0
-5587 -7067 0
-5588 -7068 0
-5589 -5661 0
-5590 -5662 0
-5591 -5663 0
-5592 -5664 0
-5589 -5665 0
-5590 -5666 0
-5591 -5667 0
-5592 -5668 0
-5589 -5929 0
-5590 -5930 0
-5591 -5931 0
-5592 -5932 0
-5589 -5997 0
-5590 -5998 0
-5591 -5999 0
-5592 -6000 0
-5589 -6321 0
-5590 -6322 0
-5591 -6323 0
-5592 -6324 0
-5589 -6525 0
-5590 -6526 0
-5591 -6527 0
-5592 -6528 0
-5589 -6917 0
-5590 -6918 0
-5591 -6919 0
-5592 -6920 0
-5589 -7105 0
-5590 -7106 0
-5591 -7107 0
-5592 -7108 0
-5593 -5597 0
-5594 -5598 0
-5595 -5599 0
-5596 -5600 0
-5593 -5629 0
-5594 -5630 0
-5595 -5631 0
-5596 -5632 0
-5593 -5689 0
-5594 -5690 0
-5595 -5691 0
-5596 -5692 0
-5593 -6025 0
-5594 -6026 0
-5595 -6027 0
-5596 -6028 0
-5593 -7069 0
-5594 -7070 0
-5595 -7071 0
-5596 -7072 0
-5597 -5605 0
-5598 -5606 0
-5599 -5607 0
-5600 -5608 0
-5597 -5633 0
-5598 -5634 0
-5599 -5635 0
-5600 -5636 0
-5597 -5637 0
-5598 -5638 0
-5599 -5639 0
-5600 -5640 0
-5597 -5701 0
-5598 -5702 0
-5599 -5703 0
-5600 -5704 0
-5597 -5869 0
-5598 -5870 0
-5599 -5871 0
-5600 -5872 0
-5597 -5945 0
-5598 -5946 0
-5599 -5947 0
-5600 -5948 0
-5597 -6033 0
-5598 -6034 0
-5599 -6035 0
-5600 -6036 0
-5597 -6685 0
-5598 -6686 0
-5599 -6687 0
-5600 -6688 0
-5597 -7069 0
-5598 -7070 0
-5599 -7071 0
-5600 -7072 0
-5597 -7073 0
-5598 -7074 0
-5599 -7075 0
-5600 -7076 0
-5597 -7193 0
-5598 -7194 0
-5599 -7195 0
-5600 -7196 0
-5601 -5605 0
-5602 -5606 0
-5603 -5607 0
-5604 -5608 0
-5601 -5645 0
-5602 -5646 0
-5603 -5647 0
-5604 -5648 0
-5601 -5697 0
-5602 -5698 0
-5603 -5699 0
-5604 -5700 0
-5601 -5941 0
-5602 -5942 0
-5603 -5943 0
-5604 -5944 0
-5601 -6333 0
-5602 -6334 0
-5603 -6335 0
-5604 -6336 0
-5601 -6601 0
-5602 -6602 0
-5603 -6603 0
-5604 -6604 0
-5601 -6937 0
-5602 -6938 0
-5603 -6939 0
-5604 -6940 0
-5601 -6993 0
-5602 -6994 0
-5603 -6995 0
-5604 -6996 0
-5605 -5645 0
-5606 -5646 0
-5607 -5647 0
-5608 -5648 0
-5605 -5701 0
-5606 -5702 0
-5607 -5703 0
-5608 -5704 0
-5605 -5949 0
-5606 -5950 0
-5607 -5951 0
-5608 -5952 0
-5605 -6337 0
-5606 -6338 0
-5607 -6339 0
-5608 -6340 0
-5609 -5613 0
-5610 -5614 0
-5611 -5615 0
-5612 -5616 0
-5609 -5629 0
-5610 -5630 0
-5611 -5631 0
-5612 -5632 0
-5609 -6045 0
-5610 -6046 0
-5611 -6047 0
-5612 -6048 0
-5609 -7001 0
-5610 -7002 0
-5611 -7003 0
-5612 -7004 0
-5613 -5617 0
-5614 -5618 0
-5615 -5619 0
-5616 -5620 0
-5613 -5621 0
-5614 -5622 0
-5615 -5623 0
-5616 -5624 0
-5613 -5633 0
-5614 -5634 0
-5615 -5635 0
-5616 -5636 0
-5613 -5657 0
-5614 -5658 0
-5615 -5659 0
-5616 -5660 0
-5613 -6049 0
-5614 -6050 0
-5615 -6051 0
-5616 -6052 0
-5613 -6429 0
-5614 -6430 0
-5615 -6431 0
-5616 -6432 0
-5613 -6941 0
-5614 -6942 0
-5615 -6943 0
-5616 -6944 0
-5613 -7005 0
-5614 -7006 0
-5615 -7007 0
-5616 -7008 0
-5613 -7197 0
-5614 -7198 0
-5615 -7199 0
-5616 -7200 0
-5617 -5625 0
-5618 -5626 0
-5619 -5627 0
-5620 -5628 0
-5617 -5641 0
-5618 -5642 0
-5619 -5643 0
-5620 -5644 0
-5617 -5657 0
-5618 -5658 0
-5619 -5659 0
-5620 -5660 0
-5617 -5753 0
-5618 -5754 0
-5619 -5755 0
-5620 -5756 0
-5617 -6189 0
-5618 -6190 0
-5619 -6191 0
-5620 -6192 0
-5617 -6701 0
-5618 -6702 0
-5619 -6703 0
-5620 -6704 0
-5621 -5625 0
-5622 -5626 0
-5623 -5627 0
-5624 -5628 0
-5621 -5645 0
-5622 -5646 0
-5623 -5647 0
-5624 -5648 0
-5621 -5661 0
-5622 -5662 0
-5623 -5663 0
-5624 -5664 0
-5621 -6013 0
-5622 -6014 0
-5623 -6015 0
-5624 -6016 0
-5621 -6437 0
-5622 -6438 0
-5623 -6439 0
-5624 -6440 0
-5621 -6609 0
-5622 -6610 0
-5623 -6611 0
-5624 -6612 0
-5621 -6949 0
-5622 -6950 0
-5623 -6951 0
-5624 -6952 0
-5621 -7009 0
-5622 -7010 0
-5623 -7011 0
-5624 -7012 0
-5625 -5661 0
-5626 -5662 0
-5627 -5663 0
-5628 -5664 0
-5625 -6017 0
-5626 -6018 0
-5627 -6019 0
-5628 -6020 0
-5625 -6361 0
-5626 -6362 0
-5627 -6363 0
-5628 -6364 0
-5625 -6613 0
-5626 -6614 0
-5627 -6615 0
-5628 -6616 0
-5625 -6705 0
-5626 -6706 0
-5627 -6707 0
-5628 -6708 0
-5629 -5633 0
-5630 -5634 0
-5631 -5635 0
-5632 -5636 0
-5629 -6077 0
-5630 -6078 0
-5631 -6079 0
-5632 -6080 0
-5629 -7001 0
-5630 -7002 0
-5631 -7003 0
-5632 -7004 0
-5629 -7077 0
-5630 -7078 0
-5631 -7079 0
-5632 -7080 0
-5633 -5637 0
-5634 -5638 0
-5635 -5639 0
-5636 -5640 0
-5633 -5641 0
-5634 -5642 0
-5635 -5643 0
-5636 -5644 0
-5633 -5645 0
-5634 -5646 0
-5635 -5647 0
-5636 -5648 0
-5633 -5709 0
-5634 -5710 0
-5635 -5711 0
-5636 -5712 0
-5633 -5761 0
-5634 -5762 0
-5635 -5763 0
-5636 -5764 0
-5633 -5905 0
-5634 -5906 0
-5635 -5907 0
-5636 -5908 0
-5633 -6113 0
-5634 -6114 0
-5635 -6115 0
-5636 -6116 0
-5633 -6557 0
-5634 -6558 0
-5635 -6559 0
-5636 -6560 0
-5633 -6957 0
-5634 -6958 0
-5635 -6959 0
-5636 -6960 0
-5633 -7005 0
-5634 -7006 0
-5635 -7007 0
-5636 -7008 0
-5633 -7077 0
-5634 -7078 0
-5635 -7079 0
-5636 -7080 0
-5633 -7081 0
-5634 -7082 0
-5635 -7083 0
-5636 -7084 0
-5637 -5961 0
-5638 -5962 0
-5639 -5963 0
-5640 -5964 0
-5637 -6117 0
-5638 -6118 0
-5639 -6119 0
-5640 -6120 0
-5641 -5765 0
-5642 -5766 0
-5643 -5767 0
-5644 -5768 0
-5641 -5909 0
-5642 -5910 0
-5643 -5911 0
-5644 -5912 0
-5641 -6121 0
-5642 -6122 0
-5643 -6123 0
-5644 -6124 0
-5641 -6377 0
-5642 -6378 0
-5643 -6379 0
-5644 -6380 0
-5641 -6713 0
-5642 -6714 0
-5643 -6715 0
-5644 -6716 0
-5645 -5709 0
-5646 -5710 0
-5647 -5711 0
-5648 -5712 0
-5645 -5773 0
-5646 -5774 0
-5647 -5775 0
-5648 -5776 0
-5645 -6129 0
-5646 -6130 0
-5647 -6131 0
-5648 -6132 0
-5645 -6561 0
-5646 -6562 0
-5647 -6563 0
-5648 -6564 0
-5645 -6965 0
-5646 -6966 0
-5647 -6967 0
-5648 -6968 0
-5645 -7009 0
-5646 -7010 0
-5647 -7011 0
-5648 -7012 0
-5649 -5653 0
-5650 -5654 0
-5651 -5655 0
-5652 -5656 0
-5649 -5661 0
-5650 -5662 0
-5651 -5663 0
-5652 -5664 0
-5649 -6041 0
-5650 -6042 0
-5651 -6043 0
-5652 -6044 0
-5649 -6385 0
-5650 -6386 0
-5651 -6387 0
-5652 -6388 0
-5649 -6741 0
-5650 -6742 0
-5651 -6743 0
-5652 -6744 0
-5649 -7029 0
-5650 -7030 0
-5651 -7031 0
-5652 -7032 0
-5649 -7049 0
-5650 -7050 0
-5651 -7051 0
-5652 -7052 0
-5649 -7117 0
-5650 -7118 0
-5651 -7119 0
-5652 -7120 0
-5653 -5665 0
-5654 -5666 0
-5655 -5667 0
-5656 -5668 0
-5653 -5925 0
-5654 -5926 0
-5655 -5927 0
-5656 -5928 0
-5653 -5965 0
-5654 -5966 0
-5655 -5967 0
-5656 -5968 0
-5653 -6389 0
-5654 -6390 0
-5655 -6391 0
-5656 -6392 0
-5653 -6629 0
-5654 -6630 0
-5655 -6631 0
-5656 -6632 0
-5653 -6745 0
-5654 -6746 0
-5655 -6747 0
-5656 -6748 0
-5653 -7033 0
-5654 -7034 0
-5655 -7035 0
-5656 -7036 0
-5653 -7053 0
-5654 -7054 0
-5655 -7055 0
-5656 -7056 0
-5653 -7121 0
-5654 -7122 0
-5655 -7123 0
-5656 -7124 0
-5657 -5661 0
-5658 -5662 0
-5659 -5663 0
-5660 -5664 0
-5657 -5777 0
-5658 -5778 0
-5659 -5779 0
-5660 -5780 0
-5657 -6097 0
-5658 -6098 0
-5659 -6099 0
-5660 -6100 0
-5657 -6757 0
-5658 -6758 0
-5659 -6759 0
-5660 -6760 0
-5657 -7233 0
-5658 -7234 0
-5659 -7235 0
-5660 -7236 0
-5661 -5665 0
-5662 -5666 0
-5663 -5667 0
-5664 -5668 0
-5661 -5781 0
-5662 -5782 0
-5663 -5783 0
-5664 -5784 0
-5661 -6113 0
-5662 -6114 0
-5663 -6115 0
-5664 -6116 0
-5661 -6405 0
-5662 -6406 0
-5663 -6407 0
-5664 -6408 0
-5661 -6573 0
-5662 -6574 0
-5663 -6575 0
-5664 -6576 0
-5661 -6637 0
-5662 -6638 0
-5663 -6639 0
-5664 -6640 0
-5661 -6761 0
-5662 -6762 0
-5663 -6763 0
-5664 -6764 0
-5661 -7065 0
-5662 -7066 0
-5663 -7067 0
-5664 -7068 0
-5661 -7117 0
-5662 -7118 0
-5663 -7119 0
-5664 -7120 0
-5665 -5969 0
-5666 -5970 0
-5667 -5971 0
-5668 -5972 0
-5665 -6125 0
-5666 -6126 0
-5667 -6127 0
-5668 -6128 0
-5665 -6413 0
-5666 -6414 0
-5667 -6415 0
-5668 -6416 0
-5665 -6589 0
-5666 -6590 0
-5667 -6591 0
-5668 -6592 0
-5665 -7121 0
-5666 -7122 0
-5667 -7123 0
-5668 -7124 0
-5669 -5673 0
-5670 -5674 0
-5671 -5675 0
-5672 -5676 0
-5669 -5801 0
-5670 -5802 0
-5671 -5803 0
-5672 -5804 0
-5669 -6765 0
-5670 -6766 0
-5671 -6767 0
-5672 -6768 0
-5669 -7093 0
-5670 -7094 0
-5671 -7095 0
-5672 -7096 0
-5673 -5809 0
-5674 -5810 0
-5675 -5811 0
-5676 -5812 0
-5673 -6773 0
-5674 -6774 0
-5675 -6775 0
-5676 -6776 0
-5673 -7093 0
-5674 -7094 0
-5675 -7095 0
-5676 -7096 0
-5677 -5685 0
-5678 -5686 0
-5679 -5687 0
-5680 -5688 0
-5677 -5689 0
-5678 -5690 0
-5679 -5691 0
-5680 -5692 0
-5677 -7101 0
-5678 -7102 0
-5679 -7103 0
-5680 -7104 0
-5681 -5685 0
-5682 -5686 0
-5683 -5687 0
-5684 -5688 0
-5681 -6773 0
-5682 -6774 0
-5683 -6775 0
-5684 -6776 0
-5681 -7097 0
-5682 -7098 0
-5683 -7099 0
-5684 -7100 0
-5685 -5693 0
-5686 -5694 0
-5687 -5695 0
-5688 -5696 0
-5685 -5701 0
-5686 -5702 0
-5687 -5703 0
-5688 -5704 0
-5685 -5985 0
-5686 -5986 0
-5687 -5987 0
-5688 -5988 0
-5685 -6385 0
-5686 -6386 0
-5687 -6387 0
-5688 -6388 0
-5685 -7101 0
-5686 -7102 0
-5687 -7103 0
-5688 -7104 0
-5685 -7105 0
-5686 -7106 0
-5687 -7107 0
-5688 -7108 0
-5689 -5701 0
-5690 -5702 0
-5691 -5703 0
-5692 -5704 0
-5689 -6053 0
-5690 -6054 0
-5691 -6055 0
-5692 -6056 0
-5689 -7113 0
-5690 -7114 0
-5691 -7115 0
-5692 -7116 0
-5693 -5701 0
-5694 -5702 0
-5695 -5703 0
-5696 -5704 0
-5693 -5705 0
-5694 -5706 0
-5695 -5707 0
-5696 -5708 0
-5693 -5873 0
-5694 -5874 0
-5695 -5875 0
-5696 -5876 0
-5693 -6065 0
-5694 -6066 0
-5695 -6067 0
-5696 -6068 0
-5693 -6205 0
-5694 -6206 0
-5695 -6207 0
-5696 -6208 0
-5693 -7109 0
-5694 -7110 0
-5695 -7111 0
-5696 -7112 0
-5693 -7117 0
-5694 -7118 0
-5695 -7119 0
-5696 -7120 0
-5697 -5701 0
-5698 -5702 0
-5699 -5703 0
-5700 -5704 0
-5697 -5709 0
-5698 -5710 0
-5699 -5711 0
-5700 -5712 0
-5697 -6073 0
-5698 -6074 0
-5699 -6075 0
-5700 -6076 0
-5697 -6217 0
-5698 -6218 0
-5699 -6219 0
-5700 -6220 0
-5697 -6429 0
-5698 -6430 0
-5699 -6431 0
-5700 -6432 0
-5697 -7085 0
-5698 -7086 0
-5699 -7087 0
-5700 -7088 0
-5701 -5709 0
-5702 -5710 0
-5703 -5711 0
-5704 -5712 0
-5701 -6077 0
-5702 -6078 0
-5703 -6079 0
-5704 -6080 0
-5701 -6433 0
-5702 -6434 0
-5703 -6435 0
-5704 -6436 0
-5701 -6649 0
-5702 -6650 0
-5703 -6651 0
-5704 -6652 0
-5701 -6805 0
-5702 -6806 0
-5703 -6807 0
-5704 -6808 0
-5701 -7089 0
-5702 -7090 0
-5703 -7091 0
-5704 -7092 0
-5701 -7113 0
-5702 -7114 0
-5703 -7115 0
-5704 -7116 0
-5701 -7121 0
-5702 -7122 0
-5703 -7123 0
-5704 -7124 0
-5705 -5881 0
-5706 -5882 0
-5707 -5883 0
-5708 -5884 0
-5705 -6101 0
-5706 -6102 0
-5707 -6103 0
-5708 -6104 0
-5705 -6653 0
-5706 -6654 0
-5707 -6655 0
-5708 -6656 0
-5705 -7117 0
-5706 -7118 0
-5707 -7119 0
-5708 -7120 0
-5709 -5917 0
-5710 -5918 0
-5711 -5919 0
-5712 -5920 0
-5709 -6149 0
-5710 -6150 0
-5711 -6151 0
-5712 -6152 0
-5709 -6233 0
-5710 -6234 0
-5711 -6235 0
-5712 -6236 0
-5709 -6641 0
-5710 -6642 0
-5711 -6643 0
-5712 -6644 0
-5709 -6817 0
-5710 -6818 0
-5711 -6819 0
-5712 -6820 0
-5709 -7093 0
-5710 -7094 0
-5711 -7095 0
-5712 -7096 0
-5709 -7125 0
-5710 -7126 0
-5711 -7127 0
-5712 -7128 0
-5713 -5717 0
-5714 -5718 0
-5715 -5719 0
-5716 -5720 0
-5713 -5725 0
-5714 -5726 0
-5715 -5727 0
-5716 -5728 0
-5713 -6037 0
-5714 -6038 0
-5715 -6039 0
-5716 -6040 0
-5713 -7157 0
-5714 -7158 0
-5715 -7159 0
-5716 -7160 0
-5717 -5741 0
-5718 -5742 0
-5719 -5743 0
-5720 -5744 0
-5717 -5757 0
-5718 -5758 0
-5719 -5759 0
-5720 -5760 0
-5717 -5765 0
-5718 -5766 0
-5719 -5767 0
-5720 -5768 0
-5717 -5985 0
-5718 -5986 0
-5719 -5987 0
-5720 -5988 0
-5717 -6041 0
-5718 -6042 0
-5719 -6043 0
-5720 -6044 0
-5717 -6261 0
-5718 -6262 0
-5719 -6263 0
-5720 -6264 0
-5717 -6985 0
-5718 -6986 0
-5719 -6987 0
-5720 -6988 0
-5717 -7161 0
-5718 -7162 0
-5719 -7163 0
-5720 -7164 0
-5721 -5729 0
-5722 -5730 0
-5723 -5731 0
-5724 -5732 0
-5721 -5737 0
-5722 -5738 0
-5723 -5739 0
-5724 -5740 0
-5721 -5821 0
-5722 -5822 0
-5723 -5823 0
-5724 -5824 0
-5721 -6061 0
-5722 -6062 0
-5723 -6063 0
-5724 -6064 0
-5721 -6529 0
-5722 -6530 0
-5723 -6531 0
-5724 -6532 0
-5721 -7133 0
-5722 -7134 0
-5723 -7135 0
-5724 -7136 0
-5721 -7253 0
-5722 -7254 0
-5723 -7255 0
-5724 -7256 0
-5725 -5729 0
-5726 -5730 0
-5727 -5731 0
-5728 -5732 0
-5725 -5741 0
-5726 -5742 0
-5727 -5743 0
-5728 -5744 0
-5725 -5817 0
-5726 -5818 0
-5727 -5819 0
-5728 -5820 0
-5725 -6077 0
-5726 -6078 0
-5727 -6079 0
-5728 -6080 0
-5725 -7137 0
-5726 -7138 0
-5727 -7139 0
-5728 -7140 0
-5725 -7157 0
-5726 -7158 0
-5727 -7159 0
-5728 -7160 0
-5729 -5745 0
-5730 -5746 0
-5731 -5747 0
-5732 -5748 0
-5729 -5821 0
-5730 -5822 0
-5731 -5823 0
-5732 -5824 0
-5729 -6081 0
-5730 -6082 0
-5731 -6083 0
-5732 -6084 0
-5729 -6669 0
-5730 -6670 0
-5731 -6671 0
-5732 -6672 0
-5729 -7141 0
-5730 -7142 0
-5731 -7143 0
-5732 -7144 0
-5733 -5737 0
-5734 -5738 0
-5735 -5739 0
-5736 -5740 0
-5733 -5741 0
-5734 -5742 0
-5735 -5743 0
-5736 -5744 0
-5733 -5829 0
-5734 -5830 0
-5735 -5831 0
-5736 -5832 0
-5733 -6097 0
-5734 -6098 0
-5735 -6099 0
-5736 -6100 0
-5737 -5745 0
-5738 -5746 0
-5739 -5747 0
-5740 -5748 0
-5737 -5833 0
-5738 -5834 0
-5739 -5835 0
-5740 -5836 0
-5737 -6001 0
-5738 -6002 0
-5739 -6003 0
-5740 -6004 0
-5737 -6281 0
-5738 -6282 0
-5739 -6283 0
-5740 -6284 0
-5737 -6537 0
-5738 -6538 0
-5739 -6539 0
-5740 -6540 0
-5737 -7133 0
-5738 -7134 0
-5739 -7135 0
-5740 -7136 0
-5737 -7261 0
-5738 -7262 0
-5739 -7263 0
-5740 -7264 0
-5741 -5745 0
-5742 -5746 0
-5743 -5747 0
-5744 -5748 0
-5741 -5749 0
-5742 -5750 0
-5743 -5751 0
-5744 -5752 0
-5741 -5769 0
-5742 -5770 0
-5743 -5771 0
-5744 -5772 0
-5741 -5773 0
-5742 -5774 0
-5743 -5775 0
-5744 -5776 0
-5741 -5829 0
-5742 -5830 0
-5743 -5831 0
-5744 -5832 0
-5741 -6113 0
-5742 -6114 0
-5743 -6115 0
-5744 -6116 0
-5741 -6461 0
-5742 -6462 0
-5743 -6463 0
-5744 -6464 0
-5741 -6661 0
-5742 -6662 0
-5743 -6663 0
-5744 -6664 0
-5741 -6681 0
-5742 -6682 0
-5743 -6683 0
-5744 -6684 0
-5741 -6993 0
-5742 -6994 0
-5743 -6995 0
-5744 -6996 0
-5741 -7137 0
-5742 -7138 0
-5743 -7139 0
-5744 -7140 0
-5741 -7145 0
-5742 -7146 0
-5743 -7147 0
-5744 -7148 0
-5741 -7161 0
-5742 -7162 0
-5743 -7163 0
-5744 -7164 0
-5745 -5749 0
-5746 -5750 0
-5747 -5751 0
-5748 -5752 0
-5745 -5833 0
-5746 -5834 0
-5747 -5835 0
-5748 -5836 0
-5745 -6117 0
-5746 -6118 0
-5747 -6119 0
-5748 -6120 0
-5745 -6285 0
-5746 -6286 0
-5747 -6287 0
-5748 -6288 0
-5745 -6465 0
-5746 -6466 0
-5747 -6467 0
-5748 -6468 0
-5745 -6545 0
-5746 -6546 0
-5747 -6547 0
-5748 -6548 0
-5745 -7141 0
-5746 -7142 0
-5747 -7143 0
-5748 -7144 0
-5749 -6161 0
-5750 -6162 0
-5751 -6163 0
-5752 -6164 0
-5749 -7009 0
-5750 -7010 0
-5751 -7011 0
-5752 -7012 0
-5753 -5765 0
-5754 -5766 0
-5755 -5767 0
-5756 -5768 0
-5753 -5777 0
-5754 -5778 0
-5755 -5779 0
-5756 -5780 0
-5753 -6045 0
-5754 -6046 0
-5755 -6047 0
-5756 -6048 0
-5753 -6337 0
-5754 -6338 0
-5755 -6339 0
-5756 -6340 0
-5753 -6481 0
-5754 -6482 0
-5755 -6483 0
-5756 -6484 0
-5753 -6701 0
-5754 -6702 0
-5755 -6703 0
-5756 -6704 0
-5753 -6725 0
-5754 -6726 0
-5755 -6727 0
-5756 -6728 0
-5753 -7033 0
-5754 -7034 0
-5755 -7035 0
-5756 -7036 0
-5753 -7129 0
-5754 -7130 0
-5755 -7131 0
-5756 -7132 0
-5753 -7189 0
-5754 -7190 0
-5755 -7191 0
-5756 -7192 0
-5753 -7277 0
-5754 -7278 0
-5755 -7279 0
-5756 -7280 0
-5757 -5765 0
-5758 -5766 0
-5759 -5767 0
-5760 -5768 0
-5757 -5769 0
-5758 -5770 0
-5759 -5771 0
-5760 -5772 0
-5757 -5885 0
-5758 -5886 0
-5759 -5887 0
-5760 -5888 0
-5757 -5889 0
-5758 -5890 0
-5759 -5891 0
-5760 -5892 0
-5757 -6065 0
-5758 -6066 0
-5759 -6067 0
-5760 -6068 0
-5757 -6333 0
-5758 -6334 0
-5759 -6335 0
-5760 -6336 0
-5757 -6489 0
-5758 -6490 0
-5759 -6491 0
-5760 -6492 0
-5757 -6749 0
-5758 -6750 0
-5759 -6751 0
-5760 -6752 0
-5757 -7049 0
-5758 -7050 0
-5759 -7051 0
-5760 -7052 0
-5761 -5765 0
-5762 -5766 0
-5763 -5767 0
-5764 -5768 0
-5761 -5785 0
-5762 -5786 0
-5763 -5787 0
-5764 -5788 0
-5761 -6069 0
-5762 -6070 0
-5763 -6071 0
-5764 -6072 0
-5761 -6265 0
-5762 -6266 0
-5763 -6267 0
-5764 -6268 0
-5765 -5773 0
-5766 -5774 0
-5767 -5775 0
-5768 -5776 0
-5765 -5785 0
-5766 -5786 0
-5767 -5787 0
-5768 -5788 0
-5765 -5893 0
-5766 -5894 0
-5767 -5895 0
-5768 -5896 0
-5765 -6077 0
-5766 -6078 0
-5767 -6079 0
-5768 -6080 0
-5765 -6269 0
-5766 -6270 0
-5767 -6271 0
-5768 -6272 0
-5765 -6341 0
-5766 -6342 0
-5767 -6343 0
-5768 -6344 0
-5765 -6493 0
-5766 -6494 0
-5767 -6495 0
-5768 -6496 0
-5765 -6713 0
-5766 -6714 0
-5767 -6715 0
-5768 -6716 0
-5765 -7053 0
-5766 -7054 0
-5767 -7055 0
-5768 -7056 0
-5765 -7129 0
-5766 -7130 0
-5767 -7131 0
-5768 -7132 0
-5765 -7193 0
-5766 -7194 0
-5767 -7195 0
-5768 -7196 0
-5769 -5773 0
-5770 -5774 0
-5771 -5775 0
-5772 -5776 0
-5769 -5909 0
-5770 -5910 0
-5771 -5911 0
-5772 -5912 0
-5769 -5921 0
-5770 -5922 0
-5771 -5923 0
-5772 -5924 0
-5769 -5949 0
-5770 -5950 0
-5771 -5951 0
-5772 -5952 0
-5769 -6189 0
-5770 -6190 0
-5771 -6191 0
-5772 -6192 0
-5769 -6253 0
-5770 -6254 0
-5771 -6255 0
-5772 -6256 0
-5769 -6505 0
-5770 -6506 0
-5771 -6507 0
-5772 -6508 0
-5769 -7065 0
-5770 -7066 0
-5771 -7067 0
-5772 -7068 0
-5769 -7149 0
-5770 -7150 0
-5771 -7151 0
-5772 -7152 0
-5773 -5917 0
-5774 -5918 0
-5775 -5919 0
-5776 -5920 0
-5773 -6141 0
-5774 -6142 0
-5775 -6143 0
-5776 -6144 0
-5773 -6193 0
-5774 -6194 0
-5775 -6195 0
-5776 -6196 0
-5773 -6473 0
-5774 -6474 0
-5775 -6475 0
-5776 -6476 0
-5773 -6509 0
-5774 -6510 0
-5775 -6511 0
-5776 -6512 0
-5773 -7193 0
-5774 -7194 0
-5775 -7195 0
-5776 -7196 0
-5777 -5781 0
-5778 -5782 0
-5779 -5783 0
-5780 -5784 0
-5777 -5785 0
-5778 -5786 0
-5779 -5787 0
-5780 -5788 0
-5777 -5789 0
-5778 -5790 0
-5779 -5791 0
-5780 -5792 0
-5777 -5925 0
-5778 -5926 0
-5779 -5927 0
-5780 -5928 0
-5777 -6257 0
-5778 -6258 0
-5779 -6259 0
-5780 -6260 0
-5777 -6621 0
-5778 -6622 0
-5779 -6623 0
-5780 -6624 0
-5777 -6693 0
-5778 -6694 0
-5779 -6695 0
-5780 -6696 0
-5777 -6841 0
-5778 -6842 0
-5779 -6843 0
-5780 -6844 0
-5777 -7133 0
-5778 -7134 0
-5779 -7135 0
-5780 -7136 0
-5777 -7205 0
-5778 -7206 0
-5779 -7207 0
-5780 -7208 0
-5777 -7213 0
-5778 -7214 0
-5779 -7215 0
-5780 -7216 0
-5777 -7317 0
-5778 -7318 0
-5779 -7319 0
-5780 -7320 0
-5781 -5925 0
-5782 -5926 0
-5783 -5927 0
-5784 -5928 0
-5781 -6265 0
-5782 -6266 0
-5783 -6267 0
-5784 -6268 0
-5781 -6517 0
-5782 -6518 0
-5783 -6519 0
-5784 -6520 0
-5781 -6625 0
-5782 -6626 0
-5783 -6627 0
-5784 -6628 0
-5781 -6761 0
-5782 -6762 0
-5783 -6763 0
-5784 -6764 0
-5781 -7141 0
-5782 -7142 0
-5783 -7143 0
-5784 -7144 0
-5781 -7329 0
-5782 -7330 0
-5783 -7331 0
-5784 -7332 0
-5785 -5933 0
-5786 -5934 0
-5787 -5935 0
-5788 -5936 0
-5785 -6165 0
-5786 -6166 0
-5787 -6167 0
-5788 -6168 0
-5785 -6317 0
-5786 -6318 0
-5787 -6319 0
-5788 -6320 0
-5785 -6533 0
-5786 -6534 0
-5787 -6535 0
-5788 -6536 0
-5785 -6853 0
-5786 -6854 0
-5787 -6855 0
-5788 -6856 0
-5785 -7069 0
-5786 -7070 0
-5787 -7071 0
-5788 -7072 0
-5785 -7133 0
-5786 -7134 0
-5787 -7135 0
-5788 -7136 0
-5785 -7337 0
-5786 -7338 0
-5787 -7339 0
-5788 -7340 0
-5789 -6321 0
-5790 -6322 0
-5791 -6323 0
-5792 -6324 0
-5789 -6721 0
-5790 -6722 0
-5791 -6723 0
-5792 -6724 0
-5789 -7229 0
-5790 -7230 0
-5791 -7231 0
-5792 -7232 0
-5789 -7345 0
-5790 -7346 0
-5791 -7347 0
-5792 -7348 0
-5793 -5797 0
-5794 -5798 0
-5795 -5799 0
-5796 -5800 0
-5793 -5805 0
-5794 -5806 0
-5795 -5807 0
-5796 -5808 0
-5793 -5813 0
-5794 -5814 0
-5795 -5815 0
-5796 -5816 0
-5793 -5837 0
-5794 -5838 0
-5795 -5839 0
-5796 -5840 0
-5793 -6765 0
-5794 -6766 0
-5795 -6767 0
-5796 -6768 0
-5793 -7153 0
-5794 -7154 0
-5795 -7155 0
-5796 -7156 0
-5797 -5845 0
-5798 -5846 0
-5799 -5847 0
-5800 -5848 0
-5797 -6205 0
-5798 -6206 0
-5799 -6207 0
-5800 -6208 0
-5797 -6489 0
-5798 -6490 0
-5799 -6491 0
-5800 -6492 0
-5797 -7157 0
-5798 -7158 0
-5799 -7159 0
-5800 -7160 0
-5797 -7161 0
-5798 -7162 0
-5799 -7163 0
-5800 -7164 0
-5801 -5809 0
-5802 -5810 0
-5803 -5811 0
-5804 -5812 0
-5801 -5821 0
-5802 -5822 0
-5803 -5823 0
-5804 -5824 0
-5801 -6765 0
-5802 -6766 0
-5803 -6767 0
-5804 -6768 0
-5801 -7165 0
-5802 -7166 0
-5803 -7167 0
-5804 -7168 0
-5805 -5809 0
-5806 -5810 0
-5807 -5811 0
-5808 -5812 0
-5805 -5825 0
-5806 -5826 0
-5807 -5827 0
-5808 -5828 0
-5805 -5857 0
-5806 -5858 0
-5807 -5859 0
-5808 -5860 0
-5805 -5973 0
-5806 -5974 0
-5807 -5975 0
-5808 -5976 0
-5809 -5833 0
-5810 -5834 0
-5811 -5835 0
-5812 -5836 0
-5809 -5857 0
-5810 -5858 0
-5811 -5859 0
-5812 -5860 0
-5809 -6773 0
-5810 -6774 0
-5811 -6775 0
-5812 -6776 0
-5809 -7165 0
-5810 -7166 0
-5811 -7167 0
-5812 -7168 0
-5813 -5825 0
-5814 -5826 0
-5815 -5827 0
-5816 -5828 0
-5813 -5873 0
-5814 -5874 0
-5815 -5875 0
-5816 -5876 0
-5813 -6781 0
-5814 -6782 0
-5815 -6783 0
-5816 -6784 0
-5817 -5821 0
-5818 -5822 0
-5819 -5823 0
-5820 -5824 0
-5817 -5829 0
-5818 -5830 0
-5819 -5831 0
-5820 -5832 0
-5817 -5897 0
-5818 -5898 0
-5819 -5899 0
-5820 -5900 0
-5817 -6221 0
-5818 -6222 0
-5819 -6223 0
-5820 -6224 0
-5817 -6417 0
-5818 -6418 0
-5819 -6419 0
-5820 -6420 0
-5817 -7173 0
-5818 -7174 0
-5819 -7175 0
-5820 -7176 0
-5821 -5833 0
-5822 -5834 0
-5823 -5835 0
-5824 -5836 0
-5821 -5901 0
-5822 -5902 0
-5823 -5903 0
-5824 -5904 0
-5821 -6401 0
-5822 -6402 0
-5823 -6403 0
-5824 -6404 0
-5821 -6781 0
-5822 -6782 0
-5823 -6783 0
-5824 -6784 0
-5821 -7177 0
-5822 -7178 0
-5823 -7179 0
-5824 -7180 0
-5825 -5833 0
-5826 -5834 0
-5827 -5835 0
-5828 -5836 0
-5825 -5913 0
-5826 -5914 0
-5827 -5915 0
-5828 -5916 0
-5825 -6405 0
-5826 -6406 0
-5827 -6407 0
-5828 -6408 0
-5825 -7169 0
-5826 -7170 0
-5827 -7171 0
-5828 -7172 0
-5829 -5833 0
-5830 -5834 0
-5831 -5835 0
-5832 -5836 0
-5829 -5909 0
-5830 -5910 0
-5831 -5911 0
-5832 -5912 0
-5829 -5917 0
-5830 -5918 0
-5831 -5919 0
-5832 -5920 0
-5829 -5989 0
-5830 -5990 0
-5831 -5991 0
-5832 -5992 0
-5829 -6229 0
-5830 -6230 0
-5831 -6231 0
-5832 -6232 0
-5829 -6421 0
-5830 -6422 0
-5831 -6423 0
-5832 -6424 0
-5829 -6769 0
-5830 -6770 0
-5831 -6771 0
-5832 -6772 0
-5829 -7085 0
-5830 -7086 0
-5831 -7087 0
-5832 -7088 0
-5829 -7173 0
-5830 -7174 0
-5831 -7175 0
-5832 -7176 0
-5829 -7181 0
-5830 -7182 0
-5831 -7183 0
-5832 -7184 0
-5833 -5913 0
-5834 -5914 0
-5835 -5915 0
-5836 -5916 0
-5833 -6237 0
-5834 -6238 0
-5835 -6239 0
-5836 -6240 0
-5833 -6413 0
-5834 -6414 0
-5835 -6415 0
-5836 -6416 0
-5833 -6549 0
-5834 -6550 0
-5835 -6551 0
-5836 -6552 0
-5833 -6785 0
-5834 -6786 0
-5835 -6787 0
-5836 -6788 0
-5833 -6865 0
-5834 -6866 0
-5835 -6867 0
-5836 -6868 0
-5833 -7089 0
-5834 -7090 0
-5835 -7091 0
-5836 -7092 0
-5833 -7177 0
-5834 -7178 0
-5835 -7179 0
-5836 -7180 0
-5833 -7185 0
-5834 -7186 0
-5835 -7187 0
-5836 -7188 0
-5837 -5841 0
-5838 -5842 0
-5839 -5843 0
-5840 -5844 0
-5837 -5845 0
-5838 -5846 0
-5839 -5847 0
-5840 -5848 0
-5837 -5853 0
-5838 -5854 0
-5839 -5855 0
-5840 -5856 0
-5837 -5857 0
-5838 -5858 0
-5839 -5859 0
-5840 -5860 0
-5837 -5869 0
-5838 -5870 0
-5839 -5871 0
-5840 -5872 0
-5837 -5873 0
-5838 -5874 0
-5839 -5875 0
-5840 -5876 0
-5837 -6241 0
-5838 -6242 0
-5839 -6243 0
-5840 -6244 0
-5837 -6793 0
-5838 -6794 0
-5839 -6795 0
-5840 -6796 0
-5837 -7089 0
-5838 -7090 0
-5839 -7091 0
-5840 -7092 0
-5837 -7189 0
-5838 -7190 0
-5839 -7191 0
-5840 -7192 0
-5841 -5849 0
-5842 -5850 0
-5843 -5851 0
-5844 -5852 0
-5841 -5877 0
-5842 -5878 0
-5843 -5879 0
-5844 -5880 0
-5841 -5881 0
-5842 -5882 0
-5843 -5883 0
-5844 -5884 0
-5841 -6245 0
-5842 -6246 0
-5843 -6247 0
-5844 -6248 0
-5841 -6801 0
-5842 -6802 0
-5843 -6803 0
-5844 -6804 0
-5841 -7189 0
-5842 -7190 0
-5843 -7191 0
-5844 -7192 0
-5845 -5849 0
-5846 -5850 0
-5847 -5851 0
-5848 -5852 0
-5845 -6209 0
-5846 -6210 0
-5847 -6211 0
-5848 -6212 0
-5845 -6249 0
-5846 -6250 0
-5847 -6251 0
-5848 -6252 0
-5845 -6353 0
-5846 -6354 0
-5847 -6355 0
-5848 -6356 0
-5845 -6557 0
-5846 -6558 0
-5847 -6559 0
-5848 -6560 0
-5845 -7193 0
-5846 -7194 0
-5847 -7195 0
-5848 -7196 0
-5849 -6213 0
-5850 -6214 0
-5851 -6215 0
-5852 -6216 0
-5849 -6253 0
-5850 -6254 0
-5851 -6255 0
-5852 -6256 0
-5849 -7193 0
-5850 -7194 0
-5851 -7195 0
-5852 -7196 0
-5853 -5857 0
-5854 -5858 0
-5855 -5859 0
-5856 -5860 0
-5853 -5905 0
-5854 -5906 0
-5855 -5907 0
-5856 -5908 0
-5853 -5909 0
-5854 -5910 0
-5855 -5911 0
-5856 -5912 0
-5853 -6005 0
-5854 -6006 0
-5855 -6007 0
-5856 -6008 0
-5853 -6361 0
-5854 -6362 0
-5855 -6363 0
-5856 -6364 0
-5853 -6881 0
-5854 -6882 0
-5855 -6883 0
-5856 -6884 0
-5853 -7093 0
-5854 -7094 0
-5855 -7095 0
-5856 -7096 0
-5853 -7197 0
-5854 -7198 0
-5855 -7199 0
-5856 -7200 0
-5857 -5913 0
-5858 -5914 0
-5859 -5915 0
-5860 -5916 0
-5857 -6641 0
-5858 -6642 0
-5859 -6643 0
-5860 -6644 0
-5857 -6797 0
-5858 -6798 0
-5859 -6799 0
-5860 -6800 0
-5857 -6885 0
-5858 -6886 0
-5859 -6887 0
-5860 -6888 0
-5857 -7201 0
-5858 -7202 0
-5859 -7203 0
-5860 -7204 0
-5861 -5865 0
-5862 -5866 0
-5863 -5867 0
-5864 -5868 0
-5861 -5869 0
-5862 -5870 0
-5863 -5871 0
-5864 -5872 0
-5861 -6885 0
-5862 -6886 0
-5863 -6887 0
-5864 -6888 0
-5861 -7205 0
-5862 -7206 0
-5863 -7207 0
-5864 -7208 0
-5861 -7365 0
-5862 -7366 0
-5863 -7367 0
-5864 -7368 0
-5865 -5877 0
-5866 -5878 0
-5867 -5879 0
-5868 -5880 0
-5865 -7205 0
-5866 -7206 0
-5867 -7207 0
-5868 -7208 0
-5865 -7369 0
-5866 -7370 0
-5867 -7371 0
-5868 -7372 0
-5869 -5873 0
-5870 -5874 0
-5871 -5875 0
-5872 -5876 0
-5869 -5877 0
-5870 -5878 0
-5871 -5879 0
-5872 -5880 0
-5869 -5905 0
-5870 -5906 0
-5871 -5907 0
-5872 -5908 0
-5869 -7213 0
-5870 -7214 0
-5871 -7215 0
-5872 -7216 0
-5869 -7373 0
-5870 -7374 0
-5871 -7375 0
-5872 -7376 0
-5873 -5881 0
-5874 -5882 0
-5875 -5883 0
-5876 -5884 0
-5873 -5909 0
-5874 -5910 0
-5875 -5911 0
-5876 -5912 0
-5873 -5913 0
-5874 -5914 0
-5875 -5915 0
-5876 -5916 0
-5873 -6025 0
-5874 -6026 0
-5875 -6027 0
-5876 -6028 0
-5873 -6897 0
-5874 -6898 0
-5875 -6899 0
-5876 -6900 0
-5873 -7209 0
-5874 -7210 0
-5875 -7211 0
-5876 -7212 0
-5873 -7217 0
-5874 -7218 0
-5875 -7219 0
-5876 -7220 0
-5877 -5881 0
-5878 -5882 0
-5879 -5883 0
-5880 -5884 0
-5877 -6273 0
-5878 -6274 0
-5879 -6275 0
-5880 -6276 0
-5877 -6649 0
-5878 -6650 0
-5879 -6651 0
-5880 -6652 0
-5877 -7213 0
-5878 -7214 0
-5879 -7215 0
-5880 -7216 0
-5877 -7377 0
-5878 -7378 0
-5879 -7379 0
-5880 -7380 0
-5881 -6033 0
-5882 -6034 0
-5883 -6035 0
-5884 -6036 0
-5881 -6277 0
-5882 -6278 0
-5883 -6279 0
-5884 -6280 0
-5881 -7217 0
-5882 -7218 0
-5883 -7219 0
-5884 -7220 0
-5885 -5889 0
-5886 -5890 0
-5887 -5891 0
-5888 -5892 0
-5885 -5909 0
-5886 -5910 0
-5887 -5911 0
-5888 -5912 0
-5885 -6037 0
-5886 -6038 0
-5887 -6039 0
-5888 -6040 0
-5885 -6429 0
-5886 -6430 0
-5887 -6431 0
-5888 -6432 0
-5885 -6905 0
-5886 -6906 0
-5887 -6907 0
-5888 -6908 0
-5889 -5893 0
-5890 -5894 0
-5891 -5895 0
-5892 -5896 0
-5889 -5921 0
-5890 -5922 0
-5891 -5923 0
-5892 -5924 0
-5889 -6085 0
-5890 -6086 0
-5891 -6087 0
-5892 -6088 0
-5889 -6437 0
-5890 -6438 0
-5891 -6439 0
-5892 -6440 0
-5893 -5933 0
-5894 -5934 0
-5895 -5935 0
-5896 -5936 0
-5893 -6225 0
-5894 -6226 0
-5895 -6227 0
-5896 -6228 0
-5893 -6293 0
-5894 -6294 0
-5895 -6295 0
-5896 -6296 0
-5893 -6821 0
-5894 -6822 0
-5895 -6823 0
-5896 -6824 0
-5893 -6913 0
-5894 -6914 0
-5895 -6915 0
-5896 -6916 0
-5897 -5901 0
-5898 -5902 0
-5899 -5903 0
-5900 -5904 0
-5897 -5909 0
-5898 -5910 0
-5899 -5911 0
-5900 -5912 0
-5897 -6053 0
-5898 -6054 0
-5899 -6055 0
-5900 -6056 0
-5897 -6365 0
-5898 -6366 0
-5899 -6367 0
-5900 -6368 0
-5897 -7221 0
-5898 -7222 0
-5899 -7223 0
-5900 -7224 0
-5901 -5913 0
-5902 -5914 0
-5903 -5915 0
-5904 -5916 0
-5901 -6369 0
-5902 -6370 0
-5903 -6371 0
-5904 -6372 0
-5901 -6445 0
-5902 -6446 0
-5903 -6447 0
-5904 -6448 0
-5901 -7225 0
-5902 -7226 0
-5903 -7227 0
-5904 -7228 0
-5905 -5909 0
-5906 -5910 0
-5907 -5911 0
-5908 -5912 0
-5905 -6069 0
-5906 -6070 0
-5907 -6071 0
-5908 -6072 0
-5905 -6405 0
-5906 -6406 0
-5907 -6407 0
-5908 -6408 0
-5905 -6789 0
-5906 -6790 0
-5907 -6791 0
-5908 -6792 0
-5905 -7229 0
-5906 -7230 0
-5907 -7231 0
-5908 -7232 0
-5909 -5913 0
-5910 -5914 0
-5911 -5915 0
-5912 -5916 0
-5909 -5917 0
-5910 -5918 0
-5911 -5919 0
-5912 -5920 0
-5909 -5921 0
-5910 -5922 0
-5911 -5923 0
-5912 -5924 0
-5909 -6077 0
-5910 -6078 0
-5911 -6079 0
-5912 -6080 0
-5909 -6377 0
-5910 -6378 0
-5911 -6379 0
-5912 -6380 0
-5909 -6409 0
-5910 -6410 0
-5911 -6411 0
-5912 -6412 0
-5909 -6921 0
-5910 -6922 0
-5911 -6923 0
-5912 -6924 0
-5909 -7221 0
-5910 -7222 0
-5911 -7223 0
-5912 -7224 0
-5909 -7233 0
-5910 -7234 0
-5911 -7235 0
-5912 -7236 0
-5913 -6081 0
-5914 -6082 0
-5915 -6083 0
-5916 -6084 0
-5913 -6449 0
-5914 -6450 0
-5915 -6451 0
-5916 -6452 0
-5913 -6925 0
-5914 -6926 0
-5915 -6927 0
-5916 -6928 0
-5913 -7225 0
-5914 -7226 0
-5915 -7227 0
-5916 -7228 0
-5913 -7237 0
-5914 -7238 0
-5915 -7239 0
-5916 -7240 0
-5917 -6089 0
-5918 -6090 0
-5919 -6091 0
-5920 -6092 0
-5917 -6929 0
-5918 -6930 0
-5919 -6931 0
-5920 -6932 0
-5921 -6093 0
-5922 -6094 0
-5923 -6095 0
-5924 -6096 0
-5921 -6381 0
-5922 -6382 0
-5923 -6383 0
-5924 -6384 0
-5921 -6605 0
-5922 -6606 0
-5923 -6607 0
-5924 -6608 0
-5921 -6933 0
-5922 -6934 0
-5923 -6935 0
-5924 -6936 0
-5925 -5929 0
-5926 -5930 0
-5927 -5931 0
-5928 -5932 0
-5925 -5933 0
-5926 -5934 0
-5927 -5935 0
-5928 -5936 0
-5925 -6389 0
-5926 -6390 0
-5927 -6391 0
-5928 -6392 0
-5925 -6949 0
-5926 -6950 0
-5927 -6951 0
-5928 -6952 0
-5925 -7177 0
-5926 -7178 0
-5927 -7179 0
-5928 -7180 0
-5925 -7385 0
-5926 -7386 0
-5927 -7387 0
-5928 -7388 0
-5929 -5937 0
-5930 -5938 0
-5931 -5939 0
-5932 -5940 0
-5929 -6321 0
-5930 -6322 0
-5931 -6323 0
-5932 -6324 0
-5929 -7185 0
-5930 -7186 0
-5931 -7187 0
-5932 -7188 0
-5933 -5937 0
-5934 -5938 0
-5935 -5939 0
-5936 -5940 0
-5933 -6325 0
-5934 -6326 0
-5935 -6327 0
-5936 -6328 0
-5933 -6965 0
-5934 -6966 0
-5935 -6967 0
-5936 -6968 0
-5933 -7113 0
-5934 -7114 0
-5935 -7115 0
-5936 -7116 0
-5933 -7177 0
-5934 -7178 0
-5935 -7179 0
-5936 -7180 0
-5937 -6329 0
-5938 -6330 0
-5939 -6331 0
-5940 -6332 0
-5937 -6825 0
-5938 -6826 0
-5939 -6827 0
-5940 -6828 0
-5937 -7121 0
-5938 -7122 0
-5939 -7123 0
-5940 -7124 0
-5937 -7185 0
-5938 -7186 0
-5939 -7187 0
-5940 -7188 0
-5941 -6333 0
-5942 -6334 0
-5943 -6335 0
-5944 -6336 0
-5941 -7121 0
-5942 -7122 0
-5943 -7123 0
-5944 -7124 0
-5941 -7189 0
-5942 -7190 0
-5943 -7191 0
-5944 -7192 0
-5941 -7193 0
-5942 -7194 0
-5943 -7195 0
-5944 -7196 0
-5945 -5949 0
-5946 -5950 0
-5947 -5951 0
-5948 -5952 0
-5945 -5953 0
-5946 -5954 0
-5947 -5955 0
-5948 -5956 0
-5945 -5961 0
-5946 -5962 0
-5947 -5963 0
-5948 -5964 0
-5945 -6057 0
-5946 -6058 0
-5947 -6059 0
-5948 -6060 0
-5945 -6077 0
-5946 -6078 0
-5947 -6079 0
-5948 -6080 0
-5945 -6453 0
-5946 -6454 0
-5947 -6455 0
-5948 -6456 0
-5945 -7133 0
-5946 -7134 0
-5947 -7135 0
-5948 -7136 0
-5945 -7393 0
-5946 -7394 0
-5947 -7395 0
-5948 -7396 0
-5949 -5957 0
-5950 -5958 0
-5951 -5959 0
-5952 -5960 0
-5949 -6077 0
-5950 -6078 0
-5951 -6079 0
-5952 -6080 0
-5949 -6093 0
-5950 -6094 0
-5951 -6095 0
-5952 -6096 0
-5949 -6337 0
-5950 -6338 0
-5951 -6339 0
-5952 -6340 0
-5949 -6657 0
-5950 -6658 0
-5951 -6659 0
-5952 -6660 0
-5949 -6849 0
-5950 -6850 0
-5951 -6851 0
-5952 -6852 0
-5949 -7141 0
-5950 -7142 0
-5951 -7143 0
-5952 -7144 0
-5949 -7241 0
-5950 -7242 0
-5951 -7243 0
-5952 -7244 0
-5953 -5957 0
-5954 -5958 0
-5955 -5959 0
-5956 -5960 0
-5953 -6097 0
-5954 -6098 0
-5955 -6099 0
-5956 -6100 0
-5953 -6113 0
-5954 -6114 0
-5955 -6115 0
-5956 -6116 0
-5953 -6273 0
-5954 -6274 0
-5955 -6275 0
-5956 -6276 0
-5953 -6713 0
-5954 -6714 0
-5955 -6715 0
-5956 -6716 0
-5953 -7397 0
-5954 -7398 0
-5955 -7399 0
-5956 -7400 0
-5957 -6113 0
-5958 -6114 0
-5959 -6115 0
-5960 -6116 0
-5957 -6129 0
-5958 -6130 0
-5959 -6131 0
-5960 -6132 0
-5957 -6665 0
-5958 -6666 0
-5959 -6667 0
-5960 -6668 0
-5957 -6717 0
-5958 -6718 0
-5959 -6719 0
-5960 -6720 0
-5957 -6853 0
-5958 -6854 0
-5959 -6855 0
-5960 -6856 0
-5957 -7241 0
-5958 -7242 0
-5959 -7243 0
-5960 -7244 0
-5961 -6153 0
-5962 -6154 0
-5963 -6155 0
-5964 -6156 0
-5961 -6465 0
-5962 -6466 0
-5963 -6467 0
-5964 -6468 0
-5961 -6749 0
-5962 -6750 0
-5963 -6751 0
-5964 -6752 0
-5965 -5969 0
-5966 -5970 0
-5967 -5971 0
-5968 -5972 0
-5965 -6673 0
-5966 -6674 0
-5967 -6675 0
-5968 -6676 0
-5965 -7289 0
-5966 -7290 0
-5967 -7291 0
-5968 -7292 0
-5965 -7317 0
-5966 -7318 0
-5967 -7319 0
-5968 -7320 0
-5969 -6469 0
-5970 -6470 0
-5971 -6471 0
-5972 -6472 0
-5969 -6677 0
-5970 -6678 0
-5971 -6679 0
-5972 -6680 0
-5969 -6837 0
-5970 -6838 0
-5971 -6839 0
-5972 -6840 0
-5969 -7317 0
-5970 -7318 0
-5971 -7319 0
-5972 -7320 0
-5969 -7341 0
-5970 -7342 0
-5971 -7343 0
-5972 -7344 0
-5973 -5981 0
-5974 -5982 0
-5975 -5983 0
-5976 -5984 0
-5973 -6001 0
-5974 -6002 0
-5975 -6003 0
-5976 -6004 0
-5973 -6769 0
-5974 -6770 0
-5975 -6771 0
-5976 -6772 0
-5973 -7245 0
-5974 -7246 0
-5975 -7247 0
-5976 -7248 0
-5973 -7249 0
-5974 -7250 0
-5975 -7251 0
-5976 -7252 0
-5977 -5981 0
-5978 -5982 0
-5979 -5983 0
-5980 -5984 0
-5977 -6369 0
-5978 -6370 0
-5979 -6371 0
-5980 -6372 0
-5977 -6501 0
-5978 -6502 0
-5979 -6503 0
-5980 -6504 0
-5977 -7253 0
-5978 -7254 0
-5979 -7255 0
-5980 -7256 0
-5981 -6509 0
-5982 -6510 0
-5983 -6511 0
-5984 -6512 0
-5981 -7253 0
-5982 -7254 0
-5983 -7255 0
-5984 -7256 0
-5981 -7261 0
-5982 -7262 0
-5983 -7263 0
-5984 -7264 0
-5985 -5989 0
-5986 -5990 0
-5987 -5991 0
-5988 -5992 0
-5985 -5993 0
-5986 -5994 0
-5987 -5995 0
-5988 -5996 0
-5985 -6065 0
-5986 -6066 0
-5987 -6067 0
-5988 -6068 0
-5985 -6077 0
-5986 -6078 0
-5987 -6079 0
-5988 -6080 0
-5985 -6385 0
-5986 -6386 0
-5987 -6387 0
-5988 -6388 0
-5985 -6669 0
-5986 -6670 0
-5987 -6671 0
-5988 -6672 0
-5985 -7265 0
-5986 -7266 0
-5987 -7267 0
-5988 -7268 0
-5989 -5997 0
-5990 -5998 0
-5991 -5999 0
-5992 -6000 0
-5989 -6077 0
-5990 -6078 0
-5991 -6079 0
-5992 -6080 0
-5989 -6089 0
-5990 -6090 0
-5991 -6091 0
-5992 -6092 0
-5989 -6389 0
-5990 -6390 0
-5991 -6391 0
-5992 -6392 0
-5989 -6541 0
-5990 -6542 0
-5991 -6543 0
-5992 -6544 0
-5989 -6673 0
-5990 -6674 0
-5991 -6675 0
-5992 -6676 0
-5989 -7269 0
-5990 -7270 0
-5991 -7271 0
-5992 -7272 0
-5993 -5997 0
-5994 -5998 0
-5995 -5999 0
-5996 -6000 0
-5993 -6101 0
-5994 -6102 0
-5995 -6103 0
-5996 -6104 0
-5993 -6113 0
-5994 -6114 0
-5995 -6115 0
-5996 -6116 0
-5993 -6869 0
-5994 -6870 0
-5995 -6871 0
-5996 -6872 0
-5993 -7153 0
-5994 -7154 0
-5995 -7155 0
-5996 -7156 0
-5993 -7265 0
-5994 -7266 0
-5995 -7267 0
-5996 -7268 0
-5997 -6113 0
-5998 -6114 0
-5999 -6115 0
-6000 -6116 0
-5997 -6125 0
-5998 -6126 0
-5999 -6127 0
-6000 -6128 0
-5997 -6857 0
-5998 -6858 0
-5999 -6859 0
-6000 -6860 0
-5997 -7269 0
-5998 -7270 0
-5999 -7271 0
-6000 -7272 0
-6001 -6781 0
-6002 -6782 0
-6003 -6783 0
-6004 -6784 0
-6001 -7401 0
-6002 -7402 0
-6003 -7403 0
-6004 -7404 0
-6005 -6009 0
-6006 -6010 0
-6007 -6011 0
-6008 -6012 0
-6005 -6013 0
-6006 -6014 0
-6007 -6015 0
-6008 -6016 0
-6005 -6069 0
-6006 -6070 0
-6007 -6071 0
-6008 -6072 0
-6005 -6077 0
-6006 -6078 0
-6007 -6079 0
-6008 -6080 0
-6005 -6881 0
-6006 -6882 0
-6007 -6883 0
-6008 -6884 0
-6005 -7165 0
-6006 -7166 0
-6007 -7167 0
-6008 -7168 0
-6005 -7273 0
-6006 -7274 0
-6007 -7275 0
-6008 -7276 0
-6009 -6017 0
-6010 -6018 0
-6011 -6019 0
-6012 -6020 0
-6009 -6077 0
-6010 -6078 0
-6011 -6079 0
-6012 -6080 0
-6009 -6085 0
-6010 -6086 0
-6011 -6087 0
-6012 -6088 0
-6009 -6357 0
-6010 -6358 0
-6011 -6359 0
-6012 -6360 0
-6009 -6561 0
-6010 -6562 0
-6011 -6563 0
-6012 -6564 0
-6009 -6889 0
-6010 -6890 0
-6011 -6891 0
-6012 -6892 0
-6009 -6985 0
-6010 -6986 0
-6011 -6987 0
-6012 -6988 0
-6009 -7277 0
-6010 -7278 0
-6011 -7279 0
-6012 -7280 0
-6013 -6017 0
-6014 -6018 0
-6015 -6019 0
-6016 -6020 0
-6013 -6105 0
-6014 -6106 0
-6015 -6107 0
-6016 -6108 0
-6013 -6113 0
-6014 -6114 0
-6015 -6115 0
-6016 -6116 0
-6013 -6685 0
-6014 -6686 0
-6015 -6687 0
-6016 -6688 0
-6013 -7273 0
-6014 -7274 0
-6015 -7275 0
-6016 -7276 0
-6017 -6113 0
-6018 -6114 0
-6019 -6115 0
-6020 -6116 0
-6017 -6121 0
-6018 -6122 0
-6019 -6123 0
-6020 -6124 0
-6017 -6361 0
-6018 -6362 0
-6019 -6363 0
-6020 -6364 0
-6017 -6909 0
-6018 -6910 0
-6019 -6911 0
-6020 -6912 0
-6017 -6989 0
-6018 -6990 0
-6019 -6991 0
-6020 -6992 0
-6017 -7277 0
-6018 -7278 0
-6019 -7279 0
-6020 -7280 0
-6021 -6025 0
-6022 -6026 0
-6023 -6027 0
-6024 -6028 0
-6021 -6029 0
-6022 -6030 0
-6023 -6031 0
-6024 -6032 0
-6021 -6073 0
-6022 -6074 0
-6023 -6075 0
-6024 -6076 0
-6021 -6077 0
-6022 -6078 0
-6023 -6079 0
-6024 -6080 0
-6021 -6425 0
-6022 -6426 0
-6023 -6427 0
-6024 -6428 0
-6021 -6689 0
-6022 -6690 0
-6023 -6691 0
-6024 -6692 0
-6021 -6993 0
-6022 -6994 0
-6023 -6995 0
-6024 -6996 0
-6021 -7281 0
-6022 -7282 0
-6023 -7283 0
-6024 -7284 0
-6025 -6033 0
-6026 -6034 0
-6027 -6035 0
-6028 -6036 0
-6025 -6077 0
-6026 -6078 0
-6027 -6079 0
-6028 -6080 0
-6025 -6081 0
-6026 -6082 0
-6027 -6083 0
-6028 -6084 0
-6025 -6693 0
-6026 -6694 0
-6027 -6695 0
-6028 -6696 0
-6025 -7285 0
-6026 -7286 0
-6027 -7287 0
-6028 -7288 0
-6025 -7405 0
-6026 -7406 0
-6027 -7407 0
-6028 -7408 0
-6029 -6033 0
-6030 -6034 0
-6031 -6035 0
-6032 -6036 0
-6029 -6109 0
-6030 -6110 0
-6031 -6111 0
-6032 -6112 0
-6029 -6113 0
-6030 -6114 0
-6031 -6115 0
-6032 -6116 0
-6029 -6217 0
-6030 -6218 0
-6031 -6219 0
-6032 -6220 0
-6029 -6701 0
-6030 -6702 0
-6031 -6703 0
-6032 -6704 0
-6029 -6929 0
-6030 -6930 0
-6031 -6931 0
-6032 -6932 0
-6029 -7281 0
-6030 -7282 0
-6031 -7283 0
-6032 -7284 0
-6033 -6113 0
-6034 -6114 0
-6035 -6115 0
-6036 -6116 0
-6033 -6117 0
-6034 -6118 0
-6035 -6119 0
-6036 -6120 0
-6033 -6453 0
-6034 -6454 0
-6035 -6455 0
-6036 -6456 0
-6033 -7285 0
-6034 -7286 0
-6035 -7287 0
-6036 -7288 0
-6037 -6041 0
-6038 -6042 0
-6039 -6043 0
-6040 -6044 0
-6037 -6077 0
-6038 -6078 0
-6039 -6079 0
-6040 -6080 0
-6037 -6565 0
-6038 -6566 0
-6039 -6567 0
-6040 -6568 0
-6037 -6997 0
-6038 -6998 0
-6039 -6999 0
-6040 -7000 0
-6037 -7289 0
-6038 -7290 0
-6039 -7291 0
-6040 -7292 0
-6037 -7365 0
-6038 -7366 0
-6039 -7367 0
-6040 -7368 0
-6041 -6113 0
-6042 -6114 0
-6043 -6115 0
-6044 -6116 0
-6041 -6385 0
-6042 -6386 0
-6043 -6387 0
-6044 -6388 0
-6041 -6569 0
-6042 -6570 0
-6043 -6571 0
-6044 -6572 0
-6041 -7289 0
-6042 -7290 0
-6043 -7291 0
-6044 -7292 0
-6041 -7369 0
-6042 -7370 0
-6043 -7371 0
-6044 -7372 0
-6045 -6049 0
-6046 -6050 0
-6047 -6051 0
-6048 -6052 0
-6045 -6077 0
-6046 -6078 0
-6047 -6079 0
-6048 -6080 0
-6045 -6481 0
-6046 -6482 0
-6047 -6483 0
-6048 -6484 0
-6045 -6809 0
-6046 -6810 0
-6047 -6811 0
-6048 -6812 0
-6045 -7245 0
-6046 -7246 0
-6047 -7247 0
-6048 -7248 0
-6045 -7293 0
-6046 -7294 0
-6047 -7295 0
-6048 -7296 0
-6045 -7409 0
-6046 -7410 0
-6047 -7411 0
-6048 -7412 0
-6049 -6113 0
-6050 -6114 0
-6051 -6115 0
-6052 -6116 0
-6049 -6813 0
-6050 -6814 0
-6051 -6815 0
-6052 -6816 0
-6049 -6941 0
-6050 -6942 0
-6051 -6943 0
-6052 -6944 0
-6049 -7249 0
-6050 -7250 0
-6051 -7251 0
-6052 -7252 0
-6049 -7293 0
-6050 -7294 0
-6051 -7295 0
-6052 -7296 0
-6049 -7413 0
-6050 -7414 0
-6051 -7415 0
-6052 -7416 0
-6053 -6077 0
-6054 -6078 0
-6055 -6079 0
-6056 -6080 0
-6053 -6485 0
-6054 -6486 0
-6055 -6487 0
-6056 -6488 0
-6053 -7297 0
-6054 -7298 0
-6055 -7299 0
-6056 -7300 0
-6057 -6061 0
-6058 -6062 0
-6059 -6063 0
-6060 -6064 0
-6057 -6077 0
-6058 -6078 0
-6059 -6079 0
-6060 -6080 0
-6057 -6097 0
-6058 -6098 0
-6059 -6099 0
-6060 -6100 0
-6057 -6221 0
-6058 -6222 0
-6059 -6223 0
-6060 -6224 0
-6057 -6513 0
-6058 -6514 0
-6059 -6515 0
-6060 -6516 0
-6057 -7005 0
-6058 -7006 0
-6059 -7007 0
-6060 -7008 0
-6057 -7301 0
-6058 -7302 0
-6059 -7303 0
-6060 -7304 0
-6057 -7417 0
-6058 -7418 0
-6059 -7419 0
-6060 -7420 0
-6061 -6081 0
-6062 -6082 0
-6063 -6083 0
-6064 -6084 0
-6061 -7421 0
-6062 -7422 0
-6063 -7423 0
-6064 -7424 0
-6065 -6077 0
-6066 -6078 0
-6067 -6079 0
-6068 -6080 0
-6065 -6101 0
-6066 -6102 0
-6067 -6103 0
-6068 -6104 0
-6065 -6181 0
-6066 -6182 0
-6067 -6183 0
-6068 -6184 0
-6065 -6489 0
-6066 -6490 0
-6067 -6491 0
-6068 -6492 0
-6065 -7169 0
-6066 -7170 0
-6067 -7171 0
-6068 -7172 0
-6065 -7305 0
-6066 -7306 0
-6067 -7307 0
-6068 -7308 0
-6069 -6077 0
-6070 -6078 0
-6071 -6079 0
-6072 -6080 0
-6069 -6105 0
-6070 -6106 0
-6071 -6107 0
-6072 -6108 0
-6069 -6165 0
-6070 -6166 0
-6071 -6167 0
-6072 -6168 0
-6069 -6517 0
-6070 -6518 0
-6071 -6519 0
-6072 -6520 0
-6069 -7309 0
-6070 -7310 0
-6071 -7311 0
-6072 -7312 0
-6073 -6077 0
-6074 -6078 0
-6075 -6079 0
-6076 -6080 0
-6073 -6109 0
-6074 -6110 0
-6075 -6111 0
-6076 -6112 0
-6073 -6149 0
-6074 -6150 0
-6075 -6151 0
-6076 -6152 0
-6073 -6429 0
-6074 -6430 0
-6075 -6431 0
-6076 -6432 0
-6073 -6521 0
-6074 -6522 0
-6075 -6523 0
-6076 -6524 0
-6073 -6873 0
-6074 -6874 0
-6075 -6875 0
-6076 -6876 0
-6073 -7173 0
-6074 -7174 0
-6075 -7175 0
-6076 -7176 0
-6073 -7313 0
-6074 -7314 0
-6075 -7315 0
-6076 -7316 0
-6077 -6081 0
-6078 -6082 0
-6079 -6083 0
-6080 -6084 0
-6077 -6085 0
-6078 -6086 0
-6079 -6087 0
-6080 -6088 0
-6077 -6089 0
-6078 -6090 0
-6079 -6091 0
-6080 -6092 0
-6077 -6093 0
-6078 -6094 0
-6079 -6095 0
-6080 -6096 0
-6077 -6113 0
-6078 -6114 0
-6079 -6115 0
-6080 -6116 0
-6077 -6133 0
-6078 -6134 0
-6079 -6135 0
-6080 -6136 0
-6077 -6141 0
-6078 -6142 0
-6079 -6143 0
-6080 -6144 0
-6077 -6149 0
-6078 -6150 0
-6079 -6151 0
-6080 -6152 0
-6077 -6153 0
-6078 -6154 0
-6079 -6155 0
-6080 -6156 0
-6077 -6165 0
-6078 -6166 0
-6079 -6167 0
-6080 -6168 0
-6077 -6169 0
-6078 -6170 0
-6079 -6171 0
-6080 -6172 0
-6077 -6181 0
-6078 -6182 0
-6079 -6183 0
-6080 -6184 0
-6077 -6185 0
-6078 -6186 0
-6079 -6187 0
-6080 -6188 0
-6077 -6221 0
-6078 -6222 0
-6079 -6223 0
-6080 -6224 0
-6077 -6225 0
-6078 -6226 0
-6079 -6227 0
-6080 -6228 0
-6077 -6397 0
-6078 -6398 0
-6079 -6399 0
-6080 -6400 0
-6077 -6433 0
-6078 -6434 0
-6079 -6435 0
-6080 -6436 0
-6077 -6493 0
-6078 -6494 0
-6079 -6495 0
-6080 -6496 0
-6077 -6525 0
-6078 -6526 0
-6079 -6527 0
-6080 -6528 0
-6077 -6577 0
-6078 -6578 0
-6079 -6579 0
-6080 -6580 0
-6077 -6721 0
-6078 -6722 0
-6079 -6723 0
-6080 -6724 0
-6077 -6765 0
-6078 -6766 0
-6079 -6767 0
-6080 -6768 0
-6077 -6877 0
-6078 -6878 0
-6079 -6879 0
-6080 -6880 0
-6077 -6921 0
-6078 -6922 0
-6079 -6923 0
-6080 -6924 0
-6077 -7009 0
-6078 -7010 0
-6079 -7011 0
-6080 -7012 0
-6077 -7013 0
-6078 -7014 0
-6079 -7015 0
-6080 -7016 0
-6077 -7177 0
-6078 -7178 0
-6079 -7179 0
-6080 -7180 0
-6077 -7245 0
-6078 -7246 0
-6079 -7247 0
-6080 -7248 0
-6077 -7253 0
-6078 -7254 0
-6079 -7255 0
-6080 -7256 0
-6077 -7297 0
-6078 -7298 0
-6079 -7299 0
-6080 -7300 0
-6077 -7317 0
-6078 -7318 0
-6079 -7319 0
-6080 -7320 0
-6077 -7365 0
-6078 -7366 0
-6079 -7367 0
-6080 -7368 0
-6077 -7373 0
-6078 -7374 0
-6079 -7375 0
-6080 -7376 0
-6077 -7425 0
-6078 -7426 0
-6079 -7427 0
-6080 -7428 0
-6081 -6117 0
-6082 -6118 0
-6083 -6119 0
-6084 -6120 0
-6081 -6153 0
-6082 -6154 0
-6083 -6155 0
-6084 -6156 0
-6081 -6581 0
-6082 -6582 0
-6083 -6583 0
-6084 -6584 0
-6081 -6925 0
-6082 -6926 0
-6083 -6927 0
-6084 -6928 0
-6081 -7321 0
-6082 -7322 0
-6083 -7323 0
-6084 -7324 0
-6085 -6121 0
-6086 -6122 0
-6087 -6123 0
-6088 -6124 0
-6085 -6169 0
-6086 -6170 0
-6087 -6171 0
-6088 -6172 0
-6085 -6585 0
-6086 -6586 0
-6087 -6587 0
-6088 -6588 0
-6085 -6769 0
-6086 -6770 0
-6087 -6771 0
-6088 -6772 0
-6085 -7017 0
-6086 -7018 0
-6087 -7019 0
-6088 -7020 0
-6089 -6125 0
-6090 -6126 0
-6091 -6127 0
-6092 -6128 0
-6089 -6185 0
-6090 -6186 0
-6091 -6187 0
-6092 -6188 0
-6089 -6401 0
-6090 -6402 0
-6091 -6403 0
-6092 -6404 0
-6089 -6457 0
-6090 -6458 0
-6091 -6459 0
-6092 -6460 0
-6089 -6725 0
-6090 -6726 0
-6091 -6727 0
-6092 -6728 0
-6089 -6929 0
-6090 -6930 0
-6091 -6931 0
-6092 -6932 0
-6089 -7325 0
-6090 -7326 0
-6091 -7327 0
-6092 -7328 0
-6093 -6129 0
-6094 -6130 0
-6095 -6131 0
-6096 -6132 0
-6093 -6225 0
-6094 -6226 0
-6095 -6227 0
-6096 -6228 0
-6093 -6441 0
-6094 -6442 0
-6095 -6443 0
-6096 -6444 0
-6093 -6497 0
-6094 -6498 0
-6095 -6499 0
-6096 -6500 0
-6093 -6729 0
-6094 -6730 0
-6095 -6731 0
-6096 -6732 0
-6093 -6933 0
-6094 -6934 0
-6095 -6935 0
-6096 -6936 0
-6093 -7329 0
-6094 -7330 0
-6095 -7331 0
-6096 -7332 0
-6097 -6113 0
-6098 -6114 0
-6099 -6115 0
-6100 -6116 0
-6097 -6229 0
-6098 -6230 0
-6099 -6231 0
-6100 -6232 0
-6097 -6257 0
-6098 -6258 0
-6099 -6259 0
-6100 -6260 0
-6097 -7301 0
-6098 -7302 0
-6099 -7303 0
-6100 -7304 0
-6097 -7429 0
-6098 -7430 0
-6099 -7431 0
-6100 -7432 0
-6101 -6113 0
-6102 -6114 0
-6103 -6115 0
-6104 -6116 0
-6101 -6189 0
-6102 -6190 0
-6103 -6191 0
-6104 -6192 0
-6101 -6277 0
-6102 -6278 0
-6103 -6279 0
-6104 -6280 0
-6101 -6953 0
-6102 -6954 0
-6103 -6955 0
-6104 -6956 0
-6101 -7305 0
-6102 -7306 0
-6103 -7307 0
-6104 -7308 0
-6105 -6113 0
-6106 -6114 0
-6107 -6115 0
-6108 -6116 0
-6105 -6173 0
-6106 -6174 0
-6107 -6175 0
-6108 -6176 0
-6105 -6281 0
-6106 -6282 0
-6107 -6283 0
-6108 -6284 0
-6105 -6817 0
-6106 -6818 0
-6107 -6819 0
-6108 -6820 0
-6105 -6885 0
-6106 -6886 0
-6107 -6887 0
-6108 -6888 0
-6105 -7257 0
-6106 -7258 0
-6107 -7259 0
-6108 -7260 0
-6105 -7309 0
-6106 -7310 0
-6107 -7311 0
-6108 -7312 0
-6109 -6113 0
-6110 -6114 0
-6111 -6115 0
-6112 -6116 0
-6109 -6157 0
-6110 -6158 0
-6111 -6159 0
-6112 -6160 0
-6109 -6261 0
-6110 -6262 0
-6111 -6263 0
-6112 -6264 0
-6109 -6889 0
-6110 -6890 0
-6111 -6891 0
-6112 -6892 0
-6109 -7181 0
-6110 -7182 0
-6111 -7183 0
-6112 -7184 0
-6109 -7313 0
-6110 -7314 0
-6111 -7315 0
-6112 -7316 0
-6113 -6117 0
-6114 -6118 0
-6115 -6119 0
-6116 -6120 0
-6113 -6121 0
-6114 -6122 0
-6115 -6123 0
-6116 -6124 0
-6113 -6125 0
-6114 -6126 0
-6115 -6127 0
-6116 -6128 0
-6113 -6129 0
-6114 -6130 0
-6115 -6131 0
-6116 -6132 0
-6113 -6137 0
-6114 -6138 0
-6115 -6139 0
-6116 -6140 0
-6113 -6145 0
-6114 -6146 0
-6115 -6147 0
-6116 -6148 0
-6113 -6157 0
-6114 -6158 0
-6115 -6159 0
-6116 -6160 0
-6113 -6161 0
-6114 -6162 0
-6115 -6163 0
-6116 -6164 0
-6113 -6173 0
-6114 -6174 0
-6115 -6175 0
-6116 -6176 0
-6113 -6177 0
-6114 -6178 0
-6115 -6179 0
-6116 -6180 0
-6113 -6189 0
-6114 -6190 0
-6115 -6191 0
-6116 -6192 0
-6113 -6193 0
-6114 -6194 0
-6115 -6195 0
-6116 -6196 0
-6113 -6229 0
-6114 -6230 0
-6115 -6231 0
-6116 -6232 0
-6113 -6233 0
-6114 -6234 0
-6115 -6235 0
-6116 -6236 0
-6113 -6265 0
-6114 -6266 0
-6115 -6267 0
-6116 -6268 0
-6113 -6405 0
-6114 -6406 0
-6115 -6407 0
-6116 -6408 0
-6113 -6461 0
-6114 -6462 0
-6115 -6463 0
-6116 -6464 0
-6113 -6593 0
-6114 -6594 0
-6115 -6595 0
-6116 -6596 0
-6113 -6737 0
-6114 -6738 0
-6115 -6739 0
-6116 -6740 0
-6113 -6773 0
-6114 -6774 0
-6115 -6775 0
-6116 -6776 0
-6113 -6821 0
-6114 -6822 0
-6115 -6823 0
-6116 -6824 0
-6113 -6893 0
-6114 -6894 0
-6115 -6895 0
-6116 -6896 0
-6113 -6957 0
-6114 -6958 0
-6115 -6959 0
-6116 -6960 0
-6113 -7021 0
-6114 -7022 0
-6115 -7023 0
-6116 -7024 0
-6113 -7185 0
-6114 -7186 0
-6115 -7187 0
-6116 -7188 0
-6113 -7189 0
-6114 -7190 0
-6115 -7191 0
-6116 -7192 0
-6113 -7249 0
-6114 -7250 0
-6115 -7251 0
-6116 -7252 0
-6113 -7261 0
-6114 -7262 0
-6115 -7263 0
-6116 -7264 0
-6113 -7317 0
-6114 -7318 0
-6115 -7319 0
-6116 -7320 0
-6113 -7333 0
-6114 -7334 0
-6115 -7335 0
-6116 -7336 0
-6113 -7369 0
-6114 -7370 0
-6115 -7371 0
-6116 -7372 0
-6113 -7377 0
-6114 -7378 0
-6115 -7379 0
-6116 -7380 0
-6113 -7433 0
-6114 -7434 0
-6115 -7435 0
-6116 -7436 0
-6117 -6161 0
-6118 -6162 0
-6119 -6163 0
-6120 -6164 0
-6117 -6465 0
-6118 -6466 0
-6119 -6467 0
-6120 -6468 0
-6117 -6597 0
-6118 -6598 0
-6119 -6599 0
-6120 -6600 0
-6117 -6825 0
-6118 -6826 0
-6119 -6827 0
-6120 -6828 0
-6117 -7321 0
-6118 -7322 0
-6119 -7323 0
-6120 -7324 0
-6121 -6177 0
-6122 -6178 0
-6123 -6179 0
-6124 -6180 0
-6121 -6269 0
-6122 -6270 0
-6123 -6271 0
-6124 -6272 0
-6121 -6409 0
-6122 -6410 0
-6123 -6411 0
-6124 -6412 0
-6121 -6777 0
-6122 -6778 0
-6123 -6779 0
-6124 -6780 0
-6121 -7025 0
-6122 -7026 0
-6123 -7027 0
-6124 -7028 0
-6125 -6193 0
-6126 -6194 0
-6127 -6195 0
-6128 -6196 0
-6125 -6413 0
-6126 -6414 0
-6127 -6415 0
-6128 -6416 0
-6125 -6469 0
-6126 -6470 0
-6127 -6471 0
-6128 -6472 0
-6125 -7325 0
-6126 -7326 0
-6127 -7327 0
-6128 -7328 0
-6129 -6233 0
-6130 -6234 0
-6131 -6235 0
-6132 -6236 0
-6129 -6741 0
-6130 -6742 0
-6131 -6743 0
-6132 -6744 0
-6129 -6965 0
-6130 -6966 0
-6131 -6967 0
-6132 -6968 0
-6129 -7329 0
-6130 -7330 0
-6131 -7331 0
-6132 -7332 0
-6133 -6137 0
-6134 -6138 0
-6135 -6139 0
-6136 -6140 0
-6133 -6417 0
-6134 -6418 0
-6135 -6419 0
-6136 -6420 0
-6133 -6545 0
-6134 -6546 0
-6135 -6547 0
-6136 -6548 0
-6133 -6601 0
-6134 -6602 0
-6135 -6603 0
-6136 -6604 0
-6133 -6749 0
-6134 -6750 0
-6135 -6751 0
-6136 -6752 0
-6133 -7253 0
-6134 -7254 0
-6135 -7255 0
-6136 -7256 0
-6133 -7337 0
-6134 -7338 0
-6135 -7339 0
-6136 -7340 0
-6137 -6421 0
-6138 -6422 0
-6139 -6423 0
-6140 -6424 0
-6137 -7193 0
-6138 -7194 0
-6139 -7195 0
-6140 -7196 0
-6137 -7261 0
-6138 -7262 0
-6139 -7263 0
-6140 -7264 0
-6137 -7337 0
-6138 -7338 0
-6139 -7339 0
-6140 -7340 0
-6141 -6145 0
-6142 -6146 0
-6143 -6147 0
-6144 -6148 0
-6141 -6449 0
-6142 -6450 0
-6143 -6451 0
-6144 -6452 0
-6141 -6509 0
-6142 -6510 0
-6143 -6511 0
-6144 -6512 0
-6141 -6753 0
-6142 -6754 0
-6143 -6755 0
-6144 -6756 0
-6141 -7341 0
-6142 -7342 0
-6143 -7343 0
-6144 -7344 0
-6141 -7373 0
-6142 -7374 0
-6143 -7375 0
-6144 -7376 0
-6145 -6285 0
-6146 -6286 0
-6147 -6287 0
-6148 -6288 0
-6145 -6757 0
-6146 -6758 0
-6147 -6759 0
-6148 -6760 0
-6145 -6829 0
-6146 -6830 0
-6147 -6831 0
-6148 -6832 0
-6145 -6897 0
-6146 -6898 0
-6147 -6899 0
-6148 -6900 0
-6145 -7341 0
-6146 -7342 0
-6147 -7343 0
-6148 -7344 0
-6145 -7377 0
-6146 -7378 0
-6147 -7379 0
-6148 -7380 0
-6149 -6153 0
-6150 -6154 0
-6151 -6155 0
-6152 -6156 0
-6149 -6157 0
-6150 -6158 0
-6151 -6159 0
-6152 -6160 0
-6149 -6289 0
-6150 -6290 0
-6151 -6291 0
-6152 -6292 0
-6149 -6553 0
-6150 -6554 0
-6151 -6555 0
-6152 -6556 0
-6149 -6901 0
-6150 -6902 0
-6151 -6903 0
-6152 -6904 0
-6149 -7037 0
-6150 -7038 0
-6151 -7039 0
-6152 -7040 0
-6149 -7345 0
-6150 -7346 0
-6151 -7347 0
-6152 -7348 0
-6153 -6161 0
-6154 -6162 0
-6155 -6163 0
-6156 -6164 0
-6153 -6305 0
-6154 -6306 0
-6155 -6307 0
-6156 -6308 0
-6153 -6609 0
-6154 -6610 0
-6155 -6611 0
-6156 -6612 0
-6153 -6953 0
-6154 -6954 0
-6155 -6955 0
-6156 -6956 0
-6153 -7041 0
-6154 -7042 0
-6155 -7043 0
-6156 -7044 0
-6157 -6161 0
-6158 -6162 0
-6159 -6163 0
-6160 -6164 0
-6157 -6297 0
-6158 -6298 0
-6159 -6299 0
-6160 -6300 0
-6157 -6905 0
-6158 -6906 0
-6159 -6907 0
-6160 -6908 0
-6157 -7057 0
-6158 -7058 0
-6159 -7059 0
-6160 -7060 0
-6157 -7197 0
-6158 -7198 0
-6159 -7199 0
-6160 -7200 0
-6157 -7345 0
-6158 -7346 0
-6159 -7347 0
-6160 -7348 0
-6161 -6617 0
-6162 -6618 0
-6163 -6619 0
-6164 -6620 0
-6161 -7201 0
-6162 -7202 0
-6163 -7203 0
-6164 -7204 0
-6165 -6169 0
-6166 -6170 0
-6167 -6171 0
-6168 -6172 0
-6165 -6173 0
-6166 -6174 0
-6167 -6175 0
-6168 -6176 0
-6165 -6533 0
-6166 -6534 0
-6167 -6535 0
-6168 -6536 0
-6165 -7061 0
-6166 -7062 0
-6167 -7063 0
-6168 -7064 0
-6165 -7349 0
-6166 -7350 0
-6167 -7351 0
-6168 -7352 0
-6165 -7449 0
-6166 -7450 0
-6167 -7451 0
-6168 -7452 0
-6169 -6177 0
-6170 -6178 0
-6171 -6179 0
-6172 -6180 0
-6169 -6537 0
-6170 -6538 0
-6171 -6539 0
-6172 -6540 0
-6169 -6633 0
-6170 -6634 0
-6171 -6635 0
-6172 -6636 0
-6169 -6781 0
-6170 -6782 0
-6171 -6783 0
-6172 -6784 0
-6169 -7065 0
-6170 -7066 0
-6171 -7067 0
-6172 -7068 0
-6169 -7209 0
-6170 -7210 0
-6171 -7211 0
-6172 -7212 0
-6169 -7353 0
-6170 -7354 0
-6171 -7355 0
-6172 -7356 0
-6173 -6177 0
-6174 -6178 0
-6175 -6179 0
-6176 -6180 0
-6173 -6925 0
-6174 -6926 0
-6175 -6927 0
-6176 -6928 0
-6173 -7213 0
-6174 -7214 0
-6175 -7215 0
-6176 -7216 0
-6173 -7349 0
-6174 -7350 0
-6175 -7351 0
-6176 -7352 0
-6173 -7453 0
-6174 -7454 0
-6175 -7455 0
-6176 -7456 0
-6177 -6317 0
-6178 -6318 0
-6179 -6319 0
-6180 -6320 0
-6177 -6785 0
-6178 -6786 0
-6179 -6787 0
-6180 -6788 0
-6177 -7217 0
-6178 -7218 0
-6179 -7219 0
-6180 -7220 0
-6177 -7353 0
-6178 -7354 0
-6179 -7355 0
-6180 -7356 0
-6181 -6185 0
-6182 -6186 0
-6183 -6187 0
-6184 -6188 0
-6181 -6189 0
-6182 -6190 0
-6183 -6191 0
-6184 -6192 0
-6181 -6557 0
-6182 -6558 0
-6183 -6559 0
-6184 -6560 0
-6181 -6573 0
-6182 -6574 0
-6183 -6575 0
-6184 -6576 0
-6181 -6789 0
-6182 -6790 0
-6183 -6791 0
-6184 -6792 0
-6181 -7225 0
-6182 -7226 0
-6183 -7227 0
-6184 -7228 0
-6181 -7357 0
-6182 -7358 0
-6183 -7359 0
-6184 -7360 0
-6185 -6193 0
-6186 -6194 0
-6187 -6195 0
-6188 -6196 0
-6185 -6445 0
-6186 -6446 0
-6187 -6447 0
-6188 -6448 0
-6185 -6589 0
-6186 -6590 0
-6187 -6591 0
-6188 -6592 0
-6185 -6793 0
-6186 -6794 0
-6187 -6795 0
-6188 -6796 0
-6185 -6973 0
-6186 -6974 0
-6187 -6975 0
-6188 -6976 0
-6185 -7069 0
-6186 -7070 0
-6187 -7071 0
-6188 -7072 0
-6185 -7361 0
-6186 -7362 0
-6187 -7363 0
-6188 -7364 0
-6189 -6193 0
-6190 -6194 0
-6191 -6195 0
-6192 -6196 0
-6189 -6337 0
-6190 -6338 0
-6191 -6339 0
-6192 -6340 0
-6189 -6797 0
-6190 -6798 0
-6191 -6799 0
-6192 -6800 0
-6189 -7237 0
-6190 -7238 0
-6191 -7239 0
-6192 -7240 0
-6189 -7357 0
-6190 -7358 0
-6191 -7359 0
-6192 -7360 0
-6193 -6449 0
-6194 -6450 0
-6195 -6451 0
-6196 -6452 0
-6193 -6473 0
-6194 -6474 0
-6195 -6475 0
-6196 -6476 0
-6193 -6801 0
-6194 -6802 0
-6195 -6803 0
-6196 -6804 0
-6193 -7073 0
-6194 -7074 0
-6195 -7075 0
-6196 -7076 0
-6193 -7361 0
-6194 -7362 0
-6195 -7363 0
-6196 -7364 0
-6197 -6817 0
-6198 -6818 0
-6199 -6819 0
-6200 -6820 0
-6197 -6969 0
-6198 -6970 0
-6199 -6971 0
-6200 -6972 0
-6197 -7317 0
-6198 -7318 0
-6199 -7319 0
-6200 -7320 0
-6197 -7337 0
-6198 -7338 0
-6199 -7339 0
-6200 -7340 0
-6201 -6205 0
-6202 -6206 0
-6203 -6207 0
-6204 -6208 0
-6201 -6209 0
-6202 -6210 0
-6203 -6211 0
-6204 -6212 0
-6201 -6349 0
-6202 -6350 0
-6203 -6351 0
-6204 -6352 0
-6201 -7365 0
-6202 -7366 0
-6203 -7367 0
-6204 -7368 0
-6205 -6213 0
-6206 -6214 0
-6207 -6215 0
-6208 -6216 0
-6205 -6489 0
-6206 -6490 0
-6207 -6491 0
-6208 -6492 0
-6205 -7365 0
-6206 -7366 0
-6207 -7367 0
-6208 -7368 0
-6205 -7369 0
-6206 -7370 0
-6207 -7371 0
-6208 -7372 0
-6209 -6213 0
-6210 -6214 0
-6211 -6215 0
-6212 -6216 0
-6209 -6789 0
-6210 -6790 0
-6211 -6791 0
-6212 -6792 0
-6209 -7373 0
-6210 -7374 0
-6211 -7375 0
-6212 -7376 0
-6213 -6505 0
-6214 -6506 0
-6215 -6507 0
-6216 -6508 0
-6213 -6797 0
-6214 -6798 0
-6215 -6799 0
-6216 -6800 0
-6213 -7373 0
-6214 -7374 0
-6215 -7375 0
-6216 -7376 0
-6213 -7377 0
-6214 -7378 0
-6215 -7379 0
-6216 -7380 0
-6217 -6233 0
-6218 -6234 0
-6219 -6235 0
-6220 -6236 0
-6217 -6521 0
-6218 -6522 0
-6219 -6523 0
-6220 -6524 0
-6217 -6813 0
-6218 -6814 0
-6219 -6815 0
-6220 -6816 0
-6221 -6225 0
-6222 -6226 0
-6223 -6227 0
-6224 -6228 0
-6221 -6229 0
-6222 -6230 0
-6223 -6231 0
-6224 -6232 0
-6221 -7093 0
-6222 -7094 0
-6223 -7095 0
-6224 -7096 0
-6221 -7097 0
-6222 -7098 0
-6223 -7099 0
-6224 -7100 0
-6221 -7381 0
-6222 -7382 0
-6223 -7383 0
-6224 -7384 0
-6225 -6233 0
-6226 -6234 0
-6227 -6235 0
-6228 -6236 0
-6225 -6981 0
-6226 -6982 0
-6227 -6983 0
-6228 -6984 0
-6225 -7101 0
-6226 -7102 0
-6227 -7103 0
-6228 -7104 0
-6225 -7385 0
-6226 -7386 0
-6227 -7387 0
-6228 -7388 0
-6229 -6233 0
-6230 -6234 0
-6231 -6235 0
-6232 -6236 0
-6229 -6389 0
-6230 -6390 0
-6231 -6391 0
-6232 -6392 0
-6229 -6653 0
-6230 -6654 0
-6231 -6655 0
-6232 -6656 0
-6229 -7381 0
-6230 -7382 0
-6231 -7383 0
-6232 -7384 0
-6233 -6553 0
-6234 -6554 0
-6235 -6555 0
-6236 -6556 0
-6233 -7105 0
-6234 -7106 0
-6235 -7107 0
-6236 -7108 0
-6233 -7385 0
-6234 -7386 0
-6235 -7387 0
-6236 -7388 0
-6237 -6305 0
-6238 -6306 0
-6239 -6307 0
-6240 -6308 0
-6237 -6549 0
-6238 -6550 0
-6239 -6551 0
-6240 -6552 0
-6237 -6677 0
-6238 -6678 0
-6239 -6679 0
-6240 -6680 0
-6237 -7245 0
-6238 -7246 0
-6239 -7247 0
-6240 -7248 0
-6237 -7401 0
-6238 -7402 0
-6239 -7403 0
-6240 -7404 0
-6241 -6245 0
-6242 -6246 0
-6243 -6247 0
-6244 -6248 0
-6241 -6249 0
-6242 -6250 0
-6243 -6251 0
-6244 -6252 0
-6241 -6357 0
-6242 -6358 0
-6243 -6359 0
-6244 -6360 0
-6241 -6873 0
-6242 -6874 0
-6243 -6875 0
-6244 -6876 0
-6241 -7001 0
-6242 -7002 0
-6243 -7003 0
-6244 -7004 0
-6241 -7245 0
-6242 -7246 0
-6243 -7247 0
-6244 -7248 0
-6241 -7389 0
-6242 -7390 0
-6243 -7391 0
-6244 -7392 0
-6245 -6253 0
-6246 -6254 0
-6247 -6255 0
-6248 -6256 0
-6245 -6273 0
-6246 -6274 0
-6247 -6275 0
-6248 -6276 0
-6245 -6277 0
-6246 -6278 0
-6247 -6279 0
-6248 -6280 0
-6245 -6361 0
-6246 -6362 0
-6247 -6363 0
-6248 -6364 0
-6245 -6889 0
-6246 -6890 0
-6247 -6891 0
-6248 -6892 0
-6245 -7005 0
-6246 -7006 0
-6247 -7007 0
-6248 -7008 0
-6245 -7249 0
-6246 -7250 0
-6247 -7251 0
-6248 -7252 0
-6245 -7389 0
-6246 -7390 0
-6247 -7391 0
-6248 -7392 0
-6249 -6253 0
-6250 -6254 0
-6251 -6255 0
-6252 -6256 0
-6249 -6365 0
-6250 -6366 0
-6251 -6367 0
-6252 -6368 0
-6249 -6373 0
-6250 -6374 0
-6251 -6375 0
-6252 -6376 0
-6249 -6557 0
-6250 -6558 0
-6251 -6559 0
-6252 -6560 0
-6249 -6661 0
-6250 -6662 0
-6251 -6663 0
-6252 -6664 0
-6249 -7253 0
-6250 -7254 0
-6251 -7255 0
-6252 -7256 0
-6249 -7393 0
-6250 -7394 0
-6251 -7395 0
-6252 -7396 0
-6253 -6377 0
-6254 -6378 0
-6255 -6379 0
-6256 -6380 0
-6253 -6381 0
-6254 -6382 0
-6255 -6383 0
-6256 -6384 0
-6253 -6505 0
-6254 -6506 0
-6255 -6507 0
-6256 -6508 0
-6253 -7261 0
-6254 -7262 0
-6255 -7263 0
-6256 -7264 0
-6253 -7393 0
-6254 -7394 0
-6255 -7395 0
-6256 -7396 0
-6253 -7397 0
-6254 -7398 0
-6255 -7399 0
-6256 -7400 0
-6257 -6265 0
-6258 -6266 0
-6259 -6267 0
-6260 -6268 0
-6257 -6281 0
-6258 -6282 0
-6259 -6283 0
-6260 -6284 0
-6257 -6389 0
-6258 -6390 0
-6259 -6391 0
-6260 -6392 0
-6257 -7469 0
-6258 -7470 0
-6259 -7471 0
-6260 -7472 0
-6261 -6265 0
-6262 -6266 0
-6263 -6267 0
-6264 -6268 0
-6261 -6297 0
-6262 -6298 0
-6263 -6299 0
-6264 -6300 0
-6261 -6313 0
-6262 -6314 0
-6263 -6315 0
-6264 -6316 0
-6261 -6333 0
-6262 -6334 0
-6263 -6335 0
-6264 -6336 0
-6261 -6341 0
-6262 -6342 0
-6263 -6343 0
-6264 -6344 0
-6261 -6569 0
-6262 -6570 0
-6263 -6571 0
-6264 -6572 0
-6261 -6985 0
-6262 -6986 0
-6263 -6987 0
-6264 -6988 0
-6261 -7269 0
-6262 -7270 0
-6263 -7271 0
-6264 -7272 0
-6265 -6269 0
-6266 -6270 0
-6267 -6271 0
-6268 -6272 0
-6265 -6285 0
-6266 -6286 0
-6267 -6287 0
-6268 -6288 0
-6265 -6297 0
-6266 -6298 0
-6267 -6299 0
-6268 -6300 0
-6265 -6317 0
-6266 -6318 0
-6267 -6319 0
-6268 -6320 0
-6265 -6337 0
-6266 -6338 0
-6267 -6339 0
-6268 -6340 0
-6265 -6389 0
-6266 -6390 0
-6267 -6391 0
-6268 -6392 0
-6265 -6517 0
-6266 -6518 0
-6267 -6519 0
-6268 -6520 0
-6265 -6913 0
-6266 -6914 0
-6267 -6915 0
-6268 -6916 0
-6265 -7021 0
-6266 -7022 0
-6267 -7023 0
-6268 -7024 0
-6269 -6301 0
-6270 -6302 0
-6271 -6303 0
-6272 -6304 0
-6269 -6317 0
-6270 -6318 0
-6271 -6319 0
-6272 -6320 0
-6269 -6525 0
-6270 -6526 0
-6271 -6527 0
-6272 -6528 0
-6269 -6709 0
-6270 -6710 0
-6271 -6711 0
-6272 -6712 0
-6269 -6857 0
-6270 -6858 0
-6271 -6859 0
-6272 -6860 0
-6269 -7025 0
-6270 -7026 0
-6271 -7027 0
-6272 -7028 0
-6269 -7053 0
-6270 -7054 0
-6271 -7055 0
-6272 -7056 0
-6273 -6277 0
-6274 -6278 0
-6275 -6279 0
-6276 -6280 0
-6273 -6281 0
-6274 -6282 0
-6275 -6283 0
-6276 -6284 0
-6273 -6405 0
-6274 -6406 0
-6275 -6407 0
-6276 -6408 0
-6273 -6921 0
-6274 -6922 0
-6275 -6923 0
-6276 -6924 0
-6273 -7477 0
-6274 -7478 0
-6275 -7479 0
-6276 -7480 0
-6277 -6409 0
-6278 -6410 0
-6279 -6411 0
-6280 -6412 0
-6277 -6453 0
-6278 -6454 0
-6279 -6455 0
-6280 -6456 0
-6281 -6285 0
-6282 -6286 0
-6283 -6287 0
-6284 -6288 0
-6281 -6413 0
-6282 -6414 0
-6283 -6415 0
-6284 -6416 0
-6281 -6929 0
-6282 -6930 0
-6283 -6931 0
-6284 -6932 0
-6281 -7481 0
-6282 -7482 0
-6283 -7483 0
-6284 -7484 0
-6285 -6413 0
-6286 -6414 0
-6287 -6415 0
-6288 -6416 0
-6285 -6597 0
-6286 -6598 0
-6287 -6599 0
-6288 -6600 0
-6285 -6841 0
-6286 -6842 0
-6287 -6843 0
-6288 -6844 0
-6285 -6937 0
-6286 -6938 0
-6287 -6939 0
-6288 -6940 0
-6289 -6293 0
-6290 -6294 0
-6291 -6295 0
-6292 -6296 0
-6289 -6297 0
-6290 -6298 0
-6291 -6299 0
-6292 -6300 0
-6289 -6325 0
-6290 -6326 0
-6291 -6327 0
-6292 -6328 0
-6289 -6457 0
-6290 -6458 0
-6291 -6459 0
-6292 -6460 0
-6289 -6849 0
-6290 -6850 0
-6291 -6851 0
-6292 -6852 0
-6289 -7037 0
-6290 -7038 0
-6291 -7039 0
-6292 -7040 0
-6293 -6301 0
-6294 -6302 0
-6295 -6303 0
-6296 -6304 0
-6293 -6309 0
-6294 -6310 0
-6295 -6311 0
-6296 -6312 0
-6293 -6325 0
-6294 -6326 0
-6295 -6327 0
-6296 -6328 0
-6293 -7045 0
-6294 -7046 0
-6295 -7047 0
-6296 -7048 0
-6293 -7425 0
-6294 -7426 0
-6295 -7427 0
-6296 -7428 0
-6297 -6301 0
-6298 -6302 0
-6299 -6303 0
-6300 -6304 0
-6297 -6329 0
-6298 -6330 0
-6299 -6331 0
-6300 -6332 0
-6297 -6469 0
-6298 -6470 0
-6299 -6471 0
-6300 -6472 0
-6297 -6853 0
-6298 -6854 0
-6299 -6855 0
-6300 -6856 0
-6297 -6997 0
-6298 -6998 0
-6299 -6999 0
-6300 -7000 0
-6297 -7057 0
-6298 -7058 0
-6299 -7059 0
-6300 -7060 0
-6297 -7273 0
-6298 -7274 0
-6299 -7275 0
-6300 -7276 0
-6301 -6329 0
-6302 -6330 0
-6303 -6331 0
-6304 -6332 0
-6301 -6553 0
-6302 -6554 0
-6303 -6555 0
-6304 -6556 0
-6301 -6861 0
-6302 -6862 0
-6303 -6863 0
-6304 -6864 0
-6301 -7277 0
-6302 -7278 0
-6303 -7279 0
-6304 -7280 0
-6301 -7433 0
-6302 -7434 0
-6303 -7435 0
-6304 -7436 0
-6305 -7133 0
-6306 -7134 0
-6307 -7135 0
-6308 -7136 0
-6305 -7421 0
-6306 -7422 0
-6307 -7423 0
-6308 -7424 0
-6309 -6613 0
-6310 -6614 0
-6311 -6615 0
-6312 -6616 0
-6309 -7137 0
-6310 -7138 0
-6311 -7139 0
-6312 -7140 0
-6309 -7425 0
-6310 -7426 0
-6311 -7427 0
-6312 -7428 0
-6313 -6317 0
-6314 -6318 0
-6315 -6319 0
-6316 -6320 0
-6313 -6329 0
-6314 -6330 0
-6315 -6331 0
-6316 -6332 0
-6313 -6345 0
-6314 -6346 0
-6315 -6347 0
-6316 -6348 0
-6313 -6629 0
-6314 -6630 0
-6315 -6631 0
-6316 -6632 0
-6313 -7017 0
-6314 -7018 0
-6315 -7019 0
-6316 -7020 0
-6313 -7145 0
-6314 -7146 0
-6315 -7147 0
-6316 -7148 0
-6313 -7281 0
-6314 -7282 0
-6315 -7283 0
-6316 -7284 0
-6317 -6329 0
-6318 -6330 0
-6319 -6331 0
-6320 -6332 0
-6317 -6865 0
-6318 -6866 0
-6319 -6867 0
-6320 -6868 0
-6317 -7285 0
-6318 -7286 0
-6319 -7287 0
-6320 -7288 0
-6321 -6329 0
-6322 -6330 0
-6323 -6331 0
-6324 -6332 0
-6321 -7029 0
-6322 -7030 0
-6323 -7031 0
-6324 -7032 0
-6321 -7293 0
-6322 -7294 0
-6323 -7295 0
-6324 -7296 0
-6321 -7445 0
-6322 -7446 0
-6323 -7447 0
-6324 -7448 0
-6325 -6329 0
-6326 -6330 0
-6327 -6331 0
-6328 -6332 0
-6325 -7297 0
-6326 -7298 0
-6327 -7299 0
-6328 -7300 0
-6325 -7449 0
-6326 -7450 0
-6327 -7451 0
-6328 -7452 0
-6329 -6869 0
-6330 -6870 0
-6331 -6871 0
-6332 -6872 0
-6329 -7049 0
-6330 -7050 0
-6331 -7051 0
-6332 -7052 0
-6329 -7317 0
-6330 -7318 0
-6331 -7319 0
-6332 -7320 0
-6329 -7453 0
-6330 -7454 0
-6331 -7455 0
-6332 -7456 0
-6333 -6337 0
-6334 -6338 0
-6335 -6339 0
-6336 -6340 0
-6333 -6341 0
-6334 -6342 0
-6335 -6343 0
-6336 -6344 0
-6333 -6345 0
-6334 -6346 0
-6335 -6347 0
-6336 -6348 0
-6333 -6429 0
-6334 -6430 0
-6335 -6431 0
-6336 -6432 0
-6333 -6437 0
-6334 -6438 0
-6335 -6439 0
-6336 -6440 0
-6333 -6705 0
-6334 -6706 0
-6335 -6707 0
-6336 -6708 0
-6333 -6881 0
-6334 -6882 0
-6335 -6883 0
-6336 -6884 0
-6333 -7077 0
-6334 -7078 0
-6335 -7079 0
-6336 -7080 0
-6333 -7317 0
-6334 -7318 0
-6335 -7319 0
-6336 -7320 0
-6333 -7389 0
-6334 -7390 0
-6335 -7391 0
-6336 -7392 0
-6333 -7393 0
-6334 -7394 0
-6335 -7395 0
-6336 -7396 0
-6337 -6433 0
-6338 -6434 0
-6339 -6435 0
-6340 -6436 0
-6337 -6441 0
-6338 -6442 0
-6339 -6443 0
-6340 -6444 0
-6337 -6885 0
-6338 -6886 0
-6339 -6887 0
-6340 -6888 0
-6337 -6969 0
-6338 -6970 0
-6339 -6971 0
-6340 -6972 0
-6337 -7321 0
-6338 -7322 0
-6339 -7323 0
-6340 -7324 0
-6341 -6577 0
-6342 -6578 0
-6343 -6579 0
-6344 -6580 0
-6341 -6709 0
-6342 -6710 0
-6343 -6711 0
-6344 -6712 0
-6341 -7325 0
-6342 -7326 0
-6343 -7327 0
-6344 -7328 0
-6345 -6713 0
-6346 -6714 0
-6347 -6715 0
-6348 -6716 0
-6345 -6921 0
-6346 -6922 0
-6347 -6923 0
-6348 -6924 0
-6345 -7149 0
-6346 -7150 0
-6347 -7151 0
-6348 -7152 0
-6345 -7353 0
-6346 -7354 0
-6347 -7355 0
-6348 -7356 0
-6349 -6365 0
-6350 -6366 0
-6351 -6367 0
-6352 -6368 0
-6349 -6369 0
-6350 -6370 0
-6351 -6371 0
-6352 -6372 0
-6353 -6381 0
-6354 -6382 0
-6355 -6383 0
-6356 -6384 0
-6353 -6661 0
-6354 -6662 0
-6355 -6663 0
-6356 -6664 0
-6353 -6893 0
-6354 -6894 0
-6355 -6895 0
-6356 -6896 0
-6353 -7405 0
-6354 -7406 0
-6355 -7407 0
-6356 -7408 0
-6357 -6361 0
-6358 -6362 0
-6359 -6363 0
-6360 -6364 0
-6357 -6373 0
-6358 -6374 0
-6359 -6375 0
-6360 -6376 0
-6357 -6397 0
-6358 -6398 0
-6359 -6399 0
-6360 -6400 0
-6357 -7409 0
-6358 -7410 0
-6359 -7411 0
-6360 -7412 0
-6361 -6381 0
-6362 -6382 0
-6363 -6383 0
-6364 -6384 0
-6361 -6405 0
-6362 -6406 0
-6363 -6407 0
-6364 -6408 0
-6361 -6409 0
-6362 -6410 0
-6363 -6411 0
-6364 -6412 0
-6361 -6897 0
-6362 -6898 0
-6363 -6899 0
-6364 -6900 0
-6361 -7093 0
-6362 -7094 0
-6363 -7095 0
-6364 -7096 0
-6361 -7153 0
-6362 -7154 0
-6363 -7155 0
-6364 -7156 0
-6361 -7409 0
-6362 -7410 0
-6363 -7411 0
-6364 -7412 0
-6361 -7413 0
-6362 -7414 0
-6363 -7415 0
-6364 -7416 0
-6365 -6369 0
-6366 -6370 0
-6367 -6371 0
-6368 -6372 0
-6365 -6373 0
-6366 -6374 0
-6367 -6375 0
-6368 -6376 0
-6365 -6377 0
-6366 -6378 0
-6367 -6379 0
-6368 -6380 0
-6365 -6485 0
-6366 -6486 0
-6367 -6487 0
-6368 -6488 0
-6365 -6769 0
-6366 -6770 0
-6367 -6771 0
-6368 -6772 0
-6365 -7417 0
-6366 -7418 0
-6367 -7419 0
-6368 -7420 0
-6369 -6793 0
-6370 -6794 0
-6371 -6795 0
-6372 -6796 0
-6369 -7421 0
-6370 -7422 0
-6371 -7423 0
-6372 -7424 0
-6373 -6381 0
-6374 -6382 0
-6375 -6383 0
-6376 -6384 0
-6373 -6417 0
-6374 -6418 0
-6375 -6419 0
-6376 -6420 0
-6373 -6641 0
-6374 -6642 0
-6375 -6643 0
-6376 -6644 0
-6373 -6901 0
-6374 -6902 0
-6375 -6903 0
-6376 -6904 0
-6373 -7157 0
-6374 -7158 0
-6375 -7159 0
-6376 -7160 0
-6373 -7425 0
-6374 -7426 0
-6375 -7427 0
-6376 -7428 0
-6377 -6381 0
-6378 -6382 0
-6379 -6383 0
-6380 -6384 0
-6377 -6493 0
-6378 -6494 0
-6379 -6495 0
-6380 -6496 0
-6377 -6777 0
-6378 -6778 0
-6379 -6779 0
-6380 -6780 0
-6377 -7417 0
-6378 -7418 0
-6379 -7419 0
-6380 -7420 0
-6377 -7429 0
-6378 -7430 0
-6379 -7431 0
-6380 -7432 0
-6381 -6421 0
-6382 -6422 0
-6383 -6423 0
-6384 -6424 0
-6381 -6497 0
-6382 -6498 0
-6383 -6499 0
-6384 -6500 0
-6381 -6645 0
-6382 -6646 0
-6383 -6647 0
-6384 -6648 0
-6381 -6905 0
-6382 -6906 0
-6383 -6907 0
-6384 -6908 0
-6381 -7161 0
-6382 -7162 0
-6383 -7163 0
-6384 -7164 0
-6381 -7425 0
-6382 -7426 0
-6383 -7427 0
-6384 -7428 0
-6381 -7433 0
-6382 -7434 0
-6383 -7435 0
-6384 -7436 0
-6385 -6389 0
-6386 -6390 0
-6387 -6391 0
-6388 -6392 0
-6385 -6393 0
-6386 -6394 0
-6387 -6395 0
-6388 -6396 0
-6385 -6405 0
-6386 -6406 0
-6387 -6407 0
-6388 -6408 0
-6385 -6433 0
-6386 -6434 0
-6387 -6435 0
-6388 -6436 0
-6385 -6513 0
-6386 -6514 0
-6387 -6515 0
-6388 -6516 0
-6385 -6925 0
-6386 -6926 0
-6387 -6927 0
-6388 -6928 0
-6389 -6413 0
-6390 -6414 0
-6391 -6415 0
-6392 -6416 0
-6389 -6433 0
-6390 -6434 0
-6391 -6435 0
-6392 -6436 0
-6389 -6673 0
-6390 -6674 0
-6391 -6675 0
-6392 -6676 0
-6393 -6421 0
-6394 -6422 0
-6395 -6423 0
-6396 -6424 0
-6393 -6537 0
-6394 -6538 0
-6395 -6539 0
-6396 -6540 0
-6393 -6817 0
-6394 -6818 0
-6395 -6819 0
-6396 -6820 0
-6393 -7365 0
-6394 -7366 0
-6395 -7367 0
-6396 -7368 0
-6397 -6401 0
-6398 -6402 0
-6399 -6403 0
-6400 -6404 0
-6397 -6405 0
-6398 -6406 0
-6399 -6407 0
-6400 -6408 0
-6397 -6417 0
-6398 -6418 0
-6399 -6419 0
-6400 -6420 0
-6397 -6445 0
-6398 -6446 0
-6399 -6447 0
-6400 -6448 0
-6397 -6765 0
-6398 -6766 0
-6399 -6767 0
-6400 -6768 0
-6397 -7437 0
-6398 -7438 0
-6399 -7439 0
-6400 -7440 0
-6401 -6413 0
-6402 -6414 0
-6403 -6415 0
-6404 -6416 0
-6401 -6445 0
-6402 -6446 0
-6403 -6447 0
-6404 -6448 0
-6401 -7441 0
-6402 -7442 0
-6403 -7443 0
-6404 -7444 0
-6405 -6409 0
-6406 -6410 0
-6407 -6411 0
-6408 -6412 0
-6405 -6413 0
-6406 -6414 0
-6407 -6415 0
-6408 -6416 0
-6405 -6421 0
-6406 -6422 0
-6407 -6423 0
-6408 -6424 0
-6405 -6449 0
-6406 -6450 0
-6407 -6451 0
-6408 -6452 0
-6405 -6517 0
-6406 -6518 0
-6407 -6519 0
-6408 -6520 0
-6405 -6773 0
-6406 -6774 0
-6407 -6775 0
-6408 -6776 0
-6405 -6981 0
-6406 -6982 0
-6407 -6983 0
-6408 -6984 0
-6405 -7401 0
-6406 -7402 0
-6407 -7403 0
-6408 -7404 0
-6405 -7437 0
-6406 -7438 0
-6407 -7439 0
-6408 -7440 0
-6405 -7445 0
-6406 -7446 0
-6407 -7447 0
-6408 -7448 0
-6409 -6525 0
-6410 -6526 0
-6411 -6527 0
-6412 -6528 0
-6409 -6777 0
-6410 -6778 0
-6411 -6779 0
-6412 -6780 0
-6413 -6449 0
-6414 -6450 0
-6415 -6451 0
-6416 -6452 0
-6413 -6677 0
-6414 -6678 0
-6415 -6679 0
-6416 -6680 0
-6413 -6941 0
-6414 -6942 0
-6415 -6943 0
-6416 -6944 0
-6413 -7089 0
-6414 -7090 0
-6415 -7091 0
-6416 -7092 0
-6413 -7441 0
-6414 -7442 0
-6415 -7443 0
-6416 -7444 0
-6417 -6421 0
-6418 -6422 0
-6419 -6423 0
-6420 -6424 0
-6417 -7449 0
-6418 -7450 0
-6419 -7451 0
-6420 -7452 0
-6421 -6541 0
-6422 -6542 0
-6423 -6543 0
-6424 -6544 0
-6421 -6653 0
-6422 -6654 0
-6423 -6655 0
-6424 -6656 0
-6421 -6953 0
-6422 -6954 0
-6423 -6955 0
-6424 -6956 0
-6421 -7373 0
-6422 -7374 0
-6423 -7375 0
-6424 -7376 0
-6421 -7401 0
-6422 -7402 0
-6423 -7403 0
-6424 -7404 0
-6421 -7449 0
-6422 -7450 0
-6423 -7451 0
-6424 -7452 0
-6421 -7453 0
-6422 -7454 0
-6423 -7455 0
-6424 -7456 0
-6425 -6429 0
-6426 -6430 0
-6427 -6431 0
-6428 -6432 0
-6425 -6433 0
-6426 -6434 0
-6427 -6435 0
-6428 -6436 0
-6425 -6689 0
-6426 -6690 0
-6427 -6691 0
-6428 -6692 0
-6425 -7189 0
-6426 -7190 0
-6427 -7191 0
-6428 -7192 0
-6429 -6433 0
-6430 -6434 0
-6431 -6435 0
-6432 -6436 0
-6429 -6437 0
-6430 -6438 0
-6431 -6439 0
-6432 -6440 0
-6429 -6565 0
-6430 -6566 0
-6431 -6567 0
-6432 -6568 0
-6429 -6813 0
-6430 -6814 0
-6431 -6815 0
-6432 -6816 0
-6429 -6973 0
-6430 -6974 0
-6431 -6975 0
-6432 -6976 0
-6429 -7197 0
-6430 -7198 0
-6431 -7199 0
-6432 -7200 0
-6429 -7381 0
-6430 -7382 0
-6431 -7383 0
-6432 -7384 0
-6429 -7417 0
-6430 -7418 0
-6431 -7419 0
-6432 -7420 0
-6433 -6441 0
-6434 -6442 0
-6435 -6443 0
-6436 -6444 0
-6433 -6449 0
-6434 -6450 0
-6435 -6451 0
-6436 -6452 0
-6433 -6721 0
-6434 -6722 0
-6435 -6723 0
-6436 -6724 0
-6433 -7201 0
-6434 -7202 0
-6435 -7203 0
-6436 -7204 0
-6433 -7205 0
-6434 -7206 0
-6435 -7207 0
-6436 -7208 0
-6433 -7421 0
-6434 -7422 0
-6435 -7423 0
-6436 -7424 0
-6433 -7493 0
-6434 -7494 0
-6435 -7495 0
-6436 -7496 0
-6437 -6441 0
-6438 -6442 0
-6439 -6443 0
-6440 -6444 0
-6437 -6585 0
-6438 -6586 0
-6439 -6587 0
-6440 -6588 0
-6437 -6977 0
-6438 -6978 0
-6439 -6979 0
-6440 -6980 0
-6437 -7385 0
-6438 -7386 0
-6439 -7387 0
-6440 -7388 0
-6437 -7409 0
-6438 -7410 0
-6439 -7411 0
-6440 -7412 0
-6437 -7425 0
-6438 -7426 0
-6439 -7427 0
-6440 -7428 0
-6441 -6589 0
-6442 -6590 0
-6443 -6591 0
-6444 -6592 0
-6441 -6729 0
-6442 -6730 0
-6443 -6731 0
-6444 -6732 0
-6441 -7117 0
-6442 -7118 0
-6443 -7119 0
-6444 -7120 0
-6445 -6449 0
-6446 -6450 0
-6447 -6451 0
-6448 -6452 0
-6445 -6793 0
-6446 -6794 0
-6447 -6795 0
-6448 -6796 0
-6445 -7457 0
-6446 -7458 0
-6447 -7459 0
-6448 -7460 0
-6449 -6581 0
-6450 -6582 0
-6451 -6583 0
-6452 -6584 0
-6449 -6753 0
-6450 -6754 0
-6451 -6755 0
-6452 -6756 0
-6449 -6801 0
-6450 -6802 0
-6451 -6803 0
-6452 -6804 0
-6449 -7213 0
-6450 -7214 0
-6451 -7215 0
-6452 -7216 0
-6449 -7457 0
-6450 -7458 0
-6451 -7459 0
-6452 -7460 0
-6453 -6461 0
-6454 -6462 0
-6455 -6463 0
-6456 -6464 0
-6453 -6465 0
-6454 -6466 0
-6455 -6467 0
-6456 -6468 0
-6453 -6513 0
-6454 -6514 0
-6455 -6515 0
-6456 -6516 0
-6453 -6525 0
-6454 -6526 0
-6455 -6527 0
-6456 -6528 0
-6453 -7017 0
-6454 -7018 0
-6455 -7019 0
-6456 -7020 0
-6453 -7133 0
-6454 -7134 0
-6455 -7135 0
-6456 -7136 0
-6453 -7501 0
-6454 -7502 0
-6455 -7503 0
-6456 -7504 0
-6457 -6469 0
-6458 -6470 0
-6459 -6471 0
-6460 -6472 0
-6457 -6725 0
-6458 -6726 0
-6459 -6727 0
-6460 -6728 0
-6457 -6849 0
-6458 -6850 0
-6459 -6851 0
-6460 -6852 0
-6457 -7461 0
-6458 -7462 0
-6459 -7463 0
-6460 -7464 0
-6457 -7473 0
-6458 -7474 0
-6459 -7475 0
-6460 -7476 0
-6461 -6465 0
-6462 -6466 0
-6463 -6467 0
-6464 -6468 0
-6461 -6469 0
-6462 -6470 0
-6463 -6471 0
-6464 -6472 0
-6461 -6473 0
-6462 -6474 0
-6463 -6475 0
-6464 -6476 0
-6461 -6553 0
-6462 -6554 0
-6463 -6555 0
-6464 -6556 0
-6461 -6737 0
-6462 -6738 0
-6463 -6739 0
-6464 -6740 0
-6461 -7045 0
-6462 -7046 0
-6463 -7047 0
-6464 -7048 0
-6461 -7389 0
-6462 -7390 0
-6463 -7391 0
-6464 -7392 0
-6461 -7465 0
-6462 -7466 0
-6463 -7467 0
-6464 -7468 0
-6461 -7477 0
-6462 -7478 0
-6463 -7479 0
-6464 -7480 0
-6465 -6549 0
-6466 -6550 0
-6467 -6551 0
-6468 -6552 0
-6465 -6841 0
-6466 -6842 0
-6467 -6843 0
-6468 -6844 0
-6465 -7049 0
-6466 -7050 0
-6467 -7051 0
-6468 -7052 0
-6469 -6473 0
-6470 -6474 0
-6471 -6475 0
-6472 -6476 0
-6469 -6677 0
-6470 -6678 0
-6471 -6679 0
-6472 -6680 0
-6469 -6853 0
-6470 -6854 0
-6471 -6855 0
-6472 -6856 0
-6469 -7129 0
-6470 -7130 0
-6471 -7131 0
-6472 -7132 0
-6469 -7469 0
-6470 -7470 0
-6471 -7471 0
-6472 -7472 0
-6469 -7481 0
-6470 -7482 0
-6471 -7483 0
-6472 -7484 0
-6473 -6477 0
-6474 -6478 0
-6475 -6479 0
-6476 -6480 0
-6473 -6613 0
-6474 -6614 0
-6475 -6615 0
-6476 -6616 0
-6473 -6753 0
-6474 -6754 0
-6475 -6755 0
-6476 -6756 0
-6473 -6845 0
-6474 -6846 0
-6475 -6847 0
-6476 -6848 0
-6473 -7005 0
-6474 -7006 0
-6475 -7007 0
-6476 -7008 0
-6473 -7489 0
-6474 -7490 0
-6475 -7491 0
-6476 -7492 0
-6477 -6613 0
-6478 -6614 0
-6479 -6615 0
-6480 -6616 0
-6477 -7009 0
-6478 -7010 0
-6479 -7011 0
-6480 -7012 0
-6477 -7149 0
-6478 -7150 0
-6479 -7151 0
-6480 -7152 0
-6477 -7241 0
-6478 -7242 0
-6479 -7243 0
-6480 -7244 0
-6481 -6493 0
-6482 -6494 0
-6483 -6495 0
-6484 -6496 0
-6481 -6513 0
-6482 -6514 0
-6483 -6515 0
-6484 -6516 0
-6481 -6885 0
-6482 -6886 0
-6483 -6887 0
-6484 -6888 0
-6485 -6493 0
-6486 -6494 0
-6487 -6495 0
-6488 -6496 0
-6485 -6501 0
-6486 -6502 0
-6487 -6503 0
-6488 -6504 0
-6485 -6529 0
-6486 -6530 0
-6487 -6531 0
-6488 -6532 0
-6485 -7461 0
-6486 -7462 0
-6487 -7463 0
-6488 -7464 0
-6489 -6493 0
-6490 -6494 0
-6491 -6495 0
-6492 -6496 0
-6489 -6505 0
-6490 -6506 0
-6491 -6507 0
-6492 -6508 0
-6489 -6557 0
-6490 -6558 0
-6491 -6559 0
-6492 -6560 0
-6489 -6881 0
-6490 -6882 0
-6491 -6883 0
-6492 -6884 0
-6489 -7465 0
-6490 -7466 0
-6491 -7467 0
-6492 -7468 0
-6493 -6497 0
-6494 -6498 0
-6495 -6499 0
-6496 -6500 0
-6493 -6509 0
-6494 -6510 0
-6495 -6511 0
-6496 -6512 0
-6493 -6533 0
-6494 -6534 0
-6495 -6535 0
-6496 -6536 0
-6493 -6537 0
-6494 -6538 0
-6495 -6539 0
-6496 -6540 0
-6493 -6557 0
-6494 -6558 0
-6495 -6559 0
-6496 -6560 0
-6493 -6765 0
-6494 -6766 0
-6495 -6767 0
-6496 -6768 0
-6493 -6857 0
-6494 -6858 0
-6495 -6859 0
-6496 -6860 0
-6493 -7461 0
-6494 -7462 0
-6495 -7463 0
-6496 -7464 0
-6493 -7469 0
-6494 -7470 0
-6495 -7471 0
-6496 -7472 0
-6497 -6541 0
-6498 -6542 0
-6499 -6543 0
-6500 -6544 0
-6497 -6545 0
-6498 -6546 0
-6499 -6547 0
-6500 -6548 0
-6497 -6561 0
-6498 -6562 0
-6499 -6563 0
-6500 -6564 0
-6497 -6997 0
-6498 -6998 0
-6499 -6999 0
-6500 -7000 0
-6497 -7161 0
-6498 -7162 0
-6499 -7163 0
-6500 -7164 0
-6501 -6509 0
-6502 -6510 0
-6503 -6511 0
-6504 -6512 0
-6501 -6793 0
-6502 -6794 0
-6503 -6795 0
-6504 -6796 0
-6501 -7001 0
-6502 -7002 0
-6503 -7003 0
-6504 -7004 0
-6501 -7473 0
-6502 -7474 0
-6503 -7475 0
-6504 -7476 0
-6505 -6509 0
-6506 -6510 0
-6507 -6511 0
-6508 -6512 0
-6505 -6657 0
-6506 -6658 0
-6507 -6659 0
-6508 -6660 0
-6505 -6797 0
-6506 -6798 0
-6507 -6799 0
-6508 -6800 0
-6505 -7401 0
-6506 -7402 0
-6507 -7403 0
-6508 -7404 0
-6505 -7477 0
-6506 -7478 0
-6507 -7479 0
-6508 -7480 0
-6509 -6801 0
-6510 -6802 0
-6511 -6803 0
-6512 -6804 0
-6509 -7005 0
-6510 -7006 0
-6511 -7007 0
-6512 -7008 0
-6509 -7473 0
-6510 -7474 0
-6511 -7475 0
-6512 -7476 0
-6509 -7481 0
-6510 -7482 0
-6511 -7483 0
-6512 -7484 0
-6513 -6525 0
-6514 -6526 0
-6515 -6527 0
-6516 -6528 0
-6513 -6537 0
-6514 -6538 0
-6515 -6539 0
-6516 -6540 0
-6513 -6549 0
-6514 -6550 0
-6515 -6551 0
-6516 -6552 0
-6513 -6925 0
-6514 -6926 0
-6515 -6927 0
-6516 -6928 0
-6513 -7249 0
-6514 -7250 0
-6515 -7251 0
-6516 -7252 0
-6513 -7513 0
-6514 -7514 0
-6515 -7515 0
-6516 -7516 0
-6517 -6525 0
-6518 -6526 0
-6519 -6527 0
-6520 -6528 0
-6517 -6541 0
-6518 -6542 0
-6519 -6543 0
-6520 -6544 0
-6517 -6581 0
-6518 -6582 0
-6519 -6583 0
-6520 -6584 0
-6517 -7101 0
-6518 -7102 0
-6519 -7103 0
-6520 -7104 0
-6521 -6525 0
-6522 -6526 0
-6523 -6527 0
-6524 -6528 0
-6521 -6553 0
-6522 -6554 0
-6523 -6555 0
-6524 -6556 0
-6521 -6585 0
-6522 -6586 0
-6523 -6587 0
-6524 -6588 0
-6521 -6813 0
-6522 -6814 0
-6523 -6815 0
-6524 -6816 0
-6521 -6933 0
-6522 -6934 0
-6523 -6935 0
-6524 -6936 0
-6521 -7173 0
-6522 -7174 0
-6523 -7175 0
-6524 -7176 0
-6525 -6545 0
-6526 -6546 0
-6527 -6547 0
-6528 -6548 0
-6525 -6553 0
-6526 -6554 0
-6527 -6555 0
-6528 -6556 0
-6525 -6573 0
-6526 -6574 0
-6527 -6575 0
-6528 -6576 0
-6525 -6589 0
-6526 -6590 0
-6527 -6591 0
-6528 -6592 0
-6525 -6857 0
-6526 -6858 0
-6527 -6859 0
-6528 -6860 0
-6525 -6917 0
-6526 -6918 0
-6527 -6919 0
-6528 -6920 0
-6525 -7029 0
-6526 -7030 0
-6527 -7031 0
-6528 -7032 0
-6525 -7177 0
-6526 -7178 0
-6527 -7179 0
-6528 -7180 0
-6529 -6537 0
-6530 -6538 0
-6531 -6539 0
-6532 -6540 0
-6529 -7253 0
-6530 -7254 0
-6531 -7255 0
-6532 -7256 0
-6533 -6537 0
-6534 -6538 0
-6535 -6539 0
-6536 -6540 0
-6533 -6541 0
-6534 -6542 0
-6535 -6543 0
-6536 -6544 0
-6533 -6865 0
-6534 -6866 0
-6535 -6867 0
-6536 -6868 0
-6533 -7257 0
-6534 -7258 0
-6535 -7259 0
-6536 -7260 0
-6533 -7517 0
-6534 -7518 0
-6535 -7519 0
-6536 -7520 0
-6537 -6545 0
-6538 -6546 0
-6539 -6547 0
-6540 -6548 0
-6537 -6781 0
-6538 -6782 0
-6539 -6783 0
-6540 -6784 0
-6537 -6929 0
-6538 -6930 0
-6539 -6931 0
-6540 -6932 0
-6537 -7261 0
-6538 -7262 0
-6539 -7263 0
-6540 -7264 0
-6537 -7485 0
-6538 -7486 0
-6539 -7487 0
-6540 -7488 0
-6541 -6545 0
-6542 -6546 0
-6543 -6547 0
-6544 -6548 0
-6541 -7041 0
-6542 -7042 0
-6543 -7043 0
-6544 -7044 0
-6545 -6825 0
-6546 -6826 0
-6547 -6827 0
-6548 -6828 0
-6545 -6937 0
-6546 -6938 0
-6547 -6939 0
-6548 -6940 0
-6545 -7049 0
-6546 -7050 0
-6547 -7051 0
-6548 -7052 0
-6545 -7405 0
-6546 -7406 0
-6547 -7407 0
-6548 -7408 0
-6549 -6941 0
-6550 -6942 0
-6551 -6943 0
-6552 -6944 0
-6553 -6605 0
-6554 -6606 0
-6555 -6607 0
-6556 -6608 0
-6553 -6613 0
-6554 -6614 0
-6555 -6615 0
-6556 -6616 0
-6553 -6861 0
-6554 -6862 0
-6555 -6863 0
-6556 -6864 0
-6553 -6945 0
-6554 -6946 0
-6555 -6947 0
-6556 -6948 0
-6553 -7065 0
-6554 -7066 0
-6555 -7067 0
-6556 -7068 0
-6553 -7265 0
-6554 -7266 0
-6555 -7267 0
-6556 -7268 0
-6553 -7409 0
-6554 -7410 0
-6555 -7411 0
-6556 -7412 0
-6557 -6561 0
-6558 -6562 0
-6559 -6563 0
-6560 -6564 0
-6557 -6641 0
-6558 -6642 0
-6559 -6643 0
-6560 -6644 0
-6557 -6789 0
-6558 -6790 0
-6559 -6791 0
-6560 -6792 0
-6557 -6893 0
-6558 -6894 0
-6559 -6895 0
-6560 -6896 0
-6557 -7421 0
-6558 -7422 0
-6559 -7423 0
-6560 -7424 0
-6557 -7489 0
-6558 -7490 0
-6559 -7491 0
-6560 -7492 0
-6561 -6641 0
-6562 -6642 0
-6563 -6643 0
-6564 -6644 0
-6565 -6569 0
-6566 -6570 0
-6567 -6571 0
-6568 -6572 0
-6565 -6577 0
-6566 -6578 0
-6567 -6579 0
-6568 -6580 0
-6565 -6621 0
-6566 -6622 0
-6567 -6623 0
-6568 -6624 0
-6565 -7069 0
-6566 -7070 0
-6567 -7071 0
-6568 -7072 0
-6565 -7273 0
-6566 -7274 0
-6567 -7275 0
-6568 -7276 0
-6565 -7461 0
-6566 -7462 0
-6567 -7463 0
-6568 -7464 0
-6569 -6593 0
-6570 -6594 0
-6571 -6595 0
-6572 -6596 0
-6569 -6629 0
-6570 -6630 0
-6571 -6631 0
-6572 -6632 0
-6569 -7073 0
-6570 -7074 0
-6571 -7075 0
-6572 -7076 0
-6569 -7469 0
-6570 -7470 0
-6571 -7471 0
-6572 -7472 0
-6573 -6589 0
-6574 -6590 0
-6575 -6591 0
-6576 -6592 0
-6573 -6605 0
-6574 -6606 0
-6575 -6607 0
-6576 -6608 0
-6573 -6893 0
-6574 -6894 0
-6575 -6895 0
-6576 -6896 0
-6573 -7225 0
-6574 -7226 0
-6575 -7227 0
-6576 -7228 0
-6577 -6581 0
-6578 -6582 0
-6579 -6583 0
-6580 -6584 0
-6577 -6585 0
-6578 -6586 0
-6579 -6587 0
-6580 -6588 0
-6577 -6593 0
-6578 -6594 0
-6579 -6595 0
-6580 -6596 0
-6577 -6601 0
-6578 -6602 0
-6579 -6603 0
-6580 -6604 0
-6577 -6609 0
-6578 -6610 0
-6579 -6611 0
-6580 -6612 0
-6577 -6633 0
-6578 -6634 0
-6579 -6635 0
-6580 -6636 0
-6577 -6917 0
-6578 -6918 0
-6579 -6919 0
-6580 -6920 0
-6577 -7441 0
-6578 -7442 0
-6579 -7443 0
-6580 -7444 0
-6577 -7473 0
-6578 -7474 0
-6579 -7475 0
-6580 -7476 0
-6581 -6589 0
-6582 -6590 0
-6583 -6591 0
-6584 -6592 0
-6581 -6597 0
-6582 -6598 0
-6583 -6599 0
-6584 -6600 0
-6581 -6609 0
-6582 -6610 0
-6583 -6611 0
-6584 -6612 0
-6581 -6833 0
-6582 -6834 0
-6583 -6835 0
-6584 -6836 0
-6581 -7113 0
-6582 -7114 0
-6583 -7115 0
-6584 -7116 0
-6581 -7213 0
-6582 -7214 0
-6583 -7215 0
-6584 -7216 0
-6585 -6589 0
-6586 -6590 0
-6587 -6591 0
-6588 -6592 0
-6585 -6613 0
-6586 -6614 0
-6587 -6615 0
-6588 -6616 0
-6585 -6633 0
-6586 -6634 0
-6587 -6635 0
-6588 -6636 0
-6585 -6977 0
-6586 -6978 0
-6587 -6979 0
-6588 -6980 0
-6585 -7085 0
-6586 -7086 0
-6587 -7087 0
-6588 -7088 0
-6585 -7281 0
-6586 -7282 0
-6587 -7283 0
-6588 -7284 0
-6589 -6613 0
-6590 -6614 0
-6591 -6615 0
-6592 -6616 0
-6589 -6837 0
-6590 -6838 0
-6591 -6839 0
-6592 -6840 0
-6589 -7089 0
-6590 -7090 0
-6591 -7091 0
-6592 -7092 0
-6589 -7217 0
-6590 -7218 0
-6591 -7219 0
-6592 -7220 0
-6589 -7285 0
-6590 -7286 0
-6591 -7287 0
-6592 -7288 0
-6593 -6597 0
-6594 -6598 0
-6595 -6599 0
-6596 -6600 0
-6593 -6617 0
-6594 -6618 0
-6595 -6619 0
-6596 -6620 0
-6593 -7189 0
-6594 -7190 0
-6595 -7191 0
-6596 -7192 0
-6593 -7481 0
-6594 -7482 0
-6595 -7483 0
-6596 -7484 0
-6597 -6617 0
-6598 -6618 0
-6599 -6619 0
-6600 -6620 0
-6597 -6841 0
-6598 -6842 0
-6599 -6843 0
-6600 -6844 0
-6597 -7121 0
-6598 -7122 0
-6599 -7123 0
-6600 -7124 0
-6601 -6937 0
-6602 -6938 0
-6603 -6939 0
-6604 -6940 0
-6601 -7077 0
-6602 -7078 0
-6603 -7079 0
-6604 -7080 0
-6601 -7473 0
-6602 -7474 0
-6603 -7475 0
-6604 -7476 0
-6605 -6613 0
-6606 -6614 0
-6607 -6615 0
-6608 -6616 0
-6605 -6729 0
-6606 -6730 0
-6607 -6731 0
-6608 -6732 0
-6605 -6905 0
-6606 -6906 0
-6607 -6907 0
-6608 -6908 0
-6605 -7305 0
-6606 -7306 0
-6607 -7307 0
-6608 -7308 0
-6609 -6613 0
-6610 -6614 0
-6611 -6615 0
-6612 -6616 0
-6609 -6617 0
-6610 -6618 0
-6611 -6619 0
-6612 -6620 0
-6609 -6637 0
-6610 -6638 0
-6611 -6639 0
-6612 -6640 0
-6609 -6949 0
-6610 -6950 0
-6611 -6951 0
-6612 -6952 0
-6609 -7229 0
-6610 -7230 0
-6611 -7231 0
-6612 -7232 0
-6609 -7309 0
-6610 -7310 0
-6611 -7311 0
-6612 -7312 0
-6613 -6637 0
-6614 -6638 0
-6615 -6639 0
-6616 -6640 0
-6613 -6733 0
-6614 -6734 0
-6615 -6735 0
-6616 -6736 0
-6613 -6909 0
-6614 -6910 0
-6615 -6911 0
-6616 -6912 0
-6613 -7093 0
-6614 -7094 0
-6615 -7095 0
-6616 -7096 0
-6613 -7233 0
-6614 -7234 0
-6615 -7235 0
-6616 -7236 0
-6613 -7317 0
-6614 -7318 0
-6615 -7319 0
-6616 -7320 0
-6613 -7493 0
-6614 -7494 0
-6615 -7495 0
-6616 -7496 0
-6617 -7125 0
-6618 -7126 0
-6619 -7127 0
-6620 -7128 0
-6617 -7201 0
-6618 -7202 0
-6619 -7203 0
-6620 -7204 0
-6621 -6625 0
-6622 -6626 0
-6623 -6627 0
-6624 -6628 0
-6621 -6629 0
-6622 -6630 0
-6623 -6631 0
-6624 -6632 0
-6621 -6633 0
-6622 -6634 0
-6623 -6635 0
-6624 -6636 0
-6621 -7097 0
-6622 -7098 0
-6623 -7099 0
-6624 -7100 0
-6621 -7317 0
-6622 -7318 0
-6623 -7319 0
-6624 -7320 0
-6625 -6913 0
-6626 -6914 0
-6627 -6915 0
-6628 -6916 0
-6625 -7101 0
-6626 -7102 0
-6627 -7103 0
-6628 -7104 0
-6625 -7329 0
-6626 -7330 0
-6627 -7331 0
-6628 -7332 0
-6629 -7333 0
-6630 -7334 0
-6631 -7335 0
-6632 -7336 0
-6629 -7485 0
-6630 -7486 0
-6631 -7487 0
-6632 -7488 0
-6633 -6637 0
-6634 -6638 0
-6635 -6639 0
-6636 -6640 0
-6633 -6929 0
-6634 -6930 0
-6635 -6931 0
-6636 -6932 0
-6633 -7209 0
-6634 -7210 0
-6635 -7211 0
-6636 -7212 0
-6633 -7341 0
-6634 -7342 0
-6635 -7343 0
-6636 -7344 0
-6637 -6957 0
-6638 -6958 0
-6639 -6959 0
-6640 -6960 0
-6637 -7225 0
-6638 -7226 0
-6639 -7227 0
-6640 -7228 0
-6637 -7349 0
-6638 -7350 0
-6639 -7351 0
-6640 -7352 0
-6637 -7457 0
-6638 -7458 0
-6639 -7459 0
-6640 -7460 0
-6641 -6645 0
-6642 -6646 0
-6643 -6647 0
-6644 -6648 0
-6641 -6901 0
-6642 -6902 0
-6643 -6903 0
-6644 -6904 0
-6641 -7365 0
-6642 -7366 0
-6643 -7367 0
-6644 -7368 0
-6641 -7493 0
-6642 -7494 0
-6643 -7495 0
-6644 -7496 0
-6645 -6653 0
-6646 -6654 0
-6647 -6655 0
-6648 -6656 0
-6645 -6905 0
-6646 -6906 0
-6647 -6907 0
-6648 -6908 0
-6645 -7369 0
-6646 -7370 0
-6647 -7371 0
-6648 -7372 0
-6645 -7493 0
-6646 -7494 0
-6647 -7495 0
-6648 -7496 0
-6649 -6653 0
-6650 -6654 0
-6651 -6655 0
-6652 -6656 0
-6649 -6921 0
-6650 -6922 0
-6651 -6923 0
-6652 -6924 0
-6649 -7377 0
-6650 -7378 0
-6651 -7379 0
-6652 -7380 0
-6653 -6953 0
-6654 -6954 0
-6655 -6955 0
-6656 -6956 0
-6657 -6661 0
-6658 -6662 0
-6659 -6663 0
-6660 -6664 0
-6657 -6665 0
-6658 -6666 0
-6659 -6667 0
-6660 -6668 0
-6657 -6669 0
-6658 -6670 0
-6659 -6671 0
-6660 -6672 0
-6657 -6765 0
-6658 -6766 0
-6659 -6767 0
-6660 -6768 0
-6657 -6885 0
-6658 -6886 0
-6659 -6887 0
-6660 -6888 0
-6657 -7157 0
-6658 -7158 0
-6659 -7159 0
-6660 -7160 0
-6657 -7497 0
-6658 -7498 0
-6659 -7499 0
-6660 -7500 0
-6661 -6669 0
-6662 -6670 0
-6663 -6671 0
-6664 -6672 0
-6661 -6769 0
-6662 -6770 0
-6663 -6771 0
-6664 -6772 0
-6661 -6893 0
-6662 -6894 0
-6663 -6895 0
-6664 -6896 0
-6661 -6993 0
-6662 -6994 0
-6663 -6995 0
-6664 -6996 0
-6661 -7253 0
-6662 -7254 0
-6663 -7255 0
-6664 -7256 0
-6661 -7501 0
-6662 -7502 0
-6663 -7503 0
-6664 -7504 0
-6665 -6685 0
-6666 -6686 0
-6667 -6687 0
-6668 -6688 0
-6665 -6773 0
-6666 -6774 0
-6667 -6775 0
-6668 -6776 0
-6665 -7161 0
-6666 -7162 0
-6667 -7163 0
-6668 -7164 0
-6665 -7257 0
-6666 -7258 0
-6667 -7259 0
-6668 -7260 0
-6665 -7497 0
-6666 -7498 0
-6667 -7499 0
-6668 -7500 0
-6669 -6781 0
-6670 -6782 0
-6671 -6783 0
-6672 -6784 0
-6669 -6925 0
-6670 -6926 0
-6671 -6927 0
-6672 -6928 0
-6669 -7505 0
-6670 -7506 0
-6671 -7507 0
-6672 -7508 0
-6673 -6677 0
-6674 -6678 0
-6675 -6679 0
-6676 -6680 0
-6673 -6721 0
-6674 -6722 0
-6675 -6723 0
-6676 -6724 0
-6673 -6725 0
-6674 -6726 0
-6675 -6727 0
-6676 -6728 0
-6673 -7041 0
-6674 -7042 0
-6675 -7043 0
-6676 -7044 0
-6673 -7133 0
-6674 -7134 0
-6675 -7135 0
-6676 -7136 0
-6673 -7509 0
-6674 -7510 0
-6675 -7511 0
-6676 -7512 0
-6677 -6681 0
-6678 -6682 0
-6679 -6683 0
-6680 -6684 0
-6677 -6753 0
-6678 -6754 0
-6679 -6755 0
-6680 -6756 0
-6677 -6941 0
-6678 -6942 0
-6679 -6943 0
-6680 -6944 0
-6677 -7061 0
-6678 -7062 0
-6679 -7063 0
-6680 -7064 0
-6677 -7173 0
-6678 -7174 0
-6679 -7175 0
-6680 -7176 0
-6677 -7245 0
-6678 -7246 0
-6679 -7247 0
-6680 -7248 0
-6677 -7509 0
-6678 -7510 0
-6679 -7511 0
-6680 -7512 0
-6681 -6957 0
-6682 -6958 0
-6683 -6959 0
-6684 -6960 0
-6681 -7253 0
-6682 -7254 0
-6683 -7255 0
-6684 -7256 0
-6681 -7473 0
-6682 -7474 0
-6683 -7475 0
-6684 -7476 0
-6681 -7517 0
-6682 -7518 0
-6683 -7519 0
-6684 -7520 0
-6685 -6801 0
-6686 -6802 0
-6687 -6803 0
-6688 -6804 0
-6685 -6805 0
-6686 -6806 0
-6687 -6807 0
-6688 -6808 0
-6685 -7193 0
-6686 -7194 0
-6687 -7195 0
-6688 -7196 0
-6689 -6693 0
-6690 -6694 0
-6691 -6695 0
-6692 -6696 0
-6689 -6697 0
-6690 -6698 0
-6691 -6699 0
-6692 -6700 0
-6689 -6701 0
-6690 -6702 0
-6691 -6703 0
-6692 -6704 0
-6689 -6721 0
-6690 -6722 0
-6691 -6723 0
-6692 -6724 0
-6689 -6809 0
-6690 -6810 0
-6691 -6811 0
-6692 -6812 0
-6689 -7389 0
-6690 -7390 0
-6691 -7391 0
-6692 -7392 0
-6693 -6721 0
-6694 -6722 0
-6695 -6723 0
-6696 -6724 0
-6693 -7537 0
-6694 -7538 0
-6695 -7539 0
-6696 -7540 0
-6697 -6705 0
-6698 -6706 0
-6699 -6707 0
-6700 -6708 0
-6697 -6729 0
-6698 -6730 0
-6699 -6731 0
-6700 -6732 0
-6697 -6809 0
-6698 -6810 0
-6699 -6811 0
-6700 -6812 0
-6697 -6985 0
-6698 -6986 0
-6699 -6987 0
-6700 -6988 0
-6697 -7297 0
-6698 -7298 0
-6699 -7299 0
-6700 -7300 0
-6701 -6705 0
-6702 -6706 0
-6703 -6707 0
-6704 -6708 0
-6701 -6713 0
-6702 -6714 0
-6703 -6715 0
-6704 -6716 0
-6701 -6737 0
-6702 -6738 0
-6703 -6739 0
-6704 -6740 0
-6701 -6813 0
-6702 -6814 0
-6703 -6815 0
-6704 -6816 0
-6701 -7301 0
-6702 -7302 0
-6703 -7303 0
-6704 -7304 0
-6705 -6709 0
-6706 -6710 0
-6707 -6711 0
-6708 -6712 0
-6705 -6717 0
-6706 -6718 0
-6707 -6719 0
-6708 -6720 0
-6705 -6741 0
-6706 -6742 0
-6707 -6743 0
-6708 -6744 0
-6705 -6761 0
-6706 -6762 0
-6707 -6763 0
-6708 -6764 0
-6705 -6813 0
-6706 -6814 0
-6707 -6815 0
-6708 -6816 0
-6705 -6989 0
-6706 -6990 0
-6707 -6991 0
-6708 -6992 0
-6705 -7153 0
-6706 -7154 0
-6707 -7155 0
-6708 -7156 0
-6705 -7317 0
-6706 -7318 0
-6707 -7319 0
-6708 -7320 0
-6705 -7501 0
-6706 -7502 0
-6707 -7503 0
-6708 -7504 0
-6709 -6745 0
-6710 -6746 0
-6711 -6747 0
-6712 -6748 0
-6709 -6917 0
-6710 -6918 0
-6711 -6919 0
-6712 -6920 0
-6709 -7325 0
-6710 -7326 0
-6711 -7327 0
-6712 -7328 0
-6713 -6717 0
-6714 -6718 0
-6715 -6719 0
-6716 -6720 0
-6713 -6821 0
-6714 -6822 0
-6715 -6823 0
-6716 -6824 0
-6713 -6921 0
-6714 -6922 0
-6715 -6923 0
-6716 -6924 0
-6713 -7025 0
-6714 -7026 0
-6715 -7027 0
-6716 -7028 0
-6713 -7397 0
-6714 -7398 0
-6715 -7399 0
-6716 -7400 0
-6713 -7485 0
-6714 -7486 0
-6715 -7487 0
-6716 -7488 0
-6717 -6821 0
-6718 -6822 0
-6719 -6823 0
-6720 -6824 0
-6717 -6933 0
-6718 -6934 0
-6719 -6935 0
-6720 -6936 0
-6717 -7161 0
-6718 -7162 0
-6719 -7163 0
-6720 -7164 0
-6717 -7337 0
-6718 -7338 0
-6719 -7339 0
-6720 -7340 0
-6717 -7501 0
-6718 -7502 0
-6719 -7503 0
-6720 -7504 0
-6721 -6725 0
-6722 -6726 0
-6723 -6727 0
-6724 -6728 0
-6721 -6729 0
-6722 -6730 0
-6723 -6731 0
-6724 -6732 0
-6721 -6737 0
-6722 -6738 0
-6723 -6739 0
-6724 -6740 0
-6721 -6749 0
-6722 -6750 0
-6723 -6751 0
-6724 -6752 0
-6721 -6753 0
-6722 -6754 0
-6723 -6755 0
-6724 -6756 0
-6721 -7029 0
-6722 -7030 0
-6723 -7031 0
-6724 -7032 0
-6721 -7525 0
-6722 -7526 0
-6723 -7527 0
-6724 -7528 0
-6725 -6733 0
-6726 -6734 0
-6727 -6735 0
-6728 -6736 0
-6725 -7033 0
-6726 -7034 0
-6727 -7035 0
-6728 -7036 0
-6725 -7301 0
-6726 -7302 0
-6727 -7303 0
-6728 -7304 0
-6725 -7529 0
-6726 -7530 0
-6727 -7531 0
-6728 -7532 0
-6729 -6733 0
-6730 -6734 0
-6731 -6735 0
-6732 -6736 0
-6729 -6741 0
-6730 -6742 0
-6731 -6743 0
-6732 -6744 0
-6729 -6837 0
-6730 -6838 0
-6731 -6839 0
-6732 -6840 0
-6729 -6997 0
-6730 -6998 0
-6731 -6999 0
-6732 -7000 0
-6729 -7305 0
-6730 -7306 0
-6731 -7307 0
-6732 -7308 0
-6733 -6745 0
-6734 -6746 0
-6735 -6747 0
-6736 -6748 0
-6733 -7165 0
-6734 -7166 0
-6735 -7167 0
-6736 -7168 0
-6733 -7317 0
-6734 -7318 0
-6735 -7319 0
-6736 -7320 0
-6737 -6741 0
-6738 -6742 0
-6739 -6743 0
-6740 -6744 0
-6737 -6757 0
-6738 -6758 0
-6739 -6759 0
-6740 -6760 0
-6737 -7533 0
-6738 -7534 0
-6739 -7535 0
-6740 -7536 0
-6741 -6745 0
-6742 -6746 0
-6743 -6747 0
-6744 -6748 0
-6741 -6845 0
-6742 -6846 0
-6743 -6847 0
-6744 -6848 0
-6745 -6949 0
-6746 -6950 0
-6747 -6951 0
-6748 -6952 0
-6745 -7333 0
-6746 -7334 0
-6747 -7335 0
-6748 -7336 0
-6749 -7049 0
-6750 -7050 0
-6751 -7051 0
-6752 -7052 0
-6749 -7077 0
-6750 -7078 0
-6751 -7079 0
-6752 -7080 0
-6753 -6757 0
-6754 -6758 0
-6755 -6759 0
-6756 -6760 0
-6753 -6833 0
-6754 -6834 0
-6755 -6835 0
-6756 -6836 0
-6753 -7005 0
-6754 -7006 0
-6755 -7007 0
-6756 -7008 0
-6753 -7221 0
-6754 -7222 0
-6755 -7223 0
-6756 -7224 0
-6753 -7525 0
-6754 -7526 0
-6755 -7527 0
-6756 -7528 0
-6757 -6841 0
-6758 -6842 0
-6759 -6843 0
-6760 -6844 0
-6757 -7233 0
-6758 -7234 0
-6759 -7235 0
-6760 -7236 0
-6757 -7533 0
-6758 -7534 0
-6759 -7535 0
-6760 -7536 0
-6761 -7021 0
-6762 -7022 0
-6763 -7023 0
-6764 -7024 0
-6761 -7349 0
-6762 -7350 0
-6763 -7351 0
-6764 -7352 0
-6761 -7505 0
-6762 -7506 0
-6763 -7507 0
-6764 -7508 0
-6765 -6769 0
-6766 -6770 0
-6767 -6771 0
-6768 -6772 0
-6765 -6773 0
-6766 -6774 0
-6767 -6775 0
-6768 -6776 0
-6765 -6781 0
-6766 -6782 0
-6767 -6783 0
-6768 -6784 0
-6765 -6789 0
-6766 -6790 0
-6767 -6791 0
-6768 -6792 0
-6765 -6793 0
-6766 -6794 0
-6767 -6795 0
-6768 -6796 0
-6765 -7509 0
-6766 -7510 0
-6767 -7511 0
-6768 -7512 0
-6769 -6777 0
-6770 -6778 0
-6771 -6779 0
-6772 -6780 0
-6769 -6781 0
-6770 -6782 0
-6771 -6783 0
-6772 -6784 0
-6769 -7085 0
-6770 -7086 0
-6771 -7087 0
-6772 -7088 0
-6769 -7513 0
-6770 -7514 0
-6771 -7515 0
-6772 -7516 0
-6773 -6777 0
-6774 -6778 0
-6775 -6779 0
-6776 -6780 0
-6773 -6785 0
-6774 -6786 0
-6775 -6787 0
-6776 -6788 0
-6773 -6797 0
-6774 -6798 0
-6775 -6799 0
-6776 -6800 0
-6773 -6801 0
-6774 -6802 0
-6775 -6803 0
-6776 -6804 0
-6773 -7509 0
-6774 -7510 0
-6775 -7511 0
-6776 -7512 0
-6777 -6785 0
-6778 -6786 0
-6779 -6787 0
-6780 -6788 0
-6777 -6857 0
-6778 -6858 0
-6779 -6859 0
-6780 -6860 0
-6777 -7513 0
-6778 -7514 0
-6779 -7515 0
-6780 -7516 0
-6781 -6785 0
-6782 -6786 0
-6783 -6787 0
-6784 -6788 0
-6781 -7401 0
-6782 -7402 0
-6783 -7403 0
-6784 -7404 0
-6781 -7521 0
-6782 -7522 0
-6783 -7523 0
-6784 -7524 0
-6785 -6865 0
-6786 -6866 0
-6787 -6867 0
-6788 -6868 0
-6785 -7521 0
-6786 -7522 0
-6787 -7523 0
-6788 -7524 0
-6789 -6793 0
-6790 -6794 0
-6791 -6795 0
-6792 -6796 0
-6789 -6797 0
-6790 -6798 0
-6791 -6799 0
-6792 -6800 0
-6789 -7525 0
-6790 -7526 0
-6791 -7527 0
-6792 -7528 0
-6793 -6801 0
-6794 -6802 0
-6795 -6803 0
-6796 -6804 0
-6793 -7001 0
-6794 -7002 0
-6795 -7003 0
-6796 -7004 0
-6793 -7089 0
-6794 -7090 0
-6795 -7091 0
-6796 -7092 0
-6793 -7529 0
-6794 -7530 0
-6795 -7531 0
-6796 -7532 0
-6797 -6801 0
-6798 -6802 0
-6799 -6803 0
-6800 -6804 0
-6797 -6885 0
-6798 -6886 0
-6799 -6887 0
-6800 -6888 0
-6797 -7525 0
-6798 -7526 0
-6799 -7527 0
-6800 -7528 0
-6797 -7533 0
-6798 -7534 0
-6799 -7535 0
-6800 -7536 0
-6801 -6805 0
-6802 -6806 0
-6803 -6807 0
-6804 -6808 0
-6801 -7005 0
-6802 -7006 0
-6803 -7007 0
-6804 -7008 0
-6801 -7529 0
-6802 -7530 0
-6803 -7531 0
-6804 -7532 0
-6805 -7009 0
-6806 -7010 0
-6807 -7011 0
-6808 -7012 0
-6805 -7201 0
-6806 -7202 0
-6807 -7203 0
-6808 -7204 0
-6805 -7377 0
-6806 -7378 0
-6807 -7379 0
-6808 -7380 0
-6809 -6813 0
-6810 -6814 0
-6811 -6815 0
-6812 -6816 0
-6809 -7109 0
-6810 -7110 0
-6811 -7111 0
-6812 -7112 0
-6809 -7209 0
-6810 -7210 0
-6811 -7211 0
-6812 -7212 0
-6809 -7409 0
-6810 -7410 0
-6811 -7411 0
-6812 -7412 0
-6813 -6821 0
-6814 -6822 0
-6815 -6823 0
-6816 -6824 0
-6813 -7117 0
-6814 -7118 0
-6815 -7119 0
-6816 -7120 0
-6813 -7217 0
-6814 -7218 0
-6815 -7219 0
-6816 -7220 0
-6813 -7381 0
-6814 -7382 0
-6815 -7383 0
-6816 -7384 0
-6813 -7413 0
-6814 -7414 0
-6815 -7415 0
-6816 -7416 0
-6813 -7513 0
-6814 -7514 0
-6815 -7515 0
-6816 -7516 0
-6817 -6821 0
-6818 -6822 0
-6819 -6823 0
-6820 -6824 0
-6817 -6929 0
-6818 -6930 0
-6819 -6931 0
-6820 -6932 0
-6817 -7037 0
-6818 -7038 0
-6819 -7039 0
-6820 -7040 0
-6817 -7105 0
-6818 -7106 0
-6819 -7107 0
-6820 -7108 0
-6817 -7365 0
-6818 -7366 0
-6819 -7367 0
-6820 -7368 0
-6817 -7509 0
-6818 -7510 0
-6819 -7511 0
-6820 -7512 0
-6817 -7517 0
-6818 -7518 0
-6819 -7519 0
-6820 -7520 0
-6821 -6825 0
-6822 -6826 0
-6823 -6827 0
-6824 -6828 0
-6821 -6829 0
-6822 -6830 0
-6823 -6831 0
-6824 -6832 0
-6821 -6913 0
-6822 -6914 0
-6823 -6915 0
-6824 -6916 0
-6821 -6981 0
-6822 -6982 0
-6823 -6983 0
-6824 -6984 0
-6821 -7045 0
-6822 -7046 0
-6823 -7047 0
-6824 -7048 0
-6821 -7433 0
-6822 -7434 0
-6823 -7435 0
-6824 -7436 0
-6821 -7513 0
-6822 -7514 0
-6823 -7515 0
-6824 -7516 0
-6825 -7049 0
-6826 -7050 0
-6827 -7051 0
-6828 -7052 0
-6825 -7121 0
-6826 -7122 0
-6827 -7123 0
-6828 -7124 0
-6829 -6937 0
-6830 -6938 0
-6831 -6939 0
-6832 -6940 0
-6829 -7233 0
-6830 -7234 0
-6831 -7235 0
-6832 -7236 0
-6833 -6837 0
-6834 -6838 0
-6835 -6839 0
-6836 -6840 0
-6833 -6841 0
-6834 -6842 0
-6835 -6843 0
-6836 -6844 0
-6833 -6849 0
-6834 -6850 0
-6835 -6851 0
-6836 -6852 0
-6833 -7297 0
-6834 -7298 0
-6835 -7299 0
-6836 -7300 0
-6837 -6845 0
-6838 -6846 0
-6839 -6847 0
-6840 -6848 0
-6837 -7129 0
-6838 -7130 0
-6839 -7131 0
-6840 -7132 0
-6837 -7245 0
-6838 -7246 0
-6839 -7247 0
-6840 -7248 0
-6837 -7537 0
-6838 -7538 0
-6839 -7539 0
-6840 -7540 0
-6841 -6845 0
-6842 -6846 0
-6843 -6847 0
-6844 -6848 0
-6841 -6853 0
-6842 -6854 0
-6843 -6855 0
-6844 -6856 0
-6841 -6941 0
-6842 -6942 0
-6843 -6943 0
-6844 -6944 0
-6841 -6949 0
-6842 -6950 0
-6843 -6951 0
-6844 -6952 0
-6841 -7317 0
-6842 -7318 0
-6843 -7319 0
-6844 -7320 0
-6841 -7541 0
-6842 -7542 0
-6843 -7543 0
-6844 -7544 0
-6845 -7249 0
-6846 -7250 0
-6847 -7251 0
-6848 -7252 0
-6845 -7545 0
-6846 -7546 0
-6847 -7547 0
-6848 -7548 0
-6849 -6853 0
-6850 -6854 0
-6851 -6855 0
-6852 -6856 0
-6849 -7141 0
-6850 -7142 0
-6851 -7143 0
-6852 -7144 0
-6853 -6957 0
-6854 -6958 0
-6855 -6959 0
-6856 -6960 0
-6853 -6965 0
-6854 -6966 0
-6855 -6967 0
-6856 -6968 0
-6853 -7061 0
-6854 -7062 0
-6855 -7063 0
-6856 -7064 0
-6853 -7257 0
-6854 -7258 0
-6855 -7259 0
-6856 -7260 0
-6853 -7337 0
-6854 -7338 0
-6855 -7339 0
-6856 -7340 0
-6857 -6861 0
-6858 -6862 0
-6859 -6863 0
-6860 -6864 0
-6857 -6865 0
-6858 -6866 0
-6859 -6867 0
-6860 -6868 0
-6857 -6893 0
-6858 -6894 0
-6859 -6895 0
-6860 -6896 0
-6861 -6869 0
-6862 -6870 0
-6863 -6871 0
-6864 -6872 0
-6861 -6905 0
-6862 -6906 0
-6863 -6907 0
-6864 -6908 0
-6861 -6909 0
-6862 -6910 0
-6863 -6911 0
-6864 -6912 0
-6861 -7261 0
-6862 -7262 0
-6863 -7263 0
-6864 -7264 0
-6865 -6869 0
-6866 -6870 0
-6867 -6871 0
-6868 -6872 0
-6865 -6925 0
-6866 -6926 0
-6867 -6927 0
-6868 -6928 0
-6869 -6953 0
-6870 -6954 0
-6871 -6955 0
-6872 -6956 0
-6869 -6957 0
-6870 -6958 0
-6871 -6959 0
-6872 -6960 0
-6869 -7509 0
-6870 -7510 0
-6871 -7511 0
-6872 -7512 0
-6873 -6877 0
-6874 -6878 0
-6875 -6879 0
-6876 -6880 0
-6873 -6889 0
-6874 -6890 0
-6875 -6891 0
-6876 -6892 0
-6873 -6901 0
-6874 -6902 0
-6875 -6903 0
-6876 -6904 0
-6877 -6893 0
-6878 -6894 0
-6879 -6895 0
-6880 -6896 0
-6877 -6901 0
-6878 -6902 0
-6879 -6903 0
-6880 -6904 0
-6877 -7537 0
-6878 -7538 0
-6879 -7539 0
-6880 -7540 0
-6881 -6885 0
-6882 -6886 0
-6883 -6887 0
-6884 -6888 0
-6881 -6889 0
-6882 -6890 0
-6883 -6891 0
-6884 -6892 0
-6881 -6921 0
-6882 -6922 0
-6883 -6923 0
-6884 -6924 0
-6881 -7153 0
-6882 -7154 0
-6883 -7155 0
-6884 -7156 0
-6881 -7509 0
-6882 -7510 0
-6883 -7511 0
-6884 -7512 0
-6885 -6893 0
-6886 -6894 0
-6887 -6895 0
-6888 -6896 0
-6885 -6925 0
-6886 -6926 0
-6887 -6927 0
-6888 -6928 0
-6885 -7365 0
-6886 -7366 0
-6887 -7367 0
-6888 -7368 0
-6885 -7541 0
-6886 -7542 0
-6887 -7543 0
-6888 -7544 0
-6889 -6893 0
-6890 -6894 0
-6891 -6895 0
-6892 -6896 0
-6889 -6905 0
-6890 -6906 0
-6891 -6907 0
-6892 -6908 0
-6889 -6921 0
-6890 -6922 0
-6891 -6923 0
-6892 -6924 0
-6889 -6985 0
-6890 -6986 0
-6891 -6987 0
-6892 -6988 0
-6889 -7417 0
-6890 -7418 0
-6891 -7419 0
-6892 -7420 0
-6889 -7513 0
-6890 -7514 0
-6891 -7515 0
-6892 -7516 0
-6893 -6897 0
-6894 -6898 0
-6895 -6899 0
-6896 -6900 0
-6893 -6905 0
-6894 -6906 0
-6895 -6907 0
-6896 -6908 0
-6893 -6925 0
-6894 -6926 0
-6895 -6927 0
-6896 -6928 0
-6893 -7189 0
-6894 -7190 0
-6895 -7191 0
-6896 -7192 0
-6893 -7421 0
-6894 -7422 0
-6895 -7423 0
-6896 -7424 0
-6893 -7537 0
-6894 -7538 0
-6895 -7539 0
-6896 -7540 0
-6893 -7545 0
-6894 -7546 0
-6895 -7547 0
-6896 -7548 0
-6901 -6905 0
-6902 -6906 0
-6903 -6907 0
-6904 -6908 0
-6905 -6909 0
-6906 -6910 0
-6907 -6911 0
-6908 -6912 0
-6905 -6953 0
-6906 -6954 0
-6907 -6955 0
-6908 -6956 0
-6905 -6997 0
-6906 -6998 0
-6907 -6999 0
-6908 -7000 0
-6905 -7197 0
-6906 -7198 0
-6907 -7199 0
-6908 -7200 0
-6905 -7465 0
-6906 -7466 0
-6907 -7467 0
-6908 -7468 0
-6909 -6957 0
-6910 -6958 0
-6911 -6959 0
-6912 -6960 0
-6909 -7093 0
-6910 -7094 0
-6911 -7095 0
-6912 -7096 0
-6909 -7429 0
-6910 -7430 0
-6911 -7431 0
-6912 -7432 0
-6909 -7469 0
-6910 -7470 0
-6911 -7471 0
-6912 -7472 0
-6913 -6937 0
-6914 -6938 0
-6915 -6939 0
-6916 -6940 0
-6913 -6969 0
-6914 -6970 0
-6915 -6971 0
-6916 -6972 0
-6913 -7101 0
-6914 -7102 0
-6915 -7103 0
-6916 -7104 0
-6913 -7289 0
-6914 -7290 0
-6915 -7291 0
-6916 -7292 0
-6917 -6937 0
-6918 -6938 0
-6919 -6939 0
-6920 -6940 0
-6917 -6945 0
-6918 -6946 0
-6919 -6947 0
-6920 -6948 0
-6917 -6949 0
-6918 -6950 0
-6919 -6951 0
-6920 -6952 0
-6917 -7293 0
-6918 -7294 0
-6919 -7295 0
-6920 -7296 0
-6917 -7441 0
-6918 -7442 0
-6919 -7443 0
-6920 -7444 0
-6921 -6925 0
-6922 -6926 0
-6923 -6927 0
-6924 -6928 0
-6921 -6929 0
-6922 -6930 0
-6923 -6931 0
-6924 -6932 0
-6921 -6933 0
-6922 -6934 0
-6923 -6935 0
-6924 -6936 0
-6921 -6953 0
-6922 -6954 0
-6923 -6955 0
-6924 -6956 0
-6921 -6973 0
-6922 -6974 0
-6923 -6975 0
-6924 -6976 0
-6921 -6981 0
-6922 -6982 0
-6923 -6983 0
-6924 -6984 0
-6921 -7013 0
-6922 -7014 0
-6923 -7015 0
-6924 -7016 0
-6921 -7477 0
-6922 -7478 0
-6923 -7479 0
-6924 -7480 0
-6921 -7521 0
-6922 -7522 0
-6923 -7523 0
-6924 -7524 0
-6925 -6953 0
-6926 -6954 0
-6927 -6955 0
-6928 -6956 0
-6925 -7213 0
-6926 -7214 0
-6927 -7215 0
-6928 -7216 0
-6929 -6937 0
-6930 -6938 0
-6931 -6939 0
-6932 -6940 0
-6929 -6957 0
-6930 -6958 0
-6931 -6959 0
-6932 -6960 0
-6929 -6973 0
-6930 -6974 0
-6931 -6975 0
-6932 -6976 0
-6929 -7301 0
-6930 -7302 0
-6931 -7303 0
-6932 -7304 0
-6929 -7481 0
-6930 -7482 0
-6931 -7483 0
-6932 -7484 0
-6933 -6937 0
-6934 -6938 0
-6935 -6939 0
-6936 -6940 0
-6933 -6977 0
-6934 -6978 0
-6935 -6979 0
-6936 -6980 0
-6933 -6981 0
-6934 -6982 0
-6935 -6983 0
-6936 -6984 0
-6933 -7117 0
-6934 -7118 0
-6935 -7119 0
-6936 -7120 0
-6933 -7161 0
-6934 -7162 0
-6935 -7163 0
-6936 -7164 0
-6933 -7305 0
-6934 -7306 0
-6935 -7307 0
-6936 -7308 0
-6933 -7449 0
-6934 -7450 0
-6935 -7451 0
-6936 -7452 0
-6937 -6961 0
-6938 -6962 0
-6939 -6963 0
-6940 -6964 0
-6937 -6965 0
-6938 -6966 0
-6939 -6967 0
-6940 -6968 0
-6937 -6977 0
-6938 -6978 0
-6939 -6979 0
-6940 -6980 0
-6937 -7121 0
-6938 -7122 0
-6939 -7123 0
-6940 -7124 0
-6937 -7137 0
-6938 -7138 0
-6939 -7139 0
-6940 -7140 0
-6937 -7317 0
-6938 -7318 0
-6939 -7319 0
-6940 -7320 0
-6937 -7405 0
-6938 -7406 0
-6939 -7407 0
-6940 -7408 0
-6941 -6949 0
-6942 -6950 0
-6943 -6951 0
-6944 -6952 0
-6941 -6957 0
-6942 -6958 0
-6943 -6959 0
-6944 -6960 0
-6941 -7381 0
-6942 -7382 0
-6943 -7383 0
-6944 -7384 0
-6945 -6949 0
-6946 -6950 0
-6947 -6951 0
-6948 -6952 0
-6945 -6961 0
-6946 -6962 0
-6947 -6963 0
-6948 -6964 0
-6945 -7341 0
-6946 -7342 0
-6947 -7343 0
-6948 -7344 0
-6945 -7409 0
-6946 -7410 0
-6947 -7411 0
-6948 -7412 0
-6949 -6965 0
-6950 -6966 0
-6951 -6967 0
-6952 -6968 0
-6949 -7385 0
-6950 -7386 0
-6951 -7387 0
-6952 -7388 0
-6949 -7445 0
-6950 -7446 0
-6951 -7447 0
-6952 -7448 0
-6953 -6957 0
-6954 -6958 0
-6955 -6959 0
-6956 -6960 0
-6953 -7041 0
-6954 -7042 0
-6955 -7043 0
-6956 -7044 0
-6953 -7229 0
-6954 -7230 0
-6955 -7231 0
-6956 -7232 0
-6953 -7525 0
-6954 -7526 0
-6955 -7527 0
-6956 -7528 0
-6957 -6965 0
-6958 -6966 0
-6959 -6967 0
-6960 -6968 0
-6957 -7185 0
-6958 -7186 0
-6959 -7187 0
-6960 -7188 0
-6957 -7421 0
-6958 -7422 0
-6959 -7423 0
-6960 -7424 0
-6957 -7529 0
-6958 -7530 0
-6959 -7531 0
-6960 -7532 0
-6961 -6965 0
-6962 -6966 0
-6963 -6967 0
-6964 -6968 0
-6961 -7125 0
-6962 -7126 0
-6963 -7127 0
-6964 -7128 0
-6961 -7345 0
-6962 -7346 0
-6963 -7347 0
-6964 -7348 0
-6961 -7425 0
-6962 -7426 0
-6963 -7427 0
-6964 -7428 0
-6965 -7453 0
-6966 -7454 0
-6967 -7455 0
-6968 -7456 0
-6969 -6977 0
-6970 -6978 0
-6971 -6979 0
-6972 -6980 0
-6969 -7109 0
-6970 -7110 0
-6971 -7111 0
-6972 -7112 0
-6969 -7365 0
-6970 -7366 0
-6971 -7367 0
-6972 -7368 0
-6969 -7537 0
-6970 -7538 0
-6971 -7539 0
-6972 -7540 0
-6973 -6977 0
-6974 -6978 0
-6975 -6979 0
-6976 -6980 0
-6973 -7069 0
-6974 -7070 0
-6975 -7071 0
-6976 -7072 0
-6973 -7217 0
-6974 -7218 0
-6975 -7219 0
-6976 -7220 0
-6977 -7193 0
-6978 -7194 0
-6979 -7195 0
-6980 -7196 0
-6977 -7357 0
-6978 -7358 0
-6979 -7359 0
-6980 -7360 0
-6977 -7373 0
-6978 -7374 0
-6979 -7375 0
-6980 -7376 0
-6981 -7101 0
-6982 -7102 0
-6983 -7103 0
-6984 -7104 0
-6985 -6989 0
-6986 -6990 0
-6987 -6991 0
-6988 -6992 0
-6985 -6993 0
-6986 -6994 0
-6987 -6995 0
-6988 -6996 0
-6985 -6997 0
-6986 -6998 0
-6987 -6999 0
-6988 -7000 0
-6985 -7013 0
-6986 -7014 0
-6987 -7015 0
-6988 -7016 0
-6985 -7017 0
-6986 -7018 0
-6987 -7019 0
-6988 -7020 0
-6985 -7461 0
-6986 -7462 0
-6987 -7463 0
-6988 -7464 0
-6989 -7021 0
-6990 -7022 0
-6991 -7023 0
-6992 -7024 0
-6989 -7025 0
-6990 -7026 0
-6991 -7027 0
-6992 -7028 0
-6989 -7153 0
-6990 -7154 0
-6991 -7155 0
-6992 -7156 0
-6989 -7469 0
-6990 -7470 0
-6991 -7471 0
-6992 -7472 0
-6993 -7009 0
-6994 -7010 0
-6995 -7011 0
-6996 -7012 0
-6993 -7085 0
-6994 -7086 0
-6995 -7087 0
-6996 -7088 0
-6993 -7189 0
-6994 -7190 0
-6995 -7191 0
-6996 -7192 0
-6993 -7389 0
-6994 -7390 0
-6995 -7391 0
-6996 -7392 0
-6993 -7473 0
-6994 -7474 0
-6995 -7475 0
-6996 -7476 0
-6997 -7009 0
-6998 -7010 0
-6999 -7011 0
-7000 -7012 0
-6997 -7041 0
-6998 -7042 0
-6999 -7043 0
-7000 -7044 0
-6997 -7049 0
-6998 -7050 0
-6999 -7051 0
-7000 -7052 0
-6997 -7129 0
-6998 -7130 0
-6999 -7131 0
-7000 -7132 0
-6997 -7273 0
-6998 -7274 0
-6999 -7275 0
-7000 -7276 0
-6997 -7465 0
-6998 -7466 0
-6999 -7467 0
-7000 -7468 0
-7001 -7005 0
-7002 -7006 0
-7003 -7007 0
-7004 -7008 0
-7001 -7245 0
-7002 -7246 0
-7003 -7247 0
-7004 -7248 0
-7005 -7009 0
-7006 -7010 0
-7007 -7011 0
-7008 -7012 0
-7005 -7093 0
-7006 -7094 0
-7007 -7095 0
-7008 -7096 0
-7005 -7249 0
-7006 -7250 0
-7007 -7251 0
-7008 -7252 0
-7005 -7417 0
-7006 -7418 0
-7007 -7419 0
-7008 -7420 0
-7009 -7061 0
-7010 -7062 0
-7011 -7063 0
-7012 -7064 0
-7009 -7065 0
-7010 -7066 0
-7011 -7067 0
-7012 -7068 0
-7009 -7093 0
-7010 -7094 0
-7011 -7095 0
-7012 -7096 0
-7009 -7201 0
-7010 -7202 0
-7011 -7203 0
-7012 -7204 0
-7009 -7425 0
-7010 -7426 0
-7011 -7427 0
-7012 -7428 0
-7009 -7477 0
-7010 -7478 0
-7011 -7479 0
-7012 -7480 0
-7009 -7497 0
-7010 -7498 0
-7011 -7499 0
-7012 -7500 0
-7013 -7017 0
-7014 -7018 0
-7015 -7019 0
-7016 -7020 0
-7013 -7021 0
-7014 -7022 0
-7015 -7023 0
-7016 -7024 0
-7013 -7037 0
-7014 -7038 0
-7015 -7039 0
-7016 -7040 0
-7013 -7041 0
-7014 -7042 0
-7015 -7043 0
-7016 -7044 0
-7013 -7069 0
-7014 -7070 0
-7015 -7071 0
-7016 -7072 0
-7013 -7097 0
-7014 -7098 0
-7015 -7099 0
-7016 -7100 0
-7013 -7101 0
-7014 -7102 0
-7015 -7103 0
-7016 -7104 0
-7013 -7205 0
-7014 -7206 0
-7015 -7207 0
-7016 -7208 0
-7013 -7497 0
-7014 -7498 0
-7015 -7499 0
-7016 -7500 0
-7017 -7025 0
-7018 -7026 0
-7019 -7027 0
-7020 -7028 0
-7017 -7045 0
-7018 -7046 0
-7019 -7047 0
-7020 -7048 0
-7017 -7049 0
-7018 -7050 0
-7019 -7051 0
-7020 -7052 0
-7017 -7281 0
-7018 -7282 0
-7019 -7283 0
-7020 -7284 0
-7017 -7501 0
-7018 -7502 0
-7019 -7503 0
-7020 -7504 0
-7021 -7025 0
-7022 -7026 0
-7023 -7027 0
-7024 -7028 0
-7021 -7057 0
-7022 -7058 0
-7023 -7059 0
-7024 -7060 0
-7021 -7073 0
-7022 -7074 0
-7023 -7075 0
-7024 -7076 0
-7021 -7105 0
-7022 -7106 0
-7023 -7107 0
-7024 -7108 0
-7025 -7485 0
-7026 -7486 0
-7027 -7487 0
-7028 -7488 0
-7029 -7033 0
-7030 -7034 0
-7031 -7035 0
-7032 -7036 0
-7029 -7049 0
-7030 -7050 0
-7031 -7051 0
-7032 -7052 0
-7029 -7293 0
-7030 -7294 0
-7031 -7295 0
-7032 -7296 0
-7033 -7053 0
-7034 -7054 0
-7035 -7055 0
-7036 -7056 0
-7033 -7321 0
-7034 -7322 0
-7035 -7323 0
-7036 -7324 0
-7037 -7041 0
-7038 -7042 0
-7039 -7043 0
-7040 -7044 0
-7037 -7045 0
-7038 -7046 0
-7039 -7047 0
-7040 -7048 0
-7037 -7057 0
-7038 -7058 0
-7039 -7059 0
-7040 -7060 0
-7037 -7077 0
-7038 -7078 0
-7039 -7079 0
-7040 -7080 0
-7037 -7265 0
-7038 -7266 0
-7039 -7267 0
-7040 -7268 0
-7041 -7049 0
-7042 -7050 0
-7043 -7051 0
-7044 -7052 0
-7041 -7061 0
-7042 -7062 0
-7043 -7063 0
-7044 -7064 0
-7041 -7133 0
-7042 -7134 0
-7043 -7135 0
-7044 -7136 0
-7041 -7309 0
-7042 -7310 0
-7043 -7311 0
-7044 -7312 0
-7045 -7049 0
-7046 -7050 0
-7047 -7051 0
-7048 -7052 0
-7045 -7313 0
-7046 -7314 0
-7047 -7315 0
-7048 -7316 0
-7049 -7053 0
-7050 -7054 0
-7051 -7055 0
-7052 -7056 0
-7049 -7065 0
-7050 -7066 0
-7051 -7067 0
-7052 -7068 0
-7049 -7169 0
-7050 -7170 0
-7051 -7171 0
-7052 -7172 0
-7049 -7317 0
-7050 -7318 0
-7051 -7319 0
-7052 -7320 0
-7049 -7537 0
-7050 -7538 0
-7051 -7539 0
-7052 -7540 0
-7053 -7177 0
-7054 -7178 0
-7055 -7179 0
-7056 -7180 0
-7053 -7325 0
-7054 -7326 0
-7055 -7327 0
-7056 -7328 0
-7053 -7485 0
-7054 -7486 0
-7055 -7487 0
-7056 -7488 0
-7057 -7081 0
-7058 -7082 0
-7059 -7083 0
-7060 -7084 0
-7057 -7465 0
-7058 -7466 0
-7059 -7467 0
-7060 -7468 0
-7061 -7065 0
-7062 -7066 0
-7063 -7067 0
-7064 -7068 0
-7061 -7257 0
-7062 -7258 0
-7063 -7259 0
-7064 -7260 0
-7061 -7449 0
-7062 -7450 0
-7063 -7451 0
-7064 -7452 0
-7065 -7141 0
-7066 -7142 0
-7067 -7143 0
-7068 -7144 0
-7065 -7237 0
-7066 -7238 0
-7067 -7239 0
-7068 -7240 0
-7065 -7261 0
-7066 -7262 0
-7067 -7263 0
-7068 -7264 0
-7065 -7341 0
-7066 -7342 0
-7067 -7343 0
-7068 -7344 0
-7065 -7401 0
-7066 -7402 0
-7067 -7403 0
-7068 -7404 0
-7065 -7505 0
-7066 -7506 0
-7067 -7507 0
-7068 -7508 0
-7069 -7073 0
-7070 -7074 0
-7071 -7075 0
-7072 -7076 0
-7069 -7077 0
-7070 -7078 0
-7071 -7079 0
-7072 -7080 0
-7069 -7113 0
-7070 -7114 0
-7071 -7115 0
-7072 -7116 0
-7069 -7285 0
-7070 -7286 0
-7071 -7287 0
-7072 -7288 0
-7073 -7081 0
-7074 -7082 0
-7075 -7083 0
-7076 -7084 0
-7073 -7121 0
-7074 -7122 0
-7075 -7123 0
-7076 -7124 0
-7073 -7213 0
-7074 -7214 0
-7075 -7215 0
-7076 -7216 0
-7077 -7081 0
-7078 -7082 0
-7079 -7083 0
-7080 -7084 0
-7077 -7317 0
-7078 -7318 0
-7079 -7319 0
-7080 -7320 0
-7081 -7125 0
-7082 -7126 0
-7083 -7127 0
-7084 -7128 0
-7081 -7229 0
-7082 -7230 0
-7083 -7231 0
-7084 -7232 0
-7081 -7333 0
-7082 -7334 0
-7083 -7335 0
-7084 -7336 0
-7081 -7489 0
-7082 -7490 0
-7083 -7491 0
-7084 -7492 0
-7085 -7089 0
-7086 -7090 0
-7087 -7091 0
-7088 -7092 0
-7085 -7093 0
-7086 -7094 0
-7087 -7095 0
-7088 -7096 0
-7085 -7373 0
-7086 -7374 0
-7087 -7375 0
-7088 -7376 0
-7089 -7093 0
-7090 -7094 0
-7091 -7095 0
-7092 -7096 0
-7089 -7245 0
-7090 -7246 0
-7091 -7247 0
-7092 -7248 0
-7093 -7165 0
-7094 -7166 0
-7095 -7167 0
-7096 -7168 0
-7093 -7509 0
-7094 -7510 0
-7095 -7511 0
-7096 -7512 0
-7097 -7101 0
-7098 -7102 0
-7099 -7103 0
-7100 -7104 0
-7097 -7509 0
-7098 -7510 0
-7099 -7511 0
-7100 -7512 0
-7101 -7105 0
-7102 -7106 0
-7103 -7107 0
-7104 -7108 0
-7101 -7109 0
-7102 -7110 0
-7103 -7111 0
-7104 -7112 0
-7101 -7113 0
-7102 -7114 0
-7103 -7115 0
-7104 -7116 0
-7105 -7117 0
-7106 -7118 0
-7107 -7119 0
-7108 -7120 0
-7105 -7121 0
-7106 -7122 0
-7107 -7123 0
-7108 -7124 0
-7105 -7265 0
-7106 -7266 0
-7107 -7267 0
-7108 -7268 0
-7109 -7113 0
-7110 -7114 0
-7111 -7115 0
-7112 -7116 0
-7109 -7117 0
-7110 -7118 0
-7111 -7119 0
-7112 -7120 0
-7109 -7209 0
-7110 -7210 0
-7111 -7211 0
-7112 -7212 0
-7109 -7365 0
-7110 -7366 0
-7111 -7367 0
-7112 -7368 0
-7113 -7121 0
-7114 -7122 0
-7115 -7123 0
-7116 -7124 0
-7113 -7297 0
-7114 -7298 0
-7115 -7299 0
-7116 -7300 0
-7117 -7121 0
-7118 -7122 0
-7119 -7123 0
-7120 -7124 0
-7117 -7217 0
-7118 -7218 0
-7119 -7219 0
-7120 -7220 0
-7117 -7305 0
-7118 -7306 0
-7119 -7307 0
-7120 -7308 0
-7117 -7369 0
-7118 -7370 0
-7119 -7371 0
-7120 -7372 0
-7121 -7125 0
-7122 -7126 0
-7123 -7127 0
-7124 -7128 0
-7121 -7317 0
-7122 -7318 0
-7123 -7319 0
-7124 -7320 0
-7125 -7345 0
-7126 -7346 0
-7127 -7347 0
-7128 -7348 0
-7125 -7493 0
-7126 -7494 0
-7127 -7495 0
-7128 -7496 0
-7129 -7133 0
-7130 -7134 0
-7131 -7135 0
-7132 -7136 0
-7129 -7245 0
-7130 -7246 0
-7131 -7247 0
-7132 -7248 0
-7133 -7141 0
-7134 -7142 0
-7135 -7143 0
-7136 -7144 0
-7133 -7177 0
-7134 -7178 0
-7135 -7179 0
-7136 -7180 0
-7133 -7553 0
-7134 -7554 0
-7135 -7555 0
-7136 -7556 0
-7137 -7141 0
-7138 -7142 0
-7139 -7143 0
-7140 -7144 0
-7137 -7145 0
-7138 -7146 0
-7139 -7147 0
-7140 -7148 0
-7137 -7173 0
-7138 -7174 0
-7139 -7175 0
-7140 -7176 0
-7137 -7317 0
-7138 -7318 0
-7139 -7319 0
-7140 -7320 0
-7141 -7177 0
-7142 -7178 0
-7143 -7179 0
-7144 -7180 0
-7141 -7321 0
-7142 -7322 0
-7143 -7323 0
-7144 -7324 0
-7141 -7505 0
-7142 -7506 0
-7143 -7507 0
-7144 -7508 0
-7145 -7149 0
-7146 -7150 0
-7147 -7151 0
-7148 -7152 0
-7145 -7181 0
-7146 -7182 0
-7147 -7183 0
-7148 -7184 0
-7145 -7333 0
-7146 -7334 0
-7147 -7335 0
-7148 -7336 0
-7145 -7501 0
-7146 -7502 0
-7147 -7503 0
-7148 -7504 0
-7149 -7233 0
-7150 -7234 0
-7151 -7235 0
-7152 -7236 0
-7149 -7241 0
-7150 -7242 0
-7151 -7243 0
-7152 -7244 0
-7149 -7397 0
-7150 -7398 0
-7151 -7399 0
-7152 -7400 0
-7149 -7477 0
-7150 -7478 0
-7151 -7479 0
-7152 -7480 0
-7153 -7161 0
-7154 -7162 0
-7155 -7163 0
-7156 -7164 0
-7153 -7189 0
-7154 -7190 0
-7155 -7191 0
-7156 -7192 0
-7153 -7509 0
-7154 -7510 0
-7155 -7511 0
-7156 -7512 0
-7157 -7161 0
-7158 -7162 0
-7159 -7163 0
-7160 -7164 0
-7157 -7365 0
-7158 -7366 0
-7159 -7367 0
-7160 -7368 0
-7161 -7193 0
-7162 -7194 0
-7163 -7195 0
-7164 -7196 0
-7161 -7369 0
-7162 -7370 0
-7163 -7371 0
-7164 -7372 0
-7161 -7465 0
-7162 -7466 0
-7163 -7467 0
-7164 -7468 0
-7161 -7517 0
-7162 -7518 0
-7163 -7519 0
-7164 -7520 0
-7165 -7177 0
-7166 -7178 0
-7167 -7179 0
-7168 -7180 0
-7165 -7509 0
-7166 -7510 0
-7167 -7511 0
-7168 -7512 0
-7169 -7177 0
-7170 -7178 0
-7171 -7179 0
-7172 -7180 0
-7169 -7225 0
-7170 -7226 0
-7171 -7227 0
-7172 -7228 0
-7169 -7437 0
-7170 -7438 0
-7171 -7439 0
-7172 -7440 0
-7173 -7177 0
-7174 -7178 0
-7175 -7179 0
-7176 -7180 0
-7173 -7181 0
-7174 -7182 0
-7175 -7183 0
-7176 -7184 0
-7173 -7221 0
-7174 -7222 0
-7175 -7223 0
-7176 -7224 0
-7173 -7381 0
-7174 -7382 0
-7175 -7383 0
-7176 -7384 0
-7173 -7449 0
-7174 -7450 0
-7175 -7451 0
-7176 -7452 0
-7177 -7185 0
-7178 -7186 0
-7179 -7187 0
-7180 -7188 0
-7177 -7225 0
-7178 -7226 0
-7179 -7227 0
-7180 -7228 0
-7177 -7441 0
-7178 -7442 0
-7179 -7443 0
-7180 -7444 0
-7177 -7521 0
-7178 -7522 0
-7179 -7523 0
-7180 -7524 0
-7181 -7185 0
-7182 -7186 0
-7183 -7187 0
-7184 -7188 0
-7181 -7233 0
-7182 -7234 0
-7183 -7235 0
-7184 -7236 0
-7181 -7269 0
-7182 -7270 0
-7183 -7271 0
-7184 -7272 0
-7181 -7453 0
-7182 -7454 0
-7183 -7455 0
-7184 -7456 0
-7181 -7513 0
-7182 -7514 0
-7183 -7515 0
-7184 -7516 0
-7185 -7237 0
-7186 -7238 0
-7187 -7239 0
-7188 -7240 0
-7189 -7193 0
-7190 -7194 0
-7191 -7195 0
-7192 -7196 0
-7189 -7197 0
-7190 -7198 0
-7191 -7199 0
-7192 -7200 0
-7189 -7201 0
-7190 -7202 0
-7191 -7203 0
-7192 -7204 0
-7189 -7213 0
-7190 -7214 0
-7191 -7215 0
-7192 -7216 0
-7189 -7217 0
-7190 -7218 0
-7191 -7219 0
-7192 -7220 0
-7189 -7389 0
-7190 -7390 0
-7191 -7391 0
-7192 -7392 0
-7189 -7529 0
-7190 -7530 0
-7191 -7531 0
-7192 -7532 0
-7193 -7373 0
-7194 -7374 0
-7195 -7375 0
-7196 -7376 0
-7193 -7393 0
-7194 -7394 0
-7195 -7395 0
-7196 -7396 0
-7193 -7489 0
-7194 -7490 0
-7195 -7491 0
-7196 -7492 0
-7197 -7201 0
-7198 -7202 0
-7199 -7203 0
-7200 -7204 0
-7197 -7229 0
-7198 -7230 0
-7199 -7231 0
-7200 -7232 0
-7197 -7233 0
-7198 -7234 0
-7199 -7235 0
-7200 -7236 0
-7197 -7273 0
-7198 -7274 0
-7199 -7275 0
-7200 -7276 0
-7197 -7413 0
-7198 -7414 0
-7199 -7415 0
-7200 -7416 0
-7201 -7237 0
-7202 -7238 0
-7203 -7239 0
-7204 -7240 0
-7201 -7493 0
-7202 -7494 0
-7203 -7495 0
-7204 -7496 0
-7201 -7533 0
-7202 -7534 0
-7203 -7535 0
-7204 -7536 0
-7201 -7541 0
-7202 -7542 0
-7203 -7543 0
-7204 -7544 0
-7205 -7213 0
-7206 -7214 0
-7207 -7215 0
-7208 -7216 0
-7205 -7541 0
-7206 -7542 0
-7207 -7543 0
-7208 -7544 0
-7205 -7557 0
-7206 -7558 0
-7207 -7559 0
-7208 -7560 0
-7209 -7217 0
-7210 -7218 0
-7211 -7219 0
-7212 -7220 0
-7209 -7221 0
-7210 -7222 0
-7211 -7223 0
-7212 -7224 0
-7209 -7225 0
-7210 -7226 0
-7211 -7227 0
-7212 -7228 0
-7213 -7217 0
-7214 -7218 0
-7215 -7219 0
-7216 -7220 0
-7213 -7229 0
-7214 -7230 0
-7215 -7231 0
-7216 -7232 0
-7213 -7561 0
-7214 -7562 0
-7215 -7563 0
-7216 -7564 0
-7217 -7233 0
-7218 -7234 0
-7219 -7235 0
-7220 -7236 0
-7217 -7237 0
-7218 -7238 0
-7219 -7239 0
-7220 -7240 0
-7217 -7285 0
-7218 -7286 0
-7219 -7287 0
-7220 -7288 0
-7221 -7225 0
-7222 -7226 0
-7223 -7227 0
-7224 -7228 0
-7221 -7233 0
-7222 -7234 0
-7223 -7235 0
-7224 -7236 0
-7221 -7297 0
-7222 -7298 0
-7223 -7299 0
-7224 -7300 0
-7221 -7417 0
-7222 -7418 0
-7223 -7419 0
-7224 -7420 0
-7225 -7237 0
-7226 -7238 0
-7227 -7239 0
-7228 -7240 0
-7225 -7421 0
-7226 -7422 0
-7227 -7423 0
-7228 -7424 0
-7225 -7457 0
-7226 -7458 0
-7227 -7459 0
-7228 -7460 0
-7229 -7233 0
-7230 -7234 0
-7231 -7235 0
-7232 -7236 0
-7229 -7309 0
-7230 -7310 0
-7231 -7311 0
-7232 -7312 0
-7229 -7445 0
-7230 -7446 0
-7231 -7447 0
-7232 -7448 0
-7229 -7525 0
-7230 -7526 0
-7231 -7527 0
-7232 -7528 0
-7233 -7237 0
-7234 -7238 0
-7235 -7239 0
-7236 -7240 0
-7233 -7317 0
-7234 -7318 0
-7235 -7319 0
-7236 -7320 0
-7233 -7429 0
-7234 -7430 0
-7235 -7431 0
-7236 -7432 0
-7237 -7321 0
-7238 -7322 0
-7239 -7323 0
-7240 -7324 0
-7241 -7317 0
-7242 -7318 0
-7243 -7319 0
-7244 -7320 0
-7241 -7329 0
-7242 -7330 0
-7243 -7331 0
-7244 -7332 0
-7241 -7497 0
-7242 -7498 0
-7243 -7499 0
-7244 -7500 0
-7245 -7249 0
-7246 -7250 0
-7247 -7251 0
-7248 -7252 0
-7245 -7253 0
-7246 -7254 0
-7247 -7255 0
-7248 -7256 0
-7245 -7549 0
-7246 -7550 0
-7247 -7551 0
-7248 -7552 0
-7249 -7261 0
-7250 -7262 0
-7251 -7263 0
-7252 -7264 0
-7249 -7513 0
-7250 -7514 0
-7251 -7515 0
-7252 -7516 0
-7249 -7549 0
-7250 -7550 0
-7251 -7551 0
-7252 -7552 0
-7253 -7261 0
-7254 -7262 0
-7255 -7263 0
-7256 -7264 0
-7253 -7421 0
-7254 -7422 0
-7255 -7423 0
-7256 -7424 0
-7253 -7473 0
-7254 -7474 0
-7255 -7475 0
-7256 -7476 0
-7253 -7553 0
-7254 -7554 0
-7255 -7555 0
-7256 -7556 0
-7257 -7261 0
-7258 -7262 0
-7259 -7263 0
-7260 -7264 0
-7257 -7517 0
-7258 -7518 0
-7259 -7519 0
-7260 -7520 0
-7261 -7401 0
-7262 -7402 0
-7263 -7403 0
-7264 -7404 0
-7261 -7481 0
-7262 -7482 0
-7263 -7483 0
-7264 -7484 0
-7261 -7553 0
-7262 -7554 0
-7263 -7555 0
-7264 -7556 0
-7265 -7269 0
-7266 -7270 0
-7267 -7271 0
-7268 -7272 0
-7265 -7305 0
-7266 -7306 0
-7267 -7307 0
-7268 -7308 0
-7265 -7317 0
-7266 -7318 0
-7267 -7319 0
-7268 -7320 0
-7265 -7505 0
-7266 -7506 0
-7267 -7507 0
-7268 -7508 0
-7269 -7317 0
-7270 -7318 0
-7271 -7319 0
-7272 -7320 0
-7269 -7325 0
-7270 -7326 0
-7271 -7327 0
-7272 -7328 0
-7273 -7277 0
-7274 -7278 0
-7275 -7279 0
-7276 -7280 0
-7273 -7309 0
-7274 -7310 0
-7275 -7311 0
-7276 -7312 0
-7273 -7317 0
-7274 -7318 0
-7275 -7319 0
-7276 -7320 0
-7277 -7317 0
-7278 -7318 0
-7279 -7319 0
-7280 -7320 0
-7277 -7409 0
-7278 -7410 0
-7279 -7411 0
-7280 -7412 0
-7281 -7285 0
-7282 -7286 0
-7283 -7287 0
-7284 -7288 0
-7281 -7313 0
-7282 -7314 0
-7283 -7315 0
-7284 -7316 0
-7281 -7317 0
-7282 -7318 0
-7283 -7319 0
-7284 -7320 0
-7285 -7317 0
-7286 -7318 0
-7287 -7319 0
-7288 -7320 0
-7285 -7321 0
-7286 -7322 0
-7287 -7323 0
-7288 -7324 0
-7289 -7317 0
-7290 -7318 0
-7291 -7319 0
-7292 -7320 0
-7289 -7557 0
-7290 -7558 0
-7291 -7559 0
-7292 -7560 0
-7293 -7317 0
-7294 -7318 0
-7295 -7319 0
-7296 -7320 0
-7293 -7549 0
-7294 -7550 0
-7295 -7551 0
-7296 -7552 0
-7297 -7317 0
-7298 -7318 0
-7299 -7319 0
-7300 -7320 0
-7297 -7461 0
-7298 -7462 0
-7299 -7463 0
-7300 -7464 0
-7301 -7317 0
-7302 -7318 0
-7303 -7319 0
-7304 -7320 0
-7301 -7381 0
-7302 -7382 0
-7303 -7383 0
-7304 -7384 0
-7305 -7317 0
-7306 -7318 0
-7307 -7319 0
-7308 -7320 0
-7305 -7357 0
-7306 -7358 0
-7307 -7359 0
-7308 -7360 0
-7305 -7465 0
-7306 -7466 0
-7307 -7467 0
-7308 -7468 0
-7309 -7317 0
-7310 -7318 0
-7311 -7319 0
-7312 -7320 0
-7309 -7349 0
-7310 -7350 0
-7311 -7351 0
-7312 -7352 0
-7313 -7317 0
-7314 -7318 0
-7315 -7319 0
-7316 -7320 0
-7313 -7345 0
-7314 -7346 0
-7315 -7347 0
-7316 -7348 0
-7317 -7321 0
-7318 -7322 0
-7319 -7323 0
-7320 -7324 0
-7317 -7325 0
-7318 -7326 0
-7319 -7327 0
-7320 -7328 0
-7317 -7329 0
-7318 -7330 0
-7319 -7331 0
-7320 -7332 0
-7317 -7333 0
-7318 -7334 0
-7319 -7335 0
-7320 -7336 0
-7317 -7337 0
-7318 -7338 0
-7319 -7339 0
-7320 -7340 0
-7317 -7341 0
-7318 -7342 0
-7319 -7343 0
-7320 -7344 0
-7317 -7345 0
-7318 -7346 0
-7319 -7347 0
-7320 -7348 0
-7317 -7349 0
-7318 -7350 0
-7319 -7351 0
-7320 -7352 0
-7317 -7353 0
-7318 -7354 0
-7319 -7355 0
-7320 -7356 0
-7317 -7357 0
-7318 -7358 0
-7319 -7359 0
-7320 -7360 0
-7317 -7361 0
-7318 -7362 0
-7319 -7363 0
-7320 -7364 0
-7317 -7381 0
-7318 -7382 0
-7319 -7383 0
-7320 -7384 0
-7317 -7385 0
-7318 -7386 0
-7319 -7387 0
-7320 -7388 0
-7317 -7437 0
-7318 -7438 0
-7319 -7439 0
-7320 -7440 0
-7317 -7469 0
-7318 -7470 0
-7319 -7471 0
-7320 -7472 0
-7317 -7509 0
-7318 -7510 0
-7319 -7511 0
-7320 -7512 0
-7317 -7537 0
-7318 -7538 0
-7319 -7539 0
-7320 -7540 0
-7317 -7549 0
-7318 -7550 0
-7319 -7551 0
-7320 -7552 0
-7317 -7553 0
-7318 -7554 0
-7319 -7555 0
-7320 -7556 0
-7317 -7557 0
-7318 -7558 0
-7319 -7559 0
-7320 -7560 0
-7317 -7561 0
-7318 -7562 0
-7319 -7563 0
-7320 -7564 0
-7325 -7361 0
-7326 -7362 0
-7327 -7363 0
-7328 -7364 0
-7325 -7441 0
-7326 -7442 0
-7327 -7443 0
-7328 -7444 0
-7329 -7385 0
-7330 -7386 0
-7331 -7387 0
-7332 -7388 0
-7333 -7445 0
-7334 -7446 0
-7335 -7447 0
-7336 -7448 0
-7333 -7545 0
-7334 -7546 0
-7335 -7547 0
-7336 -7548 0
-7337 -7449 0
-7338 -7450 0
-7339 -7451 0
-7340 -7452 0
-7337 -7517 0
-7338 -7518 0
-7339 -7519 0
-7340 -7520 0
-7337 -7553 0
-7338 -7554 0
-7339 -7555 0
-7340 -7556 0
-7341 -7481 0
-7342 -7482 0
-7343 -7483 0
-7344 -7484 0
-7341 -7561 0
-7342 -7562 0
-7343 -7563 0
-7344 -7564 0
-7349 -7353 0
-7350 -7354 0
-7351 -7355 0
-7352 -7356 0
-7353 -7485 0
-7354 -7486 0
-7355 -7487 0
-7356 -7488 0
-7353 -7521 0
-7354 -7522 0
-7355 -7523 0
-7356 -7524 0
-7357 -7361 0
-7358 -7362 0
-7359 -7363 0
-7360 -7364 0
-7357 -7489 0
-7358 -7490 0
-7359 -7491 0
-7360 -7492 0
-7357 -7525 0
-7358 -7526 0
-7359 -7527 0
-7360 -7528 0
-7361 -7457 0
-7362 -7458 0
-7363 -7459 0
-7364 -7460 0
-7361 -7529 0
-7362 -7530 0
-7363 -7531 0
-7364 -7532 0
-7365 -7369 0
-7366 -7370 0
-7367 -7371 0
-7368 -7372 0
-7365 -7373 0
-7366 -7374 0
-7367 -7375 0
-7368 -7376 0
-7365 -7557 0
-7366 -7558 0
-7367 -7559 0
-7368 -7560 0
-7369 -7377 0
-7370 -7378 0
-7371 -7379 0
-7372 -7380 0
-7369 -7465 0
-7370 -7466 0
-7371 -7467 0
-7372 -7468 0
-7369 -7557 0
-7370 -7558 0
-7371 -7559 0
-7372 -7560 0
-7373 -7377 0
-7374 -7378 0
-7375 -7379 0
-7376 -7380 0
-7373 -7525 0
-7374 -7526 0
-7375 -7527 0
-7376 -7528 0
-7373 -7561 0
-7374 -7562 0
-7375 -7563 0
-7376 -7564 0
-7377 -7477 0
-7378 -7478 0
-7379 -7479 0
-7380 -7480 0
-7377 -7533 0
-7378 -7534 0
-7379 -7535 0
-7380 -7536 0
-7377 -7561 0
-7378 -7562 0
-7379 -7563 0
-7380 -7564 0
-7381 -7385 0
-7382 -7386 0
-7383 -7387 0
-7384 -7388 0
-7389 -7393 0
-7390 -7394 0
-7391 -7395 0
-7392 -7396 0
-7389 -7409 0
-7390 -7410 0
-7391 -7411 0
-7392 -7412 0
-7389 -7549 0
-7390 -7550 0
-7391 -7551 0
-7392 -7552 0
-7393 -7397 0
-7394 -7398 0
-7395 -7399 0
-7396 -7400 0
-7393 -7417 0
-7394 -7418 0
-7395 -7419 0
-7396 -7420 0
-7393 -7425 0
-7394 -7426 0
-7395 -7427 0
-7396 -7428 0
-7393 -7489 0
-7394 -7490 0
-7395 -7491 0
-7396 -7492 0
-7393 -7501 0
-7394 -7502 0
-7395 -7503 0
-7396 -7504 0
-7393 -7553 0
-7394 -7554 0
-7395 -7555 0
-7396 -7556 0
-7397 -7429 0
-7398 -7430 0
-7399 -7431 0
-7400 -7432 0
-7397 -7433 0
-7398 -7434 0
-7399 -7435 0
-7400 -7436 0
-7397 -7477 0
-7398 -7478 0
-7399 -7479 0
-7400 -7480 0
-7405 -7425 0
-7406 -7426 0
-7407 -7427 0
-7408 -7428 0
-7405 -7537 0
-7406 -7538 0
-7407 -7539 0
-7408 -7540 0
-7409 -7413 0
-7410 -7414 0
-7411 -7415 0
-7412 -7416 0
-7409 -7425 0
-7410 -7426 0
-7411 -7427 0
-7412 -7428 0
-7409 -7437 0
-7410 -7438 0
-7411 -7439 0
-7412 -7440 0
-7413 -7433 0
-7414 -7434 0
-7415 -7435 0
-7416 -7436 0
-7413 -7445 0
-7414 -7446 0
-7415 -7447 0
-7416 -7448 0
-7417 -7421 0
-7418 -7422 0
-7419 -7423 0
-7420 -7424 0
-7417 -7425 0
-7418 -7426 0
-7419 -7427 0
-7420 -7428 0
-7417 -7429 0
-7418 -7430 0
-7419 -7431 0
-7420 -7432 0
-7417 -7461 0
-7418 -7462 0
-7419 -7463 0
-7420 -7464 0
-7417 -7513 0
-7418 -7514 0
-7419 -7515 0
-7420 -7516 0
-7421 -7529 0
-7422 -7530 0
-7423 -7531 0
-7424 -7532 0
-7425 -7433 0
-7426 -7434 0
-7427 -7435 0
-7428 -7436 0
-7425 -7449 0
-7426 -7450 0
-7427 -7451 0
-7428 -7452 0
-7425 -7493 0
-7426 -7494 0
-7427 -7495 0
-7428 -7496 0
-7429 -7433 0
-7430 -7434 0
-7431 -7435 0
-7432 -7436 0
-7429 -7469 0
-7430 -7470 0
-7431 -7471 0
-7432 -7472 0
-7433 -7453 0
-7434 -7454 0
-7435 -7455 0
-7436 -7456 0
-7437 -7441 0
-7438 -7442 0
-7439 -7443 0
-7440 -7444 0
-7437 -7445 0
-7438 -7446 0
-7439 -7447 0
-7440 -7448 0
-7437 -7449 0
-7438 -7450 0
-7439 -7451 0
-7440 -7452 0
-7437 -7457 0
-7438 -7458 0
-7439 -7459 0
-7440 -7460 0
-7437 -7509 0
-7438 -7510 0
-7439 -7511 0
-7440 -7512 0
-7441 -7457 0
-7442 -7458 0
-7443 -7459 0
-7444 -7460 0
-7445 -7453 0
-7446 -7454 0
-7447 -7455 0
-7448 -7456 0
-7449 -7453 0
-7450 -7454 0
-7451 -7455 0
-7452 -7456 0
-7449 -7517 0
-7450 -7518 0
-7451 -7519 0
-7452 -7520 0
-7453 -7561 0
-7454 -7562 0
-7455 -7563 0
-7456 -7564 0
-7457 -7529 0
-7458 -7530 0
-7459 -7531 0
-7460 -7532 0
-7461 -7469 0
-7462 -7470 0
-7463 -7471 0
-7464 -7472 0
-7461 -7473 0
-7462 -7474 0
-7463 -7475 0
-7464 -7476 0
-7465 -7469 0
-7466 -7470 0
-7467 -7471 0
-7468 -7472 0
-7465 -7477 0
-7466 -7478 0
-7467 -7479 0
-7468 -7480 0
-7465 -7489 0
-7466 -7490 0
-7467 -7491 0
-7468 -7492 0
-7469 -7481 0
-7470 -7482 0
-7471 -7483 0
-7472 -7484 0
-7469 -7485 0
-7470 -7486 0
-7471 -7487 0
-7472 -7488 0
-7469 -7489 0
-7470 -7490 0
-7471 -7491 0
-7472 -7492 0
-7469 -7509 0
-7470 -7510 0
-7471 -7511 0
-7472 -7512 0
-7473 -7481 0
-7474 -7482 0
-7475 -7483 0
-7476 -7484 0
-7473 -7529 0
-7474 -7530 0
-7475 -7531 0
-7476 -7532 0
-7477 -7481 0
-7478 -7482 0
-7479 -7483 0
-7480 -7484 0
-7477 -7497 0
-7478 -7498 0
-7479 -7499 0
-7480 -7500 0
-7477 -7533 0
-7478 -7534 0
-7479 -7535 0
-7480 -7536 0
-7485 -7521 0
-7486 -7522 0
-7487 -7523 0
-7488 -7524 0
-7489 -7493 0
-7490 -7494 0
-7491 -7495 0
-7492 -7496 0
-7489 -7525 0
-7490 -7526 0
-7491 -7527 0
-7492 -7528 0
-7489 -7545 0
-7490 -7546 0
-7491 -7547 0
-7492 -7548 0
-7493 -7557 0
-7494 -7558 0
-7495 -7559 0
-7496 -7560 0
-7497 -7501 0
-7498 -7502 0
-7499 -7503 0
-7500 -7504 0
-7497 -7505 0
-7498 -7506 0
-7499 -7507 0
-7500 -7508 0
-7497 -7509 0
-7498 -7510 0
-7499 -7511 0
-7500 -7512 0
-7497 -7541 0
-7498 -7542 0
-7499 -7543 0
-7500 -7544 0
-7501 -7505 0
-7502 -7506 0
-7503 -7507 0
-7504 -7508 0
-7501 -7513 0
-7502 -7514 0
-7503 -7515 0
-7504 -7516 0
-7501 -7545 0
-7502 -7546 0
-7503 -7547 0
-7504 -7548 0
-7501 -7553 0
-7502 -7554 0
-7503 -7555 0
-7504 -7556 0
-7505 -7521 0
-7506 -7522 0
-7507 -7523 0
-7508 -7524 0
-7509 -7513 0
-7510 -7514 0
-7511 -7515 0
-7512 -7516 0
-7509 -7517 0
-7510 -7518 0
-7511 -7519 0
-7512 -7520 0
-7509 -7521 0
-7510 -7522 0
-7511 -7523 0
-7512 -7524 0
-7509 -7525 0
-7510 -7526 0
-7511 -7527 0
-7512 -7528 0
-7509 -7529 0
-7510 -7530 0
-7511 -7531 0
-7512 -7532 0
-7513 -7521 0
-7514 -7522 0
-7515 -7523 0
-7516 -7524 0
-7525 -7529 0
-7526 -7530 0
-7527 -7531 0
-7528 -7532 0
-7525 -7533 0
-7526 -7534 0
-7527 -7535 0
-7528 -7536 0
-7533 -7541 0
-7534 -7542 0
-7535 -7543 0
-7536 -7544 0
-7537 -7545 0
-7538 -7546 0
-7539 -7547 0
-7540 -7548 0
-7541 -7545 0
-7542 -7546 0
-7543 -7547 0
-7544 -7548 0
-7541 -7557 0
-7542 -7558 0
-7543 -7559 0
-7544 -7560 0
-7549 -7553 0
-7550 -7554 0
-7551 -7555 0
-7552 -7556 0
-7557 -7561 0
-7558 -7562 0
-7559 -7563 0
-7560 -7564 0
1 0
226 0
235 0
-621 -2333 0
-622 -2334 0
-623 -2335 0
-624 -2336 0
-3537 -653 0
-3538 -654 0
-3539 -655 0
-3540 -656 0
-621 -6113 0
-622 -6114 0
-623 -6115 0
-624 -6116 0
-7317 -4433 0
-7318 -4434 0
-7319 -4435 0
-7320 -4436 0
