c 4-colouring of G1 minus [257, 272, 397, 446, 584, 597, 692] with col(A)=col(B) (greedy re-insertion of the other removed vertices, order index_asc): certificate that this set cannot be removed as a whole
1 2
2 3
3 2
4 3
5 2
6 1
7 2
8 2
9 3
10 2
11 1
12 4
13 4
14 3
15 3
16 1
17 4
18 3
19 2
20 4
21 2
22 3
23 2
24 4
25 1
26 4
27 3
28 3
29 1
30 1
31 4
32 4
33 1
34 4
35 2
36 3
37 3
38 2
39 2
40 2
41 3
42 2
43 1
44 4
45 4
46 1
47 1
48 4
49 2
50 2
51 2
52 4
53 1
54 1
55 4
56 3
57 2
58 1
59 4
60 1
61 4
62 3
63 2
64 3
65 1
66 1
67 4
68 3
69 2
70 3
71 4
72 2
73 1
74 3
75 3
76 1
77 3
78 2
79 3
80 1
81 3
82 4
83 1
84 4
85 4
86 1
87 3
88 2
89 3
90 4
91 1
92 4
93 1
94 4
95 2
96 3
97 2
98 3
99 1
100 4
101 2
102 1
103 3
104 2
105 4
106 1
107 1
108 3
109 3
110 2
111 2
112 4
113 1
114 2
115 3
116 3
117 2
118 1
119 4
120 4
121 2
122 4
123 3
124 3
125 1
126 4
127 1
128 1
129 2
130 1
131 3
132 1
133 2
134 3
135 3
136 4
137 1
138 2
139 1
140 2
141 3
142 4
143 3
144 2
145 4
146 4
147 3
148 3
149 1
150 2
151 4
152 1
153 2
154 3
155 4
156 1
157 2
158 3
159 4
160 1
161 3
162 2
163 4
164 3
165 4
166 3
167 2
168 2
169 2
170 2
171 2
172 3
173 2
174 2
175 2
176 1
177 3
178 4
179 4
180 4
181 1
182 4
183 4
184 4
185 4
186 1
187 2
188 4
189 2
190 1
191 4
192 3
193 3
194 2
195 3
196 1
197 4
198 2
199 3
200 1
201 4
202 2
203 3
204 4
205 3
206 3
207 2
208 1
209 2
210 2
211 3
212 4
213 4
214 4
215 1
216 4
217 1
218 3
219 2
220 3
221 2
222 3
223 2
224 3
225 3
226 2
227 4
228 1
229 3
230 2
231 4
232 1
233 1
234 4
235 4
236 3
237 3
238 3
239 2
240 1
241 4
242 1
243 2
244 2
245 1
246 4
247 2
248 1
249 3
250 2
251 2
252 3
253 4
254 1
255 3
256 2
258 4
259 4
260 1
261 3
262 2
263 1
264 2
265 4
266 4
267 1
268 1
269 2
270 3
271 3
273 3
274 4
275 3
276 4
277 1
278 2
279 4
280 1
281 1
282 3
283 2
284 3
285 2
286 3
287 3
288 4
289 1
290 3
291 2
292 1
293 1
294 2
295 1
296 4
297 1
298 4
299 4
300 1
301 2
302 1
303 1
304 2
305 2
306 3
307 3
308 1
309 2
310 2
311 2
312 2
313 3
314 1
315 1
316 2
317 4
318 4
319 2
320 2
321 1
322 1
323 4
324 1
325 3
326 2
327 3
328 1
329 2
330 3
331 3
332 1
333 2
334 3
335 3
336 4
337 1
338 4
339 1
340 3
341 2
342 1
343 3
344 3
345 2
346 1
347 1
348 3
349 2
350 2
351 3
352 1
353 4
354 3
355 1
356 1
357 2
358 4
359 1
360 4
361 1
362 4
363 3
364 2
365 1
366 2
367 3
368 2
369 1
370 1
371 1
372 2
373 1
374 4
375 3
376 2
377 3
378 2
379 1
380 2
381 3
382 4
383 1
384 1
385 2
386 4
387 3
388 1
389 4
390 2
391 3
392 3
393 2
394 4
395 4
396 1
398 3
399 4
400 3
401 2
402 1
403 4
404 1
405 4
406 4
407 4
408 1
409 1
410 4
411 4
412 3
413 4
414 2
415 3
416 2
417 2
418 3
419 2
420 2
421 1
422 1
423 2
424 4
425 3
426 1
427 2
428 1
429 1
430 1
431 3
432 3
433 2
434 4
435 4
436 3
437 3
438 2
439 2
440 3
441 2
442 3
443 1
444 2
445 1
447 4
448 4
449 4
450 1
451 4
452 3
453 1
454 4
455 4
456 1
457 4
458 3
459 2
460 2
461 2
462 4
463 3
464 2
465 1
466 4
467 1
468 4
469 4
470 4
471 3
472 2
473 2
474 4
475 3
476 4
477 1
478 1
479 3
480 2
481 2
482 3
483 1
484 4
485 1
486 2
487 2
488 4
489 1
490 3
491 3
492 2
493 4
494 2
495 1
496 4
497 2
498 3
499 4
500 1
501 4
502 3
503 2
504 4
505 2
506 3
507 3
508 4
509 4
510 1
511 2
512 4
513 4
514 1
515 1
516 4
517 4
518 1
519 2
520 3
521 2
522 3
523 2
524 2
525 3
526 1
527 3
528 4
529 3
530 4
531 3
532 3
533 1
534 1
535 2
536 2
537 4
538 2
539 3
540 3
541 2
542 2
543 3
544 3
545 2
546 4
547 2
548 4
549 2
550 1
551 3
552 2
553 1
554 3
555 1
556 3
557 3
558 3
559 4
560 1
561 3
562 4
563 4
564 4
565 1
566 1
567 1
568 3
569 4
570 1
571 1
572 3
573 3
574 3
575 2
576 3
577 2
578 3
579 3
580 2
581 2
582 3
583 4
585 3
586 2
587 2
588 3
589 3
590 1
591 3
592 2
593 4
594 1
595 3
596 1
598 4
599 3
600 2
601 3
602 1
603 2
604 1
605 1
606 4
607 2
608 3
609 2
610 2
611 1
612 3
613 2
614 2
615 3
616 4
617 4
618 4
619 1
620 3
621 1
622 1
623 4
624 1
625 4
626 4
627 3
628 4
629 1
630 1
631 3
632 2
633 2
634 2
635 2
636 4
637 1
638 3
639 4
640 1
641 3
642 2
643 2
644 1
645 3
646 2
647 3
648 2
649 1
650 2
651 4
652 4
653 1
654 2
655 1
656 3
657 3
658 1
659 4
660 4
661 1
662 4
663 1
664 2
665 4
666 1
667 2
668 1
669 1
670 3
671 4
672 1
673 2
674 1
675 4
676 1
677 2
678 2
679 3
680 1
681 4
682 1
683 4
684 4
685 2
686 3
687 2
688 2
689 3
690 1
691 1
693 3
694 2
695 2
696 3
697 1
698 4
699 1
700 4
701 1
702 3
703 3
704 2
705 2
706 3
707 3
708 1
709 4
710 3
711 3
712 1
713 4
714 4
715 3
716 2
717 1
718 4
719 3
720 3
721 1
722 1
723 2
724 3
725 2
726 2
727 4
728 3
729 3
730 1
731 3
732 4
733 3
734 3
735 2
736 2
737 4
738 1
739 4
740 1
