c 4-colouring of G1 minus [72, 121, 141, 370, 371, 373, 422, 495, 529, 531, 563, 616] with col(A)=col(B) (greedy re-insertion of the other removed vertices, order index_asc): certificate that this set cannot be removed as a whole
1 4
2 1
3 1
4 4
5 2
6 2
7 4
8 1
9 3
10 2
11 1
12 4
13 2
14 3
15 2
16 2
17 3
18 2
19 1
20 3
21 3
22 4
23 1
24 2
25 1
26 2
27 4
28 4
29 1
30 1
31 3
32 3
33 1
34 3
35 2
36 2
37 4
38 1
39 2
40 1
41 4
42 2
43 1
44 3
45 3
46 1
47 2
48 3
49 4
50 4
51 1
52 2
53 4
54 2
55 1
56 3
57 4
58 1
59 3
60 1
61 2
62 2
63 4
64 4
65 3
66 4
67 4
68 4
69 1
70 4
71 3
73 1
74 3
75 2
76 4
77 4
78 3
79 2
80 1
81 3
82 4
83 1
84 4
85 2
86 4
87 3
88 2
89 4
90 4
91 2
92 3
93 1
94 3
95 4
96 3
97 1
98 4
99 2
100 3
101 4
102 4
103 3
104 2
105 1
106 2
107 4
108 3
109 4
110 1
111 3
112 4
113 2
114 2
115 4
116 1
117 3
118 1
119 2
120 2
122 1
123 4
124 4
125 3
126 1
127 2
128 1
129 2
130 3
131 3
132 1
133 3
134 2
135 4
136 1
137 1
138 2
139 1
140 3
142 4
143 2
144 2
145 4
146 3
147 1
148 2
149 4
150 3
151 2
152 3
153 4
154 2
155 1
156 3
157 3
158 4
159 3
160 1
161 2
162 3
163 3
164 2
165 3
166 2
167 3
168 2
169 1
170 3
171 1
172 4
173 2
174 1
175 2
176 2
177 3
178 3
179 4
180 3
181 1
182 4
183 3
184 4
185 4
186 3
187 2
188 3
189 2
190 2
191 1
192 4
193 4
194 2
195 2
196 1
197 3
198 2
199 4
200 3
201 1
202 2
203 3
204 4
205 3
206 3
207 4
208 3
209 1
210 2
211 3
212 3
213 3
214 4
215 1
216 3
217 2
218 2
219 3
220 2
221 2
222 1
223 3
224 1
225 3
226 1
227 1
228 3
229 1
230 4
231 3
232 1
233 4
234 1
235 2
236 4
237 1
238 3
239 2
240 1
241 4
242 1
243 2
244 1
245 3
246 1
247 3
248 4
249 4
250 2
251 3
252 1
253 4
254 2
255 3
256 1
257 3
258 1
259 3
260 2
261 2
262 1
263 1
264 4
265 2
266 3
267 1
268 1
269 4
270 3
271 2
272 2
273 4
274 1
275 1
276 4
277 3
278 1
279 3
280 1
281 1
282 1
283 3
284 4
285 2
286 4
287 2
288 1
289 3
290 1
291 1
292 4
293 2
294 2
295 1
296 4
297 2
298 4
299 3
300 2
301 3
302 2
303 1
304 3
305 3
306 4
307 4
308 3
309 4
310 1
311 4
312 1
313 4
314 2
315 1
316 4
317 4
318 2
319 1
320 1
321 2
322 2
323 4
324 1
325 2
326 1
327 3
328 4
329 3
330 1
331 2
332 4
333 1
334 3
335 3
336 3
337 1
338 3
339 1
340 2
341 3
342 2
343 1
344 3
345 3
346 1
347 1
348 4
349 3
350 1
351 4
352 1
353 2
354 2
355 1
356 2
357 1
358 1
359 4
360 4
361 2
362 1
363 2
364 3
365 2
366 1
367 4
368 1
369 4
372 4
374 4
375 2
376 4
377 3
378 1
379 1
380 4
381 2
382 2
383 4
384 3
385 4
386 1
387 4
388 4
389 1
390 2
391 3
392 4
393 2
394 2
395 1
396 3
397 2
398 3
399 1
400 4
401 2
402 2
403 4
404 3
405 4
406 1
407 1
408 3
409 2
410 4
411 3
412 1
413 3
414 1
415 3
416 2
417 2
418 4
419 2
420 1
421 3
423 4
424 2
425 2
426 3
427 1
428 2
429 2
430 2
431 2
432 3
433 1
434 3
435 2
436 4
437 4
438 1
439 1
440 4
441 1
442 4
443 2
444 1
445 3
446 1
447 4
448 1
449 3
450 2
451 3
452 1
453 3
454 2
455 3
456 1
457 3
458 4
459 3
460 2
461 3
462 1
463 1
464 4
465 2
466 2
467 3
468 1
469 4
470 4
471 3
472 2
473 2
474 1
475 4
476 1
477 2
478 1
479 3
480 3
481 4
482 1
483 2
484 1
485 3
486 4
487 4
488 2
489 3
490 1
491 1
492 3
493 3
494 4
496 1
497 2
498 1
499 1
500 3
501 2
502 4
503 3
504 3
505 3
506 4
507 2
508 3
509 1
510 4
511 2
512 3
513 4
514 2
515 3
516 1
517 3
518 1
519 3
520 1
521 2
522 4
523 1
524 2
525 4
526 3
527 4
528 4
530 2
532 3
533 4
534 2
535 4
536 1
537 3
538 4
539 2
540 3
541 1
542 2
543 4
544 4
545 1
546 3
547 4
548 3
549 2
550 1
551 4
552 2
553 4
554 2
555 4
556 3
557 3
558 4
559 2
560 1
561 4
562 2
564 3
565 4
566 4
567 1
568 4
569 2
570 3
571 4
572 3
573 1
574 4
575 4
576 1
577 4
578 1
579 4
580 2
581 1
582 4
583 2
584 4
585 4
586 1
587 4
588 2
589 1
590 4
591 2
592 1
593 4
594 2
595 3
596 3
597 2
598 4
599 2
600 3
601 1
602 4
603 1
604 2
605 1
606 3
607 4
608 2
609 3
610 1
611 1
612 4
613 1
614 4
615 2
617 3
618 2
619 3
620 4
621 4
622 1
623 3
624 1
625 3
626 4
627 2
628 2
629 3
630 4
631 1
632 3
633 4
634 3
635 4
636 1
637 1
638 4
639 3
640 3
641 1
642 4
643 3
644 2
645 4
646 2
647 3
648 1
649 4
650 1
651 3
652 2
653 4
654 4
655 3
656 2
657 3
658 3
659 1
660 1
661 3
662 2
663 4
664 3
665 3
666 4
667 3
668 2
669 2
670 1
671 3
672 2
673 1
674 2
675 2
676 1
677 2
678 2
679 4
680 4
681 2
682 1
683 4
684 3
685 1
686 3
687 4
688 3
689 4
690 3
691 3
692 2
693 3
694 2
695 1
696 4
697 1
698 3
699 2
700 2
701 3
702 4
703 4
704 2
705 2
706 1
707 1
708 3
709 4
710 3
711 3
712 2
713 4
714 2
715 1
716 2
717 1
718 2
719 3
720 3
721 1
722 1
723 4
724 4
725 2
726 2
727 4
728 1
729 3
730 4
731 4
732 4
733 3
734 3
735 4
736 1
737 4
738 3
739 1
740 3
