c 4-colouring of G1 minus [221, 295, 417, 591, 610, 615, 675, 732] with col(A)=col(B) (greedy re-insertion of the other removed vertices, order index_asc): certificate that this set cannot be removed as a whole
1 2
2 3
3 1
4 3
5 1
6 2
7 4
8 1
9 2
10 2
11 1
12 3
13 4
14 2
15 2
16 2
17 3
18 3
19 4
20 2
21 1
22 1
23 2
24 3
25 2
26 3
27 1
28 4
29 2
30 2
31 3
32 3
33 4
34 2
35 3
36 4
37 1
38 3
39 3
40 3
41 4
42 4
43 3
44 2
45 2
46 3
47 4
48 1
49 1
50 1
51 3
52 1
53 4
54 1
55 3
56 4
57 2
58 1
59 3
60 4
61 1
62 1
63 2
64 4
65 3
66 1
67 1
68 2
69 4
70 4
71 3
72 1
73 3
74 2
75 1
76 4
77 4
78 3
79 1
80 2
81 1
82 4
83 2
84 2
85 3
86 2
87 1
88 4
89 2
90 1
91 3
92 1
93 2
94 4
95 4
96 3
97 2
98 1
99 3
100 2
101 4
102 1
103 3
104 2
105 4
106 3
107 1
108 2
109 1
110 4
111 3
112 4
113 2
114 2
115 1
116 1
117 4
118 3
119 2
120 2
121 4
122 2
123 3
124 2
125 2
126 3
127 2
128 4
129 1
130 4
131 2
132 3
133 4
134 2
135 1
136 3
137 2
138 4
139 1
140 2
141 3
142 3
143 4
144 4
145 3
146 3
147 1
148 2
149 3
150 2
151 2
152 4
153 4
154 2
155 1
156 4
157 2
158 3
159 4
160 1
161 3
162 2
163 1
164 2
165 2
166 4
167 2
168 4
169 1
170 2
171 1
172 3
173 2
174 1
175 1
176 4
177 2
178 2
179 3
180 4
181 1
182 3
183 4
184 3
185 3
186 2
187 3
188 4
189 3
190 2
191 1
192 4
193 3
194 2
195 3
196 1
197 4
198 2
199 3
200 4
201 2
202 3
203 4
204 3
205 2
206 2
207 3
208 2
209 1
210 3
211 2
212 2
213 3
214 3
215 2
216 3
217 4
218 2
219 3
220 2
222 4
223 2
224 1
225 4
226 1
227 1
228 3
229 4
230 1
231 3
232 4
233 2
234 1
235 3
236 2
237 1
238 4
239 1
240 1
241 4
242 2
243 2
244 3
245 2
246 1
247 4
248 3
249 2
250 1
251 4
252 2
253 2
254 4
255 1
256 3
257 1
258 3
259 4
260 1
261 2
262 3
263 1
264 2
265 3
266 1
267 4
268 3
269 2
270 1
271 4
272 1
273 4
274 3
275 2
276 3
277 1
278 3
279 1
280 4
281 2
282 4
283 1
284 4
285 3
286 4
287 2
288 4
289 2
290 2
291 2
292 4
293 3
294 3
296 2
297 4
298 1
299 3
300 4
301 3
302 4
303 2
304 3
305 3
306 1
307 1
308 3
309 4
310 2
311 1
312 2
313 1
314 4
315 1
316 4
317 2
318 3
319 2
320 1
321 4
322 1
323 2
324 4
325 4
326 4
327 3
328 1
329 3
330 4
331 1
332 2
333 4
334 2
335 1
336 2
337 3
338 3
339 4
340 4
341 2
342 2
343 1
344 3
345 3
346 2
347 4
348 4
349 1
350 1
351 4
352 3
353 4
354 4
355 3
356 1
357 4
358 3
359 2
360 4
361 1
362 4
363 1
364 3
365 2
366 3
367 1
368 4
369 3
370 4
371 1
372 1
373 4
374 1
375 4
376 2
377 3
378 2
379 1
380 2
381 1
382 1
383 3
384 3
385 1
386 4
387 1
388 1
389 3
390 4
391 2
392 1
393 3
394 1
395 2
396 4
397 4
398 3
399 1
400 1
401 4
402 3
403 4
404 2
405 1
406 4
407 1
408 3
409 1
410 4
411 3
412 1
413 3
414 4
415 3
416 4
418 2
419 4
420 3
421 2
422 1
423 4
424 1
425 4
426 1
427 3
428 4
429 1
430 4
431 1
432 1
433 2
434 1
435 4
436 2
437 2
438 3
439 3
440 2
441 3
442 2
443 4
444 3
445 1
446 4
447 2
448 4
449 4
450 1
451 2
452 3
453 1
454 3
455 1
456 2
457 3
458 2
459 1
460 3
461 1
462 2
463 2
464 1
465 3
466 3
467 2
468 3
469 4
470 1
471 2
472 3
473 4
474 4
475 1
476 1
477 3
478 2
479 2
480 4
481 1
482 3
483 2
484 1
485 2
486 2
487 1
488 3
489 3
490 4
491 1
492 3
493 4
494 1
495 4
496 1
497 4
498 1
499 1
500 3
501 2
502 1
503 4
504 1
505 1
506 2
507 4
508 1
509 3
510 2
511 1
512 4
513 3
514 2
515 4
516 1
517 2
518 3
519 1
520 1
521 1
522 4
523 1
524 1
525 2
526 3
527 2
528 4
529 1
530 3
531 4
532 2
533 3
534 4
535 3
536 1
537 4
538 3
539 2
540 1
541 3
542 2
543 3
544 3
545 2
546 2
547 3
548 4
549 1
550 1
551 3
552 4
553 3
554 4
555 3
556 2
557 4
558 3
559 4
560 1
561 3
562 4
563 3
564 3
565 3
566 3
567 1
568 3
569 4
570 1
571 3
572 2
573 1
574 3
575 3
576 1
577 3
578 2
579 3
580 4
581 1
582 3
583 4
584 3
585 3
586 1
587 2
588 4
589 1
590 3
592 4
593 3
594 2
595 4
596 2
597 3
598 3
599 2
600 2
601 1
602 3
603 4
604 3
605 3
606 4
607 1
608 2
609 4
611 4
612 1
613 4
614 1
616 1
617 3
618 2
619 3
620 1
621 1
622 3
623 4
624 1
625 4
626 1
627 2
628 1
629 3
630 2
631 3
632 2
633 1
634 4
635 2
636 3
637 3
638 4
639 2
640 1
641 3
642 2
643 1
644 2
645 4
646 1
647 1
648 3
649 4
650 4
651 2
652 3
653 1
654 4
655 2
656 3
657 1
658 2
659 1
660 4
661 2
662 1
663 4
664 1
665 3
666 4
667 2
668 4
669 1
670 2
671 3
672 3
673 1
674 3
676 4
677 1
678 3
679 2
680 2
681 4
682 4
683 2
684 3
685 1
686 2
687 2
688 3
689 2
690 4
691 2
692 2
693 1
694 4
695 2
696 1
697 3
698 2
699 3
700 3
701 2
702 2
703 4
704 1
705 4
706 4
707 1
708 3
709 2
710 2
711 2
712 3
713 4
714 4
715 2
716 1
717 4
718 3
719 2
720 2
721 3
722 3
723 2
724 4
725 1
726 1
727 2
728 1
729 4
730 3
731 3
733 2
734 4
735 1
736 2
737 4
738 2
739 4
740 3
