p cnf 4264 21436
21 22 23 24 0
25 26 27 28 0
33 34 35 36 0
41 42 43 44 0
45 46 47 48 0
53 54 55 56 0
65 66 67 68 0
69 70 71 72 0
73 74 75 76 0
85 86 87 88 0
89 90 91 92 0
97 98 99 100 0
109 110 111 112 0
113 114 115 116 0
121 122 123 124 0
137 138 139 140 0
141 142 143 144 0
153 154 155 156 0
157 158 159 160 0
161 162 163 164 0
165 166 167 168 0
169 170 171 172 0
177 178 179 180 0
181 182 183 184 0
185 186 187 188 0
189 190 191 192 0
193 194 195 196 0
205 206 207 208 0
209 210 211 212 0
213 214 215 216 0
217 218 219 220 0
221 222 223 224 0
225 226 227 228 0
229 230 231 232 0
233 234 235 236 0
237 238 239 240 0
245 246 247 248 0
249 250 251 252 0
253 254 255 256 0
257 258 259 260 0
277 278 279 280 0
293 294 295 296 0
297 298 299 300 0
305 306 307 308 0
317 318 319 320 0
325 326 327 328 0
341 342 343 344 0
345 346 347 348 0
349 350 351 352 0
353 354 355 356 0
361 362 363 364 0
369 370 371 372 0
373 374 375 376 0
377 378 379 380 0
381 382 383 384 0
385 386 387 388 0
389 390 391 392 0
393 394 395 396 0
397 398 399 400 0
405 406 407 408 0
409 410 411 412 0
413 414 415 416 0
425 426 427 428 0
429 430 431 432 0
437 438 439 440 0
441 442 443 444 0
445 446 447 448 0
449 450 451 452 0
453 454 455 456 0
465 466 467 468 0
473 474 475 476 0
477 478 479 480 0
481 482 483 484 0
485 486 487 488 0
489 490 491 492 0
493 494 495 496 0
497 498 499 500 0
501 502 503 504 0
505 506 507 508 0
509 510 511 512 0
513 514 515 516 0
525 526 527 528 0
541 542 543 544 0
549 550 551 552 0
553 554 555 556 0
557 558 559 560 0
561 562 563 564 0
565 566 567 568 0
569 570 571 572 0
573 574 575 576 0
577 578 579 580 0
581 582 583 584 0
585 586 587 588 0
593 594 595 596 0
597 598 599 600 0
601 602 603 604 0
609 610 611 612 0
613 614 615 616 0
617 618 619 620 0
629 630 631 632 0
633 634 635 636 0
637 638 639 640 0
645 646 647 648 0
649 650 651 652 0
657 658 659 660 0
661 662 663 664 0
665 666 667 668 0
677 678 679 680 0
685 686 687 688 0
693 694 695 696 0
697 698 699 700 0
705 706 707 708 0
709 710 711 712 0
713 714 715 716 0
717 718 719 720 0
721 722 723 724 0
725 726 727 728 0
729 730 731 732 0
733 734 735 736 0
741 742 743 744 0
745 746 747 748 0
753 754 755 756 0
761 762 763 764 0
765 766 767 768 0
769 770 771 772 0
773 774 775 776 0
777 778 779 780 0
789 790 791 792 0
793 794 795 796 0
797 798 799 800 0
805 806 807 808 0
813 814 815 816 0
821 822 823 824 0
829 830 831 832 0
837 838 839 840 0
841 842 843 844 0
845 846 847 848 0
857 858 859 860 0
861 862 863 864 0
865 866 867 868 0
873 874 875 876 0
877 878 879 880 0
881 882 883 884 0
885 886 887 888 0
889 890 891 892 0
897 898 899 900 0
905 906 907 908 0
909 910 911 912 0
913 914 915 916 0
925 926 927 928 0
929 930 931 932 0
933 934 935 936 0
941 942 943 944 0
945 946 947 948 0
949 950 951 952 0
957 958 959 960 0
961 962 963 964 0
965 966 967 968 0
969 970 971 972 0
973 974 975 976 0
985 986 987 988 0
989 990 991 992 0
993 994 995 996 0
997 998 999 1000 0
1001 1002 1003 1004 0
1005 1006 1007 1008 0
1013 1014 1015 1016 0
1017 1018 1019 1020 0
1025 1026 1027 1028 0
1033 1034 1035 1036 0
1037 1038 1039 1040 0
1041 1042 1043 1044 0
1049 1050 1051 1052 0
1053 1054 1055 1056 0
1057 1058 1059 1060 0
1061 1062 1063 1064 0
1065 1066 1067 1068 0
1069 1070 1071 1072 0
1073 1074 1075 1076 0
1085 1086 1087 1088 0
1093 1094 1095 1096 0
1097 1098 1099 1100 0
1105 1106 1107 1108 0
1113 1114 1115 1116 0
1117 1118 1119 1120 0
1121 1122 1123 1124 0
1129 1130 1131 1132 0
1133 1134 1135 1136 0
1137 1138 1139 1140 0
1149 1150 1151 1152 0
1153 1154 1155 1156 0
1157 1158 1159 1160 0
1161 1162 1163 1164 0
1165 1166 1167 1168 0
1169 1170 1171 1172 0
1173 1174 1175 1176 0
1185 1186 1187 1188 0
1193 1194 1195 1196 0
1201 1202 1203 1204 0
1205 1206 1207 1208 0
1221 1222 1223 1224 0
1225 1226 1227 1228 0
1229 1230 1231 1232 0
1233 1234 1235 1236 0
1237 1238 1239 1240 0
1241 1242 1243 1244 0
1249 1250 1251 1252 0
1253 1254 1255 1256 0
1257 1258 1259 1260 0
1261 1262 1263 1264 0
1269 1270 1271 1272 0
1273 1274 1275 1276 0
1277 1278 1279 1280 0
1281 1282 1283 1284 0
1285 1286 1287 1288 0
1289 1290 1291 1292 0
1293 1294 1295 1296 0
1297 1298 1299 1300 0
1301 1302 1303 1304 0
1305 1306 1307 1308 0
1309 1310 1311 1312 0
1313 1314 1315 1316 0
1317 1318 1319 1320 0
1321 1322 1323 1324 0
1325 1326 1327 1328 0
1341 1342 1343 1344 0
1349 1350 1351 1352 0
1353 1354 1355 1356 0
1361 1362 1363 1364 0
1365 1366 1367 1368 0
1369 1370 1371 1372 0
1381 1382 1383 1384 0
1389 1390 1391 1392 0
1393 1394 1395 1396 0
1397 1398 1399 1400 0
1401 1402 1403 1404 0
1405 1406 1407 1408 0
1413 1414 1415 1416 0
1417 1418 1419 1420 0
1421 1422 1423 1424 0
1425 1426 1427 1428 0
1429 1430 1431 1432 0
1433 1434 1435 1436 0
1437 1438 1439 1440 0
1441 1442 1443 1444 0
1445 1446 1447 1448 0
1449 1450 1451 1452 0
1453 1454 1455 1456 0
1461 1462 1463 1464 0
1465 1466 1467 1468 0
1469 1470 1471 1472 0
1477 1478 1479 1480 0
1481 1482 1483 1484 0
1489 1490 1491 1492 0
1497 1498 1499 1500 0
1501 1502 1503 1504 0
1505 1506 1507 1508 0
1509 1510 1511 1512 0
1513 1514 1515 1516 0
1517 1518 1519 1520 0
1521 1522 1523 1524 0
1529 1530 1531 1532 0
1541 1542 1543 1544 0
1549 1550 1551 1552 0
1553 1554 1555 1556 0
1557 1558 1559 1560 0
1561 1562 1563 1564 0
1565 1566 1567 1568 0
1569 1570 1571 1572 0
1589 1590 1591 1592 0
1593 1594 1595 1596 0
1597 1598 1599 1600 0
1601 1602 1603 1604 0
1605 1606 1607 1608 0
1609 1610 1611 1612 0
1613 1614 1615 1616 0
1621 1622 1623 1624 0
1629 1630 1631 1632 0
1633 1634 1635 1636 0
1637 1638 1639 1640 0
1641 1642 1643 1644 0
1653 1654 1655 1656 0
1665 1666 1667 1668 0
1669 1670 1671 1672 0
1673 1674 1675 1676 0
1677 1678 1679 1680 0
1689 1690 1691 1692 0
1693 1694 1695 1696 0
1697 1698 1699 1700 0
1701 1702 1703 1704 0
1713 1714 1715 1716 0
1717 1718 1719 1720 0
1725 1726 1727 1728 0
1729 1730 1731 1732 0
1733 1734 1735 1736 0
1737 1738 1739 1740 0
1741 1742 1743 1744 0
1745 1746 1747 1748 0
1749 1750 1751 1752 0
1757 1758 1759 1760 0
1761 1762 1763 1764 0
1765 1766 1767 1768 0
1769 1770 1771 1772 0
1773 1774 1775 1776 0
1777 1778 1779 1780 0
1781 1782 1783 1784 0
1785 1786 1787 1788 0
1789 1790 1791 1792 0
1793 1794 1795 1796 0
1797 1798 1799 1800 0
1801 1802 1803 1804 0
1805 1806 1807 1808 0
1813 1814 1815 1816 0
1821 1822 1823 1824 0
1829 1830 1831 1832 0
1833 1834 1835 1836 0
1837 1838 1839 1840 0
1841 1842 1843 1844 0
1845 1846 1847 1848 0
1853 1854 1855 1856 0
1857 1858 1859 1860 0
1865 1866 1867 1868 0
1877 1878 1879 1880 0
1881 1882 1883 1884 0
1885 1886 1887 1888 0
1889 1890 1891 1892 0
1893 1894 1895 1896 0
1897 1898 1899 1900 0
1901 1902 1903 1904 0
1913 1914 1915 1916 0
1917 1918 1919 1920 0
1921 1922 1923 1924 0
1925 1926 1927 1928 0
1929 1930 1931 1932 0
1937 1938 1939 1940 0
1941 1942 1943 1944 0
1949 1950 1951 1952 0
1953 1954 1955 1956 0
1957 1958 1959 1960 0
1961 1962 1963 1964 0
1969 1970 1971 1972 0
1973 1974 1975 1976 0
1977 1978 1979 1980 0
1981 1982 1983 1984 0
1985 1986 1987 1988 0
1989 1990 1991 1992 0
2001 2002 2003 2004 0
2005 2006 2007 2008 0
2009 2010 2011 2012 0
2013 2014 2015 2016 0
2017 2018 2019 2020 0
2021 2022 2023 2024 0
2025 2026 2027 2028 0
2029 2030 2031 2032 0
2037 2038 2039 2040 0
2045 2046 2047 2048 0
2049 2050 2051 2052 0
2053 2054 2055 2056 0
2057 2058 2059 2060 0
2065 2066 2067 2068 0
2069 2070 2071 2072 0
2077 2078 2079 2080 0
2081 2082 2083 2084 0
2085 2086 2087 2088 0
2089 2090 2091 2092 0
2093 2094 2095 2096 0
2097 2098 2099 2100 0
2105 2106 2107 2108 0
2109 2110 2111 2112 0
2113 2114 2115 2116 0
2117 2118 2119 2120 0
2125 2126 2127 2128 0
2129 2130 2131 2132 0
2133 2134 2135 2136 0
2137 2138 2139 2140 0
2145 2146 2147 2148 0
2149 2150 2151 2152 0
2153 2154 2155 2156 0
2157 2158 2159 2160 0
2161 2162 2163 2164 0
2165 2166 2167 2168 0
2173 2174 2175 2176 0
2177 2178 2179 2180 0
2181 2182 2183 2184 0
2189 2190 2191 2192 0
2197 2198 2199 2200 0
2201 2202 2203 2204 0
2205 2206 2207 2208 0
2209 2210 2211 2212 0
2217 2218 2219 2220 0
2221 2222 2223 2224 0
2225 2226 2227 2228 0
2229 2230 2231 2232 0
2233 2234 2235 2236 0
2237 2238 2239 2240 0
2241 2242 2243 2244 0
2245 2246 2247 2248 0
2257 2258 2259 2260 0
2265 2266 2267 2268 0
2269 2270 2271 2272 0
2273 2274 2275 2276 0
2277 2278 2279 2280 0
2281 2282 2283 2284 0
2293 2294 2295 2296 0
2297 2298 2299 2300 0
2301 2302 2303 2304 0
2309 2310 2311 2312 0
2313 2314 2315 2316 0
2317 2318 2319 2320 0
2333 2334 2335 2336 0
2337 2338 2339 2340 0
2341 2342 2343 2344 0
2345 2346 2347 2348 0
2353 2354 2355 2356 0
2361 2362 2363 2364 0
2365 2366 2367 2368 0
2369 2370 2371 2372 0
2373 2374 2375 2376 0
2377 2378 2379 2380 0
2381 2382 2383 2384 0
2385 2386 2387 2388 0
2389 2390 2391 2392 0
2393 2394 2395 2396 0
2397 2398 2399 2400 0
2405 2406 2407 2408 0
2413 2414 2415 2416 0
2425 2426 2427 2428 0
2429 2430 2431 2432 0
2433 2434 2435 2436 0
2437 2438 2439 2440 0
2449 2450 2451 2452 0
2461 2462 2463 2464 0
2465 2466 2467 2468 0
2469 2470 2471 2472 0
2477 2478 2479 2480 0
2485 2486 2487 2488 0
2489 2490 2491 2492 0
2493 2494 2495 2496 0
2505 2506 2507 2508 0
2509 2510 2511 2512 0
2513 2514 2515 2516 0
2517 2518 2519 2520 0
2525 2526 2527 2528 0
2529 2530 2531 2532 0
2533 2534 2535 2536 0
2537 2538 2539 2540 0
2541 2542 2543 2544 0
2545 2546 2547 2548 0
2549 2550 2551 2552 0
2553 2554 2555 2556 0
2557 2558 2559 2560 0
2561 2562 2563 2564 0
2569 2570 2571 2572 0
2573 2574 2575 2576 0
2577 2578 2579 2580 0
2581 2582 2583 2584 0
2585 2586 2587 2588 0
2589 2590 2591 2592 0
2593 2594 2595 2596 0
2597 2598 2599 2600 0
2601 2602 2603 2604 0
2605 2606 2607 2608 0
2609 2610 2611 2612 0
2613 2614 2615 2616 0
2617 2618 2619 2620 0
2621 2622 2623 2624 0
2625 2626 2627 2628 0
2629 2630 2631 2632 0
2633 2634 2635 2636 0
2637 2638 2639 2640 0
2641 2642 2643 2644 0
2645 2646 2647 2648 0
2649 2650 2651 2652 0
2653 2654 2655 2656 0
2657 2658 2659 2660 0
2661 2662 2663 2664 0
2665 2666 2667 2668 0
2669 2670 2671 2672 0
2673 2674 2675 2676 0
2677 2678 2679 2680 0
2681 2682 2683 2684 0
2689 2690 2691 2692 0
2693 2694 2695 2696 0
2697 2698 2699 2700 0
2701 2702 2703 2704 0
2709 2710 2711 2712 0
2713 2714 2715 2716 0
2717 2718 2719 2720 0
2721 2722 2723 2724 0
2725 2726 2727 2728 0
2733 2734 2735 2736 0
2737 2738 2739 2740 0
2741 2742 2743 2744 0
2745 2746 2747 2748 0
2757 2758 2759 2760 0
2761 2762 2763 2764 0
2765 2766 2767 2768 0
2769 2770 2771 2772 0
2773 2774 2775 2776 0
2781 2782 2783 2784 0
2785 2786 2787 2788 0
2789 2790 2791 2792 0
2793 2794 2795 2796 0
2797 2798 2799 2800 0
2809 2810 2811 2812 0
2817 2818 2819 2820 0
2821 2822 2823 2824 0
2825 2826 2827 2828 0
2841 2842 2843 2844 0
2845 2846 2847 2848 0
2853 2854 2855 2856 0
2857 2858 2859 2860 0
2865 2866 2867 2868 0
2869 2870 2871 2872 0
2873 2874 2875 2876 0
2877 2878 2879 2880 0
2897 2898 2899 2900 0
2901 2902 2903 2904 0
2905 2906 2907 2908 0
2909 2910 2911 2912 0
2913 2914 2915 2916 0
2917 2918 2919 2920 0
2921 2922 2923 2924 0
2925 2926 2927 2928 0
2929 2930 2931 2932 0
2933 2934 2935 2936 0
2937 2938 2939 2940 0
2941 2942 2943 2944 0
2949 2950 2951 2952 0
2953 2954 2955 2956 0
2957 2958 2959 2960 0
2961 2962 2963 2964 0
2965 2966 2967 2968 0
2969 2970 2971 2972 0
2977 2978 2979 2980 0
2981 2982 2983 2984 0
2985 2986 2987 2988 0
2989 2990 2991 2992 0
2997 2998 2999 3000 0
3001 3002 3003 3004 0
3005 3006 3007 3008 0
3013 3014 3015 3016 0
3017 3018 3019 3020 0
3021 3022 3023 3024 0
3025 3026 3027 3028 0
3037 3038 3039 3040 0
3041 3042 3043 3044 0
3045 3046 3047 3048 0
3049 3050 3051 3052 0
3053 3054 3055 3056 0
3057 3058 3059 3060 0
3061 3062 3063 3064 0
3065 3066 3067 3068 0
3069 3070 3071 3072 0
3073 3074 3075 3076 0
3077 3078 3079 3080 0
3085 3086 3087 3088 0
3093 3094 3095 3096 0
3097 3098 3099 3100 0
3105 3106 3107 3108 0
3113 3114 3115 3116 0
3117 3118 3119 3120 0
3121 3122 3123 3124 0
3125 3126 3127 3128 0
3129 3130 3131 3132 0
3137 3138 3139 3140 0
3141 3142 3143 3144 0
3145 3146 3147 3148 0
3149 3150 3151 3152 0
3153 3154 3155 3156 0
3157 3158 3159 3160 0
3177 3178 3179 3180 0
3181 3182 3183 3184 0
3189 3190 3191 3192 0
3197 3198 3199 3200 0
3201 3202 3203 3204 0
3209 3210 3211 3212 0
3217 3218 3219 3220 0
3221 3222 3223 3224 0
3229 3230 3231 3232 0
3237 3238 3239 3240 0
3241 3242 3243 3244 0
3245 3246 3247 3248 0
3249 3250 3251 3252 0
3253 3254 3255 3256 0
3257 3258 3259 3260 0
3261 3262 3263 3264 0
3269 3270 3271 3272 0
3277 3278 3279 3280 0
3281 3282 3283 3284 0
3289 3290 3291 3292 0
3297 3298 3299 3300 0
3301 3302 3303 3304 0
3305 3306 3307 3308 0
3309 3310 3311 3312 0
3313 3314 3315 3316 0
3317 3318 3319 3320 0
3321 3322 3323 3324 0
3329 3330 3331 3332 0
3341 3342 3343 3344 0
3361 3362 3363 3364 0
3365 3366 3367 3368 0
3369 3370 3371 3372 0
3373 3374 3375 3376 0
3377 3378 3379 3380 0
3385 3386 3387 3388 0
3389 3390 3391 3392 0
3393 3394 3395 3396 0
3397 3398 3399 3400 0
3405 3406 3407 3408 0
3413 3414 3415 3416 0
3417 3418 3419 3420 0
3421 3422 3423 3424 0
3425 3426 3427 3428 0
3429 3430 3431 3432 0
3437 3438 3439 3440 0
3441 3442 3443 3444 0
3449 3450 3451 3452 0
3461 3462 3463 3464 0
3465 3466 3467 3468 0
3477 3478 3479 3480 0
3485 3486 3487 3488 0
3489 3490 3491 3492 0
3493 3494 3495 3496 0
3497 3498 3499 3500 0
3501 3502 3503 3504 0
3505 3506 3507 3508 0
3513 3514 3515 3516 0
3517 3518 3519 3520 0
3521 3522 3523 3524 0
3525 3526 3527 3528 0
3529 3530 3531 3532 0
3533 3534 3535 3536 0
3537 3538 3539 3540 0
3541 3542 3543 3544 0
3545 3546 3547 3548 0
3549 3550 3551 3552 0
3553 3554 3555 3556 0
3561 3562 3563 3564 0
3565 3566 3567 3568 0
3569 3570 3571 3572 0
3573 3574 3575 3576 0
3577 3578 3579 3580 0
3581 3582 3583 3584 0
3593 3594 3595 3596 0
3597 3598 3599 3600 0
3605 3606 3607 3608 0
3613 3614 3615 3616 0
3617 3618 3619 3620 0
3621 3622 3623 3624 0
3625 3626 3627 3628 0
3629 3630 3631 3632 0
3633 3634 3635 3636 0
3637 3638 3639 3640 0
3641 3642 3643 3644 0
3649 3650 3651 3652 0
3657 3658 3659 3660 0
3661 3662 3663 3664 0
3665 3666 3667 3668 0
3669 3670 3671 3672 0
3673 3674 3675 3676 0
3685 3686 3687 3688 0
3689 3690 3691 3692 0
3693 3694 3695 3696 0
3701 3702 3703 3704 0
3705 3706 3707 3708 0
3717 3718 3719 3720 0
3721 3722 3723 3724 0
3729 3730 3731 3732 0
3737 3738 3739 3740 0
3745 3746 3747 3748 0
3749 3750 3751 3752 0
3753 3754 3755 3756 0
3769 3770 3771 3772 0
3773 3774 3775 3776 0
3777 3778 3779 3780 0
3793 3794 3795 3796 0
3797 3798 3799 3800 0
3801 3802 3803 3804 0
3813 3814 3815 3816 0
3817 3818 3819 3820 0
3825 3826 3827 3828 0
3829 3830 3831 3832 0
3833 3834 3835 3836 0
3837 3838 3839 3840 0
3841 3842 3843 3844 0
3845 3846 3847 3848 0
3849 3850 3851 3852 0
3857 3858 3859 3860 0
3861 3862 3863 3864 0
3873 3874 3875 3876 0
3877 3878 3879 3880 0
3881 3882 3883 3884 0
3885 3886 3887 3888 0
3889 3890 3891 3892 0
3897 3898 3899 3900 0
3901 3902 3903 3904 0
3905 3906 3907 3908 0
3909 3910 3911 3912 0
3917 3918 3919 3920 0
3921 3922 3923 3924 0
3929 3930 3931 3932 0
3933 3934 3935 3936 0
3941 3942 3943 3944 0
3949 3950 3951 3952 0
3953 3954 3955 3956 0
3957 3958 3959 3960 0
3961 3962 3963 3964 0
3973 3974 3975 3976 0
3977 3978 3979 3980 0
3985 3986 3987 3988 0
3997 3998 3999 4000 0
4001 4002 4003 4004 0
4005 4006 4007 4008 0
4017 4018 4019 4020 0
4029 4030 4031 4032 0
4033 4034 4035 4036 0
4037 4038 4039 4040 0
4045 4046 4047 4048 0
4049 4050 4051 4052 0
4057 4058 4059 4060 0
4061 4062 4063 4064 0
4069 4070 4071 4072 0
4073 4074 4075 4076 0
4081 4082 4083 4084 0
4089 4090 4091 4092 0
4093 4094 4095 4096 0
4097 4098 4099 4100 0
4105 4106 4107 4108 0
4109 4110 4111 4112 0
4117 4118 4119 4120 0
4121 4122 4123 4124 0
4125 4126 4127 4128 0
4133 4134 4135 4136 0
4137 4138 4139 4140 0
4141 4142 4143 4144 0
4149 4150 4151 4152 0
4153 4154 4155 4156 0
4157 4158 4159 4160 0
4165 4166 4167 4168 0
4173 4174 4175 4176 0
4177 4178 4179 4180 0
4181 4182 4183 4184 0
4189 4190 4191 4192 0
4193 4194 4195 4196 0
4201 4202 4203 4204 0
4205 4206 4207 4208 0
4209 4210 4211 4212 0
4221 4222 4223 4224 0
4229 4230 4231 4232 0
4257 4258 4259 4260 0
-21 -22 0
-21 -23 0
-21 -24 0
-22 -23 0
-22 -24 0
-23 -24 0
-25 -26 0
-25 -27 0
-25 -28 0
-26 -27 0
-26 -28 0
-27 -28 0
-33 -34 0
-33 -35 0
-33 -36 0
-34 -35 0
-34 -36 0
-35 -36 0
-41 -42 0
-41 -43 0
-41 -44 0
-42 -43 0
-42 -44 0
-43 -44 0
-45 -46 0
-45 -47 0
-45 -48 0
-46 -47 0
-46 -48 0
-47 -48 0
-53 -54 0
-53 -55 0
-53 -56 0
-54 -55 0
-54 -56 0
-55 -56 0
-65 -66 0
-65 -67 0
-65 -68 0
-66 -67 0
-66 -68 0
-67 -68 0
-69 -70 0
-69 -71 0
-69 -72 0
-70 -71 0
-70 -72 0
-71 -72 0
-73 -74 0
-73 -75 0
-73 -76 0
-74 -75 0
-74 -76 0
-75 -76 0
-85 -86 0
-85 -87 0
-85 -88 0
-86 -87 0
-86 -88 0
-87 -88 0
-89 -90 0
-89 -91 0
-89 -92 0
-90 -91 0
-90 -92 0
-91 -92 0
-97 -98 0
-97 -99 0
-97 -100 0
-98 -99 0
-98 -100 0
-99 -100 0
-109 -110 0
-109 -111 0
-109 -112 0
-110 -111 0
-110 -112 0
-111 -112 0
-113 -114 0
-113 -115 0
-113 -116 0
-114 -115 0
-114 -116 0
-115 -116 0
-121 -122 0
-121 -123 0
-121 -124 0
-122 -123 0
-122 -124 0
-123 -124 0
-137 -138 0
-137 -139 0
-137 -140 0
-138 -139 0
-138 -140 0
-139 -140 0
-141 -142 0
-141 -143 0
-141 -144 0
-142 -143 0
-142 -144 0
-143 -144 0
-153 -154 0
-153 -155 0
-153 -156 0
-154 -155 0
-154 -156 0
-155 -156 0
-157 -158 0
-157 -159 0
-157 -160 0
-158 -159 0
-158 -160 0
-159 -160 0
-161 -162 0
-161 -163 0
-161 -164 0
-162 -163 0
-162 -164 0
-163 -164 0
-165 -166 0
-165 -167 0
-165 -168 0
-166 -167 0
-166 -168 0
-167 -168 0
-169 -170 0
-169 -171 0
-169 -172 0
-170 -171 0
-170 -172 0
-171 -172 0
-177 -178 0
-177 -179 0
-177 -180 0
-178 -179 0
-178 -180 0
-179 -180 0
-181 -182 0
-181 -183 0
-181 -184 0
-182 -183 0
-182 -184 0
-183 -184 0
-185 -186 0
-185 -187 0
-185 -188 0
-186 -187 0
-186 -188 0
-187 -188 0
-189 -190 0
-189 -191 0
-189 -192 0
-190 -191 0
-190 -192 0
-191 -192 0
-193 -194 0
-193 -195 0
-193 -196 0
-194 -195 0
-194 -196 0
-195 -196 0
-205 -206 0
-205 -207 0
-205 -208 0
-206 -207 0
-206 -208 0
-207 -208 0
-209 -210 0
-209 -211 0
-209 -212 0
-210 -211 0
-210 -212 0
-211 -212 0
-213 -214 0
-213 -215 0
-213 -216 0
-214 -215 0
-214 -216 0
-215 -216 0
-217 -218 0
-217 -219 0
-217 -220 0
-218 -219 0
-218 -220 0
-219 -220 0
-221 -222 0
-221 -223 0
-221 -224 0
-222 -223 0
-222 -224 0
-223 -224 0
-225 -226 0
-225 -227 0
-225 -228 0
-226 -227 0
-226 -228 0
-227 -228 0
-229 -230 0
-229 -231 0
-229 -232 0
-230 -231 0
-230 -232 0
-231 -232 0
-233 -234 0
-233 -235 0
-233 -236 0
-234 -235 0
-234 -236 0
-235 -236 0
-237 -238 0
-237 -239 0
-237 -240 0
-238 -239 0
-238 -240 0
-239 -240 0
-245 -246 0
-245 -247 0
-245 -248 0
-246 -247 0
-246 -248 0
-247 -248 0
-249 -250 0
-249 -251 0
-249 -252 0
-250 -251 0
-250 -252 0
-251 -252 0
-253 -254 0
-253 -255 0
-253 -256 0
-254 -255 0
-254 -256 0
-255 -256 0
-257 -258 0
-257 -259 0
-257 -260 0
-258 -259 0
-258 -260 0
-259 -260 0
-277 -278 0
-277 -279 0
-277 -280 0
-278 -279 0
-278 -280 0
-279 -280 0
-293 -294 0
-293 -295 0
-293 -296 0
-294 -295 0
-294 -296 0
-295 -296 0
-297 -298 0
-297 -299 0
-297 -300 0
-298 -299 0
-298 -300 0
-299 -300 0
-305 -306 0
-305 -307 0
-305 -308 0
-306 -307 0
-306 -308 0
-307 -308 0
-317 -318 0
-317 -319 0
-317 -320 0
-318 -319 0
-318 -320 0
-319 -320 0
-325 -326 0
-325 -327 0
-325 -328 0
-326 -327 0
-326 -328 0
-327 -328 0
-341 -342 0
-341 -343 0
-341 -344 0
-342 -343 0
-342 -344 0
-343 -344 0
-345 -346 0
-345 -347 0
-345 -348 0
-346 -347 0
-346 -348 0
-347 -348 0
-349 -350 0
-349 -351 0
-349 -352 0
-350 -351 0
-350 -352 0
-351 -352 0
-353 -354 0
-353 -355 0
-353 -356 0
-354 -355 0
-354 -356 0
-355 -356 0
-361 -362 0
-361 -363 0
-361 -364 0
-362 -363 0
-362 -364 0
-363 -364 0
-369 -370 0
-369 -371 0
-369 -372 0
-370 -371 0
-370 -372 0
-371 -372 0
-373 -374 0
-373 -375 0
-373 -376 0
-374 -375 0
-374 -376 0
-375 -376 0
-377 -378 0
-377 -379 0
-377 -380 0
-378 -379 0
-378 -380 0
-379 -380 0
-381 -382 0
-381 -383 0
-381 -384 0
-382 -383 0
-382 -384 0
-383 -384 0
-385 -386 0
-385 -387 0
-385 -388 0
-386 -387 0
-386 -388 0
-387 -388 0
-389 -390 0
-389 -391 0
-389 -392 0
-390 -391 0
-390 -392 0
-391 -392 0
-393 -394 0
-393 -395 0
-393 -396 0
-394 -395 0
-394 -396 0
-395 -396 0
-397 -398 0
-397 -399 0
-397 -400 0
-398 -399 0
-398 -400 0
-399 -400 0
-405 -406 0
-405 -407 0
-405 -408 0
-406 -407 0
-406 -408 0
-407 -408 0
-409 -410 0
-409 -411 0
-409 -412 0
-410 -411 0
-410 -412 0
-411 -412 0
-413 -414 0
-413 -415 0
-413 -416 0
-414 -415 0
-414 -416 0
-415 -416 0
-425 -426 0
-425 -427 0
-425 -428 0
-426 -427 0
-426 -428 0
-427 -428 0
-429 -430 0
-429 -431 0
-429 -432 0
-430 -431 0
-430 -432 0
-431 -432 0
-437 -438 0
-437 -439 0
-437 -440 0
-438 -439 0
-438 -440 0
-439 -440 0
-441 -442 0
-441 -443 0
-441 -444 0
-442 -443 0
-442 -444 0
-443 -444 0
-445 -446 0
-445 -447 0
-445 -448 0
-446 -447 0
-446 -448 0
-447 -448 0
-449 -450 0
-449 -451 0
-449 -452 0
-450 -451 0
-450 -452 0
-451 -452 0
-453 -454 0
-453 -455 0
-453 -456 0
-454 -455 0
-454 -456 0
-455 -456 0
-465 -466 0
-465 -467 0
-465 -468 0
-466 -467 0
-466 -468 0
-467 -468 0
-473 -474 0
-473 -475 0
-473 -476 0
-474 -475 0
-474 -476 0
-475 -476 0
-477 -478 0
-477 -479 0
-477 -480 0
-478 -479 0
-478 -480 0
-479 -480 0
-481 -482 0
-481 -483 0
-481 -484 0
-482 -483 0
-482 -484 0
-483 -484 0
-485 -486 0
-485 -487 0
-485 -488 0
-486 -487 0
-486 -488 0
-487 -488 0
-489 -490 0
-489 -491 0
-489 -492 0
-490 -491 0
-490 -492 0
-491 -492 0
-493 -494 0
-493 -495 0
-493 -496 0
-494 -495 0
-494 -496 0
-495 -496 0
-497 -498 0
-497 -499 0
-497 -500 0
-498 -499 0
-498 -500 0
-499 -500 0
-501 -502 0
-501 -503 0
-501 -504 0
-502 -503 0
-502 -504 0
-503 -504 0
-505 -506 0
-505 -507 0
-505 -508 0
-506 -507 0
-506 -508 0
-507 -508 0
-509 -510 0
-509 -511 0
-509 -512 0
-510 -511 0
-510 -512 0
-511 -512 0
-513 -514 0
-513 -515 0
-513 -516 0
-514 -515 0
-514 -516 0
-515 -516 0
-525 -526 0
-525 -527 0
-525 -528 0
-526 -527 0
-526 -528 0
-527 -528 0
-541 -542 0
-541 -543 0
-541 -544 0
-542 -543 0
-542 -544 0
-543 -544 0
-549 -550 0
-549 -551 0
-549 -552 0
-550 -551 0
-550 -552 0
-551 -552 0
-553 -554 0
-553 -555 0
-553 -556 0
-554 -555 0
-554 -556 0
-555 -556 0
-557 -558 0
-557 -559 0
-557 -560 0
-558 -559 0
-558 -560 0
-559 -560 0
-561 -562 0
-561 -563 0
-561 -564 0
-562 -563 0
-562 -564 0
-563 -564 0
-565 -566 0
-565 -567 0
-565 -568 0
-566 -567 0
-566 -568 0
-567 -568 0
-569 -570 0
-569 -571 0
-569 -572 0
-570 -571 0
-570 -572 0
-571 -572 0
-573 -574 0
-573 -575 0
-573 -576 0
-574 -575 0
-574 -576 0
-575 -576 0
-577 -578 0
-577 -579 0
-577 -580 0
-578 -579 0
-578 -580 0
-579 -580 0
-581 -582 0
-581 -583 0
-581 -584 0
-582 -583 0
-582 -584 0
-583 -584 0
-585 -586 0
-585 -587 0
-585 -588 0
-586 -587 0
-586 -588 0
-587 -588 0
-593 -594 0
-593 -595 0
-593 -596 0
-594 -595 0
-594 -596 0
-595 -596 0
-597 -598 0
-597 -599 0
-597 -600 0
-598 -599 0
-598 -600 0
-599 -600 0
-601 -602 0
-601 -603 0
-601 -604 0
-602 -603 0
-602 -604 0
-603 -604 0
-609 -610 0
-609 -611 0
-609 -612 0
-610 -611 0
-610 -612 0
-611 -612 0
-613 -614 0
-613 -615 0
-613 -616 0
-614 -615 0
-614 -616 0
-615 -616 0
-617 -618 0
-617 -619 0
-617 -620 0
-618 -619 0
-618 -620 0
-619 -620 0
-629 -630 0
-629 -631 0
-629 -632 0
-630 -631 0
-630 -632 0
-631 -632 0
-633 -634 0
-633 -635 0
-633 -636 0
-634 -635 0
-634 -636 0
-635 -636 0
-637 -638 0
-637 -639 0
-637 -640 0
-638 -639 0
-638 -640 0
-639 -640 0
-645 -646 0
-645 -647 0
-645 -648 0
-646 -647 0
-646 -648 0
-647 -648 0
-649 -650 0
-649 -651 0
-649 -652 0
-650 -651 0
-650 -652 0
-651 -652 0
-657 -658 0
-657 -659 0
-657 -660 0
-658 -659 0
-658 -660 0
-659 -660 0
-661 -662 0
-661 -663 0
-661 -664 0
-662 -663 0
-662 -664 0
-663 -664 0
-665 -666 0
-665 -667 0
-665 -668 0
-666 -667 0
-666 -668 0
-667 -668 0
-677 -678 0
-677 -679 0
-677 -680 0
-678 -679 0
-678 -680 0
-679 -680 0
-685 -686 0
-685 -687 0
-685 -688 0
-686 -687 0
-686 -688 0
-687 -688 0
-693 -694 0
-693 -695 0
-693 -696 0
-694 -695 0
-694 -696 0
-695 -696 0
-697 -698 0
-697 -699 0
-697 -700 0
-698 -699 0
-698 -700 0
-699 -700 0
-705 -706 0
-705 -707 0
-705 -708 0
-706 -707 0
-706 -708 0
-707 -708 0
-709 -710 0
-709 -711 0
-709 -712 0
-710 -711 0
-710 -712 0
-711 -712 0
-713 -714 0
-713 -715 0
-713 -716 0
-714 -715 0
-714 -716 0
-715 -716 0
-717 -718 0
-717 -719 0
-717 -720 0
-718 -719 0
-718 -720 0
-719 -720 0
-721 -722 0
-721 -723 0
-721 -724 0
-722 -723 0
-722 -724 0
-723 -724 0
-725 -726 0
-725 -727 0
-725 -728 0
-726 -727 0
-726 -728 0
-727 -728 0
-729 -730 0
-729 -731 0
-729 -732 0
-730 -731 0
-730 -732 0
-731 -732 0
-733 -734 0
-733 -735 0
-733 -736 0
-734 -735 0
-734 -736 0
-735 -736 0
-741 -742 0
-741 -743 0
-741 -744 0
-742 -743 0
-742 -744 0
-743 -744 0
-745 -746 0
-745 -747 0
-745 -748 0
-746 -747 0
-746 -748 0
-747 -748 0
-753 -754 0
-753 -755 0
-753 -756 0
-754 -755 0
-754 -756 0
-755 -756 0
-761 -762 0
-761 -763 0
-761 -764 0
-762 -763 0
-762 -764 0
-763 -764 0
-765 -766 0
-765 -767 0
-765 -768 0
-766 -767 0
-766 -768 0
-767 -768 0
-769 -770 0
-769 -771 0
-769 -772 0
-770 -771 0
-770 -772 0
-771 -772 0
-773 -774 0
-773 -775 0
-773 -776 0
-774 -775 0
-774 -776 0
-775 -776 0
-777 -778 0
-777 -779 0
-777 -780 0
-778 -779 0
-778 -780 0
-779 -780 0
-789 -790 0
-789 -791 0
-789 -792 0
-790 -791 0
-790 -792 0
-791 -792 0
-793 -794 0
-793 -795 0
-793 -796 0
-794 -795 0
-794 -796 0
-795 -796 0
-797 -798 0
-797 -799 0
-797 -800 0
-798 -799 0
-798 -800 0
-799 -800 0
-805 -806 0
-805 -807 0
-805 -808 0
-806 -807 0
-806 -808 0
-807 -808 0
-813 -814 0
-813 -815 0
-813 -816 0
-814 -815 0
-814 -816 0
-815 -816 0
-821 -822 0
-821 -823 0
-821 -824 0
-822 -823 0
-822 -824 0
-823 -824 0
-829 -830 0
-829 -831 0
-829 -832 0
-830 -831 0
-830 -832 0
-831 -832 0
-837 -838 0
-837 -839 0
-837 -840 0
-838 -839 0
-838 -840 0
-839 -840 0
-841 -842 0
-841 -843 0
-841 -844 0
-842 -843 0
-842 -844 0
-843 -844 0
-845 -846 0
-845 -847 0
-845 -848 0
-846 -847 0
-846 -848 0
-847 -848 0
-857 -858 0
-857 -859 0
-857 -860 0
-858 -859 0
-858 -860 0
-859 -860 0
-861 -862 0
-861 -863 0
-861 -864 0
-862 -863 0
-862 -864 0
-863 -864 0
-865 -866 0
-865 -867 0
-865 -868 0
-866 -867 0
-866 -868 0
-867 -868 0
-873 -874 0
-873 -875 0
-873 -876 0
-874 -875 0
-874 -876 0
-875 -876 0
-877 -878 0
-877 -879 0
-877 -880 0
-878 -879 0
-878 -880 0
-879 -880 0
-881 -882 0
-881 -883 0
-881 -884 0
-882 -883 0
-882 -884 0
-883 -884 0
-885 -886 0
-885 -887 0
-885 -888 0
-886 -887 0
-886 -888 0
-887 -888 0
-889 -890 0
-889 -891 0
-889 -892 0
-890 -891 0
-890 -892 0
-891 -892 0
-897 -898 0
-897 -899 0
-897 -900 0
-898 -899 0
-898 -900 0
-899 -900 0
-905 -906 0
-905 -907 0
-905 -908 0
-906 -907 0
-906 -908 0
-907 -908 0
-909 -910 0
-909 -911 0
-909 -912 0
-910 -911 0
-910 -912 0
-911 -912 0
-913 -914 0
-913 -915 0
-913 -916 0
-914 -915 0
-914 -916 0
-915 -916 0
-925 -926 0
-925 -927 0
-925 -928 0
-926 -927 0
-926 -928 0
-927 -928 0
-929 -930 0
-929 -931 0
-929 -932 0
-930 -931 0
-930 -932 0
-931 -932 0
-933 -934 0
-933 -935 0
-933 -936 0
-934 -935 0
-934 -936 0
-935 -936 0
-941 -942 0
-941 -943 0
-941 -944 0
-942 -943 0
-942 -944 0
-943 -944 0
-945 -946 0
-945 -947 0
-945 -948 0
-946 -947 0
-946 -948 0
-947 -948 0
-949 -950 0
-949 -951 0
-949 -952 0
-950 -951 0
-950 -952 0
-951 -952 0
-957 -958 0
-957 -959 0
-957 -960 0
-958 -959 0
-958 -960 0
-959 -960 0
-961 -962 0
-961 -963 0
-961 -964 0
-962 -963 0
-962 -964 0
-963 -964 0
-965 -966 0
-965 -967 0
-965 -968 0
-966 -967 0
-966 -968 0
-967 -968 0
-969 -970 0
-969 -971 0
-969 -972 0
-970 -971 0
-970 -972 0
-971 -972 0
-973 -974 0
-973 -975 0
-973 -976 0
-974 -975 0
-974 -976 0
-975 -976 0
-985 -986 0
-985 -987 0
-985 -988 0
-986 -987 0
-986 -988 0
-987 -988 0
-989 -990 0
-989 -991 0
-989 -992 0
-990 -991 0
-990 -992 0
-991 -992 0
-993 -994 0
-993 -995 0
-993 -996 0
-994 -995 0
-994 -996 0
-995 -996 0
-997 -998 0
-997 -999 0
-997 -1000 0
-998 -999 0
-998 -1000 0
-999 -1000 0
-1001 -1002 0
-1001 -1003 0
-1001 -1004 0
-1002 -1003 0
-1002 -1004 0
-1003 -1004 0
-1005 -1006 0
-1005 -1007 0
-1005 -1008 0
-1006 -1007 0
-1006 -1008 0
-1007 -1008 0
-1013 -1014 0
-1013 -1015 0
-1013 -1016 0
-1014 -1015 0
-1014 -1016 0
-1015 -1016 0
-1017 -1018 0
-1017 -1019 0
-1017 -1020 0
-1018 -1019 0
-1018 -1020 0
-1019 -1020 0
-1025 -1026 0
-1025 -1027 0
-1025 -1028 0
-1026 -1027 0
-1026 -1028 0
-1027 -1028 0
-1033 -1034 0
-1033 -1035 0
-1033 -1036 0
-1034 -1035 0
-1034 -1036 0
-1035 -1036 0
-1037 -1038 0
-1037 -1039 0
-1037 -1040 0
-1038 -1039 0
-1038 -1040 0
-1039 -1040 0
-1041 -1042 0
-1041 -1043 0
-1041 -1044 0
-1042 -1043 0
-1042 -1044 0
-1043 -1044 0
-1049 -1050 0
-1049 -1051 0
-1049 -1052 0
-1050 -1051 0
-1050 -1052 0
-1051 -1052 0
-1053 -1054 0
-1053 -1055 0
-1053 -1056 0
-1054 -1055 0
-1054 -1056 0
-1055 -1056 0
-1057 -1058 0
-1057 -1059 0
-1057 -1060 0
-1058 -1059 0
-1058 -1060 0
-1059 -1060 0
-1061 -1062 0
-1061 -1063 0
-1061 -1064 0
-1062 -1063 0
-1062 -1064 0
-1063 -1064 0
-1065 -1066 0
-1065 -1067 0
-1065 -1068 0
-1066 -1067 0
-1066 -1068 0
-1067 -1068 0
-1069 -1070 0
-1069 -1071 0
-1069 -1072 0
-1070 -1071 0
-1070 -1072 0
-1071 -1072 0
-1073 -1074 0
-1073 -1075 0
-1073 -1076 0
-1074 -1075 0
-1074 -1076 0
-1075 -1076 0
-1085 -1086 0
-1085 -1087 0
-1085 -1088 0
-1086 -1087 0
-1086 -1088 0
-1087 -1088 0
-1093 -1094 0
-1093 -1095 0
-1093 -1096 0
-1094 -1095 0
-1094 -1096 0
-1095 -1096 0
-1097 -1098 0
-1097 -1099 0
-1097 -1100 0
-1098 -1099 0
-1098 -1100 0
-1099 -1100 0
-1105 -1106 0
-1105 -1107 0
-1105 -1108 0
-1106 -1107 0
-1106 -1108 0
-1107 -1108 0
-1113 -1114 0
-1113 -1115 0
-1113 -1116 0
-1114 -1115 0
-1114 -1116 0
-1115 -1116 0
-1117 -1118 0
-1117 -1119 0
-1117 -1120 0
-1118 -1119 0
-1118 -1120 0
-1119 -1120 0
-1121 -1122 0
-1121 -1123 0
-1121 -1124 0
-1122 -1123 0
-1122 -1124 0
-1123 -1124 0
-1129 -1130 0
-1129 -1131 0
-1129 -1132 0
-1130 -1131 0
-1130 -1132 0
-1131 -1132 0
-1133 -1134 0
-1133 -1135 0
-1133 -1136 0
-1134 -1135 0
-1134 -1136 0
-1135 -1136 0
-1137 -1138 0
-1137 -1139 0
-1137 -1140 0
-1138 -1139 0
-1138 -1140 0
-1139 -1140 0
-1149 -1150 0
-1149 -1151 0
-1149 -1152 0
-1150 -1151 0
-1150 -1152 0
-1151 -1152 0
-1153 -1154 0
-1153 -1155 0
-1153 -1156 0
-1154 -1155 0
-1154 -1156 0
-1155 -1156 0
-1157 -1158 0
-1157 -1159 0
-1157 -1160 0
-1158 -1159 0
-1158 -1160 0
-1159 -1160 0
-1161 -1162 0
-1161 -1163 0
-1161 -1164 0
-1162 -1163 0
-1162 -1164 0
-1163 -1164 0
-1165 -1166 0
-1165 -1167 0
-1165 -1168 0
-1166 -1167 0
-1166 -1168 0
-1167 -1168 0
-1169 -1170 0
-1169 -1171 0
-1169 -1172 0
-1170 -1171 0
-1170 -1172 0
-1171 -1172 0
-1173 -1174 0
-1173 -1175 0
-1173 -1176 0
-1174 -1175 0
-1174 -1176 0
-1175 -1176 0
-1185 -1186 0
-1185 -1187 0
-1185 -1188 0
-1186 -1187 0
-1186 -1188 0
-1187 -1188 0
-1193 -1194 0
-1193 -1195 0
-1193 -1196 0
-1194 -1195 0
-1194 -1196 0
-1195 -1196 0
-1201 -1202 0
-1201 -1203 0
-1201 -1204 0
-1202 -1203 0
-1202 -1204 0
-1203 -1204 0
-1205 -1206 0
-1205 -1207 0
-1205 -1208 0
-1206 -1207 0
-1206 -1208 0
-1207 -1208 0
-1221 -1222 0
-1221 -1223 0
-1221 -1224 0
-1222 -1223 0
-1222 -1224 0
-1223 -1224 0
-1225 -1226 0
-1225 -1227 0
-1225 -1228 0
-1226 -1227 0
-1226 -1228 0
-1227 -1228 0
-1229 -1230 0
-1229 -1231 0
-1229 -1232 0
-1230 -1231 0
-1230 -1232 0
-1231 -1232 0
-1233 -1234 0
-1233 -1235 0
-1233 -1236 0
-1234 -1235 0
-1234 -1236 0
-1235 -1236 0
-1237 -1238 0
-1237 -1239 0
-1237 -1240 0
-1238 -1239 0
-1238 -1240 0
-1239 -1240 0
-1241 -1242 0
-1241 -1243 0
-1241 -1244 0
-1242 -1243 0
-1242 -1244 0
-1243 -1244 0
-1249 -1250 0
-1249 -1251 0
-1249 -1252 0
-1250 -1251 0
-1250 -1252 0
-1251 -1252 0
-1253 -1254 0
-1253 -1255 0
-1253 -1256 0
-1254 -1255 0
-1254 -1256 0
-1255 -1256 0
-1257 -1258 0
-1257 -1259 0
-1257 -1260 0
-1258 -1259 0
-1258 -1260 0
-1259 -1260 0
-1261 -1262 0
-1261 -1263 0
-1261 -1264 0
-1262 -1263 0
-1262 -1264 0
-1263 -1264 0
-1269 -1270 0
-1269 -1271 0
-1269 -1272 0
-1270 -1271 0
-1270 -1272 0
-1271 -1272 0
-1273 -1274 0
-1273 -1275 0
-1273 -1276 0
-1274 -1275 0
-1274 -1276 0
-1275 -1276 0
-1277 -1278 0
-1277 -1279 0
-1277 -1280 0
-1278 -1279 0
-1278 -1280 0
-1279 -1280 0
-1281 -1282 0
-1281 -1283 0
-1281 -1284 0
-1282 -1283 0
-1282 -1284 0
-1283 -1284 0
-1285 -1286 0
-1285 -1287 0
-1285 -1288 0
-1286 -1287 0
-1286 -1288 0
-1287 -1288 0
-1289 -1290 0
-1289 -1291 0
-1289 -1292 0
-1290 -1291 0
-1290 -1292 0
-1291 -1292 0
-1293 -1294 0
-1293 -1295 0
-1293 -1296 0
-1294 -1295 0
-1294 -1296 0
-1295 -1296 0
-1297 -1298 0
-1297 -1299 0
-1297 -1300 0
-1298 -1299 0
-1298 -1300 0
-1299 -1300 0
-1301 -1302 0
-1301 -1303 0
-1301 -1304 0
-1302 -1303 0
-1302 -1304 0
-1303 -1304 0
-1305 -1306 0
-1305 -1307 0
-1305 -1308 0
-1306 -1307 0
-1306 -1308 0
-1307 -1308 0
-1309 -1310 0
-1309 -1311 0
-1309 -1312 0
-1310 -1311 0
-1310 -1312 0
-1311 -1312 0
-1313 -1314 0
-1313 -1315 0
-1313 -1316 0
-1314 -1315 0
-1314 -1316 0
-1315 -1316 0
-1317 -1318 0
-1317 -1319 0
-1317 -1320 0
-1318 -1319 0
-1318 -1320 0
-1319 -1320 0
-1321 -1322 0
-1321 -1323 0
-1321 -1324 0
-1322 -1323 0
-1322 -1324 0
-1323 -1324 0
-1325 -1326 0
-1325 -1327 0
-1325 -1328 0
-1326 -1327 0
-1326 -1328 0
-1327 -1328 0
-1341 -1342 0
-1341 -1343 0
-1341 -1344 0
-1342 -1343 0
-1342 -1344 0
-1343 -1344 0
-1349 -1350 0
-1349 -1351 0
-1349 -1352 0
-1350 -1351 0
-1350 -1352 0
-1351 -1352 0
-1353 -1354 0
-1353 -1355 0
-1353 -1356 0
-1354 -1355 0
-1354 -1356 0
-1355 -1356 0
-1361 -1362 0
-1361 -1363 0
-1361 -1364 0
-1362 -1363 0
-1362 -1364 0
-1363 -1364 0
-1365 -1366 0
-1365 -1367 0
-1365 -1368 0
-1366 -1367 0
-1366 -1368 0
-1367 -1368 0
-1369 -1370 0
-1369 -1371 0
-1369 -1372 0
-1370 -1371 0
-1370 -1372 0
-1371 -1372 0
-1381 -1382 0
-1381 -1383 0
-1381 -1384 0
-1382 -1383 0
-1382 -1384 0
-1383 -1384 0
-1389 -1390 0
-1389 -1391 0
-1389 -1392 0
-1390 -1391 0
-1390 -1392 0
-1391 -1392 0
-1393 -1394 0
-1393 -1395 0
-1393 -1396 0
-1394 -1395 0
-1394 -1396 0
-1395 -1396 0
-1397 -1398 0
-1397 -1399 0
-1397 -1400 0
-1398 -1399 0
-1398 -1400 0
-1399 -1400 0
-1401 -1402 0
-1401 -1403 0
-1401 -1404 0
-1402 -1403 0
-1402 -1404 0
-1403 -1404 0
-1405 -1406 0
-1405 -1407 0
-1405 -1408 0
-1406 -1407 0
-1406 -1408 0
-1407 -1408 0
-1413 -1414 0
-1413 -1415 0
-1413 -1416 0
-1414 -1415 0
-1414 -1416 0
-1415 -1416 0
-1417 -1418 0
-1417 -1419 0
-1417 -1420 0
-1418 -1419 0
-1418 -1420 0
-1419 -1420 0
-1421 -1422 0
-1421 -1423 0
-1421 -1424 0
-1422 -1423 0
-1422 -1424 0
-1423 -1424 0
-1425 -1426 0
-1425 -1427 0
-1425 -1428 0
-1426 -1427 0
-1426 -1428 0
-1427 -1428 0
-1429 -1430 0
-1429 -1431 0
-1429 -1432 0
-1430 -1431 0
-1430 -1432 0
-1431 -1432 0
-1433 -1434 0
-1433 -1435 0
-1433 -1436 0
-1434 -1435 0
-1434 -1436 0
-1435 -1436 0
-1437 -1438 0
-1437 -1439 0
-1437 -1440 0
-1438 -1439 0
-1438 -1440 0
-1439 -1440 0
-1441 -1442 0
-1441 -1443 0
-1441 -1444 0
-1442 -1443 0
-1442 -1444 0
-1443 -1444 0
-1445 -1446 0
-1445 -1447 0
-1445 -1448 0
-1446 -1447 0
-1446 -1448 0
-1447 -1448 0
-1449 -1450 0
-1449 -1451 0
-1449 -1452 0
-1450 -1451 0
-1450 -1452 0
-1451 -1452 0
-1453 -1454 0
-1453 -1455 0
-1453 -1456 0
-1454 -1455 0
-1454 -1456 0
-1455 -1456 0
-1461 -1462 0
-1461 -1463 0
-1461 -1464 0
-1462 -1463 0
-1462 -1464 0
-1463 -1464 0
-1465 -1466 0
-1465 -1467 0
-1465 -1468 0
-1466 -1467 0
-1466 -1468 0
-1467 -1468 0
-1469 -1470 0
-1469 -1471 0
-1469 -1472 0
-1470 -1471 0
-1470 -1472 0
-1471 -1472 0
-1477 -1478 0
-1477 -1479 0
-1477 -1480 0
-1478 -1479 0
-1478 -1480 0
-1479 -1480 0
-1481 -1482 0
-1481 -1483 0
-1481 -1484 0
-1482 -1483 0
-1482 -1484 0
-1483 -1484 0
-1489 -1490 0
-1489 -1491 0
-1489 -1492 0
-1490 -1491 0
-1490 -1492 0
-1491 -1492 0
-1497 -1498 0
-1497 -1499 0
-1497 -1500 0
-1498 -1499 0
-1498 -1500 0
-1499 -1500 0
-1501 -1502 0
-1501 -1503 0
-1501 -1504 0
-1502 -1503 0
-1502 -1504 0
-1503 -1504 0
-1505 -1506 0
-1505 -1507 0
-1505 -1508 0
-1506 -1507 0
-1506 -1508 0
-1507 -1508 0
-1509 -1510 0
-1509 -1511 0
-1509 -1512 0
-1510 -1511 0
-1510 -1512 0
-1511 -1512 0
-1513 -1514 0
-1513 -1515 0
-1513 -1516 0
-1514 -1515 0
-1514 -1516 0
-1515 -1516 0
-1517 -1518 0
-1517 -1519 0
-1517 -1520 0
-1518 -1519 0
-1518 -1520 0
-1519 -1520 0
-1521 -1522 0
-1521 -1523 0
-1521 -1524 0
-1522 -1523 0
-1522 -1524 0
-1523 -1524 0
-1529 -1530 0
-1529 -1531 0
-1529 -1532 0
-1530 -1531 0
-1530 -1532 0
-1531 -1532 0
-1541 -1542 0
-1541 -1543 0
-1541 -1544 0
-1542 -1543 0
-1542 -1544 0
-1543 -1544 0
-1549 -1550 0
-1549 -1551 0
-1549 -1552 0
-1550 -1551 0
-1550 -1552 0
-1551 -1552 0
-1553 -1554 0
-1553 -1555 0
-1553 -1556 0
-1554 -1555 0
-1554 -1556 0
-1555 -1556 0
-1557 -1558 0
-1557 -1559 0
-1557 -1560 0
-1558 -1559 0
-1558 -1560 0
-1559 -1560 0
-1561 -1562 0
-1561 -1563 0
-1561 -1564 0
-1562 -1563 0
-1562 -1564 0
-1563 -1564 0
-1565 -1566 0
-1565 -1567 0
-1565 -1568 0
-1566 -1567 0
-1566 -1568 0
-1567 -1568 0
-1569 -1570 0
-1569 -1571 0
-1569 -1572 0
-1570 -1571 0
-1570 -1572 0
-1571 -1572 0
-1589 -1590 0
-1589 -1591 0
-1589 -1592 0
-1590 -1591 0
-1590 -1592 0
-1591 -1592 0
-1593 -1594 0
-1593 -1595 0
-1593 -1596 0
-1594 -1595 0
-1594 -1596 0
-1595 -1596 0
-1597 -1598 0
-1597 -1599 0
-1597 -1600 0
-1598 -1599 0
-1598 -1600 0
-1599 -1600 0
-1601 -1602 0
-1601 -1603 0
-1601 -1604 0
-1602 -1603 0
-1602 -1604 0
-1603 -1604 0
-1605 -1606 0
-1605 -1607 0
-1605 -1608 0
-1606 -1607 0
-1606 -1608 0
-1607 -1608 0
-1609 -1610 0
-1609 -1611 0
-1609 -1612 0
-1610 -1611 0
-1610 -1612 0
-1611 -1612 0
-1613 -1614 0
-1613 -1615 0
-1613 -1616 0
-1614 -1615 0
-1614 -1616 0
-1615 -1616 0
-1621 -1622 0
-1621 -1623 0
-1621 -1624 0
-1622 -1623 0
-1622 -1624 0
-1623 -1624 0
-1629 -1630 0
-1629 -1631 0
-1629 -1632 0
-1630 -1631 0
-1630 -1632 0
-1631 -1632 0
-1633 -1634 0
-1633 -1635 0
-1633 -1636 0
-1634 -1635 0
-1634 -1636 0
-1635 -1636 0
-1637 -1638 0
-1637 -1639 0
-1637 -1640 0
-1638 -1639 0
-1638 -1640 0
-1639 -1640 0
-1641 -1642 0
-1641 -1643 0
-1641 -1644 0
-1642 -1643 0
-1642 -1644 0
-1643 -1644 0
-1653 -1654 0
-1653 -1655 0
-1653 -1656 0
-1654 -1655 0
-1654 -1656 0
-1655 -1656 0
-1665 -1666 0
-1665 -1667 0
-1665 -1668 0
-1666 -1667 0
-1666 -1668 0
-1667 -1668 0
-1669 -1670 0
-1669 -1671 0
-1669 -1672 0
-1670 -1671 0
-1670 -1672 0
-1671 -1672 0
-1673 -1674 0
-1673 -1675 0
-1673 -1676 0
-1674 -1675 0
-1674 -1676 0
-1675 -1676 0
-1677 -1678 0
-1677 -1679 0
-1677 -1680 0
-1678 -1679 0
-1678 -1680 0
-1679 -1680 0
-1689 -1690 0
-1689 -1691 0
-1689 -1692 0
-1690 -1691 0
-1690 -1692 0
-1691 -1692 0
-1693 -1694 0
-1693 -1695 0
-1693 -1696 0
-1694 -1695 0
-1694 -1696 0
-1695 -1696 0
-1697 -1698 0
-1697 -1699 0
-1697 -1700 0
-1698 -1699 0
-1698 -1700 0
-1699 -1700 0
-1701 -1702 0
-1701 -1703 0
-1701 -1704 0
-1702 -1703 0
-1702 -1704 0
-1703 -1704 0
-1713 -1714 0
-1713 -1715 0
-1713 -1716 0
-1714 -1715 0
-1714 -1716 0
-1715 -1716 0
-1717 -1718 0
-1717 -1719 0
-1717 -1720 0
-1718 -1719 0
-1718 -1720 0
-1719 -1720 0
-1725 -1726 0
-1725 -1727 0
-1725 -1728 0
-1726 -1727 0
-1726 -1728 0
-1727 -1728 0
-1729 -1730 0
-1729 -1731 0
-1729 -1732 0
-1730 -1731 0
-1730 -1732 0
-1731 -1732 0
-1733 -1734 0
-1733 -1735 0
-1733 -1736 0
-1734 -1735 0
-1734 -1736 0
-1735 -1736 0
-1737 -1738 0
-1737 -1739 0
-1737 -1740 0
-1738 -1739 0
-1738 -1740 0
-1739 -1740 0
-1741 -1742 0
-1741 -1743 0
-1741 -1744 0
-1742 -1743 0
-1742 -1744 0
-1743 -1744 0
-1745 -1746 0
-1745 -1747 0
-1745 -1748 0
-1746 -1747 0
-1746 -1748 0
-1747 -1748 0
-1749 -1750 0
-1749 -1751 0
-1749 -1752 0
-1750 -1751 0
-1750 -1752 0
-1751 -1752 0
-1757 -1758 0
-1757 -1759 0
-1757 -1760 0
-1758 -1759 0
-1758 -1760 0
-1759 -1760 0
-1761 -1762 0
-1761 -1763 0
-1761 -1764 0
-1762 -1763 0
-1762 -1764 0
-1763 -1764 0
-1765 -1766 0
-1765 -1767 0
-1765 -1768 0
-1766 -1767 0
-1766 -1768 0
-1767 -1768 0
-1769 -1770 0
-1769 -1771 0
-1769 -1772 0
-1770 -1771 0
-1770 -1772 0
-1771 -1772 0
-1773 -1774 0
-1773 -1775 0
-1773 -1776 0
-1774 -1775 0
-1774 -1776 0
-1775 -1776 0
-1777 -1778 0
-1777 -1779 0
-1777 -1780 0
-1778 -1779 0
-1778 -1780 0
-1779 -1780 0
-1781 -1782 0
-1781 -1783 0
-1781 -1784 0
-1782 -1783 0
-1782 -1784 0
-1783 -1784 0
-1785 -1786 0
-1785 -1787 0
-1785 -1788 0
-1786 -1787 0
-1786 -1788 0
-1787 -1788 0
-1789 -1790 0
-1789 -1791 0
-1789 -1792 0
-1790 -1791 0
-1790 -1792 0
-1791 -1792 0
-1793 -1794 0
-1793 -1795 0
-1793 -1796 0
-1794 -1795 0
-1794 -1796 0
-1795 -1796 0
-1797 -1798 0
-1797 -1799 0
-1797 -1800 0
-1798 -1799 0
-1798 -1800 0
-1799 -1800 0
-1801 -1802 0
-1801 -1803 0
-1801 -1804 0
-1802 -1803 0
-1802 -1804 0
-1803 -1804 0
-1805 -1806 0
-1805 -1807 0
-1805 -1808 0
-1806 -1807 0
-1806 -1808 0
-1807 -1808 0
-1813 -1814 0
-1813 -1815 0
-1813 -1816 0
-1814 -1815 0
-1814 -1816 0
-1815 -1816 0
-1821 -1822 0
-1821 -1823 0
-1821 -1824 0
-1822 -1823 0
-1822 -1824 0
-1823 -1824 0
-1829 -1830 0
-1829 -1831 0
-1829 -1832 0
-1830 -1831 0
-1830 -1832 0
-1831 -1832 0
-1833 -1834 0
-1833 -1835 0
-1833 -1836 0
-1834 -1835 0
-1834 -1836 0
-1835 -1836 0
-1837 -1838 0
-1837 -1839 0
-1837 -1840 0
-1838 -1839 0
-1838 -1840 0
-1839 -1840 0
-1841 -1842 0
-1841 -1843 0
-1841 -1844 0
-1842 -1843 0
-1842 -1844 0
-1843 -1844 0
-1845 -1846 0
-1845 -1847 0
-1845 -1848 0
-1846 -1847 0
-1846 -1848 0
-1847 -1848 0
-1853 -1854 0
-1853 -1855 0
-1853 -1856 0
-1854 -1855 0
-1854 -1856 0
-1855 -1856 0
-1857 -1858 0
-1857 -1859 0
-1857 -1860 0
-1858 -1859 0
-1858 -1860 0
-1859 -1860 0
-1865 -1866 0
-1865 -1867 0
-1865 -1868 0
-1866 -1867 0
-1866 -1868 0
-1867 -1868 0
-1877 -1878 0
-1877 -1879 0
-1877 -1880 0
-1878 -1879 0
-1878 -1880 0
-1879 -1880 0
-1881 -1882 0
-1881 -1883 0
-1881 -1884 0
-1882 -1883 0
-1882 -1884 0
-1883 -1884 0
-1885 -1886 0
-1885 -1887 0
-1885 -1888 0
-1886 -1887 0
-1886 -1888 0
-1887 -1888 0
-1889 -1890 0
-1889 -1891 0
-1889 -1892 0
-1890 -1891 0
-1890 -1892 0
-1891 -1892 0
-1893 -1894 0
-1893 -1895 0
-1893 -1896 0
-1894 -1895 0
-1894 -1896 0
-1895 -1896 0
-1897 -1898 0
-1897 -1899 0
-1897 -1900 0
-1898 -1899 0
-1898 -1900 0
-1899 -1900 0
-1901 -1902 0
-1901 -1903 0
-1901 -1904 0
-1902 -1903 0
-1902 -1904 0
-1903 -1904 0
-1913 -1914 0
-1913 -1915 0
-1913 -1916 0
-1914 -1915 0
-1914 -1916 0
-1915 -1916 0
-1917 -1918 0
-1917 -1919 0
-1917 -1920 0
-1918 -1919 0
-1918 -1920 0
-1919 -1920 0
-1921 -1922 0
-1921 -1923 0
-1921 -1924 0
-1922 -1923 0
-1922 -1924 0
-1923 -1924 0
-1925 -1926 0
-1925 -1927 0
-1925 -1928 0
-1926 -1927 0
-1926 -1928 0
-1927 -1928 0
-1929 -1930 0
-1929 -1931 0
-1929 -1932 0
-1930 -1931 0
-1930 -1932 0
-1931 -1932 0
-1937 -1938 0
-1937 -1939 0
-1937 -1940 0
-1938 -1939 0
-1938 -1940 0
-1939 -1940 0
-1941 -1942 0
-1941 -1943 0
-1941 -1944 0
-1942 -1943 0
-1942 -1944 0
-1943 -1944 0
-1949 -1950 0
-1949 -1951 0
-1949 -1952 0
-1950 -1951 0
-1950 -1952 0
-1951 -1952 0
-1953 -1954 0
-1953 -1955 0
-1953 -1956 0
-1954 -1955 0
-1954 -1956 0
-1955 -1956 0
-1957 -1958 0
-1957 -1959 0
-1957 -1960 0
-1958 -1959 0
-1958 -1960 0
-1959 -1960 0
-1961 -1962 0
-1961 -1963 0
-1961 -1964 0
-1962 -1963 0
-1962 -1964 0
-1963 -1964 0
-1969 -1970 0
-1969 -1971 0
-1969 -1972 0
-1970 -1971 0
-1970 -1972 0
-1971 -1972 0
-1973 -1974 0
-1973 -1975 0
-1973 -1976 0
-1974 -1975 0
-1974 -1976 0
-1975 -1976 0
-1977 -1978 0
-1977 -1979 0
-1977 -1980 0
-1978 -1979 0
-1978 -1980 0
-1979 -1980 0
-1981 -1982 0
-1981 -1983 0
-1981 -1984 0
-1982 -1983 0
-1982 -1984 0
-1983 -1984 0
-1985 -1986 0
-1985 -1987 0
-1985 -1988 0
-1986 -1987 0
-1986 -1988 0
-1987 -1988 0
-1989 -1990 0
-1989 -1991 0
-1989 -1992 0
-1990 -1991 0
-1990 -1992 0
-1991 -1992 0
-2001 -2002 0
-2001 -2003 0
-2001 -2004 0
-2002 -2003 0
-2002 -2004 0
-2003 -2004 0
-2005 -2006 0
-2005 -2007 0
-2005 -2008 0
-2006 -2007 0
-2006 -2008 0
-2007 -2008 0
-2009 -2010 0
-2009 -2011 0
-2009 -2012 0
-2010 -2011 0
-2010 -2012 0
-2011 -2012 0
-2013 -2014 0
-2013 -2015 0
-2013 -2016 0
-2014 -2015 0
-2014 -2016 0
-2015 -2016 0
-2017 -2018 0
-2017 -2019 0
-2017 -2020 0
-2018 -2019 0
-2018 -2020 0
-2019 -2020 0
-2021 -2022 0
-2021 -2023 0
-2021 -2024 0
-2022 -2023 0
-2022 -2024 0
-2023 -2024 0
-2025 -2026 0
-2025 -2027 0
-2025 -2028 0
-2026 -2027 0
-2026 -2028 0
-2027 -2028 0
-2029 -2030 0
-2029 -2031 0
-2029 -2032 0
-2030 -2031 0
-2030 -2032 0
-2031 -2032 0
-2037 -2038 0
-2037 -2039 0
-2037 -2040 0
-2038 -2039 0
-2038 -2040 0
-2039 -2040 0
-2045 -2046 0
-2045 -2047 0
-2045 -2048 0
-2046 -2047 0
-2046 -2048 0
-2047 -2048 0
-2049 -2050 0
-2049 -2051 0
-2049 -2052 0
-2050 -2051 0
-2050 -2052 0
-2051 -2052 0
-2053 -2054 0
-2053 -2055 0
-2053 -2056 0
-2054 -2055 0
-2054 -2056 0
-2055 -2056 0
-2057 -2058 0
-2057 -2059 0
-2057 -2060 0
-2058 -2059 0
-2058 -2060 0
-2059 -2060 0
-2065 -2066 0
-2065 -2067 0
-2065 -2068 0
-2066 -2067 0
-2066 -2068 0
-2067 -2068 0
-2069 -2070 0
-2069 -2071 0
-2069 -2072 0
-2070 -2071 0
-2070 -2072 0
-2071 -2072 0
-2077 -2078 0
-2077 -2079 0
-2077 -2080 0
-2078 -2079 0
-2078 -2080 0
-2079 -2080 0
-2081 -2082 0
-2081 -2083 0
-2081 -2084 0
-2082 -2083 0
-2082 -2084 0
-2083 -2084 0
-2085 -2086 0
-2085 -2087 0
-2085 -2088 0
-2086 -2087 0
-2086 -2088 0
-2087 -2088 0
-2089 -2090 0
-2089 -2091 0
-2089 -2092 0
-2090 -2091 0
-2090 -2092 0
-2091 -2092 0
-2093 -2094 0
-2093 -2095 0
-2093 -2096 0
-2094 -2095 0
-2094 -2096 0
-2095 -2096 0
-2097 -2098 0
-2097 -2099 0
-2097 -2100 0
-2098 -2099 0
-2098 -2100 0
-2099 -2100 0
-2105 -2106 0
-2105 -2107 0
-2105 -2108 0
-2106 -2107 0
-2106 -2108 0
-2107 -2108 0
-2109 -2110 0
-2109 -2111 0
-2109 -2112 0
-2110 -2111 0
-2110 -2112 0
-2111 -2112 0
-2113 -2114 0
-2113 -2115 0
-2113 -2116 0
-2114 -2115 0
-2114 -2116 0
-2115 -2116 0
-2117 -2118 0
-2117 -2119 0
-2117 -2120 0
-2118 -2119 0
-2118 -2120 0
-2119 -2120 0
-2125 -2126 0
-2125 -2127 0
-2125 -2128 0
-2126 -2127 0
-2126 -2128 0
-2127 -2128 0
-2129 -2130 0
-2129 -2131 0
-2129 -2132 0
-2130 -2131 0
-2130 -2132 0
-2131 -2132 0
-2133 -2134 0
-2133 -2135 0
-2133 -2136 0
-2134 -2135 0
-2134 -2136 0
-2135 -2136 0
-2137 -2138 0
-2137 -2139 0
-2137 -2140 0
-2138 -2139 0
-2138 -2140 0
-2139 -2140 0
-2145 -2146 0
-2145 -2147 0
-2145 -2148 0
-2146 -2147 0
-2146 -2148 0
-2147 -2148 0
-2149 -2150 0
-2149 -2151 0
-2149 -2152 0
-2150 -2151 0
-2150 -2152 0
-2151 -2152 0
-2153 -2154 0
-2153 -2155 0
-2153 -2156 0
-2154 -2155 0
-2154 -2156 0
-2155 -2156 0
-2157 -2158 0
-2157 -2159 0
-2157 -2160 0
-2158 -2159 0
-2158 -2160 0
-2159 -2160 0
-2161 -2162 0
-2161 -2163 0
-2161 -2164 0
-2162 -2163 0
-2162 -2164 0
-2163 -2164 0
-2165 -2166 0
-2165 -2167 0
-2165 -2168 0
-2166 -2167 0
-2166 -2168 0
-2167 -2168 0
-2173 -2174 0
-2173 -2175 0
-2173 -2176 0
-2174 -2175 0
-2174 -2176 0
-2175 -2176 0
-2177 -2178 0
-2177 -2179 0
-2177 -2180 0
-2178 -2179 0
-2178 -2180 0
-2179 -2180 0
-2181 -2182 0
-2181 -2183 0
-2181 -2184 0
-2182 -2183 0
-2182 -2184 0
-2183 -2184 0
-2189 -2190 0
-2189 -2191 0
-2189 -2192 0
-2190 -2191 0
-2190 -2192 0
-2191 -2192 0
-2197 -2198 0
-2197 -2199 0
-2197 -2200 0
-2198 -2199 0
-2198 -2200 0
-2199 -2200 0
-2201 -2202 0
-2201 -2203 0
-2201 -2204 0
-2202 -2203 0
-2202 -2204 0
-2203 -2204 0
-2205 -2206 0
-2205 -2207 0
-2205 -2208 0
-2206 -2207 0
-2206 -2208 0
-2207 -2208 0
-2209 -2210 0
-2209 -2211 0
-2209 -2212 0
-2210 -2211 0
-2210 -2212 0
-2211 -2212 0
-2217 -2218 0
-2217 -2219 0
-2217 -2220 0
-2218 -2219 0
-2218 -2220 0
-2219 -2220 0
-2221 -2222 0
-2221 -2223 0
-2221 -2224 0
-2222 -2223 0
-2222 -2224 0
-2223 -2224 0
-2225 -2226 0
-2225 -2227 0
-2225 -2228 0
-2226 -2227 0
-2226 -2228 0
-2227 -2228 0
-2229 -2230 0
-2229 -2231 0
-2229 -2232 0
-2230 -2231 0
-2230 -2232 0
-2231 -2232 0
-2233 -2234 0
-2233 -2235 0
-2233 -2236 0
-2234 -2235 0
-2234 -2236 0
-2235 -2236 0
-2237 -2238 0
-2237 -2239 0
-2237 -2240 0
-2238 -2239 0
-2238 -2240 0
-2239 -2240 0
-2241 -2242 0
-2241 -2243 0
-2241 -2244 0
-2242 -2243 0
-2242 -2244 0
-2243 -2244 0
-2245 -2246 0
-2245 -2247 0
-2245 -2248 0
-2246 -2247 0
-2246 -2248 0
-2247 -2248 0
-2257 -2258 0
-2257 -2259 0
-2257 -2260 0
-2258 -2259 0
-2258 -2260 0
-2259 -2260 0
-2265 -2266 0
-2265 -2267 0
-2265 -2268 0
-2266 -2267 0
-2266 -2268 0
-2267 -2268 0
-2269 -2270 0
-2269 -2271 0
-2269 -2272 0
-2270 -2271 0
-2270 -2272 0
-2271 -2272 0
-2273 -2274 0
-2273 -2275 0
-2273 -2276 0
-2274 -2275 0
-2274 -2276 0
-2275 -2276 0
-2277 -2278 0
-2277 -2279 0
-2277 -2280 0
-2278 -2279 0
-2278 -2280 0
-2279 -2280 0
-2281 -2282 0
-2281 -2283 0
-2281 -2284 0
-2282 -2283 0
-2282 -2284 0
-2283 -2284 0
-2293 -2294 0
-2293 -2295 0
-2293 -2296 0
-2294 -2295 0
-2294 -2296 0
-2295 -2296 0
-2297 -2298 0
-2297 -2299 0
-2297 -2300 0
-2298 -2299 0
-2298 -2300 0
-2299 -2300 0
-2301 -2302 0
-2301 -2303 0
-2301 -2304 0
-2302 -2303 0
-2302 -2304 0
-2303 -2304 0
-2309 -2310 0
-2309 -2311 0
-2309 -2312 0
-2310 -2311 0
-2310 -2312 0
-2311 -2312 0
-2313 -2314 0
-2313 -2315 0
-2313 -2316 0
-2314 -2315 0
-2314 -2316 0
-2315 -2316 0
-2317 -2318 0
-2317 -2319 0
-2317 -2320 0
-2318 -2319 0
-2318 -2320 0
-2319 -2320 0
-2333 -2334 0
-2333 -2335 0
-2333 -2336 0
-2334 -2335 0
-2334 -2336 0
-2335 -2336 0
-2337 -2338 0
-2337 -2339 0
-2337 -2340 0
-2338 -2339 0
-2338 -2340 0
-2339 -2340 0
-2341 -2342 0
-2341 -2343 0
-2341 -2344 0
-2342 -2343 0
-2342 -2344 0
-2343 -2344 0
-2345 -2346 0
-2345 -2347 0
-2345 -2348 0
-2346 -2347 0
-2346 -2348 0
-2347 -2348 0
-2353 -2354 0
-2353 -2355 0
-2353 -2356 0
-2354 -2355 0
-2354 -2356 0
-2355 -2356 0
-2361 -2362 0
-2361 -2363 0
-2361 -2364 0
-2362 -2363 0
-2362 -2364 0
-2363 -2364 0
-2365 -2366 0
-2365 -2367 0
-2365 -2368 0
-2366 -2367 0
-2366 -2368 0
-2367 -2368 0
-2369 -2370 0
-2369 -2371 0
-2369 -2372 0
-2370 -2371 0
-2370 -2372 0
-2371 -2372 0
-2373 -2374 0
-2373 -2375 0
-2373 -2376 0
-2374 -2375 0
-2374 -2376 0
-2375 -2376 0
-2377 -2378 0
-2377 -2379 0
-2377 -2380 0
-2378 -2379 0
-2378 -2380 0
-2379 -2380 0
-2381 -2382 0
-2381 -2383 0
-2381 -2384 0
-2382 -2383 0
-2382 -2384 0
-2383 -2384 0
-2385 -2386 0
-2385 -2387 0
-2385 -2388 0
-2386 -2387 0
-2386 -2388 0
-2387 -2388 0
-2389 -2390 0
-2389 -2391 0
-2389 -2392 0
-2390 -2391 0
-2390 -2392 0
-2391 -2392 0
-2393 -2394 0
-2393 -2395 0
-2393 -2396 0
-2394 -2395 0
-2394 -2396 0
-2395 -2396 0
-2397 -2398 0
-2397 -2399 0
-2397 -2400 0
-2398 -2399 0
-2398 -2400 0
-2399 -2400 0
-2405 -2406 0
-2405 -2407 0
-2405 -2408 0
-2406 -2407 0
-2406 -2408 0
-2407 -2408 0
-2413 -2414 0
-2413 -2415 0
-2413 -2416 0
-2414 -2415 0
-2414 -2416 0
-2415 -2416 0
-2425 -2426 0
-2425 -2427 0
-2425 -2428 0
-2426 -2427 0
-2426 -2428 0
-2427 -2428 0
-2429 -2430 0
-2429 -2431 0
-2429 -2432 0
-2430 -2431 0
-2430 -2432 0
-2431 -2432 0
-2433 -2434 0
-2433 -2435 0
-2433 -2436 0
-2434 -2435 0
-2434 -2436 0
-2435 -2436 0
-2437 -2438 0
-2437 -2439 0
-2437 -2440 0
-2438 -2439 0
-2438 -2440 0
-2439 -2440 0
-2449 -2450 0
-2449 -2451 0
-2449 -2452 0
-2450 -2451 0
-2450 -2452 0
-2451 -2452 0
-2461 -2462 0
-2461 -2463 0
-2461 -2464 0
-2462 -2463 0
-2462 -2464 0
-2463 -2464 0
-2465 -2466 0
-2465 -2467 0
-2465 -2468 0
-2466 -2467 0
-2466 -2468 0
-2467 -2468 0
-2469 -2470 0
-2469 -2471 0
-2469 -2472 0
-2470 -2471 0
-2470 -2472 0
-2471 -2472 0
-2477 -2478 0
-2477 -2479 0
-2477 -2480 0
-2478 -2479 0
-2478 -2480 0
-2479 -2480 0
-2485 -2486 0
-2485 -2487 0
-2485 -2488 0
-2486 -2487 0
-2486 -2488 0
-2487 -2488 0
-2489 -2490 0
-2489 -2491 0
-2489 -2492 0
-2490 -2491 0
-2490 -2492 0
-2491 -2492 0
-2493 -2494 0
-2493 -2495 0
-2493 -2496 0
-2494 -2495 0
-2494 -2496 0
-2495 -2496 0
-2505 -2506 0
-2505 -2507 0
-2505 -2508 0
-2506 -2507 0
-2506 -2508 0
-2507 -2508 0
-2509 -2510 0
-2509 -2511 0
-2509 -2512 0
-2510 -2511 0
-2510 -2512 0
-2511 -2512 0
-2513 -2514 0
-2513 -2515 0
-2513 -2516 0
-2514 -2515 0
-2514 -2516 0
-2515 -2516 0
-2517 -2518 0
-2517 -2519 0
-2517 -2520 0
-2518 -2519 0
-2518 -2520 0
-2519 -2520 0
-2525 -2526 0
-2525 -2527 0
-2525 -2528 0
-2526 -2527 0
-2526 -2528 0
-2527 -2528 0
-2529 -2530 0
-2529 -2531 0
-2529 -2532 0
-2530 -2531 0
-2530 -2532 0
-2531 -2532 0
-2533 -2534 0
-2533 -2535 0
-2533 -2536 0
-2534 -2535 0
-2534 -2536 0
-2535 -2536 0
-2537 -2538 0
-2537 -2539 0
-2537 -2540 0
-2538 -2539 0
-2538 -2540 0
-2539 -2540 0
-2541 -2542 0
-2541 -2543 0
-2541 -2544 0
-2542 -2543 0
-2542 -2544 0
-2543 -2544 0
-2545 -2546 0
-2545 -2547 0
-2545 -2548 0
-2546 -2547 0
-2546 -2548 0
-2547 -2548 0
-2549 -2550 0
-2549 -2551 0
-2549 -2552 0
-2550 -2551 0
-2550 -2552 0
-2551 -2552 0
-2553 -2554 0
-2553 -2555 0
-2553 -2556 0
-2554 -2555 0
-2554 -2556 0
-2555 -2556 0
-2557 -2558 0
-2557 -2559 0
-2557 -2560 0
-2558 -2559 0
-2558 -2560 0
-2559 -2560 0
-2561 -2562 0
-2561 -2563 0
-2561 -2564 0
-2562 -2563 0
-2562 -2564 0
-2563 -2564 0
-2569 -2570 0
-2569 -2571 0
-2569 -2572 0
-2570 -2571 0
-2570 -2572 0
-2571 -2572 0
-2573 -2574 0
-2573 -2575 0
-2573 -2576 0
-2574 -2575 0
-2574 -2576 0
-2575 -2576 0
-2577 -2578 0
-2577 -2579 0
-2577 -2580 0
-2578 -2579 0
-2578 -2580 0
-2579 -2580 0
-2581 -2582 0
-2581 -2583 0
-2581 -2584 0
-2582 -2583 0
-2582 -2584 0
-2583 -2584 0
-2585 -2586 0
-2585 -2587 0
-2585 -2588 0
-2586 -2587 0
-2586 -2588 0
-2587 -2588 0
-2589 -2590 0
-2589 -2591 0
-2589 -2592 0
-2590 -2591 0
-2590 -2592 0
-2591 -2592 0
-2593 -2594 0
-2593 -2595 0
-2593 -2596 0
-2594 -2595 0
-2594 -2596 0
-2595 -2596 0
-2597 -2598 0
-2597 -2599 0
-2597 -2600 0
-2598 -2599 0
-2598 -2600 0
-2599 -2600 0
-2601 -2602 0
-2601 -2603 0
-2601 -2604 0
-2602 -2603 0
-2602 -2604 0
-2603 -2604 0
-2605 -2606 0
-2605 -2607 0
-2605 -2608 0
-2606 -2607 0
-2606 -2608 0
-2607 -2608 0
-2609 -2610 0
-2609 -2611 0
-2609 -2612 0
-2610 -2611 0
-2610 -2612 0
-2611 -2612 0
-2613 -2614 0
-2613 -2615 0
-2613 -2616 0
-2614 -2615 0
-2614 -2616 0
-2615 -2616 0
-2617 -2618 0
-2617 -2619 0
-2617 -2620 0
-2618 -2619 0
-2618 -2620 0
-2619 -2620 0
-2621 -2622 0
-2621 -2623 0
-2621 -2624 0
-2622 -2623 0
-2622 -2624 0
-2623 -2624 0
-2625 -2626 0
-2625 -2627 0
-2625 -2628 0
-2626 -2627 0
-2626 -2628 0
-2627 -2628 0
-2629 -2630 0
-2629 -2631 0
-2629 -2632 0
-2630 -2631 0
-2630 -2632 0
-2631 -2632 0
-2633 -2634 0
-2633 -2635 0
-2633 -2636 0
-2634 -2635 0
-2634 -2636 0
-2635 -2636 0
-2637 -2638 0
-2637 -2639 0
-2637 -2640 0
-2638 -2639 0
-2638 -2640 0
-2639 -2640 0
-2641 -2642 0
-2641 -2643 0
-2641 -2644 0
-2642 -2643 0
-2642 -2644 0
-2643 -2644 0
-2645 -2646 0
-2645 -2647 0
-2645 -2648 0
-2646 -2647 0
-2646 -2648 0
-2647 -2648 0
-2649 -2650 0
-2649 -2651 0
-2649 -2652 0
-2650 -2651 0
-2650 -2652 0
-2651 -2652 0
-2653 -2654 0
-2653 -2655 0
-2653 -2656 0
-2654 -2655 0
-2654 -2656 0
-2655 -2656 0
-2657 -2658 0
-2657 -2659 0
-2657 -2660 0
-2658 -2659 0
-2658 -2660 0
-2659 -2660 0
-2661 -2662 0
-2661 -2663 0
-2661 -2664 0
-2662 -2663 0
-2662 -2664 0
-2663 -2664 0
-2665 -2666 0
-2665 -2667 0
-2665 -2668 0
-2666 -2667 0
-2666 -2668 0
-2667 -2668 0
-2669 -2670 0
-2669 -2671 0
-2669 -2672 0
-2670 -2671 0
-2670 -2672 0
-2671 -2672 0
-2673 -2674 0
-2673 -2675 0
-2673 -2676 0
-2674 -2675 0
-2674 -2676 0
-2675 -2676 0
-2677 -2678 0
-2677 -2679 0
-2677 -2680 0
-2678 -2679 0
-2678 -2680 0
-2679 -2680 0
-2681 -2682 0
-2681 -2683 0
-2681 -2684 0
-2682 -2683 0
-2682 -2684 0
-2683 -2684 0
-2689 -2690 0
-2689 -2691 0
-2689 -2692 0
-2690 -2691 0
-2690 -2692 0
-2691 -2692 0
-2693 -2694 0
-2693 -2695 0
-2693 -2696 0
-2694 -2695 0
-2694 -2696 0
-2695 -2696 0
-2697 -2698 0
-2697 -2699 0
-2697 -2700 0
-2698 -2699 0
-2698 -2700 0
-2699 -2700 0
-2701 -2702 0
-2701 -2703 0
-2701 -2704 0
-2702 -2703 0
-2702 -2704 0
-2703 -2704 0
-2709 -2710 0
-2709 -2711 0
-2709 -2712 0
-2710 -2711 0
-2710 -2712 0
-2711 -2712 0
-2713 -2714 0
-2713 -2715 0
-2713 -2716 0
-2714 -2715 0
-2714 -2716 0
-2715 -2716 0
-2717 -2718 0
-2717 -2719 0
-2717 -2720 0
-2718 -2719 0
-2718 -2720 0
-2719 -2720 0
-2721 -2722 0
-2721 -2723 0
-2721 -2724 0
-2722 -2723 0
-2722 -2724 0
-2723 -2724 0
-2725 -2726 0
-2725 -2727 0
-2725 -2728 0
-2726 -2727 0
-2726 -2728 0
-2727 -2728 0
-2733 -2734 0
-2733 -2735 0
-2733 -2736 0
-2734 -2735 0
-2734 -2736 0
-2735 -2736 0
-2737 -2738 0
-2737 -2739 0
-2737 -2740 0
-2738 -2739 0
-2738 -2740 0
-2739 -2740 0
-2741 -2742 0
-2741 -2743 0
-2741 -2744 0
-2742 -2743 0
-2742 -2744 0
-2743 -2744 0
-2745 -2746 0
-2745 -2747 0
-2745 -2748 0
-2746 -2747 0
-2746 -2748 0
-2747 -2748 0
-2757 -2758 0
-2757 -2759 0
-2757 -2760 0
-2758 -2759 0
-2758 -2760 0
-2759 -2760 0
-2761 -2762 0
-2761 -2763 0
-2761 -2764 0
-2762 -2763 0
-2762 -2764 0
-2763 -2764 0
-2765 -2766 0
-2765 -2767 0
-2765 -2768 0
-2766 -2767 0
-2766 -2768 0
-2767 -2768 0
-2769 -2770 0
-2769 -2771 0
-2769 -2772 0
-2770 -2771 0
-2770 -2772 0
-2771 -2772 0
-2773 -2774 0
-2773 -2775 0
-2773 -2776 0
-2774 -2775 0
-2774 -2776 0
-2775 -2776 0
-2781 -2782 0
-2781 -2783 0
-2781 -2784 0
-2782 -2783 0
-2782 -2784 0
-2783 -2784 0
-2785 -2786 0
-2785 -2787 0
-2785 -2788 0
-2786 -2787 0
-2786 -2788 0
-2787 -2788 0
-2789 -2790 0
-2789 -2791 0
-2789 -2792 0
-2790 -2791 0
-2790 -2792 0
-2791 -2792 0
-2793 -2794 0
-2793 -2795 0
-2793 -2796 0
-2794 -2795 0
-2794 -2796 0
-2795 -2796 0
-2797 -2798 0
-2797 -2799 0
-2797 -2800 0
-2798 -2799 0
-2798 -2800 0
-2799 -2800 0
-2809 -2810 0
-2809 -2811 0
-2809 -2812 0
-2810 -2811 0
-2810 -2812 0
-2811 -2812 0
-2817 -2818 0
-2817 -2819 0
-2817 -2820 0
-2818 -2819 0
-2818 -2820 0
-2819 -2820 0
-2821 -2822 0
-2821 -2823 0
-2821 -2824 0
-2822 -2823 0
-2822 -2824 0
-2823 -2824 0
-2825 -2826 0
-2825 -2827 0
-2825 -2828 0
-2826 -2827 0
-2826 -2828 0
-2827 -2828 0
-2841 -2842 0
-2841 -2843 0
-2841 -2844 0
-2842 -2843 0
-2842 -2844 0
-2843 -2844 0
-2845 -2846 0
-2845 -2847 0
-2845 -2848 0
-2846 -2847 0
-2846 -2848 0
-2847 -2848 0
-2853 -2854 0
-2853 -2855 0
-2853 -2856 0
-2854 -2855 0
-2854 -2856 0
-2855 -2856 0
-2857 -2858 0
-2857 -2859 0
-2857 -2860 0
-2858 -2859 0
-2858 -2860 0
-2859 -2860 0
-2865 -2866 0
-2865 -2867 0
-2865 -2868 0
-2866 -2867 0
-2866 -2868 0
-2867 -2868 0
-2869 -2870 0
-2869 -2871 0
-2869 -2872 0
-2870 -2871 0
-2870 -2872 0
-2871 -2872 0
-2873 -2874 0
-2873 -2875 0
-2873 -2876 0
-2874 -2875 0
-2874 -2876 0
-2875 -2876 0
-2877 -2878 0
-2877 -2879 0
-2877 -2880 0
-2878 -2879 0
-2878 -2880 0
-2879 -2880 0
-2897 -2898 0
-2897 -2899 0
-2897 -2900 0
-2898 -2899 0
-2898 -2900 0
-2899 -2900 0
-2901 -2902 0
-2901 -2903 0
-2901 -2904 0
-2902 -2903 0
-2902 -2904 0
-2903 -2904 0
-2905 -2906 0
-2905 -2907 0
-2905 -2908 0
-2906 -2907 0
-2906 -2908 0
-2907 -2908 0
-2909 -2910 0
-2909 -2911 0
-2909 -2912 0
-2910 -2911 0
-2910 -2912 0
-2911 -2912 0
-2913 -2914 0
-2913 -2915 0
-2913 -2916 0
-2914 -2915 0
-2914 -2916 0
-2915 -2916 0
-2917 -2918 0
-2917 -2919 0
-2917 -2920 0
-2918 -2919 0
-2918 -2920 0
-2919 -2920 0
-2921 -2922 0
-2921 -2923 0
-2921 -2924 0
-2922 -2923 0
-2922 -2924 0
-2923 -2924 0
-2925 -2926 0
-2925 -2927 0
-2925 -2928 0
-2926 -2927 0
-2926 -2928 0
-2927 -2928 0
-2929 -2930 0
-2929 -2931 0
-2929 -2932 0
-2930 -2931 0
-2930 -2932 0
-2931 -2932 0
-2933 -2934 0
-2933 -2935 0
-2933 -2936 0
-2934 -2935 0
-2934 -2936 0
-2935 -2936 0
-2937 -2938 0
-2937 -2939 0
-2937 -2940 0
-2938 -2939 0
-2938 -2940 0
-2939 -2940 0
-2941 -2942 0
-2941 -2943 0
-2941 -2944 0
-2942 -2943 0
-2942 -2944 0
-2943 -2944 0
-2949 -2950 0
-2949 -2951 0
-2949 -2952 0
-2950 -2951 0
-2950 -2952 0
-2951 -2952 0
-2953 -2954 0
-2953 -2955 0
-2953 -2956 0
-2954 -2955 0
-2954 -2956 0
-2955 -2956 0
-2957 -2958 0
-2957 -2959 0
-2957 -2960 0
-2958 -2959 0
-2958 -2960 0
-2959 -2960 0
-2961 -2962 0
-2961 -2963 0
-2961 -2964 0
-2962 -2963 0
-2962 -2964 0
-2963 -2964 0
-2965 -2966 0
-2965 -2967 0
-2965 -2968 0
-2966 -2967 0
-2966 -2968 0
-2967 -2968 0
-2969 -2970 0
-2969 -2971 0
-2969 -2972 0
-2970 -2971 0
-2970 -2972 0
-2971 -2972 0
-2977 -2978 0
-2977 -2979 0
-2977 -2980 0
-2978 -2979 0
-2978 -2980 0
-2979 -2980 0
-2981 -2982 0
-2981 -2983 0
-2981 -2984 0
-2982 -2983 0
-2982 -2984 0
-2983 -2984 0
-2985 -2986 0
-2985 -2987 0
-2985 -2988 0
-2986 -2987 0
-2986 -2988 0
-2987 -2988 0
-2989 -2990 0
-2989 -2991 0
-2989 -2992 0
-2990 -2991 0
-2990 -2992 0
-2991 -2992 0
-2997 -2998 0
-2997 -2999 0
-2997 -3000 0
-2998 -2999 0
-2998 -3000 0
-2999 -3000 0
-3001 -3002 0
-3001 -3003 0
-3001 -3004 0
-3002 -3003 0
-3002 -3004 0
-3003 -3004 0
-3005 -3006 0
-3005 -3007 0
-3005 -3008 0
-3006 -3007 0
-3006 -3008 0
-3007 -3008 0
-3013 -3014 0
-3013 -3015 0
-3013 -3016 0
-3014 -3015 0
-3014 -3016 0
-3015 -3016 0
-3017 -3018 0
-3017 -3019 0
-3017 -3020 0
-3018 -3019 0
-3018 -3020 0
-3019 -3020 0
-3021 -3022 0
-3021 -3023 0
-3021 -3024 0
-3022 -3023 0
-3022 -3024 0
-3023 -3024 0
-3025 -3026 0
-3025 -3027 0
-3025 -3028 0
-3026 -3027 0
-3026 -3028 0
-3027 -3028 0
-3037 -3038 0
-3037 -3039 0
-3037 -3040 0
-3038 -3039 0
-3038 -3040 0
-3039 -3040 0
-3041 -3042 0
-3041 -3043 0
-3041 -3044 0
-3042 -3043 0
-3042 -3044 0
-3043 -3044 0
-3045 -3046 0
-3045 -3047 0
-3045 -3048 0
-3046 -3047 0
-3046 -3048 0
-3047 -3048 0
-3049 -3050 0
-3049 -3051 0
-3049 -3052 0
-3050 -3051 0
-3050 -3052 0
-3051 -3052 0
-3053 -3054 0
-3053 -3055 0
-3053 -3056 0
-3054 -3055 0
-3054 -3056 0
-3055 -3056 0
-3057 -3058 0
-3057 -3059 0
-3057 -3060 0
-3058 -3059 0
-3058 -3060 0
-3059 -3060 0
-3061 -3062 0
-3061 -3063 0
-3061 -3064 0
-3062 -3063 0
-3062 -3064 0
-3063 -3064 0
-3065 -3066 0
-3065 -3067 0
-3065 -3068 0
-3066 -3067 0
-3066 -3068 0
-3067 -3068 0
-3069 -3070 0
-3069 -3071 0
-3069 -3072 0
-3070 -3071 0
-3070 -3072 0
-3071 -3072 0
-3073 -3074 0
-3073 -3075 0
-3073 -3076 0
-3074 -3075 0
-3074 -3076 0
-3075 -3076 0
-3077 -3078 0
-3077 -3079 0
-3077 -3080 0
-3078 -3079 0
-3078 -3080 0
-3079 -3080 0
-3085 -3086 0
-3085 -3087 0
-3085 -3088 0
-3086 -3087 0
-3086 -3088 0
-3087 -3088 0
-3093 -3094 0
-3093 -3095 0
-3093 -3096 0
-3094 -3095 0
-3094 -3096 0
-3095 -3096 0
-3097 -3098 0
-3097 -3099 0
-3097 -3100 0
-3098 -3099 0
-3098 -3100 0
-3099 -3100 0
-3105 -3106 0
-3105 -3107 0
-3105 -3108 0
-3106 -3107 0
-3106 -3108 0
-3107 -3108 0
-3113 -3114 0
-3113 -3115 0
-3113 -3116 0
-3114 -3115 0
-3114 -3116 0
-3115 -3116 0
-3117 -3118 0
-3117 -3119 0
-3117 -3120 0
-3118 -3119 0
-3118 -3120 0
-3119 -3120 0
-3121 -3122 0
-3121 -3123 0
-3121 -3124 0
-3122 -3123 0
-3122 -3124 0
-3123 -3124 0
-3125 -3126 0
-3125 -3127 0
-3125 -3128 0
-3126 -3127 0
-3126 -3128 0
-3127 -3128 0
-3129 -3130 0
-3129 -3131 0
-3129 -3132 0
-3130 -3131 0
-3130 -3132 0
-3131 -3132 0
-3137 -3138 0
-3137 -3139 0
-3137 -3140 0
-3138 -3139 0
-3138 -3140 0
-3139 -3140 0
-3141 -3142 0
-3141 -3143 0
-3141 -3144 0
-3142 -3143 0
-3142 -3144 0
-3143 -3144 0
-3145 -3146 0
-3145 -3147 0
-3145 -3148 0
-3146 -3147 0
-3146 -3148 0
-3147 -3148 0
-3149 -3150 0
-3149 -3151 0
-3149 -3152 0
-3150 -3151 0
-3150 -3152 0
-3151 -3152 0
-3153 -3154 0
-3153 -3155 0
-3153 -3156 0
-3154 -3155 0
-3154 -3156 0
-3155 -3156 0
-3157 -3158 0
-3157 -3159 0
-3157 -3160 0
-3158 -3159 0
-3158 -3160 0
-3159 -3160 0
-3177 -3178 0
-3177 -3179 0
-3177 -3180 0
-3178 -3179 0
-3178 -3180 0
-3179 -3180 0
-3181 -3182 0
-3181 -3183 0
-3181 -3184 0
-3182 -3183 0
-3182 -3184 0
-3183 -3184 0
-3189 -3190 0
-3189 -3191 0
-3189 -3192 0
-3190 -3191 0
-3190 -3192 0
-3191 -3192 0
-3197 -3198 0
-3197 -3199 0
-3197 -3200 0
-3198 -3199 0
-3198 -3200 0
-3199 -3200 0
-3201 -3202 0
-3201 -3203 0
-3201 -3204 0
-3202 -3203 0
-3202 -3204 0
-3203 -3204 0
-3209 -3210 0
-3209 -3211 0
-3209 -3212 0
-3210 -3211 0
-3210 -3212 0
-3211 -3212 0
-3217 -3218 0
-3217 -3219 0
-3217 -3220 0
-3218 -3219 0
-3218 -3220 0
-3219 -3220 0
-3221 -3222 0
-3221 -3223 0
-3221 -3224 0
-3222 -3223 0
-3222 -3224 0
-3223 -3224 0
-3229 -3230 0
-3229 -3231 0
-3229 -3232 0
-3230 -3231 0
-3230 -3232 0
-3231 -3232 0
-3237 -3238 0
-3237 -3239 0
-3237 -3240 0
-3238 -3239 0
-3238 -3240 0
-3239 -3240 0
-3241 -3242 0
-3241 -3243 0
-3241 -3244 0
-3242 -3243 0
-3242 -3244 0
-3243 -3244 0
-3245 -3246 0
-3245 -3247 0
-3245 -3248 0
-3246 -3247 0
-3246 -3248 0
-3247 -3248 0
-3249 -3250 0
-3249 -3251 0
-3249 -3252 0
-3250 -3251 0
-3250 -3252 0
-3251 -3252 0
-3253 -3254 0
-3253 -3255 0
-3253 -3256 0
-3254 -3255 0
-3254 -3256 0
-3255 -3256 0
-3257 -3258 0
-3257 -3259 0
-3257 -3260 0
-3258 -3259 0
-3258 -3260 0
-3259 -3260 0
-3261 -3262 0
-3261 -3263 0
-3261 -3264 0
-3262 -3263 0
-3262 -3264 0
-3263 -3264 0
-3269 -3270 0
-3269 -3271 0
-3269 -3272 0
-3270 -3271 0
-3270 -3272 0
-3271 -3272 0
-3277 -3278 0
-3277 -3279 0
-3277 -3280 0
-3278 -3279 0
-3278 -3280 0
-3279 -3280 0
-3281 -3282 0
-3281 -3283 0
-3281 -3284 0
-3282 -3283 0
-3282 -3284 0
-3283 -3284 0
-3289 -3290 0
-3289 -3291 0
-3289 -3292 0
-3290 -3291 0
-3290 -3292 0
-3291 -3292 0
-3297 -3298 0
-3297 -3299 0
-3297 -3300 0
-3298 -3299 0
-3298 -3300 0
-3299 -3300 0
-3301 -3302 0
-3301 -3303 0
-3301 -3304 0
-3302 -3303 0
-3302 -3304 0
-3303 -3304 0
-3305 -3306 0
-3305 -3307 0
-3305 -3308 0
-3306 -3307 0
-3306 -3308 0
-3307 -3308 0
-3309 -3310 0
-3309 -3311 0
-3309 -3312 0
-3310 -3311 0
-3310 -3312 0
-3311 -3312 0
-3313 -3314 0
-3313 -3315 0
-3313 -3316 0
-3314 -3315 0
-3314 -3316 0
-3315 -3316 0
-3317 -3318 0
-3317 -3319 0
-3317 -3320 0
-3318 -3319 0
-3318 -3320 0
-3319 -3320 0
-3321 -3322 0
-3321 -3323 0
-3321 -3324 0
-3322 -3323 0
-3322 -3324 0
-3323 -3324 0
-3329 -3330 0
-3329 -3331 0
-3329 -3332 0
-3330 -3331 0
-3330 -3332 0
-3331 -3332 0
-3341 -3342 0
-3341 -3343 0
-3341 -3344 0
-3342 -3343 0
-3342 -3344 0
-3343 -3344 0
-3361 -3362 0
-3361 -3363 0
-3361 -3364 0
-3362 -3363 0
-3362 -3364 0
-3363 -3364 0
-3365 -3366 0
-3365 -3367 0
-3365 -3368 0
-3366 -3367 0
-3366 -3368 0
-3367 -3368 0
-3369 -3370 0
-3369 -3371 0
-3369 -3372 0
-3370 -3371 0
-3370 -3372 0
-3371 -3372 0
-3373 -3374 0
-3373 -3375 0
-3373 -3376 0
-3374 -3375 0
-3374 -3376 0
-3375 -3376 0
-3377 -3378 0
-3377 -3379 0
-3377 -3380 0
-3378 -3379 0
-3378 -3380 0
-3379 -3380 0
-3385 -3386 0
-3385 -3387 0
-3385 -3388 0
-3386 -3387 0
-3386 -3388 0
-3387 -3388 0
-3389 -3390 0
-3389 -3391 0
-3389 -3392 0
-3390 -3391 0
-3390 -3392 0
-3391 -3392 0
-3393 -3394 0
-3393 -3395 0
-3393 -3396 0
-3394 -3395 0
-3394 -3396 0
-3395 -3396 0
-3397 -3398 0
-3397 -3399 0
-3397 -3400 0
-3398 -3399 0
-3398 -3400 0
-3399 -3400 0
-3405 -3406 0
-3405 -3407 0
-3405 -3408 0
-3406 -3407 0
-3406 -3408 0
-3407 -3408 0
-3413 -3414 0
-3413 -3415 0
-3413 -3416 0
-3414 -3415 0
-3414 -3416 0
-3415 -3416 0
-3417 -3418 0
-3417 -3419 0
-3417 -3420 0
-3418 -3419 0
-3418 -3420 0
-3419 -3420 0
-3421 -3422 0
-3421 -3423 0
-3421 -3424 0
-3422 -3423 0
-3422 -3424 0
-3423 -3424 0
-3425 -3426 0
-3425 -3427 0
-3425 -3428 0
-3426 -3427 0
-3426 -3428 0
-3427 -3428 0
-3429 -3430 0
-3429 -3431 0
-3429 -3432 0
-3430 -3431 0
-3430 -3432 0
-3431 -3432 0
-3437 -3438 0
-3437 -3439 0
-3437 -3440 0
-3438 -3439 0
-3438 -3440 0
-3439 -3440 0
-3441 -3442 0
-3441 -3443 0
-3441 -3444 0
-3442 -3443 0
-3442 -3444 0
-3443 -3444 0
-3449 -3450 0
-3449 -3451 0
-3449 -3452 0
-3450 -3451 0
-3450 -3452 0
-3451 -3452 0
-3461 -3462 0
-3461 -3463 0
-3461 -3464 0
-3462 -3463 0
-3462 -3464 0
-3463 -3464 0
-3465 -3466 0
-3465 -3467 0
-3465 -3468 0
-3466 -3467 0
-3466 -3468 0
-3467 -3468 0
-3477 -3478 0
-3477 -3479 0
-3477 -3480 0
-3478 -3479 0
-3478 -3480 0
-3479 -3480 0
-3485 -3486 0
-3485 -3487 0
-3485 -3488 0
-3486 -3487 0
-3486 -3488 0
-3487 -3488 0
-3489 -3490 0
-3489 -3491 0
-3489 -3492 0
-3490 -3491 0
-3490 -3492 0
-3491 -3492 0
-3493 -3494 0
-3493 -3495 0
-3493 -3496 0
-3494 -3495 0
-3494 -3496 0
-3495 -3496 0
-3497 -3498 0
-3497 -3499 0
-3497 -3500 0
-3498 -3499 0
-3498 -3500 0
-3499 -3500 0
-3501 -3502 0
-3501 -3503 0
-3501 -3504 0
-3502 -3503 0
-3502 -3504 0
-3503 -3504 0
-3505 -3506 0
-3505 -3507 0
-3505 -3508 0
-3506 -3507 0
-3506 -3508 0
-3507 -3508 0
-3513 -3514 0
-3513 -3515 0
-3513 -3516 0
-3514 -3515 0
-3514 -3516 0
-3515 -3516 0
-3517 -3518 0
-3517 -3519 0
-3517 -3520 0
-3518 -3519 0
-3518 -3520 0
-3519 -3520 0
-3521 -3522 0
-3521 -3523 0
-3521 -3524 0
-3522 -3523 0
-3522 -3524 0
-3523 -3524 0
-3525 -3526 0
-3525 -3527 0
-3525 -3528 0
-3526 -3527 0
-3526 -3528 0
-3527 -3528 0
-3529 -3530 0
-3529 -3531 0
-3529 -3532 0
-3530 -3531 0
-3530 -3532 0
-3531 -3532 0
-3533 -3534 0
-3533 -3535 0
-3533 -3536 0
-3534 -3535 0
-3534 -3536 0
-3535 -3536 0
-3537 -3538 0
-3537 -3539 0
-3537 -3540 0
-3538 -3539 0
-3538 -3540 0
-3539 -3540 0
-3541 -3542 0
-3541 -3543 0
-3541 -3544 0
-3542 -3543 0
-3542 -3544 0
-3543 -3544 0
-3545 -3546 0
-3545 -3547 0
-3545 -3548 0
-3546 -3547 0
-3546 -3548 0
-3547 -3548 0
-3549 -3550 0
-3549 -3551 0
-3549 -3552 0
-3550 -3551 0
-3550 -3552 0
-3551 -3552 0
-3553 -3554 0
-3553 -3555 0
-3553 -3556 0
-3554 -3555 0
-3554 -3556 0
-3555 -3556 0
-3561 -3562 0
-3561 -3563 0
-3561 -3564 0
-3562 -3563 0
-3562 -3564 0
-3563 -3564 0
-3565 -3566 0
-3565 -3567 0
-3565 -3568 0
-3566 -3567 0
-3566 -3568 0
-3567 -3568 0
-3569 -3570 0
-3569 -3571 0
-3569 -3572 0
-3570 -3571 0
-3570 -3572 0
-3571 -3572 0
-3573 -3574 0
-3573 -3575 0
-3573 -3576 0
-3574 -3575 0
-3574 -3576 0
-3575 -3576 0
-3577 -3578 0
-3577 -3579 0
-3577 -3580 0
-3578 -3579 0
-3578 -3580 0
-3579 -3580 0
-3581 -3582 0
-3581 -3583 0
-3581 -3584 0
-3582 -3583 0
-3582 -3584 0
-3583 -3584 0
-3593 -3594 0
-3593 -3595 0
-3593 -3596 0
-3594 -3595 0
-3594 -3596 0
-3595 -3596 0
-3597 -3598 0
-3597 -3599 0
-3597 -3600 0
-3598 -3599 0
-3598 -3600 0
-3599 -3600 0
-3605 -3606 0
-3605 -3607 0
-3605 -3608 0
-3606 -3607 0
-3606 -3608 0
-3607 -3608 0
-3613 -3614 0
-3613 -3615 0
-3613 -3616 0
-3614 -3615 0
-3614 -3616 0
-3615 -3616 0
-3617 -3618 0
-3617 -3619 0
-3617 -3620 0
-3618 -3619 0
-3618 -3620 0
-3619 -3620 0
-3621 -3622 0
-3621 -3623 0
-3621 -3624 0
-3622 -3623 0
-3622 -3624 0
-3623 -3624 0
-3625 -3626 0
-3625 -3627 0
-3625 -3628 0
-3626 -3627 0
-3626 -3628 0
-3627 -3628 0
-3629 -3630 0
-3629 -3631 0
-3629 -3632 0
-3630 -3631 0
-3630 -3632 0
-3631 -3632 0
-3633 -3634 0
-3633 -3635 0
-3633 -3636 0
-3634 -3635 0
-3634 -3636 0
-3635 -3636 0
-3637 -3638 0
-3637 -3639 0
-3637 -3640 0
-3638 -3639 0
-3638 -3640 0
-3639 -3640 0
-3641 -3642 0
-3641 -3643 0
-3641 -3644 0
-3642 -3643 0
-3642 -3644 0
-3643 -3644 0
-3649 -3650 0
-3649 -3651 0
-3649 -3652 0
-3650 -3651 0
-3650 -3652 0
-3651 -3652 0
-3657 -3658 0
-3657 -3659 0
-3657 -3660 0
-3658 -3659 0
-3658 -3660 0
-3659 -3660 0
-3661 -3662 0
-3661 -3663 0
-3661 -3664 0
-3662 -3663 0
-3662 -3664 0
-3663 -3664 0
-3665 -3666 0
-3665 -3667 0
-3665 -3668 0
-3666 -3667 0
-3666 -3668 0
-3667 -3668 0
-3669 -3670 0
-3669 -3671 0
-3669 -3672 0
-3670 -3671 0
-3670 -3672 0
-3671 -3672 0
-3673 -3674 0
-3673 -3675 0
-3673 -3676 0
-3674 -3675 0
-3674 -3676 0
-3675 -3676 0
-3685 -3686 0
-3685 -3687 0
-3685 -3688 0
-3686 -3687 0
-3686 -3688 0
-3687 -3688 0
-3689 -3690 0
-3689 -3691 0
-3689 -3692 0
-3690 -3691 0
-3690 -3692 0
-3691 -3692 0
-3693 -3694 0
-3693 -3695 0
-3693 -3696 0
-3694 -3695 0
-3694 -3696 0
-3695 -3696 0
-3701 -3702 0
-3701 -3703 0
-3701 -3704 0
-3702 -3703 0
-3702 -3704 0
-3703 -3704 0
-3705 -3706 0
-3705 -3707 0
-3705 -3708 0
-3706 -3707 0
-3706 -3708 0
-3707 -3708 0
-3717 -3718 0
-3717 -3719 0
-3717 -3720 0
-3718 -3719 0
-3718 -3720 0
-3719 -3720 0
-3721 -3722 0
-3721 -3723 0
-3721 -3724 0
-3722 -3723 0
-3722 -3724 0
-3723 -3724 0
-3729 -3730 0
-3729 -3731 0
-3729 -3732 0
-3730 -3731 0
-3730 -3732 0
-3731 -3732 0
-3737 -3738 0
-3737 -3739 0
-3737 -3740 0
-3738 -3739 0
-3738 -3740 0
-3739 -3740 0
-3745 -3746 0
-3745 -3747 0
-3745 -3748 0
-3746 -3747 0
-3746 -3748 0
-3747 -3748 0
-3749 -3750 0
-3749 -3751 0
-3749 -3752 0
-3750 -3751 0
-3750 -3752 0
-3751 -3752 0
-3753 -3754 0
-3753 -3755 0
-3753 -3756 0
-3754 -3755 0
-3754 -3756 0
-3755 -3756 0
-3769 -3770 0
-3769 -3771 0
-3769 -3772 0
-3770 -3771 0
-3770 -3772 0
-3771 -3772 0
-3773 -3774 0
-3773 -3775 0
-3773 -3776 0
-3774 -3775 0
-3774 -3776 0
-3775 -3776 0
-3777 -3778 0
-3777 -3779 0
-3777 -3780 0
-3778 -3779 0
-3778 -3780 0
-3779 -3780 0
-3793 -3794 0
-3793 -3795 0
-3793 -3796 0
-3794 -3795 0
-3794 -3796 0
-3795 -3796 0
-3797 -3798 0
-3797 -3799 0
-3797 -3800 0
-3798 -3799 0
-3798 -3800 0
-3799 -3800 0
-3801 -3802 0
-3801 -3803 0
-3801 -3804 0
-3802 -3803 0
-3802 -3804 0
-3803 -3804 0
-3813 -3814 0
-3813 -3815 0
-3813 -3816 0
-3814 -3815 0
-3814 -3816 0
-3815 -3816 0
-3817 -3818 0
-3817 -3819 0
-3817 -3820 0
-3818 -3819 0
-3818 -3820 0
-3819 -3820 0
-3825 -3826 0
-3825 -3827 0
-3825 -3828 0
-3826 -3827 0
-3826 -3828 0
-3827 -3828 0
-3829 -3830 0
-3829 -3831 0
-3829 -3832 0
-3830 -3831 0
-3830 -3832 0
-3831 -3832 0
-3833 -3834 0
-3833 -3835 0
-3833 -3836 0
-3834 -3835 0
-3834 -3836 0
-3835 -3836 0
-3837 -3838 0
-3837 -3839 0
-3837 -3840 0
-3838 -3839 0
-3838 -3840 0
-3839 -3840 0
-3841 -3842 0
-3841 -3843 0
-3841 -3844 0
-3842 -3843 0
-3842 -3844 0
-3843 -3844 0
-3845 -3846 0
-3845 -3847 0
-3845 -3848 0
-3846 -3847 0
-3846 -3848 0
-3847 -3848 0
-3849 -3850 0
-3849 -3851 0
-3849 -3852 0
-3850 -3851 0
-3850 -3852 0
-3851 -3852 0
-3857 -3858 0
-3857 -3859 0
-3857 -3860 0
-3858 -3859 0
-3858 -3860 0
-3859 -3860 0
-3861 -3862 0
-3861 -3863 0
-3861 -3864 0
-3862 -3863 0
-3862 -3864 0
-3863 -3864 0
-3873 -3874 0
-3873 -3875 0
-3873 -3876 0
-3874 -3875 0
-3874 -3876 0
-3875 -3876 0
-3877 -3878 0
-3877 -3879 0
-3877 -3880 0
-3878 -3879 0
-3878 -3880 0
-3879 -3880 0
-3881 -3882 0
-3881 -3883 0
-3881 -3884 0
-3882 -3883 0
-3882 -3884 0
-3883 -3884 0
-3885 -3886 0
-3885 -3887 0
-3885 -3888 0
-3886 -3887 0
-3886 -3888 0
-3887 -3888 0
-3889 -3890 0
-3889 -3891 0
-3889 -3892 0
-3890 -3891 0
-3890 -3892 0
-3891 -3892 0
-3897 -3898 0
-3897 -3899 0
-3897 -3900 0
-3898 -3899 0
-3898 -3900 0
-3899 -3900 0
-3901 -3902 0
-3901 -3903 0
-3901 -3904 0
-3902 -3903 0
-3902 -3904 0
-3903 -3904 0
-3905 -3906 0
-3905 -3907 0
-3905 -3908 0
-3906 -3907 0
-3906 -3908 0
-3907 -3908 0
-3909 -3910 0
-3909 -3911 0
-3909 -3912 0
-3910 -3911 0
-3910 -3912 0
-3911 -3912 0
-3917 -3918 0
-3917 -3919 0
-3917 -3920 0
-3918 -3919 0
-3918 -3920 0
-3919 -3920 0
-3921 -3922 0
-3921 -3923 0
-3921 -3924 0
-3922 -3923 0
-3922 -3924 0
-3923 -3924 0
-3929 -3930 0
-3929 -3931 0
-3929 -3932 0
-3930 -3931 0
-3930 -3932 0
-3931 -3932 0
-3933 -3934 0
-3933 -3935 0
-3933 -3936 0
-3934 -3935 0
-3934 -3936 0
-3935 -3936 0
-3941 -3942 0
-3941 -3943 0
-3941 -3944 0
-3942 -3943 0
-3942 -3944 0
-3943 -3944 0
-3949 -3950 0
-3949 -3951 0
-3949 -3952 0
-3950 -3951 0
-3950 -3952 0
-3951 -3952 0
-3953 -3954 0
-3953 -3955 0
-3953 -3956 0
-3954 -3955 0
-3954 -3956 0
-3955 -3956 0
-3957 -3958 0
-3957 -3959 0
-3957 -3960 0
-3958 -3959 0
-3958 -3960 0
-3959 -3960 0
-3961 -3962 0
-3961 -3963 0
-3961 -3964 0
-3962 -3963 0
-3962 -3964 0
-3963 -3964 0
-3973 -3974 0
-3973 -3975 0
-3973 -3976 0
-3974 -3975 0
-3974 -3976 0
-3975 -3976 0
-3977 -3978 0
-3977 -3979 0
-3977 -3980 0
-3978 -3979 0
-3978 -3980 0
-3979 -3980 0
-3985 -3986 0
-3985 -3987 0
-3985 -3988 0
-3986 -3987 0
-3986 -3988 0
-3987 -3988 0
-3997 -3998 0
-3997 -3999 0
-3997 -4000 0
-3998 -3999 0
-3998 -4000 0
-3999 -4000 0
-4001 -4002 0
-4001 -4003 0
-4001 -4004 0
-4002 -4003 0
-4002 -4004 0
-4003 -4004 0
-4005 -4006 0
-4005 -4007 0
-4005 -4008 0
-4006 -4007 0
-4006 -4008 0
-4007 -4008 0
-4017 -4018 0
-4017 -4019 0
-4017 -4020 0
-4018 -4019 0
-4018 -4020 0
-4019 -4020 0
-4029 -4030 0
-4029 -4031 0
-4029 -4032 0
-4030 -4031 0
-4030 -4032 0
-4031 -4032 0
-4033 -4034 0
-4033 -4035 0
-4033 -4036 0
-4034 -4035 0
-4034 -4036 0
-4035 -4036 0
-4037 -4038 0
-4037 -4039 0
-4037 -4040 0
-4038 -4039 0
-4038 -4040 0
-4039 -4040 0
-4045 -4046 0
-4045 -4047 0
-4045 -4048 0
-4046 -4047 0
-4046 -4048 0
-4047 -4048 0
-4049 -4050 0
-4049 -4051 0
-4049 -4052 0
-4050 -4051 0
-4050 -4052 0
-4051 -4052 0
-4057 -4058 0
-4057 -4059 0
-4057 -4060 0
-4058 -4059 0
-4058 -4060 0
-4059 -4060 0
-4061 -4062 0
-4061 -4063 0
-4061 -4064 0
-4062 -4063 0
-4062 -4064 0
-4063 -4064 0
-4069 -4070 0
-4069 -4071 0
-4069 -4072 0
-4070 -4071 0
-4070 -4072 0
-4071 -4072 0
-4073 -4074 0
-4073 -4075 0
-4073 -4076 0
-4074 -4075 0
-4074 -4076 0
-4075 -4076 0
-4081 -4082 0
-4081 -4083 0
-4081 -4084 0
-4082 -4083 0
-4082 -4084 0
-4083 -4084 0
-4089 -4090 0
-4089 -4091 0
-4089 -4092 0
-4090 -4091 0
-4090 -4092 0
-4091 -4092 0
-4093 -4094 0
-4093 -4095 0
-4093 -4096 0
-4094 -4095 0
-4094 -4096 0
-4095 -4096 0
-4097 -4098 0
-4097 -4099 0
-4097 -4100 0
-4098 -4099 0
-4098 -4100 0
-4099 -4100 0
-4105 -4106 0
-4105 -4107 0
-4105 -4108 0
-4106 -4107 0
-4106 -4108 0
-4107 -4108 0
-4109 -4110 0
-4109 -4111 0
-4109 -4112 0
-4110 -4111 0
-4110 -4112 0
-4111 -4112 0
-4117 -4118 0
-4117 -4119 0
-4117 -4120 0
-4118 -4119 0
-4118 -4120 0
-4119 -4120 0
-4121 -4122 0
-4121 -4123 0
-4121 -4124 0
-4122 -4123 0
-4122 -4124 0
-4123 -4124 0
-4125 -4126 0
-4125 -4127 0
-4125 -4128 0
-4126 -4127 0
-4126 -4128 0
-4127 -4128 0
-4133 -4134 0
-4133 -4135 0
-4133 -4136 0
-4134 -4135 0
-4134 -4136 0
-4135 -4136 0
-4137 -4138 0
-4137 -4139 0
-4137 -4140 0
-4138 -4139 0
-4138 -4140 0
-4139 -4140 0
-4141 -4142 0
-4141 -4143 0
-4141 -4144 0
-4142 -4143 0
-4142 -4144 0
-4143 -4144 0
-4149 -4150 0
-4149 -4151 0
-4149 -4152 0
-4150 -4151 0
-4150 -4152 0
-4151 -4152 0
-4153 -4154 0
-4153 -4155 0
-4153 -4156 0
-4154 -4155 0
-4154 -4156 0
-4155 -4156 0
-4157 -4158 0
-4157 -4159 0
-4157 -4160 0
-4158 -4159 0
-4158 -4160 0
-4159 -4160 0
-4165 -4166 0
-4165 -4167 0
-4165 -4168 0
-4166 -4167 0
-4166 -4168 0
-4167 -4168 0
-4173 -4174 0
-4173 -4175 0
-4173 -4176 0
-4174 -4175 0
-4174 -4176 0
-4175 -4176 0
-4177 -4178 0
-4177 -4179 0
-4177 -4180 0
-4178 -4179 0
-4178 -4180 0
-4179 -4180 0
-4181 -4182 0
-4181 -4183 0
-4181 -4184 0
-4182 -4183 0
-4182 -4184 0
-4183 -4184 0
-4189 -4190 0
-4189 -4191 0
-4189 -4192 0
-4190 -4191 0
-4190 -4192 0
-4191 -4192 0
-4193 -4194 0
-4193 -4195 0
-4193 -4196 0
-4194 -4195 0
-4194 -4196 0
-4195 -4196 0
-4201 -4202 0
-4201 -4203 0
-4201 -4204 0
-4202 -4203 0
-4202 -4204 0
-4203 -4204 0
-4205 -4206 0
-4205 -4207 0
-4205 -4208 0
-4206 -4207 0
-4206 -4208 0
-4207 -4208 0
-4209 -4210 0
-4209 -4211 0
-4209 -4212 0
-4210 -4211 0
-4210 -4212 0
-4211 -4212 0
-4221 -4222 0
-4221 -4223 0
-4221 -4224 0
-4222 -4223 0
-4222 -4224 0
-4223 -4224 0
-4229 -4230 0
-4229 -4231 0
-4229 -4232 0
-4230 -4231 0
-4230 -4232 0
-4231 -4232 0
-4257 -4258 0
-4257 -4259 0
-4257 -4260 0
-4258 -4259 0
-4258 -4260 0
-4259 -4260 0
-21 -25 0
-22 -26 0
-23 -27 0
-24 -28 0
-21 -217 0
-22 -218 0
-23 -219 0
-24 -220 0
-21 -305 0
-22 -306 0
-23 -307 0
-24 -308 0
-21 -585 0
-22 -586 0
-23 -587 0
-24 -588 0
-21 -685 0
-22 -686 0
-23 -687 0
-24 -688 0
-21 -905 0
-22 -906 0
-23 -907 0
-24 -908 0
-25 -33 0
-26 -34 0
-27 -35 0
-28 -36 0
-25 -65 0
-26 -66 0
-27 -67 0
-28 -68 0
-25 -437 0
-26 -438 0
-27 -439 0
-28 -440 0
-25 -585 0
-26 -586 0
-27 -587 0
-28 -588 0
-25 -593 0
-26 -594 0
-27 -595 0
-28 -596 0
-25 -657 0
-26 -658 0
-27 -659 0
-28 -660 0
-25 -721 0
-26 -722 0
-27 -723 0
-28 -724 0
-25 -913 0
-26 -914 0
-27 -915 0
-28 -916 0
-33 -185 0
-34 -186 0
-35 -187 0
-36 -188 0
-33 -213 0
-34 -214 0
-35 -215 0
-36 -216 0
-33 -317 0
-34 -318 0
-35 -319 0
-36 -320 0
-33 -597 0
-34 -598 0
-35 -599 0
-36 -600 0
-33 -601 0
-34 -602 0
-35 -603 0
-36 -604 0
-33 -721 0
-34 -722 0
-35 -723 0
-36 -724 0
-33 -761 0
-34 -762 0
-35 -763 0
-36 -764 0
-33 -925 0
-34 -926 0
-35 -927 0
-36 -928 0
-41 -45 0
-42 -46 0
-43 -47 0
-44 -48 0
-41 -97 0
-42 -98 0
-43 -99 0
-44 -100 0
-41 -353 0
-42 -354 0
-43 -355 0
-44 -356 0
-41 -553 0
-42 -554 0
-43 -555 0
-44 -556 0
-41 -661 0
-42 -662 0
-43 -663 0
-44 -664 0
-41 -685 0
-42 -686 0
-43 -687 0
-44 -688 0
-41 -829 0
-42 -830 0
-43 -831 0
-44 -832 0
-41 -1057 0
-42 -1058 0
-43 -1059 0
-44 -1060 0
-45 -53 0
-46 -54 0
-47 -55 0
-48 -56 0
-45 -293 0
-46 -294 0
-47 -295 0
-48 -296 0
-45 -557 0
-46 -558 0
-47 -559 0
-48 -560 0
-45 -665 0
-46 -666 0
-47 -667 0
-48 -668 0
-45 -721 0
-46 -722 0
-47 -723 0
-48 -724 0
-45 -829 0
-46 -830 0
-47 -831 0
-48 -832 0
-45 -837 0
-46 -838 0
-47 -839 0
-48 -840 0
-45 -1069 0
-46 -1070 0
-47 -1071 0
-48 -1072 0
-53 -89 0
-54 -90 0
-55 -91 0
-56 -92 0
-53 -277 0
-54 -278 0
-55 -279 0
-56 -280 0
-53 -565 0
-54 -566 0
-55 -567 0
-56 -568 0
-53 -721 0
-54 -722 0
-55 -723 0
-56 -724 0
-53 -753 0
-54 -754 0
-55 -755 0
-56 -756 0
-53 -841 0
-54 -842 0
-55 -843 0
-56 -844 0
-53 -845 0
-54 -846 0
-55 -847 0
-56 -848 0
-65 -69 0
-66 -70 0
-67 -71 0
-68 -72 0
-65 -73 0
-66 -74 0
-67 -75 0
-68 -76 0
-65 -661 0
-66 -662 0
-67 -663 0
-68 -664 0
-65 -941 0
-66 -942 0
-67 -943 0
-68 -944 0
-65 -1013 0
-66 -1014 0
-67 -1015 0
-68 -1016 0
-65 -1025 0
-66 -1026 0
-67 -1027 0
-68 -1028 0
-65 -1185 0
-66 -1186 0
-67 -1187 0
-68 -1188 0
-69 -177 0
-70 -178 0
-71 -179 0
-72 -180 0
-69 -685 0
-70 -686 0
-71 -687 0
-72 -688 0
-69 -945 0
-70 -946 0
-71 -947 0
-72 -948 0
-69 -949 0
-70 -950 0
-71 -951 0
-72 -952 0
-69 -1037 0
-70 -1038 0
-71 -1039 0
-72 -1040 0
-73 -153 0
-74 -154 0
-75 -155 0
-76 -156 0
-73 -385 0
-74 -386 0
-75 -387 0
-76 -388 0
-73 -481 0
-74 -482 0
-75 -483 0
-76 -484 0
-73 -997 0
-74 -998 0
-75 -999 0
-76 -1000 0
-73 -1053 0
-74 -1054 0
-75 -1055 0
-76 -1056 0
-73 -1073 0
-74 -1074 0
-75 -1075 0
-76 -1076 0
-73 -1277 0
-74 -1278 0
-75 -1279 0
-76 -1280 0
-85 -89 0
-86 -90 0
-87 -91 0
-88 -92 0
-85 -109 0
-86 -110 0
-87 -111 0
-88 -112 0
-85 -113 0
-86 -114 0
-87 -115 0
-88 -116 0
-85 -501 0
-86 -502 0
-87 -503 0
-88 -504 0
-85 -581 0
-86 -582 0
-87 -583 0
-88 -584 0
-85 -933 0
-86 -934 0
-87 -935 0
-88 -936 0
-85 -1085 0
-86 -1086 0
-87 -1087 0
-88 -1088 0
-85 -1129 0
-86 -1130 0
-87 -1131 0
-88 -1132 0
-85 -1133 0
-86 -1134 0
-87 -1135 0
-88 -1136 0
-85 -1413 0
-86 -1414 0
-87 -1415 0
-88 -1416 0
-89 -229 0
-90 -230 0
-91 -231 0
-92 -232 0
-89 -325 0
-90 -326 0
-91 -327 0
-92 -328 0
-89 -445 0
-90 -446 0
-91 -447 0
-92 -448 0
-89 -949 0
-90 -950 0
-91 -951 0
-92 -952 0
-89 -957 0
-90 -958 0
-91 -959 0
-92 -960 0
-89 -1093 0
-90 -1094 0
-91 -1095 0
-92 -1096 0
-89 -1137 0
-90 -1138 0
-91 -1139 0
-92 -1140 0
-97 -109 0
-98 -110 0
-99 -111 0
-100 -112 0
-97 -345 0
-98 -346 0
-99 -347 0
-100 -348 0
-97 -629 0
-98 -630 0
-99 -631 0
-100 -632 0
-97 -1017 0
-98 -1018 0
-99 -1019 0
-100 -1020 0
-97 -1149 0
-98 -1150 0
-99 -1151 0
-100 -1152 0
-97 -1201 0
-98 -1202 0
-99 -1203 0
-100 -1204 0
-97 -1205 0
-98 -1206 0
-99 -1207 0
-100 -1208 0
-109 -113 0
-110 -114 0
-111 -115 0
-112 -116 0
-109 -121 0
-110 -122 0
-111 -123 0
-112 -124 0
-109 -217 0
-110 -218 0
-111 -219 0
-112 -220 0
-109 -721 0
-110 -722 0
-111 -723 0
-112 -724 0
-109 -1041 0
-110 -1042 0
-111 -1043 0
-112 -1044 0
-109 -1153 0
-110 -1154 0
-111 -1155 0
-112 -1156 0
-109 -1169 0
-110 -1170 0
-111 -1171 0
-112 -1172 0
-109 -1289 0
-110 -1290 0
-111 -1291 0
-112 -1292 0
-109 -1301 0
-110 -1302 0
-111 -1303 0
-112 -1304 0
-109 -1557 0
-110 -1558 0
-111 -1559 0
-112 -1560 0
-113 -221 0
-114 -222 0
-115 -223 0
-116 -224 0
-113 -373 0
-114 -374 0
-115 -375 0
-116 -376 0
-113 -561 0
-114 -562 0
-115 -563 0
-116 -564 0
-113 -741 0
-114 -742 0
-115 -743 0
-116 -744 0
-113 -1161 0
-114 -1162 0
-115 -1163 0
-116 -1164 0
-113 -1173 0
-114 -1174 0
-115 -1175 0
-116 -1176 0
-113 -1293 0
-114 -1294 0
-115 -1295 0
-116 -1296 0
-113 -1305 0
-114 -1306 0
-115 -1307 0
-116 -1308 0
-121 -169 0
-122 -170 0
-123 -171 0
-124 -172 0
-121 -385 0
-122 -386 0
-123 -387 0
-124 -388 0
-121 -761 0
-122 -762 0
-123 -763 0
-124 -764 0
-121 -1309 0
-122 -1310 0
-123 -1311 0
-124 -1312 0
-121 -1313 0
-122 -1314 0
-123 -1315 0
-124 -1316 0
-137 -141 0
-138 -142 0
-139 -143 0
-140 -144 0
-137 -157 0
-138 -158 0
-139 -159 0
-140 -160 0
-137 -685 0
-138 -686 0
-139 -687 0
-140 -688 0
-137 -1161 0
-138 -1162 0
-139 -1163 0
-140 -1164 0
-137 -1381 0
-138 -1382 0
-139 -1383 0
-140 -1384 0
-137 -1397 0
-138 -1398 0
-139 -1399 0
-140 -1400 0
-141 -161 0
-142 -162 0
-143 -163 0
-144 -164 0
-141 -165 0
-142 -166 0
-143 -167 0
-144 -168 0
-141 -169 0
-142 -170 0
-143 -171 0
-144 -172 0
-141 -437 0
-142 -438 0
-143 -439 0
-144 -440 0
-141 -645 0
-142 -646 0
-143 -647 0
-144 -648 0
-141 -697 0
-142 -698 0
-143 -699 0
-144 -700 0
-141 -1401 0
-142 -1402 0
-143 -1403 0
-144 -1404 0
-153 -165 0
-154 -166 0
-155 -167 0
-156 -168 0
-153 -705 0
-154 -706 0
-155 -707 0
-156 -708 0
-153 -1421 0
-154 -1422 0
-155 -1423 0
-156 -1424 0
-153 -1437 0
-154 -1438 0
-155 -1439 0
-156 -1440 0
-153 -1717 0
-154 -1718 0
-155 -1719 0
-156 -1720 0
-157 -165 0
-158 -166 0
-159 -167 0
-160 -168 0
-157 -213 0
-158 -214 0
-159 -215 0
-160 -216 0
-157 -353 0
-158 -354 0
-159 -355 0
-160 -356 0
-157 -709 0
-158 -710 0
-159 -711 0
-160 -712 0
-157 -769 0
-158 -770 0
-159 -771 0
-160 -772 0
-157 -1425 0
-158 -1426 0
-159 -1427 0
-160 -1428 0
-157 -1445 0
-158 -1446 0
-159 -1447 0
-160 -1448 0
-161 -165 0
-162 -166 0
-163 -167 0
-164 -168 0
-161 -177 0
-162 -178 0
-163 -179 0
-164 -180 0
-161 -185 0
-162 -186 0
-163 -187 0
-164 -188 0
-161 -369 0
-162 -370 0
-163 -371 0
-164 -372 0
-161 -477 0
-162 -478 0
-163 -479 0
-164 -480 0
-161 -717 0
-162 -718 0
-163 -719 0
-164 -720 0
-161 -873 0
-162 -874 0
-163 -875 0
-164 -876 0
-161 -1449 0
-162 -1450 0
-163 -1451 0
-164 -1452 0
-165 -181 0
-166 -182 0
-167 -183 0
-168 -184 0
-165 -189 0
-166 -190 0
-167 -191 0
-168 -192 0
-165 -305 0
-166 -306 0
-167 -307 0
-168 -308 0
-165 -541 0
-166 -542 0
-167 -543 0
-168 -544 0
-165 -721 0
-166 -722 0
-167 -723 0
-168 -724 0
-165 -877 0
-166 -878 0
-167 -879 0
-168 -880 0
-165 -1429 0
-166 -1430 0
-167 -1431 0
-168 -1432 0
-165 -1453 0
-166 -1454 0
-167 -1455 0
-168 -1456 0
-169 -177 0
-170 -178 0
-171 -179 0
-172 -180 0
-169 -181 0
-170 -182 0
-171 -183 0
-172 -184 0
-169 -481 0
-170 -482 0
-171 -483 0
-172 -484 0
-169 -897 0
-170 -898 0
-171 -899 0
-172 -900 0
-169 -1481 0
-170 -1482 0
-171 -1483 0
-172 -1484 0
-169 -1761 0
-170 -1762 0
-171 -1763 0
-172 -1764 0
-177 -181 0
-178 -182 0
-179 -183 0
-180 -184 0
-177 -185 0
-178 -186 0
-179 -187 0
-180 -188 0
-177 -193 0
-178 -194 0
-179 -195 0
-180 -196 0
-177 -205 0
-178 -206 0
-179 -207 0
-180 -208 0
-177 -293 0
-178 -294 0
-179 -295 0
-180 -296 0
-177 -341 0
-178 -342 0
-179 -343 0
-180 -344 0
-177 -509 0
-178 -510 0
-179 -511 0
-180 -512 0
-177 -685 0
-178 -686 0
-179 -687 0
-180 -688 0
-177 -1225 0
-178 -1226 0
-179 -1227 0
-180 -1228 0
-177 -1361 0
-178 -1362 0
-179 -1363 0
-180 -1364 0
-177 -1369 0
-178 -1370 0
-179 -1371 0
-180 -1372 0
-177 -1497 0
-178 -1498 0
-179 -1499 0
-180 -1500 0
-177 -1553 0
-178 -1554 0
-179 -1555 0
-180 -1556 0
-177 -1801 0
-178 -1802 0
-179 -1803 0
-180 -1804 0
-181 -189 0
-182 -190 0
-183 -191 0
-184 -192 0
-181 -561 0
-182 -562 0
-183 -563 0
-184 -564 0
-181 -793 0
-182 -794 0
-183 -795 0
-184 -796 0
-181 -1229 0
-182 -1230 0
-183 -1231 0
-184 -1232 0
-181 -1489 0
-182 -1490 0
-183 -1491 0
-184 -1492 0
-181 -1501 0
-182 -1502 0
-183 -1503 0
-184 -1504 0
-181 -1805 0
-182 -1806 0
-183 -1807 0
-184 -1808 0
-185 -189 0
-186 -190 0
-187 -191 0
-188 -192 0
-185 -225 0
-186 -226 0
-187 -227 0
-188 -228 0
-185 -297 0
-186 -298 0
-187 -299 0
-188 -300 0
-185 -525 0
-186 -526 0
-187 -527 0
-188 -528 0
-185 -693 0
-186 -694 0
-187 -695 0
-188 -696 0
-185 -925 0
-186 -926 0
-187 -927 0
-188 -928 0
-185 -929 0
-186 -930 0
-187 -931 0
-188 -932 0
-185 -1233 0
-186 -1234 0
-187 -1235 0
-188 -1236 0
-185 -1505 0
-186 -1506 0
-187 -1507 0
-188 -1508 0
-185 -1557 0
-186 -1558 0
-187 -1559 0
-188 -1560 0
-189 -393 0
-190 -394 0
-191 -395 0
-192 -396 0
-189 -797 0
-190 -798 0
-191 -799 0
-192 -800 0
-189 -933 0
-190 -934 0
-191 -935 0
-192 -936 0
-189 -1237 0
-190 -1238 0
-191 -1239 0
-192 -1240 0
-189 -1509 0
-190 -1510 0
-191 -1511 0
-192 -1512 0
-189 -1561 0
-190 -1562 0
-191 -1563 0
-192 -1564 0
-193 -513 0
-194 -514 0
-195 -515 0
-196 -516 0
-193 -721 0
-194 -722 0
-195 -723 0
-196 -724 0
-193 -1249 0
-194 -1250 0
-195 -1251 0
-196 -1252 0
-193 -1365 0
-194 -1366 0
-195 -1367 0
-196 -1368 0
-193 -1497 0
-194 -1498 0
-195 -1499 0
-196 -1500 0
-193 -1565 0
-194 -1566 0
-195 -1567 0
-196 -1568 0
-205 -245 0
-206 -246 0
-207 -247 0
-208 -248 0
-205 -361 0
-206 -362 0
-207 -363 0
-208 -364 0
-205 -389 0
-206 -390 0
-207 -391 0
-208 -392 0
-205 -805 0
-206 -806 0
-207 -807 0
-208 -808 0
-205 -1321 0
-206 -1322 0
-207 -1323 0
-208 -1324 0
-205 -1465 0
-206 -1466 0
-207 -1467 0
-208 -1468 0
-205 -1529 0
-206 -1530 0
-207 -1531 0
-208 -1532 0
-209 -213 0
-210 -214 0
-211 -215 0
-212 -216 0
-209 -685 0
-210 -686 0
-211 -687 0
-212 -688 0
-209 -1597 0
-210 -1598 0
-211 -1599 0
-212 -1600 0
-209 -1609 0
-210 -1610 0
-211 -1611 0
-212 -1612 0
-209 -1693 0
-210 -1694 0
-211 -1695 0
-212 -1696 0
-209 -1901 0
-210 -1902 0
-211 -1903 0
-212 -1904 0
-213 -693 0
-214 -694 0
-215 -695 0
-216 -696 0
-213 -1085 0
-214 -1086 0
-215 -1087 0
-216 -1088 0
-213 -1601 0
-214 -1602 0
-215 -1603 0
-216 -1604 0
-213 -1613 0
-214 -1614 0
-215 -1615 0
-216 -1616 0
-213 -1701 0
-214 -1702 0
-215 -1703 0
-216 -1704 0
-217 -221 0
-218 -222 0
-219 -223 0
-220 -224 0
-217 -1093 0
-218 -1094 0
-219 -1095 0
-220 -1096 0
-217 -1629 0
-218 -1630 0
-219 -1631 0
-220 -1632 0
-217 -1741 0
-218 -1742 0
-219 -1743 0
-220 -1744 0
-217 -1957 0
-218 -1958 0
-219 -1959 0
-220 -1960 0
-221 -225 0
-222 -226 0
-223 -227 0
-224 -228 0
-221 -229 0
-222 -230 0
-223 -231 0
-224 -232 0
-221 -249 0
-222 -250 0
-223 -251 0
-224 -252 0
-221 -373 0
-222 -374 0
-223 -375 0
-224 -376 0
-221 -413 0
-222 -414 0
-223 -415 0
-224 -416 0
-221 -945 0
-222 -946 0
-223 -947 0
-224 -948 0
-221 -1381 0
-222 -1382 0
-223 -1383 0
-224 -1384 0
-221 -1637 0
-222 -1638 0
-223 -1639 0
-224 -1640 0
-221 -1757 0
-222 -1758 0
-223 -1759 0
-224 -1760 0
-225 -233 0
-226 -234 0
-227 -235 0
-228 -236 0
-225 -249 0
-226 -250 0
-227 -251 0
-228 -252 0
-225 -377 0
-226 -378 0
-227 -379 0
-228 -380 0
-225 -585 0
-226 -586 0
-227 -587 0
-228 -588 0
-225 -609 0
-226 -610 0
-227 -611 0
-228 -612 0
-225 -929 0
-226 -930 0
-227 -931 0
-228 -932 0
-225 -1641 0
-226 -1642 0
-227 -1643 0
-228 -1644 0
-225 -1725 0
-226 -1726 0
-227 -1727 0
-228 -1728 0
-225 -1761 0
-226 -1762 0
-227 -1763 0
-228 -1764 0
-229 -233 0
-230 -234 0
-231 -235 0
-232 -236 0
-229 -257 0
-230 -258 0
-231 -259 0
-232 -260 0
-229 -381 0
-230 -382 0
-231 -383 0
-232 -384 0
-229 -493 0
-230 -494 0
-231 -495 0
-232 -496 0
-229 -613 0
-230 -614 0
-231 -615 0
-232 -616 0
-229 -949 0
-230 -950 0
-231 -951 0
-232 -952 0
-229 -1397 0
-230 -1398 0
-231 -1399 0
-232 -1400 0
-229 -1637 0
-230 -1638 0
-231 -1639 0
-232 -1640 0
-229 -1773 0
-230 -1774 0
-231 -1775 0
-232 -1776 0
-233 -257 0
-234 -258 0
-235 -259 0
-236 -260 0
-233 -341 0
-234 -342 0
-235 -343 0
-236 -344 0
-233 -593 0
-234 -594 0
-235 -595 0
-236 -596 0
-233 -617 0
-234 -618 0
-235 -619 0
-236 -620 0
-233 -881 0
-234 -882 0
-235 -883 0
-236 -884 0
-233 -1401 0
-234 -1402 0
-235 -1403 0
-236 -1404 0
-233 -1641 0
-234 -1642 0
-235 -1643 0
-236 -1644 0
-233 -1729 0
-234 -1730 0
-235 -1731 0
-236 -1732 0
-233 -1777 0
-234 -1778 0
-235 -1779 0
-236 -1780 0
-237 -253 0
-238 -254 0
-239 -255 0
-240 -256 0
-237 -257 0
-238 -258 0
-239 -259 0
-240 -260 0
-237 -353 0
-238 -354 0
-239 -355 0
-240 -356 0
-237 -629 0
-238 -630 0
-239 -631 0
-240 -632 0
-237 -969 0
-238 -970 0
-239 -971 0
-240 -972 0
-237 -1453 0
-238 -1454 0
-239 -1455 0
-240 -1456 0
-245 -249 0
-246 -250 0
-247 -251 0
-248 -252 0
-245 -253 0
-246 -254 0
-247 -255 0
-248 -256 0
-245 -449 0
-246 -450 0
-247 -451 0
-248 -452 0
-245 -485 0
-246 -486 0
-247 -487 0
-248 -488 0
-245 -677 0
-246 -678 0
-247 -679 0
-248 -680 0
-245 -1489 0
-246 -1490 0
-247 -1491 0
-248 -1492 0
-245 -1597 0
-246 -1598 0
-247 -1599 0
-248 -1600 0
-245 -1665 0
-246 -1666 0
-247 -1667 0
-248 -1668 0
-249 -257 0
-250 -258 0
-251 -259 0
-252 -260 0
-249 -453 0
-250 -454 0
-251 -455 0
-252 -456 0
-249 -685 0
-250 -686 0
-251 -687 0
-252 -688 0
-249 -985 0
-250 -986 0
-251 -987 0
-252 -988 0
-249 -1117 0
-250 -1118 0
-251 -1119 0
-252 -1120 0
-249 -1129 0
-250 -1130 0
-251 -1131 0
-252 -1132 0
-249 -1601 0
-250 -1602 0
-251 -1603 0
-252 -1604 0
-249 -1669 0
-250 -1670 0
-251 -1671 0
-252 -1672 0
-249 -1833 0
-250 -1834 0
-251 -1835 0
-252 -1836 0
-249 -1841 0
-250 -1842 0
-251 -1843 0
-252 -1844 0
-253 -257 0
-254 -258 0
-255 -259 0
-256 -260 0
-253 -293 0
-254 -294 0
-255 -295 0
-256 -296 0
-253 -497 0
-254 -498 0
-255 -499 0
-256 -500 0
-253 -713 0
-254 -714 0
-255 -715 0
-256 -716 0
-253 -841 0
-254 -842 0
-255 -843 0
-256 -844 0
-253 -961 0
-254 -962 0
-255 -963 0
-256 -964 0
-253 -1501 0
-254 -1502 0
-255 -1503 0
-256 -1504 0
-253 -1609 0
-254 -1610 0
-255 -1611 0
-256 -1612 0
-253 -1621 0
-254 -1622 0
-255 -1623 0
-256 -1624 0
-253 -1665 0
-254 -1666 0
-255 -1667 0
-256 -1668 0
-253 -1673 0
-254 -1674 0
-255 -1675 0
-256 -1676 0
-253 -2069 0
-254 -2070 0
-255 -2071 0
-256 -2072 0
-257 -297 0
-258 -298 0
-259 -299 0
-260 -300 0
-257 -389 0
-258 -390 0
-259 -391 0
-260 -392 0
-257 -465 0
-258 -466 0
-259 -467 0
-260 -468 0
-257 -721 0
-258 -722 0
-259 -723 0
-260 -724 0
-257 -993 0
-258 -994 0
-259 -995 0
-260 -996 0
-257 -1001 0
-258 -1002 0
-259 -1003 0
-260 -1004 0
-257 -1133 0
-258 -1134 0
-259 -1135 0
-260 -1136 0
-257 -1509 0
-258 -1510 0
-259 -1511 0
-260 -1512 0
-257 -1513 0
-258 -1514 0
-259 -1515 0
-260 -1516 0
-257 -1613 0
-258 -1614 0
-259 -1615 0
-260 -1616 0
-257 -1669 0
-258 -1670 0
-259 -1671 0
-260 -1672 0
-257 -1677 0
-258 -1678 0
-259 -1679 0
-260 -1680 0
-257 -1837 0
-258 -1838 0
-259 -1839 0
-260 -1840 0
-257 -1845 0
-258 -1846 0
-259 -1847 0
-260 -1848 0
-277 -445 0
-278 -446 0
-279 -447 0
-280 -448 0
-277 -1561 0
-278 -1562 0
-279 -1563 0
-280 -1564 0
-277 -1701 0
-278 -1702 0
-279 -1703 0
-280 -1704 0
-277 -1833 0
-278 -1834 0
-279 -1835 0
-280 -1836 0
-277 -1837 0
-278 -1838 0
-279 -1839 0
-280 -1840 0
-293 -297 0
-294 -298 0
-295 -299 0
-296 -300 0
-293 -509 0
-294 -510 0
-295 -511 0
-296 -512 0
-293 -557 0
-294 -558 0
-295 -559 0
-296 -560 0
-293 -1053 0
-294 -1054 0
-295 -1055 0
-296 -1056 0
-293 -1281 0
-294 -1282 0
-295 -1283 0
-296 -1284 0
-293 -1297 0
-294 -1298 0
-295 -1299 0
-296 -1300 0
-293 -1781 0
-294 -1782 0
-295 -1783 0
-296 -1784 0
-293 -1797 0
-294 -1798 0
-295 -1799 0
-296 -1800 0
-293 -1853 0
-294 -1854 0
-295 -1855 0
-296 -1856 0
-293 -2145 0
-294 -2146 0
-295 -2147 0
-296 -2148 0
-297 -377 0
-298 -378 0
-299 -379 0
-300 -380 0
-297 -861 0
-298 -862 0
-299 -863 0
-300 -864 0
-297 -1285 0
-298 -1286 0
-299 -1287 0
-300 -1288 0
-297 -1301 0
-298 -1302 0
-299 -1303 0
-300 -1304 0
-305 -905 0
-306 -906 0
-307 -907 0
-308 -908 0
-305 -1093 0
-306 -1094 0
-307 -1095 0
-308 -1096 0
-305 -1865 0
-306 -1866 0
-307 -1867 0
-308 -1868 0
-305 -1889 0
-306 -1890 0
-307 -1891 0
-308 -1892 0
-305 -1901 0
-306 -1902 0
-307 -1903 0
-308 -1904 0
-317 -341 0
-318 -342 0
-319 -343 0
-320 -344 0
-317 -489 0
-318 -490 0
-319 -491 0
-320 -492 0
-317 -929 0
-318 -930 0
-319 -931 0
-320 -932 0
-317 -1085 0
-318 -1086 0
-319 -1087 0
-320 -1088 0
-317 -1925 0
-318 -1926 0
-319 -1927 0
-320 -1928 0
-317 -2177 0
-318 -2178 0
-319 -2179 0
-320 -2180 0
-325 -361 0
-326 -362 0
-327 -363 0
-328 -364 0
-325 -613 0
-326 -614 0
-327 -615 0
-328 -616 0
-325 -1689 0
-326 -1690 0
-327 -1691 0
-328 -1692 0
-325 -1949 0
-326 -1950 0
-327 -1951 0
-328 -1952 0
-325 -1973 0
-326 -1974 0
-327 -1975 0
-328 -1976 0
-341 -389 0
-342 -390 0
-343 -391 0
-344 -392 0
-341 -393 0
-342 -394 0
-343 -395 0
-344 -396 0
-341 -557 0
-342 -558 0
-343 -559 0
-344 -560 0
-341 -617 0
-342 -618 0
-343 -619 0
-344 -620 0
-341 -941 0
-342 -942 0
-343 -943 0
-344 -944 0
-341 -1161 0
-342 -1162 0
-343 -1163 0
-344 -1164 0
-341 -1733 0
-342 -1734 0
-343 -1735 0
-344 -1736 0
-341 -2009 0
-342 -2010 0
-343 -2011 0
-344 -2012 0
-341 -2113 0
-342 -2114 0
-343 -2115 0
-344 -2116 0
-345 -361 0
-346 -362 0
-347 -363 0
-348 -364 0
-345 -405 0
-346 -406 0
-347 -407 0
-348 -408 0
-345 -569 0
-346 -570 0
-347 -571 0
-348 -572 0
-345 -649 0
-346 -650 0
-347 -651 0
-348 -652 0
-345 -2013 0
-346 -2014 0
-347 -2015 0
-348 -2016 0
-345 -2021 0
-346 -2022 0
-347 -2023 0
-348 -2024 0
-345 -2301 0
-346 -2302 0
-347 -2303 0
-348 -2304 0
-349 -353 0
-350 -354 0
-351 -355 0
-352 -356 0
-349 -361 0
-350 -362 0
-351 -363 0
-352 -364 0
-349 -385 0
-350 -386 0
-351 -387 0
-352 -388 0
-349 -665 0
-350 -666 0
-351 -667 0
-352 -668 0
-349 -1049 0
-350 -1050 0
-351 -1051 0
-352 -1052 0
-349 -1781 0
-350 -1782 0
-351 -1783 0
-352 -1784 0
-349 -1897 0
-350 -1898 0
-351 -1899 0
-352 -1900 0
-349 -2037 0
-350 -2038 0
-351 -2039 0
-352 -2040 0
-349 -2309 0
-350 -2310 0
-351 -2311 0
-352 -2312 0
-353 -369 0
-354 -370 0
-355 -371 0
-356 -372 0
-353 -389 0
-354 -390 0
-355 -391 0
-356 -392 0
-353 -629 0
-354 -630 0
-355 -631 0
-356 -632 0
-353 -1057 0
-354 -1058 0
-355 -1059 0
-356 -1060 0
-353 -1241 0
-354 -1242 0
-355 -1243 0
-356 -1244 0
-353 -1273 0
-354 -1274 0
-355 -1275 0
-356 -1276 0
-353 -1789 0
-354 -1790 0
-355 -1791 0
-356 -1792 0
-353 -1901 0
-354 -1902 0
-355 -1903 0
-356 -1904 0
-353 -2045 0
-354 -2046 0
-355 -2047 0
-356 -2048 0
-361 -369 0
-362 -370 0
-363 -371 0
-364 -372 0
-361 -409 0
-362 -410 0
-363 -411 0
-364 -412 0
-361 -449 0
-362 -450 0
-363 -451 0
-364 -452 0
-361 -721 0
-362 -722 0
-363 -723 0
-364 -724 0
-361 -1797 0
-362 -1798 0
-363 -1799 0
-364 -1800 0
-361 -1897 0
-362 -1898 0
-363 -1899 0
-364 -1900 0
-361 -2053 0
-362 -2054 0
-363 -2055 0
-364 -2056 0
-361 -2057 0
-362 -2058 0
-363 -2059 0
-364 -2060 0
-369 -409 0
-370 -410 0
-371 -411 0
-372 -412 0
-369 -477 0
-370 -478 0
-371 -479 0
-372 -480 0
-369 -741 0
-370 -742 0
-371 -743 0
-372 -744 0
-369 -1805 0
-370 -1806 0
-371 -1807 0
-372 -1808 0
-369 -1901 0
-370 -1902 0
-371 -1903 0
-372 -1904 0
-369 -2069 0
-370 -2070 0
-371 -2071 0
-372 -2072 0
-373 -377 0
-374 -378 0
-375 -379 0
-376 -380 0
-373 -381 0
-374 -382 0
-375 -383 0
-376 -384 0
-373 -389 0
-374 -390 0
-375 -391 0
-376 -392 0
-373 -657 0
-374 -658 0
-375 -659 0
-376 -660 0
-373 -829 0
-374 -830 0
-375 -831 0
-376 -832 0
-373 -1013 0
-374 -1014 0
-375 -1015 0
-376 -1016 0
-373 -1445 0
-374 -1446 0
-375 -1447 0
-376 -1448 0
-373 -1937 0
-374 -1938 0
-375 -1939 0
-376 -1940 0
-373 -1961 0
-374 -1962 0
-375 -1963 0
-376 -1964 0
-373 -2077 0
-374 -2078 0
-375 -2079 0
-376 -2080 0
-373 -2125 0
-374 -2126 0
-375 -2127 0
-376 -2128 0
-377 -393 0
-378 -394 0
-379 -395 0
-380 -396 0
-377 -553 0
-378 -554 0
-379 -555 0
-380 -556 0
-377 -585 0
-378 -586 0
-379 -587 0
-380 -588 0
-377 -1017 0
-378 -1018 0
-379 -1019 0
-380 -1020 0
-377 -1301 0
-378 -1302 0
-379 -1303 0
-380 -1304 0
-377 -1453 0
-378 -1454 0
-379 -1455 0
-380 -1456 0
-377 -1941 0
-378 -1942 0
-379 -1943 0
-380 -1944 0
-377 -1969 0
-378 -1970 0
-379 -1971 0
-380 -1972 0
-377 -2081 0
-378 -2082 0
-379 -2083 0
-380 -2084 0
-377 -2133 0
-378 -2134 0
-379 -2135 0
-380 -2136 0
-377 -2361 0
-378 -2362 0
-379 -2363 0
-380 -2364 0
-381 -397 0
-382 -398 0
-383 -399 0
-384 -400 0
-381 -837 0
-382 -838 0
-383 -839 0
-384 -840 0
-381 -1317 0
-382 -1318 0
-383 -1319 0
-384 -1320 0
-381 -1829 0
-382 -1830 0
-383 -1831 0
-384 -1832 0
-381 -1985 0
-382 -1986 0
-383 -1987 0
-384 -1988 0
-381 -2077 0
-382 -2078 0
-383 -2079 0
-384 -2080 0
-381 -2137 0
-382 -2138 0
-383 -2139 0
-384 -2140 0
-385 -389 0
-386 -390 0
-387 -391 0
-388 -392 0
-385 -481 0
-386 -482 0
-387 -483 0
-388 -484 0
-385 -705 0
-386 -706 0
-387 -707 0
-388 -708 0
-385 -1469 0
-386 -1470 0
-387 -1471 0
-388 -1472 0
-385 -2085 0
-386 -2086 0
-387 -2087 0
-388 -2088 0
-385 -2377 0
-386 -2378 0
-387 -2379 0
-388 -2380 0
-389 -393 0
-390 -394 0
-391 -395 0
-392 -396 0
-389 -397 0
-390 -398 0
-391 -399 0
-392 -400 0
-389 -485 0
-390 -486 0
-391 -487 0
-392 -488 0
-389 -721 0
-390 -722 0
-391 -723 0
-392 -724 0
-389 -1025 0
-390 -1026 0
-391 -1027 0
-392 -1028 0
-389 -1221 0
-390 -1222 0
-391 -1223 0
-392 -1224 0
-389 -1321 0
-390 -1322 0
-391 -1323 0
-392 -1324 0
-389 -1477 0
-390 -1478 0
-391 -1479 0
-392 -1480 0
-389 -2001 0
-390 -2002 0
-391 -2003 0
-392 -2004 0
-389 -2089 0
-390 -2090 0
-391 -2091 0
-392 -2092 0
-389 -2125 0
-390 -2126 0
-391 -2127 0
-392 -2128 0
-389 -2389 0
-390 -2390 0
-391 -2391 0
-392 -2392 0
-393 -597 0
-394 -598 0
-395 -599 0
-396 -600 0
-393 -733 0
-394 -734 0
-395 -735 0
-396 -736 0
-393 -997 0
-394 -998 0
-395 -999 0
-396 -1000 0
-393 -1033 0
-394 -1034 0
-395 -1035 0
-396 -1036 0
-393 -1237 0
-394 -1238 0
-395 -1239 0
-396 -1240 0
-393 -1313 0
-394 -1314 0
-395 -1315 0
-396 -1316 0
-393 -1481 0
-394 -1482 0
-395 -1483 0
-396 -1484 0
-393 -2093 0
-394 -2094 0
-395 -2095 0
-396 -2096 0
-393 -2133 0
-394 -2134 0
-395 -2135 0
-396 -2136 0
-393 -2393 0
-394 -2394 0
-395 -2395 0
-396 -2396 0
-397 -497 0
-398 -498 0
-399 -499 0
-400 -500 0
-397 -745 0
-398 -746 0
-399 -747 0
-400 -748 0
-397 -1325 0
-398 -1326 0
-399 -1327 0
-400 -1328 0
-397 -2005 0
-398 -2006 0
-399 -2007 0
-400 -2008 0
-397 -2089 0
-398 -2090 0
-399 -2091 0
-400 -2092 0
-397 -2137 0
-398 -2138 0
-399 -2139 0
-400 -2140 0
-405 -409 0
-406 -410 0
-407 -411 0
-408 -412 0
-405 -685 0
-406 -686 0
-407 -687 0
-408 -688 0
-405 -1053 0
-406 -1054 0
-407 -1055 0
-408 -1056 0
-405 -2117 0
-406 -2118 0
-407 -2119 0
-408 -2120 0
-405 -2133 0
-406 -2134 0
-407 -2135 0
-408 -2136 0
-409 -765 0
-410 -766 0
-411 -767 0
-412 -768 0
-409 -865 0
-410 -866 0
-411 -867 0
-412 -868 0
-409 -1553 0
-410 -1554 0
-411 -1555 0
-412 -1556 0
-409 -2097 0
-410 -2098 0
-411 -2099 0
-412 -2100 0
-409 -2145 0
-410 -2146 0
-411 -2147 0
-412 -2148 0
-413 -425 0
-414 -426 0
-415 -427 0
-416 -428 0
-413 -445 0
-414 -446 0
-415 -447 0
-416 -448 0
-413 -453 0
-414 -454 0
-415 -455 0
-416 -456 0
-413 -657 0
-414 -658 0
-415 -659 0
-416 -660 0
-413 -873 0
-414 -874 0
-415 -875 0
-416 -876 0
-413 -1877 0
-414 -1878 0
-415 -1879 0
-416 -1880 0
-413 -2149 0
-414 -2150 0
-415 -2151 0
-416 -2152 0
-413 -2153 0
-414 -2154 0
-415 -2155 0
-416 -2156 0
-413 -2245 0
-414 -2246 0
-415 -2247 0
-416 -2248 0
-425 -429 0
-426 -430 0
-427 -431 0
-428 -432 0
-425 -473 0
-426 -474 0
-427 -475 0
-428 -476 0
-425 -477 0
-426 -478 0
-427 -479 0
-428 -480 0
-425 -525 0
-426 -526 0
-427 -527 0
-428 -528 0
-425 -721 0
-426 -722 0
-427 -723 0
-428 -724 0
-425 -1093 0
-426 -1094 0
-427 -1095 0
-428 -1096 0
-425 -1369 0
-426 -1370 0
-427 -1371 0
-428 -1372 0
-425 -1885 0
-426 -1886 0
-427 -1887 0
-428 -1888 0
-425 -2161 0
-426 -2162 0
-427 -2163 0
-428 -2164 0
-425 -2177 0
-426 -2178 0
-427 -2179 0
-428 -2180 0
-425 -2245 0
-426 -2246 0
-427 -2247 0
-428 -2248 0
-429 -725 0
-430 -726 0
-431 -727 0
-432 -728 0
-429 -897 0
-430 -898 0
-431 -899 0
-432 -900 0
-429 -1173 0
-430 -1174 0
-431 -1175 0
-432 -1176 0
-429 -2165 0
-430 -2166 0
-431 -2167 0
-432 -2168 0
-429 -2181 0
-430 -2182 0
-431 -2183 0
-432 -2184 0
-437 -441 0
-438 -442 0
-439 -443 0
-440 -444 0
-437 -453 0
-438 -454 0
-439 -455 0
-440 -456 0
-437 -481 0
-438 -482 0
-439 -483 0
-440 -484 0
-437 -661 0
-438 -662 0
-439 -663 0
-440 -664 0
-437 -961 0
-438 -962 0
-439 -963 0
-440 -964 0
-437 -1389 0
-438 -1390 0
-439 -1391 0
-440 -1392 0
-437 -1421 0
-438 -1422 0
-439 -1423 0
-440 -1424 0
-437 -1941 0
-438 -1942 0
-439 -1943 0
-440 -1944 0
-437 -2197 0
-438 -2198 0
-439 -2199 0
-440 -2200 0
-437 -2293 0
-438 -2294 0
-439 -2295 0
-440 -2296 0
-437 -2509 0
-438 -2510 0
-439 -2511 0
-440 -2512 0
-441 -465 0
-442 -466 0
-443 -467 0
-444 -468 0
-441 -489 0
-442 -490 0
-443 -491 0
-444 -492 0
-441 -665 0
-442 -666 0
-443 -667 0
-444 -668 0
-441 -973 0
-442 -974 0
-443 -975 0
-444 -976 0
-441 -1437 0
-442 -1438 0
-443 -1439 0
-444 -1440 0
-441 -2197 0
-442 -2198 0
-443 -2199 0
-444 -2200 0
-441 -2297 0
-442 -2298 0
-443 -2299 0
-444 -2300 0
-441 -2517 0
-442 -2518 0
-443 -2519 0
-444 -2520 0
-445 -453 0
-446 -454 0
-447 -455 0
-448 -456 0
-445 -473 0
-446 -474 0
-447 -475 0
-448 -476 0
-445 -957 0
-446 -958 0
-447 -959 0
-448 -960 0
-445 -1961 0
-446 -1962 0
-447 -1963 0
-448 -1964 0
-445 -2201 0
-446 -2202 0
-447 -2203 0
-448 -2204 0
-449 -453 0
-450 -454 0
-451 -455 0
-452 -456 0
-449 -501 0
-450 -502 0
-451 -503 0
-452 -504 0
-449 -677 0
-450 -678 0
-451 -679 0
-452 -680 0
-449 -877 0
-450 -878 0
-451 -879 0
-452 -880 0
-449 -2205 0
-450 -2206 0
-451 -2207 0
-452 -2208 0
-453 -465 0
-454 -466 0
-455 -467 0
-456 -468 0
-453 -477 0
-454 -478 0
-455 -479 0
-456 -480 0
-453 -501 0
-454 -502 0
-455 -503 0
-456 -504 0
-453 -541 0
-454 -542 0
-455 -543 0
-456 -544 0
-453 -685 0
-454 -686 0
-455 -687 0
-456 -688 0
-453 -881 0
-454 -882 0
-455 -883 0
-456 -884 0
-453 -965 0
-454 -966 0
-455 -967 0
-456 -968 0
-453 -1149 0
-454 -1150 0
-455 -1151 0
-456 -1152 0
-453 -1405 0
-454 -1406 0
-455 -1407 0
-456 -1408 0
-453 -1969 0
-454 -1970 0
-455 -1971 0
-456 -1972 0
-453 -2209 0
-454 -2210 0
-455 -2211 0
-456 -2212 0
-453 -2301 0
-454 -2302 0
-455 -2303 0
-456 -2304 0
-465 -505 0
-466 -506 0
-467 -507 0
-468 -508 0
-465 -721 0
-466 -722 0
-467 -723 0
-468 -724 0
-465 -2209 0
-466 -2210 0
-467 -2211 0
-468 -2212 0
-473 -477 0
-474 -478 0
-475 -479 0
-476 -480 0
-473 -549 0
-474 -550 0
-475 -551 0
-476 -552 0
-473 -573 0
-474 -574 0
-475 -575 0
-476 -576 0
-473 -813 0
-474 -814 0
-475 -815 0
-476 -816 0
-473 -2001 0
-474 -2002 0
-475 -2003 0
-476 -2004 0
-473 -2217 0
-474 -2218 0
-475 -2219 0
-476 -2220 0
-477 -821 0
-478 -822 0
-479 -823 0
-480 -824 0
-477 -1113 0
-478 -1114 0
-479 -1115 0
-480 -1116 0
-477 -2221 0
-478 -2222 0
-479 -2223 0
-480 -2224 0
-477 -2301 0
-478 -2302 0
-479 -2303 0
-480 -2304 0
-481 -485 0
-482 -486 0
-483 -487 0
-484 -488 0
-481 -489 0
-482 -490 0
-483 -491 0
-484 -492 0
-481 -501 0
-482 -502 0
-483 -503 0
-484 -504 0
-481 -509 0
-482 -510 0
-483 -511 0
-484 -512 0
-481 -553 0
-482 -554 0
-483 -555 0
-484 -556 0
-481 -1289 0
-482 -1290 0
-483 -1291 0
-484 -1292 0
-481 -1609 0
-482 -1610 0
-483 -1611 0
-484 -1612 0
-481 -2157 0
-482 -2158 0
-483 -2159 0
-484 -2160 0
-481 -2225 0
-482 -2226 0
-483 -2227 0
-484 -2228 0
-481 -2317 0
-482 -2318 0
-483 -2319 0
-484 -2320 0
-481 -2333 0
-482 -2334 0
-483 -2335 0
-484 -2336 0
-481 -2581 0
-482 -2582 0
-483 -2583 0
-484 -2584 0
-485 -497 0
-486 -498 0
-487 -499 0
-488 -500 0
-485 -553 0
-486 -554 0
-487 -555 0
-488 -556 0
-485 -877 0
-486 -878 0
-487 -879 0
-488 -880 0
-485 -1157 0
-486 -1158 0
-487 -1159 0
-488 -1160 0
-485 -1293 0
-486 -1294 0
-487 -1295 0
-488 -1296 0
-485 -1477 0
-486 -1478 0
-487 -1479 0
-488 -1480 0
-485 -1489 0
-486 -1490 0
-487 -1491 0
-488 -1492 0
-485 -2165 0
-486 -2166 0
-487 -2167 0
-488 -2168 0
-485 -2229 0
-486 -2230 0
-487 -2231 0
-488 -2232 0
-485 -2597 0
-486 -2598 0
-487 -2599 0
-488 -2600 0
-489 -497 0
-490 -498 0
-491 -499 0
-492 -500 0
-489 -505 0
-490 -506 0
-491 -507 0
-492 -508 0
-489 -513 0
-490 -514 0
-491 -515 0
-492 -516 0
-489 -557 0
-490 -558 0
-491 -559 0
-492 -560 0
-489 -1301 0
-490 -1302 0
-491 -1303 0
-492 -1304 0
-489 -1393 0
-490 -1394 0
-491 -1395 0
-492 -1396 0
-489 -2173 0
-490 -2174 0
-491 -2175 0
-492 -2176 0
-489 -2225 0
-490 -2226 0
-491 -2227 0
-492 -2228 0
-489 -2341 0
-490 -2342 0
-491 -2343 0
-492 -2344 0
-489 -2617 0
-490 -2618 0
-491 -2619 0
-492 -2620 0
-493 -497 0
-494 -498 0
-495 -499 0
-496 -500 0
-493 -837 0
-494 -838 0
-495 -839 0
-496 -840 0
-493 -885 0
-494 -886 0
-495 -887 0
-496 -888 0
-493 -1397 0
-494 -1398 0
-495 -1399 0
-496 -1400 0
-493 -1497 0
-494 -1498 0
-495 -1499 0
-496 -1500 0
-493 -2009 0
-494 -2010 0
-495 -2011 0
-496 -2012 0
-493 -2177 0
-494 -2178 0
-495 -2179 0
-496 -2180 0
-497 -557 0
-498 -558 0
-499 -559 0
-500 -560 0
-497 -889 0
-498 -890 0
-499 -891 0
-500 -892 0
-497 -1305 0
-498 -1306 0
-499 -1307 0
-500 -1308 0
-497 -1501 0
-498 -1502 0
-499 -1503 0
-500 -1504 0
-497 -2181 0
-498 -2182 0
-499 -2183 0
-500 -2184 0
-497 -2229 0
-498 -2230 0
-499 -2231 0
-500 -2232 0
-497 -2633 0
-498 -2634 0
-499 -2635 0
-500 -2636 0
-501 -505 0
-502 -506 0
-503 -507 0
-504 -508 0
-501 -561 0
-502 -562 0
-503 -563 0
-504 -564 0
-501 -933 0
-502 -934 0
-503 -935 0
-504 -936 0
-501 -1621 0
-502 -1622 0
-503 -1623 0
-504 -1624 0
-501 -2013 0
-502 -2014 0
-503 -2015 0
-504 -2016 0
-501 -2157 0
-502 -2158 0
-503 -2159 0
-504 -2160 0
-501 -2233 0
-502 -2234 0
-503 -2235 0
-504 -2236 0
-501 -2637 0
-502 -2638 0
-503 -2639 0
-504 -2640 0
-505 -565 0
-506 -566 0
-507 -567 0
-508 -568 0
-505 -793 0
-506 -794 0
-507 -795 0
-508 -796 0
-505 -2021 0
-506 -2022 0
-507 -2023 0
-508 -2024 0
-505 -2173 0
-506 -2174 0
-507 -2175 0
-508 -2176 0
-505 -2233 0
-506 -2234 0
-507 -2235 0
-508 -2236 0
-505 -2641 0
-506 -2642 0
-507 -2643 0
-508 -2644 0
-509 -513 0
-510 -514 0
-511 -515 0
-512 -516 0
-509 -941 0
-510 -942 0
-511 -943 0
-512 -944 0
-509 -1417 0
-510 -1418 0
-511 -1419 0
-512 -1420 0
-509 -2237 0
-510 -2238 0
-511 -2239 0
-512 -2240 0
-509 -2373 0
-510 -2374 0
-511 -2375 0
-512 -2376 0
-509 -2653 0
-510 -2654 0
-511 -2655 0
-512 -2656 0
-513 -1433 0
-514 -1434 0
-515 -1435 0
-516 -1436 0
-513 -2037 0
-514 -2038 0
-515 -2039 0
-516 -2040 0
-513 -2237 0
-514 -2238 0
-515 -2239 0
-516 -2240 0
-513 -2661 0
-514 -2662 0
-515 -2663 0
-516 -2664 0
-525 -549 0
-526 -550 0
-527 -551 0
-528 -552 0
-525 -609 0
-526 -610 0
-527 -611 0
-528 -612 0
-525 -861 0
-526 -862 0
-527 -863 0
-528 -864 0
-525 -1037 0
-526 -1038 0
-527 -1039 0
-528 -1040 0
-525 -2265 0
-526 -2266 0
-527 -2267 0
-528 -2268 0
-525 -2277 0
-526 -2278 0
-527 -2279 0
-528 -2280 0
-541 -561 0
-542 -562 0
-543 -563 0
-544 -564 0
-541 -857 0
-542 -858 0
-543 -859 0
-544 -860 0
-541 -905 0
-542 -906 0
-543 -907 0
-544 -908 0
-541 -1557 0
-542 -1558 0
-543 -1559 0
-544 -1560 0
-541 -1725 0
-542 -1726 0
-543 -1727 0
-544 -1728 0
-541 -2361 0
-542 -2362 0
-543 -2363 0
-544 -2364 0
-549 -685 0
-550 -686 0
-551 -687 0
-552 -688 0
-549 -1741 0
-550 -1742 0
-551 -1743 0
-552 -1744 0
-549 -2365 0
-550 -2366 0
-551 -2367 0
-552 -2368 0
-549 -2377 0
-550 -2378 0
-551 -2379 0
-552 -2380 0
-553 -557 0
-554 -558 0
-555 -559 0
-556 -560 0
-553 -561 0
-554 -562 0
-555 -563 0
-556 -564 0
-553 -1017 0
-554 -1018 0
-555 -1019 0
-556 -1020 0
-553 -1789 0
-554 -1790 0
-555 -1791 0
-556 -1792 0
-553 -2269 0
-554 -2270 0
-555 -2271 0
-556 -2272 0
-553 -2397 0
-554 -2398 0
-555 -2399 0
-556 -2400 0
-553 -2737 0
-554 -2738 0
-555 -2739 0
-556 -2740 0
-557 -565 0
-558 -566 0
-559 -567 0
-560 -568 0
-557 -941 0
-558 -942 0
-559 -943 0
-560 -944 0
-557 -2281 0
-558 -2282 0
-559 -2283 0
-560 -2284 0
-557 -2397 0
-558 -2398 0
-559 -2399 0
-560 -2400 0
-557 -2745 0
-558 -2746 0
-559 -2747 0
-560 -2748 0
-561 -565 0
-562 -566 0
-563 -567 0
-564 -568 0
-561 -945 0
-562 -946 0
-563 -947 0
-564 -948 0
-561 -1805 0
-562 -1806 0
-563 -1807 0
-564 -1808 0
-561 -2117 0
-562 -2118 0
-563 -2119 0
-564 -2120 0
-561 -2269 0
-562 -2270 0
-563 -2271 0
-564 -2272 0
-561 -2405 0
-562 -2406 0
-563 -2407 0
-564 -2408 0
-565 -949 0
-566 -950 0
-567 -951 0
-568 -952 0
-565 -1317 0
-566 -1318 0
-567 -1319 0
-568 -1320 0
-565 -1561 0
-566 -1562 0
-567 -1563 0
-568 -1564 0
-565 -1821 0
-566 -1822 0
-567 -1823 0
-568 -1824 0
-565 -2133 0
-566 -2134 0
-567 -2135 0
-568 -2136 0
-565 -2281 0
-566 -2282 0
-567 -2283 0
-568 -2284 0
-565 -2405 0
-566 -2406 0
-567 -2407 0
-568 -2408 0
-569 -573 0
-570 -574 0
-571 -575 0
-572 -576 0
-569 -577 0
-570 -578 0
-571 -579 0
-572 -580 0
-569 -685 0
-570 -686 0
-571 -687 0
-572 -688 0
-569 -1085 0
-570 -1086 0
-571 -1087 0
-572 -1088 0
-569 -2157 0
-570 -2158 0
-571 -2159 0
-572 -2160 0
-569 -2425 0
-570 -2426 0
-571 -2427 0
-572 -2428 0
-569 -2769 0
-570 -2770 0
-571 -2771 0
-572 -2772 0
-573 -581 0
-574 -582 0
-575 -583 0
-576 -584 0
-573 -685 0
-574 -686 0
-575 -687 0
-576 -688 0
-573 -961 0
-574 -962 0
-575 -963 0
-576 -964 0
-573 -2165 0
-574 -2166 0
-575 -2167 0
-576 -2168 0
-573 -2429 0
-574 -2430 0
-575 -2431 0
-576 -2432 0
-577 -581 0
-578 -582 0
-579 -583 0
-580 -584 0
-577 -705 0
-578 -706 0
-579 -707 0
-580 -708 0
-577 -721 0
-578 -722 0
-579 -723 0
-580 -724 0
-577 -1405 0
-578 -1406 0
-579 -1407 0
-580 -1408 0
-577 -2173 0
-578 -2174 0
-579 -2175 0
-580 -2176 0
-577 -2425 0
-578 -2426 0
-579 -2427 0
-580 -2428 0
-577 -2433 0
-578 -2434 0
-579 -2435 0
-580 -2436 0
-577 -2773 0
-578 -2774 0
-579 -2775 0
-580 -2776 0
-581 -721 0
-582 -722 0
-583 -723 0
-584 -724 0
-581 -741 0
-582 -742 0
-583 -743 0
-584 -744 0
-581 -973 0
-582 -974 0
-583 -975 0
-584 -976 0
-581 -1413 0
-582 -1414 0
-583 -1415 0
-584 -1416 0
-581 -1621 0
-582 -1622 0
-583 -1623 0
-584 -1624 0
-581 -2181 0
-582 -2182 0
-583 -2183 0
-584 -2184 0
-581 -2429 0
-582 -2430 0
-583 -2431 0
-584 -2432 0
-581 -2437 0
-582 -2438 0
-583 -2439 0
-584 -2440 0
-585 -593 0
-586 -594 0
-587 -595 0
-588 -596 0
-585 -597 0
-586 -598 0
-587 -599 0
-588 -600 0
-585 -1349 0
-586 -1350 0
-587 -1351 0
-588 -1352 0
-585 -1629 0
-586 -1630 0
-587 -1631 0
-588 -1632 0
-585 -1865 0
-586 -1866 0
-587 -1867 0
-588 -1868 0
-585 -2541 0
-586 -2542 0
-587 -2543 0
-588 -2544 0
-585 -2581 0
-586 -2582 0
-587 -2583 0
-588 -2584 0
-585 -2817 0
-586 -2818 0
-587 -2819 0
-588 -2820 0
-593 -601 0
-594 -602 0
-595 -603 0
-596 -604 0
-593 -941 0
-594 -942 0
-595 -943 0
-596 -944 0
-593 -1353 0
-594 -1354 0
-595 -1355 0
-596 -1356 0
-593 -1593 0
-594 -1594 0
-595 -1595 0
-596 -1596 0
-593 -2197 0
-594 -2198 0
-595 -2199 0
-596 -2200 0
-593 -2545 0
-594 -2546 0
-595 -2547 0
-596 -2548 0
-593 -2617 0
-594 -2618 0
-595 -2619 0
-596 -2620 0
-593 -2825 0
-594 -2826 0
-595 -2827 0
-596 -2828 0
-597 -601 0
-598 -602 0
-599 -603 0
-600 -604 0
-597 -997 0
-598 -998 0
-599 -999 0
-600 -1000 0
-597 -1097 0
-598 -1098 0
-599 -1099 0
-600 -1100 0
-597 -1361 0
-598 -1362 0
-599 -1363 0
-600 -1364 0
-597 -1601 0
-598 -1602 0
-599 -1603 0
-600 -1604 0
-597 -2449 0
-598 -2450 0
-599 -2451 0
-600 -2452 0
-597 -2581 0
-598 -2582 0
-599 -2583 0
-600 -2584 0
-597 -2645 0
-598 -2646 0
-599 -2647 0
-600 -2648 0
-601 -1365 0
-602 -1366 0
-603 -1367 0
-604 -1368 0
-601 -1505 0
-602 -1506 0
-603 -1507 0
-604 -1508 0
-601 -1613 0
-602 -1614 0
-603 -1615 0
-604 -1616 0
-601 -2449 0
-602 -2450 0
-603 -2451 0
-604 -2452 0
-601 -2617 0
-602 -2618 0
-603 -2619 0
-604 -2620 0
-601 -2649 0
-602 -2650 0
-603 -2651 0
-604 -2652 0
-609 -617 0
-610 -618 0
-611 -619 0
-612 -620 0
-609 -685 0
-610 -686 0
-611 -687 0
-612 -688 0
-609 -697 0
-610 -698 0
-611 -699 0
-612 -700 0
-609 -1017 0
-610 -1018 0
-611 -1019 0
-612 -1020 0
-609 -1349 0
-610 -1350 0
-611 -1351 0
-612 -1352 0
-609 -2485 0
-610 -2486 0
-611 -2487 0
-612 -2488 0
-613 -617 0
-614 -618 0
-615 -619 0
-616 -620 0
-613 -709 0
-614 -710 0
-615 -711 0
-616 -712 0
-613 -721 0
-614 -722 0
-615 -723 0
-616 -724 0
-613 -2241 0
-614 -2242 0
-615 -2243 0
-616 -2244 0
-613 -2477 0
-614 -2478 0
-615 -2479 0
-616 -2480 0
-613 -2489 0
-614 -2490 0
-615 -2491 0
-616 -2492 0
-617 -721 0
-618 -722 0
-619 -723 0
-620 -724 0
-617 -733 0
-618 -734 0
-619 -735 0
-620 -736 0
-617 -1353 0
-618 -1354 0
-619 -1355 0
-620 -1356 0
-617 -2485 0
-618 -2486 0
-619 -2487 0
-620 -2488 0
-617 -2493 0
-618 -2494 0
-619 -2495 0
-620 -2496 0
-629 -633 0
-630 -634 0
-631 -635 0
-632 -636 0
-629 -713 0
-630 -714 0
-631 -715 0
-632 -716 0
-629 -721 0
-630 -722 0
-631 -723 0
-632 -724 0
-629 -2257 0
-630 -2258 0
-631 -2259 0
-632 -2260 0
-629 -2505 0
-630 -2506 0
-631 -2507 0
-632 -2508 0
-629 -2513 0
-630 -2514 0
-631 -2515 0
-632 -2516 0
-633 -721 0
-634 -722 0
-635 -723 0
-636 -724 0
-633 -729 0
-634 -730 0
-635 -731 0
-636 -732 0
-633 -1005 0
-634 -1006 0
-635 -1007 0
-636 -1008 0
-633 -1717 0
-634 -1718 0
-635 -1719 0
-636 -1720 0
-633 -1881 0
-634 -1882 0
-635 -1883 0
-636 -1884 0
-633 -2509 0
-634 -2510 0
-635 -2511 0
-636 -2512 0
-633 -2517 0
-634 -2518 0
-635 -2519 0
-636 -2520 0
-637 -645 0
-638 -646 0
-639 -647 0
-640 -648 0
-637 -685 0
-638 -686 0
-639 -687 0
-640 -688 0
-637 -1041 0
-638 -1042 0
-639 -1043 0
-640 -1044 0
-637 -1885 0
-638 -1886 0
-639 -1887 0
-640 -1888 0
-637 -2525 0
-638 -2526 0
-639 -2527 0
-640 -2528 0
-645 -649 0
-646 -650 0
-647 -651 0
-648 -652 0
-645 -717 0
-646 -718 0
-647 -719 0
-648 -720 0
-645 -721 0
-646 -722 0
-647 -723 0
-648 -724 0
-645 -1389 0
-646 -1390 0
-647 -1391 0
-648 -1392 0
-645 -1749 0
-646 -1750 0
-647 -1751 0
-648 -1752 0
-645 -2525 0
-646 -2526 0
-647 -2527 0
-648 -2528 0
-645 -2533 0
-646 -2534 0
-647 -2535 0
-648 -2536 0
-649 -721 0
-650 -722 0
-651 -723 0
-652 -724 0
-649 -725 0
-650 -726 0
-651 -727 0
-652 -728 0
-649 -1085 0
-650 -1086 0
-651 -1087 0
-652 -1088 0
-649 -1393 0
-650 -1394 0
-651 -1395 0
-652 -1396 0
-649 -2529 0
-650 -2530 0
-651 -2531 0
-652 -2532 0
-649 -2537 0
-650 -2538 0
-651 -2539 0
-652 -2540 0
-649 -2897 0
-650 -2898 0
-651 -2899 0
-652 -2900 0
-657 -721 0
-658 -722 0
-659 -723 0
-660 -724 0
-657 -1013 0
-658 -1014 0
-659 -1015 0
-660 -1016 0
-657 -1205 0
-658 -1206 0
-659 -1207 0
-660 -1208 0
-657 -1893 0
-658 -1894 0
-659 -1895 0
-660 -1896 0
-657 -2541 0
-658 -2542 0
-659 -2543 0
-660 -2544 0
-657 -2545 0
-658 -2546 0
-659 -2547 0
-660 -2548 0
-657 -2717 0
-658 -2718 0
-659 -2719 0
-660 -2720 0
-661 -665 0
-662 -666 0
-663 -667 0
-664 -668 0
-661 -685 0
-662 -686 0
-663 -687 0
-664 -688 0
-661 -2549 0
-662 -2550 0
-663 -2551 0
-664 -2552 0
-661 -2901 0
-662 -2902 0
-663 -2903 0
-664 -2904 0
-665 -721 0
-666 -722 0
-667 -723 0
-668 -724 0
-665 -1541 0
-666 -1542 0
-667 -1543 0
-668 -1544 0
-665 -1781 0
-666 -1782 0
-667 -1783 0
-668 -1784 0
-665 -2461 0
-666 -2462 0
-667 -2463 0
-668 -2464 0
-665 -2549 0
-666 -2550 0
-667 -2551 0
-668 -2552 0
-665 -2553 0
-666 -2554 0
-667 -2555 0
-668 -2556 0
-665 -2905 0
-666 -2906 0
-667 -2907 0
-668 -2908 0
-677 -685 0
-678 -686 0
-679 -687 0
-680 -688 0
-677 -713 0
-678 -714 0
-679 -715 0
-680 -716 0
-677 -1157 0
-678 -1158 0
-679 -1159 0
-680 -1160 0
-677 -2573 0
-678 -2574 0
-679 -2575 0
-680 -2576 0
-685 -693 0
-686 -694 0
-687 -695 0
-688 -696 0
-685 -697 0
-686 -698 0
-687 -699 0
-688 -700 0
-685 -721 0
-686 -722 0
-687 -723 0
-688 -724 0
-685 -765 0
-686 -766 0
-687 -767 0
-688 -768 0
-685 -769 0
-686 -770 0
-687 -771 0
-688 -772 0
-685 -789 0
-686 -790 0
-687 -791 0
-688 -792 0
-685 -805 0
-686 -806 0
-687 -807 0
-688 -808 0
-685 -857 0
-686 -858 0
-687 -859 0
-688 -860 0
-685 -1053 0
-686 -1054 0
-687 -1055 0
-688 -1056 0
-685 -1149 0
-686 -1150 0
-687 -1151 0
-688 -1152 0
-685 -1161 0
-686 -1162 0
-687 -1163 0
-688 -1164 0
-685 -1225 0
-686 -1226 0
-687 -1227 0
-688 -1228 0
-685 -1417 0
-686 -1418 0
-687 -1419 0
-688 -1420 0
-685 -1741 0
-686 -1742 0
-687 -1743 0
-688 -1744 0
-685 -1901 0
-686 -1902 0
-687 -1903 0
-688 -1904 0
-685 -1917 0
-686 -1918 0
-687 -1919 0
-688 -1920 0
-685 -2269 0
-686 -2270 0
-687 -2271 0
-688 -2272 0
-685 -2465 0
-686 -2466 0
-687 -2467 0
-688 -2468 0
-685 -2557 0
-686 -2558 0
-687 -2559 0
-688 -2560 0
-685 -2581 0
-686 -2582 0
-687 -2583 0
-688 -2584 0
-685 -2713 0
-686 -2714 0
-687 -2715 0
-688 -2716 0
-685 -2721 0
-686 -2722 0
-687 -2723 0
-688 -2724 0
-685 -2917 0
-686 -2918 0
-687 -2919 0
-688 -2920 0
-693 -729 0
-694 -730 0
-695 -731 0
-696 -732 0
-693 -789 0
-694 -790 0
-695 -791 0
-696 -792 0
-693 -1233 0
-694 -1234 0
-695 -1235 0
-696 -1236 0
-693 -1921 0
-694 -1922 0
-695 -1923 0
-696 -1924 0
-693 -2589 0
-694 -2590 0
-695 -2591 0
-696 -2592 0
-697 -733 0
-698 -734 0
-699 -735 0
-700 -736 0
-697 -1421 0
-698 -1422 0
-699 -1423 0
-700 -1424 0
-697 -1749 0
-698 -1750 0
-699 -1751 0
-700 -1752 0
-697 -2593 0
-698 -2594 0
-699 -2595 0
-700 -2596 0
-705 -721 0
-706 -722 0
-707 -723 0
-708 -724 0
-705 -861 0
-706 -862 0
-707 -863 0
-708 -864 0
-705 -2561 0
-706 -2562 0
-707 -2563 0
-708 -2564 0
-705 -2601 0
-706 -2602 0
-707 -2603 0
-708 -2604 0
-705 -2921 0
-706 -2922 0
-707 -2923 0
-708 -2924 0
-709 -721 0
-710 -722 0
-711 -723 0
-712 -724 0
-709 -813 0
-710 -814 0
-711 -815 0
-712 -816 0
-709 -1241 0
-710 -1242 0
-711 -1243 0
-712 -1244 0
-709 -1793 0
-710 -1794 0
-711 -1795 0
-712 -1796 0
-709 -2273 0
-710 -2274 0
-711 -2275 0
-712 -2276 0
-709 -2569 0
-710 -2570 0
-711 -2571 0
-712 -2572 0
-709 -2605 0
-710 -2606 0
-711 -2607 0
-712 -2608 0
-713 -721 0
-714 -722 0
-715 -723 0
-716 -724 0
-713 -793 0
-714 -794 0
-715 -795 0
-716 -796 0
-713 -1553 0
-714 -1554 0
-715 -1555 0
-716 -1556 0
-713 -1693 0
-714 -1694 0
-715 -1695 0
-716 -1696 0
-713 -2573 0
-714 -2574 0
-715 -2575 0
-716 -2576 0
-713 -2609 0
-714 -2610 0
-715 -2611 0
-716 -2612 0
-717 -721 0
-718 -722 0
-719 -723 0
-720 -724 0
-717 -773 0
-718 -774 0
-719 -775 0
-720 -776 0
-717 -873 0
-718 -874 0
-719 -875 0
-720 -876 0
-717 -1061 0
-718 -1062 0
-719 -1063 0
-720 -1064 0
-717 -1697 0
-718 -1698 0
-719 -1699 0
-720 -1700 0
-717 -2277 0
-718 -2278 0
-719 -2279 0
-720 -2280 0
-717 -2577 0
-718 -2578 0
-719 -2579 0
-720 -2580 0
-717 -2613 0
-718 -2614 0
-719 -2615 0
-720 -2616 0
-721 -725 0
-722 -726 0
-723 -727 0
-724 -728 0
-721 -729 0
-722 -730 0
-723 -731 0
-724 -732 0
-721 -733 0
-722 -734 0
-723 -735 0
-724 -736 0
-721 -741 0
-722 -742 0
-723 -743 0
-724 -744 0
-721 -745 0
-722 -746 0
-723 -747 0
-724 -748 0
-721 -753 0
-722 -754 0
-723 -755 0
-724 -756 0
-721 -761 0
-722 -762 0
-723 -763 0
-724 -764 0
-721 -773 0
-722 -774 0
-723 -775 0
-724 -776 0
-721 -777 0
-722 -778 0
-723 -779 0
-724 -780 0
-721 -793 0
-722 -794 0
-723 -795 0
-724 -796 0
-721 -797 0
-722 -798 0
-723 -799 0
-724 -800 0
-721 -813 0
-722 -814 0
-723 -815 0
-724 -816 0
-721 -821 0
-722 -822 0
-723 -823 0
-724 -824 0
-721 -861 0
-722 -862 0
-723 -863 0
-724 -864 0
-721 -865 0
-722 -866 0
-723 -867 0
-724 -868 0
-721 -877 0
-722 -878 0
-723 -879 0
-724 -880 0
-721 -1025 0
-722 -1026 0
-723 -1027 0
-724 -1028 0
-721 -1065 0
-722 -1066 0
-723 -1067 0
-724 -1068 0
-721 -1093 0
-722 -1094 0
-723 -1095 0
-724 -1096 0
-721 -1165 0
-722 -1166 0
-723 -1167 0
-724 -1168 0
-721 -1249 0
-722 -1250 0
-723 -1251 0
-724 -1252 0
-721 -1433 0
-722 -1434 0
-723 -1435 0
-724 -1436 0
-721 -1557 0
-722 -1558 0
-723 -1559 0
-724 -1560 0
-721 -1701 0
-722 -1702 0
-723 -1703 0
-724 -1704 0
-721 -1765 0
-722 -1766 0
-723 -1767 0
-724 -1768 0
-721 -1797 0
-722 -1798 0
-723 -1799 0
-724 -1800 0
-721 -1913 0
-722 -1914 0
-723 -1915 0
-724 -1916 0
-721 -1925 0
-722 -1926 0
-723 -1927 0
-724 -1928 0
-721 -2281 0
-722 -2282 0
-723 -2283 0
-724 -2284 0
-721 -2293 0
-722 -2294 0
-723 -2295 0
-724 -2296 0
-721 -2461 0
-722 -2462 0
-723 -2463 0
-724 -2464 0
-721 -2469 0
-722 -2470 0
-723 -2471 0
-724 -2472 0
-721 -2581 0
-722 -2582 0
-723 -2583 0
-724 -2584 0
-721 -2617 0
-722 -2618 0
-723 -2619 0
-724 -2620 0
-721 -2717 0
-722 -2718 0
-723 -2719 0
-724 -2720 0
-721 -2725 0
-722 -2726 0
-723 -2727 0
-724 -2728 0
-721 -2925 0
-722 -2926 0
-723 -2927 0
-724 -2928 0
-725 -777 0
-726 -778 0
-727 -779 0
-728 -780 0
-725 -1253 0
-726 -1254 0
-727 -1255 0
-728 -1256 0
-725 -1561 0
-726 -1562 0
-727 -1563 0
-728 -1564 0
-725 -2585 0
-726 -2586 0
-727 -2587 0
-728 -2588 0
-725 -2621 0
-726 -2622 0
-727 -2623 0
-728 -2624 0
-729 -797 0
-730 -798 0
-731 -799 0
-732 -800 0
-729 -881 0
-730 -882 0
-731 -883 0
-732 -884 0
-729 -1257 0
-730 -1258 0
-731 -1259 0
-732 -1260 0
-729 -1929 0
-730 -1930 0
-731 -1931 0
-732 -1932 0
-729 -2589 0
-730 -2590 0
-731 -2591 0
-732 -2592 0
-729 -2625 0
-730 -2626 0
-731 -2627 0
-732 -2628 0
-733 -821 0
-734 -822 0
-735 -823 0
-736 -824 0
-733 -1033 0
-734 -1034 0
-735 -1035 0
-736 -1036 0
-733 -1097 0
-734 -1098 0
-735 -1099 0
-736 -1100 0
-733 -1437 0
-734 -1438 0
-735 -1439 0
-736 -1440 0
-733 -1769 0
-734 -1770 0
-735 -1771 0
-736 -1772 0
-733 -2593 0
-734 -2594 0
-735 -2595 0
-736 -2596 0
-733 -2629 0
-734 -2630 0
-735 -2631 0
-736 -2632 0
-741 -865 0
-742 -866 0
-743 -867 0
-744 -868 0
-741 -1445 0
-742 -1446 0
-743 -1447 0
-744 -1448 0
-741 -1773 0
-742 -1774 0
-743 -1775 0
-744 -1776 0
-741 -1805 0
-742 -1806 0
-743 -1807 0
-744 -1808 0
-741 -2597 0
-742 -2598 0
-743 -2599 0
-744 -2600 0
-741 -2633 0
-742 -2634 0
-743 -2635 0
-744 -2636 0
-745 -889 0
-746 -890 0
-747 -891 0
-748 -892 0
-745 -1105 0
-746 -1106 0
-747 -1107 0
-748 -1108 0
-745 -1569 0
-746 -1570 0
-747 -1571 0
-748 -1572 0
-745 -1813 0
-746 -1814 0
-747 -1815 0
-748 -1816 0
-745 -2297 0
-746 -2298 0
-747 -2299 0
-748 -2300 0
-745 -2617 0
-746 -2618 0
-747 -2619 0
-748 -2620 0
-753 -1037 0
-754 -1038 0
-755 -1039 0
-756 -1040 0
-753 -1269 0
-754 -1270 0
-755 -1271 0
-756 -1272 0
-753 -1461 0
-754 -1462 0
-755 -1463 0
-756 -1464 0
-753 -2301 0
-754 -2302 0
-755 -2303 0
-756 -2304 0
-753 -2469 0
-754 -2470 0
-755 -2471 0
-756 -2472 0
-753 -2637 0
-754 -2638 0
-755 -2639 0
-756 -2640 0
-753 -2641 0
-754 -2642 0
-755 -2643 0
-756 -2644 0
-761 -897 0
-762 -898 0
-763 -899 0
-764 -900 0
-761 -1469 0
-762 -1470 0
-763 -1471 0
-764 -1472 0
-761 -2645 0
-762 -2646 0
-763 -2647 0
-764 -2648 0
-761 -2649 0
-762 -2650 0
-763 -2651 0
-764 -2652 0
-761 -2725 0
-762 -2726 0
-763 -2727 0
-764 -2728 0
-765 -769 0
-766 -770 0
-767 -771 0
-768 -772 0
-765 -773 0
-766 -774 0
-767 -775 0
-768 -776 0
-765 -1185 0
-766 -1186 0
-767 -1187 0
-768 -1188 0
-765 -1949 0
-766 -1950 0
-767 -1951 0
-768 -1952 0
-765 -2653 0
-766 -2654 0
-767 -2655 0
-768 -2656 0
-769 -777 0
-770 -778 0
-771 -779 0
-772 -780 0
-769 -1273 0
-770 -1274 0
-771 -1275 0
-772 -1276 0
-769 -1793 0
-770 -1794 0
-771 -1795 0
-772 -1796 0
-769 -1953 0
-770 -1954 0
-771 -1955 0
-772 -1956 0
-769 -2657 0
-770 -2658 0
-771 -2659 0
-772 -2660 0
-773 -777 0
-774 -778 0
-775 -779 0
-776 -780 0
-773 -909 0
-774 -910 0
-775 -911 0
-776 -912 0
-773 -1193 0
-774 -1194 0
-775 -1195 0
-776 -1196 0
-773 -1713 0
-774 -1714 0
-775 -1715 0
-776 -1716 0
-773 -1973 0
-774 -1974 0
-775 -1975 0
-776 -1976 0
-773 -2309 0
-774 -2310 0
-775 -2311 0
-776 -2312 0
-773 -2653 0
-774 -2654 0
-775 -2655 0
-776 -2656 0
-773 -2661 0
-774 -2662 0
-775 -2663 0
-776 -2664 0
-777 -1281 0
-778 -1282 0
-779 -1283 0
-780 -1284 0
-777 -1977 0
-778 -1978 0
-779 -1979 0
-780 -1980 0
-777 -2313 0
-778 -2314 0
-779 -2315 0
-780 -2316 0
-777 -2657 0
-778 -2658 0
-779 -2659 0
-780 -2660 0
-777 -2665 0
-778 -2666 0
-779 -2667 0
-780 -2668 0
-789 -797 0
-790 -798 0
-791 -799 0
-792 -800 0
-789 -1169 0
-790 -1170 0
-791 -1171 0
-792 -1172 0
-789 -1309 0
-790 -1310 0
-791 -1311 0
-792 -1312 0
-789 -2001 0
-790 -2002 0
-791 -2003 0
-792 -2004 0
-789 -2673 0
-790 -2674 0
-791 -2675 0
-792 -2676 0
-793 -797 0
-794 -798 0
-795 -799 0
-796 -800 0
-793 -1745 0
-794 -1746 0
-795 -1747 0
-796 -1748 0
-793 -2333 0
-794 -2334 0
-795 -2335 0
-796 -2336 0
-793 -2669 0
-794 -2670 0
-795 -2671 0
-796 -2672 0
-793 -2677 0
-794 -2678 0
-795 -2679 0
-796 -2680 0
-793 -2969 0
-794 -2970 0
-795 -2971 0
-796 -2972 0
-797 -933 0
-798 -934 0
-799 -935 0
-800 -936 0
-797 -1313 0
-798 -1314 0
-799 -1315 0
-800 -1316 0
-797 -2005 0
-798 -2006 0
-799 -2007 0
-800 -2008 0
-797 -2337 0
-798 -2338 0
-799 -2339 0
-800 -2340 0
-797 -2673 0
-798 -2674 0
-799 -2675 0
-800 -2676 0
-797 -2681 0
-798 -2682 0
-799 -2683 0
-800 -2684 0
-805 -813 0
-806 -814 0
-807 -815 0
-808 -816 0
-805 -1221 0
-806 -1222 0
-807 -1223 0
-808 -1224 0
-805 -2369 0
-806 -2370 0
-807 -2371 0
-808 -2372 0
-805 -2689 0
-806 -2690 0
-807 -2691 0
-808 -2692 0
-813 -821 0
-814 -822 0
-815 -823 0
-816 -824 0
-813 -961 0
-814 -962 0
-815 -963 0
-816 -964 0
-813 -2381 0
-814 -2382 0
-815 -2383 0
-816 -2384 0
-813 -2689 0
-814 -2690 0
-815 -2691 0
-816 -2692 0
-813 -2697 0
-814 -2698 0
-815 -2699 0
-816 -2700 0
-821 -1073 0
-822 -1074 0
-823 -1075 0
-824 -1076 0
-821 -1113 0
-822 -1114 0
-823 -1115 0
-824 -1116 0
-821 -1261 0
-822 -1262 0
-823 -1263 0
-824 -1264 0
-821 -2021 0
-822 -2022 0
-823 -2023 0
-824 -2024 0
-821 -2693 0
-822 -2694 0
-823 -2695 0
-824 -2696 0
-821 -2701 0
-822 -2702 0
-823 -2703 0
-824 -2704 0
-829 -837 0
-830 -838 0
-831 -839 0
-832 -840 0
-829 -841 0
-830 -842 0
-831 -843 0
-832 -844 0
-829 -1205 0
-830 -1206 0
-831 -1207 0
-832 -1208 0
-829 -2045 0
-830 -2046 0
-831 -2047 0
-832 -2048 0
-829 -2397 0
-830 -2398 0
-831 -2399 0
-832 -2400 0
-829 -2549 0
-830 -2550 0
-831 -2551 0
-832 -2552 0
-829 -2581 0
-830 -2582 0
-831 -2583 0
-832 -2584 0
-829 -2989 0
-830 -2990 0
-831 -2991 0
-832 -2992 0
-837 -845 0
-838 -846 0
-839 -847 0
-840 -848 0
-837 -1829 0
-838 -1830 0
-839 -1831 0
-840 -1832 0
-837 -1853 0
-838 -1854 0
-839 -1855 0
-840 -1856 0
-837 -2553 0
-838 -2554 0
-839 -2555 0
-840 -2556 0
-837 -2617 0
-838 -2618 0
-839 -2619 0
-840 -2620 0
-841 -845 0
-842 -846 0
-843 -847 0
-844 -848 0
-841 -989 0
-842 -990 0
-843 -991 0
-844 -992 0
-841 -1305 0
-842 -1306 0
-843 -1307 0
-844 -1308 0
-841 -1553 0
-842 -1554 0
-843 -1555 0
-844 -1556 0
-841 -1833 0
-842 -1834 0
-843 -1835 0
-844 -1836 0
-841 -2069 0
-842 -2070 0
-843 -2071 0
-844 -2072 0
-841 -2405 0
-842 -2406 0
-843 -2407 0
-844 -2408 0
-841 -2581 0
-842 -2582 0
-843 -2583 0
-844 -2584 0
-841 -2637 0
-842 -2638 0
-843 -2639 0
-844 -2640 0
-841 -2709 0
-842 -2710 0
-843 -2711 0
-844 -2712 0
-845 -1137 0
-846 -1138 0
-847 -1139 0
-848 -1140 0
-845 -1565 0
-846 -1566 0
-847 -1567 0
-848 -1568 0
-845 -1837 0
-846 -1838 0
-847 -1839 0
-848 -1840 0
-845 -2413 0
-846 -2414 0
-847 -2415 0
-848 -2416 0
-845 -2617 0
-846 -2618 0
-847 -2619 0
-848 -2620 0
-845 -2641 0
-846 -2642 0
-847 -2643 0
-848 -2644 0
-845 -2709 0
-846 -2710 0
-847 -2711 0
-848 -2712 0
-857 -865 0
-858 -866 0
-859 -867 0
-860 -868 0
-857 -1857 0
-858 -1858 0
-859 -1859 0
-860 -1860 0
-857 -2105 0
-858 -2106 0
-859 -2107 0
-860 -2108 0
-857 -2737 0
-858 -2738 0
-859 -2739 0
-860 -2740 0
-861 -865 0
-862 -866 0
-863 -867 0
-864 -868 0
-861 -1017 0
-862 -1018 0
-863 -1019 0
-864 -1020 0
-861 -2109 0
-862 -2110 0
-863 -2111 0
-864 -2112 0
-861 -2733 0
-862 -2734 0
-863 -2735 0
-864 -2736 0
-861 -2741 0
-862 -2742 0
-863 -2743 0
-864 -2744 0
-865 -1185 0
-866 -1186 0
-867 -1187 0
-868 -1188 0
-865 -2113 0
-866 -2114 0
-867 -2115 0
-868 -2116 0
-865 -2737 0
-866 -2738 0
-867 -2739 0
-868 -2740 0
-865 -2745 0
-866 -2746 0
-867 -2747 0
-868 -2748 0
-873 -877 0
-874 -878 0
-875 -879 0
-876 -880 0
-873 -885 0
-874 -886 0
-875 -887 0
-876 -888 0
-873 -909 0
-874 -910 0
-875 -911 0
-876 -912 0
-873 -929 0
-874 -930 0
-875 -931 0
-876 -932 0
-873 -957 0
-874 -958 0
-875 -959 0
-876 -960 0
-873 -965 0
-874 -966 0
-875 -967 0
-876 -968 0
-873 -1205 0
-874 -1206 0
-875 -1207 0
-876 -1208 0
-873 -1877 0
-874 -1878 0
-875 -1879 0
-876 -1880 0
-873 -2485 0
-874 -2486 0
-875 -2487 0
-876 -2488 0
-873 -2785 0
-874 -2786 0
-875 -2787 0
-876 -2788 0
-877 -881 0
-878 -882 0
-879 -883 0
-880 -884 0
-877 -889 0
-878 -890 0
-879 -891 0
-880 -892 0
-877 -897 0
-878 -898 0
-879 -899 0
-880 -900 0
-877 -909 0
-878 -910 0
-879 -911 0
-880 -912 0
-877 -933 0
-878 -934 0
-879 -935 0
-880 -936 0
-877 -961 0
-878 -962 0
-879 -963 0
-880 -964 0
-877 -1017 0
-878 -1018 0
-879 -1019 0
-880 -1020 0
-877 -1157 0
-878 -1158 0
-879 -1159 0
-880 -1160 0
-877 -1589 0
-878 -1590 0
-879 -1591 0
-880 -1592 0
-877 -1725 0
-878 -1726 0
-879 -1727 0
-880 -1728 0
-877 -1925 0
-878 -1926 0
-879 -1927 0
-880 -1928 0
-877 -2789 0
-878 -2790 0
-879 -2791 0
-880 -2792 0
-877 -3053 0
-878 -3054 0
-879 -3055 0
-880 -3056 0
-881 -913 0
-882 -914 0
-883 -915 0
-884 -916 0
-881 -933 0
-882 -934 0
-883 -935 0
-884 -936 0
-881 -1161 0
-882 -1162 0
-883 -1163 0
-884 -1164 0
-881 -1401 0
-882 -1402 0
-883 -1403 0
-884 -1404 0
-881 -1593 0
-882 -1594 0
-883 -1595 0
-884 -1596 0
-881 -1929 0
-882 -1930 0
-883 -1931 0
-884 -1932 0
-881 -1969 0
-882 -1970 0
-883 -1971 0
-884 -1972 0
-881 -2793 0
-882 -2794 0
-883 -2795 0
-884 -2796 0
-881 -2897 0
-882 -2898 0
-883 -2899 0
-884 -2900 0
-885 -889 0
-886 -890 0
-887 -891 0
-888 -892 0
-885 -969 0
-886 -970 0
-887 -971 0
-888 -972 0
-885 -1881 0
-886 -1882 0
-887 -1883 0
-888 -1884 0
-885 -1989 0
-886 -1990 0
-887 -1991 0
-888 -1992 0
-885 -2493 0
-886 -2494 0
-887 -2495 0
-888 -2496 0
-885 -2785 0
-886 -2786 0
-887 -2787 0
-888 -2788 0
-889 -973 0
-890 -974 0
-891 -975 0
-892 -976 0
-889 -1729 0
-890 -1730 0
-891 -1731 0
-892 -1732 0
-889 -2789 0
-890 -2790 0
-891 -2791 0
-892 -2792 0
-897 -1033 0
-898 -1034 0
-899 -1035 0
-900 -1036 0
-897 -1253 0
-898 -1254 0
-899 -1255 0
-900 -1256 0
-897 -1609 0
-898 -1610 0
-899 -1611 0
-900 -1612 0
-897 -1761 0
-898 -1762 0
-899 -1763 0
-900 -1764 0
-897 -2809 0
-898 -2810 0
-899 -2811 0
-900 -2812 0
-905 -913 0
-906 -914 0
-907 -915 0
-908 -916 0
-905 -945 0
-906 -946 0
-907 -947 0
-908 -948 0
-905 -1957 0
-906 -1958 0
-907 -1959 0
-908 -1960 0
-905 -2149 0
-906 -2150 0
-907 -2151 0
-908 -2152 0
-905 -2817 0
-906 -2818 0
-907 -2819 0
-908 -2820 0
-905 -2917 0
-906 -2918 0
-907 -2919 0
-908 -2920 0
-909 -913 0
-910 -914 0
-911 -915 0
-912 -916 0
-909 -949 0
-910 -950 0
-911 -951 0
-912 -952 0
-909 -1097 0
-910 -1098 0
-911 -1099 0
-912 -1100 0
-909 -1621 0
-910 -1622 0
-911 -1623 0
-912 -1624 0
-909 -1889 0
-910 -1890 0
-911 -1891 0
-912 -1892 0
-909 -1973 0
-910 -1974 0
-911 -1975 0
-912 -1976 0
-909 -2505 0
-910 -2506 0
-911 -2507 0
-912 -2508 0
-909 -2821 0
-910 -2822 0
-911 -2823 0
-912 -2824 0
-913 -925 0
-914 -926 0
-915 -927 0
-916 -928 0
-913 -949 0
-914 -950 0
-915 -951 0
-916 -952 0
-913 -1185 0
-914 -1186 0
-915 -1187 0
-916 -1188 0
-913 -1449 0
-914 -1450 0
-915 -1451 0
-916 -1452 0
-913 -1981 0
-914 -1982 0
-915 -1983 0
-916 -1984 0
-913 -2153 0
-914 -2154 0
-915 -2155 0
-916 -2156 0
-913 -2509 0
-914 -2510 0
-915 -2511 0
-916 -2512 0
-913 -2817 0
-914 -2818 0
-915 -2819 0
-916 -2820 0
-913 -2825 0
-914 -2826 0
-915 -2827 0
-916 -2828 0
-913 -2925 0
-914 -2926 0
-915 -2927 0
-916 -2928 0
-925 -1285 0
-926 -1286 0
-927 -1287 0
-928 -1288 0
-925 -2177 0
-926 -2178 0
-927 -2179 0
-928 -2180 0
-925 -2925 0
-926 -2926 0
-927 -2927 0
-928 -2928 0
-929 -933 0
-930 -934 0
-931 -935 0
-932 -936 0
-929 -949 0
-930 -950 0
-931 -951 0
-932 -952 0
-929 -985 0
-930 -986 0
-931 -987 0
-932 -988 0
-929 -989 0
-930 -990 0
-931 -991 0
-932 -992 0
-929 -1301 0
-930 -1302 0
-931 -1303 0
-932 -1304 0
-929 -1629 0
-930 -1630 0
-931 -1631 0
-932 -1632 0
-929 -1921 0
-930 -1922 0
-931 -1923 0
-932 -1924 0
-929 -2177 0
-930 -2178 0
-931 -2179 0
-932 -2180 0
-929 -2525 0
-930 -2526 0
-931 -2527 0
-932 -2528 0
-929 -2841 0
-930 -2842 0
-931 -2843 0
-932 -2844 0
-933 -949 0
-934 -950 0
-935 -951 0
-936 -952 0
-933 -1481 0
-934 -1482 0
-935 -1483 0
-936 -1484 0
-933 -1633 0
-934 -1634 0
-935 -1635 0
-936 -1636 0
-933 -2181 0
-934 -2182 0
-935 -2183 0
-936 -2184 0
-933 -2529 0
-934 -2530 0
-935 -2531 0
-936 -2532 0
-933 -2845 0
-934 -2846 0
-935 -2847 0
-936 -2848 0
-933 -3105 0
-934 -3106 0
-935 -3107 0
-936 -3108 0
-941 -949 0
-942 -950 0
-943 -951 0
-944 -952 0
-941 -997 0
-942 -998 0
-943 -999 0
-944 -1000 0
-941 -1353 0
-942 -1354 0
-943 -1355 0
-944 -1356 0
-941 -1653 0
-942 -1654 0
-943 -1655 0
-944 -1656 0
-941 -1937 0
-942 -1938 0
-943 -1939 0
-944 -1940 0
-941 -2549 0
-942 -2550 0
-943 -2551 0
-944 -2552 0
-941 -2757 0
-942 -2758 0
-943 -2759 0
-944 -2760 0
-941 -2929 0
-942 -2930 0
-943 -2931 0
-944 -2932 0
-941 -2953 0
-942 -2954 0
-943 -2955 0
-944 -2956 0
-941 -3113 0
-942 -3114 0
-943 -3115 0
-944 -3116 0
-945 -949 0
-946 -950 0
-947 -951 0
-948 -952 0
-945 -2557 0
-946 -2558 0
-947 -2559 0
-948 -2560 0
-945 -2853 0
-946 -2854 0
-947 -2855 0
-948 -2856 0
-945 -2965 0
-946 -2966 0
-947 -2967 0
-948 -2968 0
-949 -1001 0
-950 -1002 0
-951 -1003 0
-952 -1004 0
-949 -1317 0
-950 -1318 0
-951 -1319 0
-952 -1320 0
-949 -1497 0
-950 -1498 0
-951 -1499 0
-952 -1500 0
-949 -1961 0
-950 -1962 0
-951 -1963 0
-952 -1964 0
-949 -2189 0
-950 -2190 0
-951 -2191 0
-952 -2192 0
-949 -2581 0
-950 -2582 0
-951 -2583 0
-952 -2584 0
-949 -2757 0
-950 -2758 0
-951 -2759 0
-952 -2760 0
-949 -2853 0
-950 -2854 0
-951 -2855 0
-952 -2856 0
-949 -2857 0
-950 -2858 0
-951 -2859 0
-952 -2860 0
-949 -2937 0
-950 -2938 0
-951 -2939 0
-952 -2940 0
-949 -2969 0
-950 -2970 0
-951 -2971 0
-952 -2972 0
-957 -961 0
-958 -962 0
-959 -963 0
-960 -964 0
-957 -965 0
-958 -966 0
-959 -967 0
-960 -968 0
-957 -969 0
-958 -970 0
-959 -971 0
-960 -972 0
-957 -985 0
-958 -986 0
-959 -987 0
-960 -988 0
-957 -1049 0
-958 -1050 0
-959 -1051 0
-960 -1052 0
-957 -1057 0
-958 -1058 0
-959 -1059 0
-960 -1060 0
-957 -1397 0
-958 -1398 0
-959 -1399 0
-960 -1400 0
-957 -1689 0
-958 -1690 0
-959 -1691 0
-960 -1692 0
-957 -2053 0
-958 -2054 0
-959 -2055 0
-960 -2056 0
-957 -2581 0
-958 -2582 0
-959 -2583 0
-960 -2584 0
-957 -2761 0
-958 -2762 0
-959 -2763 0
-960 -2764 0
-957 -2769 0
-958 -2770 0
-959 -2771 0
-960 -2772 0
-957 -2865 0
-958 -2866 0
-959 -2867 0
-960 -2868 0
-961 -973 0
-962 -974 0
-963 -975 0
-964 -976 0
-961 -1053 0
-962 -1054 0
-963 -1055 0
-964 -1056 0
-961 -1693 0
-962 -1694 0
-963 -1695 0
-964 -1696 0
-961 -1833 0
-962 -1834 0
-963 -1835 0
-964 -1836 0
-961 -2585 0
-962 -2586 0
-963 -2587 0
-964 -2588 0
-961 -2869 0
-962 -2870 0
-963 -2871 0
-964 -2872 0
-961 -3121 0
-962 -3122 0
-963 -3123 0
-964 -3124 0
-965 -989 0
-966 -990 0
-967 -991 0
-968 -992 0
-965 -1225 0
-966 -1226 0
-967 -1227 0
-968 -1228 0
-965 -1401 0
-966 -1402 0
-967 -1403 0
-968 -1404 0
-965 -2017 0
-966 -2018 0
-967 -2019 0
-968 -2020 0
-965 -2593 0
-966 -2594 0
-967 -2595 0
-968 -2596 0
-965 -2873 0
-966 -2874 0
-967 -2875 0
-968 -2876 0
-969 -973 0
-970 -974 0
-971 -975 0
-972 -976 0
-969 -993 0
-970 -994 0
-971 -995 0
-972 -996 0
-969 -1061 0
-970 -1062 0
-971 -1063 0
-972 -1064 0
-969 -1069 0
-970 -1070 0
-971 -1071 0
-972 -1072 0
-969 -1241 0
-970 -1242 0
-971 -1243 0
-972 -1244 0
-969 -2057 0
-970 -2058 0
-971 -2059 0
-972 -2060 0
-969 -2617 0
-970 -2618 0
-971 -2619 0
-972 -2620 0
-969 -2765 0
-970 -2766 0
-971 -2767 0
-972 -2768 0
-969 -2773 0
-970 -2774 0
-971 -2775 0
-972 -2776 0
-969 -2865 0
-970 -2866 0
-971 -2867 0
-972 -2868 0
-973 -1065 0
-974 -1066 0
-975 -1067 0
-976 -1068 0
-973 -1837 0
-974 -1838 0
-975 -1839 0
-976 -1840 0
-973 -2621 0
-974 -2622 0
-975 -2623 0
-976 -2624 0
-973 -2869 0
-974 -2870 0
-975 -2871 0
-976 -2872 0
-985 -989 0
-986 -990 0
-987 -991 0
-988 -992 0
-985 -993 0
-986 -994 0
-987 -995 0
-988 -996 0
-985 -1129 0
-986 -1130 0
-987 -1131 0
-988 -1132 0
-985 -1405 0
-986 -1406 0
-987 -1407 0
-988 -1408 0
-985 -1741 0
-986 -1742 0
-987 -1743 0
-988 -1744 0
-985 -2217 0
-986 -2218 0
-987 -2219 0
-988 -2220 0
-985 -2673 0
-986 -2674 0
-987 -2675 0
-988 -2676 0
-985 -2877 0
-986 -2878 0
-987 -2879 0
-988 -2880 0
-989 -1001 0
-990 -1002 0
-991 -1003 0
-992 -1004 0
-989 -1309 0
-990 -1310 0
-991 -1311 0
-992 -1312 0
-989 -1749 0
-990 -1750 0
-991 -1751 0
-992 -1752 0
-989 -2221 0
-990 -2222 0
-991 -2223 0
-992 -2224 0
-993 -1133 0
-994 -1134 0
-995 -1135 0
-996 -1136 0
-993 -1765 0
-994 -1766 0
-995 -1767 0
-996 -1768 0
-993 -2681 0
-994 -2682 0
-995 -2683 0
-996 -2684 0
-993 -2877 0
-994 -2878 0
-995 -2879 0
-996 -2880 0
-997 -1001 0
-998 -1002 0
-999 -1003 0
-1000 -1004 0
-997 -1437 0
-998 -1438 0
-999 -1439 0
-1000 -1440 0
-997 -1781 0
-998 -1782 0
-999 -1783 0
-1000 -1784 0
-997 -2085 0
-998 -2086 0
-999 -2087 0
-1000 -2088 0
-997 -2225 0
-998 -2226 0
-999 -2227 0
-1000 -2228 0
-997 -2985 0
-998 -2986 0
-999 -2987 0
-1000 -2988 0
-997 -3001 0
-998 -3002 0
-999 -3003 0
-1000 -3004 0
-997 -3181 0
-998 -3182 0
-999 -3183 0
-1000 -3184 0
-1001 -1321 0
-1002 -1322 0
-1003 -1323 0
-1004 -1324 0
-1001 -1509 0
-1002 -1510 0
-1003 -1511 0
-1004 -1512 0
-1001 -1797 0
-1002 -1798 0
-1003 -1799 0
-1004 -1800 0
-1001 -2233 0
-1002 -2234 0
-1003 -2235 0
-1004 -2236 0
-1001 -2693 0
-1002 -2694 0
-1003 -2695 0
-1004 -2696 0
-1005 -1025 0
-1006 -1026 0
-1007 -1027 0
-1008 -1028 0
-1005 -2097 0
-1006 -2098 0
-1007 -2099 0
-1008 -2100 0
-1005 -2241 0
-1006 -2242 0
-1007 -2243 0
-1008 -2244 0
-1005 -2901 0
-1006 -2902 0
-1007 -2903 0
-1008 -2904 0
-1005 -2905 0
-1006 -2906 0
-1007 -2907 0
-1008 -2908 0
-1013 -1017 0
-1014 -1018 0
-1015 -1019 0
-1016 -1020 0
-1013 -1025 0
-1014 -1026 0
-1015 -1027 0
-1016 -1028 0
-1013 -1053 0
-1014 -1054 0
-1015 -1055 0
-1016 -1056 0
-1013 -1153 0
-1014 -1154 0
-1015 -1155 0
-1016 -1156 0
-1013 -1745 0
-1014 -1746 0
-1015 -1747 0
-1016 -1748 0
-1013 -2929 0
-1014 -2930 0
-1015 -2931 0
-1016 -2932 0
-1017 -1033 0
-1018 -1034 0
-1019 -1035 0
-1020 -1036 0
-1017 -1053 0
-1018 -1054 0
-1019 -1055 0
-1020 -1056 0
-1017 -1349 0
-1018 -1350 0
-1019 -1351 0
-1020 -1352 0
-1017 -2109 0
-1018 -2110 0
-1019 -2111 0
-1020 -2112 0
-1017 -2257 0
-1018 -2258 0
-1019 -2259 0
-1020 -2260 0
-1017 -2933 0
-1018 -2934 0
-1019 -2935 0
-1020 -2936 0
-1025 -1033 0
-1026 -1034 0
-1027 -1035 0
-1028 -1036 0
-1025 -1037 0
-1026 -1038 0
-1027 -1039 0
-1028 -1040 0
-1025 -1073 0
-1026 -1074 0
-1027 -1075 0
-1028 -1076 0
-1025 -1157 0
-1026 -1158 0
-1027 -1159 0
-1028 -1160 0
-1025 -1857 0
-1026 -1858 0
-1027 -1859 0
-1028 -1860 0
-1025 -2941 0
-1026 -2942 0
-1027 -2943 0
-1028 -2944 0
-1025 -2953 0
-1026 -2954 0
-1027 -2955 0
-1028 -2956 0
-1033 -1073 0
-1034 -1074 0
-1035 -1075 0
-1036 -1076 0
-1033 -1361 0
-1034 -1362 0
-1035 -1363 0
-1036 -1364 0
-1033 -1781 0
-1034 -1782 0
-1035 -1783 0
-1036 -1784 0
-1033 -2949 0
-1034 -2950 0
-1035 -2951 0
-1036 -2952 0
-1033 -2961 0
-1034 -2962 0
-1035 -2963 0
-1036 -2964 0
-1037 -1793 0
-1038 -1794 0
-1039 -1795 0
-1040 -1796 0
-1037 -2721 0
-1038 -2722 0
-1039 -2723 0
-1040 -2724 0
-1037 -2965 0
-1038 -2966 0
-1039 -2967 0
-1040 -2968 0
-1037 -2969 0
-1038 -2970 0
-1039 -2971 0
-1040 -2972 0
-1041 -1049 0
-1042 -1050 0
-1043 -1051 0
-1044 -1052 0
-1041 -1053 0
-1042 -1054 0
-1043 -1055 0
-1044 -1056 0
-1041 -2293 0
-1042 -2294 0
-1043 -2295 0
-1044 -2296 0
-1041 -2977 0
-1042 -2978 0
-1043 -2979 0
-1044 -2980 0
-1049 -1053 0
-1050 -1054 0
-1051 -1055 0
-1052 -1056 0
-1049 -1057 0
-1050 -1058 0
-1051 -1059 0
-1052 -1060 0
-1049 -1061 0
-1050 -1062 0
-1051 -1063 0
-1052 -1064 0
-1049 -1201 0
-1050 -1202 0
-1051 -1203 0
-1052 -1204 0
-1049 -1541 0
-1050 -1542 0
-1051 -1543 0
-1052 -1544 0
-1049 -2309 0
-1050 -2310 0
-1051 -2311 0
-1052 -2312 0
-1049 -2733 0
-1050 -2734 0
-1051 -2735 0
-1052 -2736 0
-1049 -2909 0
-1050 -2910 0
-1051 -2911 0
-1052 -2912 0
-1049 -2981 0
-1050 -2982 0
-1051 -2983 0
-1052 -2984 0
-1053 -1065 0
-1054 -1066 0
-1055 -1067 0
-1056 -1068 0
-1053 -1073 0
-1054 -1074 0
-1055 -1075 0
-1056 -1076 0
-1053 -1417 0
-1054 -1418 0
-1055 -1419 0
-1056 -1420 0
-1053 -2313 0
-1054 -2314 0
-1055 -2315 0
-1056 -2316 0
-1053 -2317 0
-1054 -2318 0
-1055 -2319 0
-1056 -2320 0
-1053 -2913 0
-1054 -2914 0
-1055 -2915 0
-1056 -2916 0
-1053 -2985 0
-1054 -2986 0
-1055 -2987 0
-1056 -2988 0
-1053 -3217 0
-1054 -3218 0
-1055 -3219 0
-1056 -3220 0
-1057 -1069 0
-1058 -1070 0
-1059 -1071 0
-1060 -1072 0
-1057 -1233 0
-1058 -1234 0
-1059 -1235 0
-1060 -1236 0
-1057 -1841 0
-1058 -1842 0
-1059 -1843 0
-1060 -1844 0
-1057 -2737 0
-1058 -2738 0
-1059 -2739 0
-1060 -2740 0
-1057 -2901 0
-1058 -2902 0
-1059 -2903 0
-1060 -2904 0
-1057 -2917 0
-1058 -2918 0
-1059 -2919 0
-1060 -2920 0
-1057 -2989 0
-1058 -2990 0
-1059 -2991 0
-1060 -2992 0
-1061 -1065 0
-1062 -1066 0
-1063 -1067 0
-1064 -1068 0
-1061 -1069 0
-1062 -1070 0
-1063 -1071 0
-1064 -1072 0
-1061 -1205 0
-1062 -1206 0
-1063 -1207 0
-1064 -1208 0
-1061 -1549 0
-1062 -1550 0
-1063 -1551 0
-1064 -1552 0
-1061 -2741 0
-1062 -2742 0
-1063 -2743 0
-1064 -2744 0
-1061 -2921 0
-1062 -2922 0
-1063 -2923 0
-1064 -2924 0
-1061 -2981 0
-1062 -2982 0
-1063 -2983 0
-1064 -2984 0
-1065 -1433 0
-1066 -1434 0
-1067 -1435 0
-1068 -1436 0
-1065 -2985 0
-1066 -2986 0
-1067 -2987 0
-1068 -2988 0
-1065 -3221 0
-1066 -3222 0
-1067 -3223 0
-1068 -3224 0
-1069 -1257 0
-1070 -1258 0
-1071 -1259 0
-1072 -1260 0
-1069 -1441 0
-1070 -1442 0
-1071 -1443 0
-1072 -1444 0
-1069 -1845 0
-1070 -1846 0
-1071 -1847 0
-1072 -1848 0
-1069 -2145 0
-1070 -2146 0
-1071 -2147 0
-1072 -2148 0
-1069 -2745 0
-1070 -2746 0
-1071 -2747 0
-1072 -2748 0
-1069 -2905 0
-1070 -2906 0
-1071 -2907 0
-1072 -2908 0
-1069 -2925 0
-1070 -2926 0
-1071 -2927 0
-1072 -2928 0
-1069 -2989 0
-1070 -2990 0
-1071 -2991 0
-1072 -2992 0
-1073 -1229 0
-1074 -1230 0
-1075 -1231 0
-1076 -1232 0
-1073 -1465 0
-1074 -1466 0
-1075 -1467 0
-1076 -1468 0
-1073 -2333 0
-1074 -2334 0
-1075 -2335 0
-1076 -2336 0
-1073 -2997 0
-1074 -2998 0
-1075 -2999 0
-1076 -3000 0
-1073 -3001 0
-1074 -3002 0
-1075 -3003 0
-1076 -3004 0
-1085 -1093 0
-1086 -1094 0
-1087 -1095 0
-1088 -1096 0
-1085 -1153 0
-1086 -1154 0
-1087 -1155 0
-1088 -1156 0
-1085 -1161 0
-1086 -1162 0
-1087 -1163 0
-1088 -1164 0
-1085 -1393 0
-1086 -1394 0
-1087 -1395 0
-1088 -1396 0
-1085 -1921 0
-1086 -1922 0
-1087 -1923 0
-1088 -1924 0
-1085 -2157 0
-1086 -2158 0
-1087 -2159 0
-1088 -2160 0
-1085 -3005 0
-1086 -3006 0
-1087 -3007 0
-1088 -3008 0
-1085 -3241 0
-1086 -3242 0
-1087 -3243 0
-1088 -3244 0
-1093 -1097 0
-1094 -1098 0
-1095 -1099 0
-1096 -1100 0
-1093 -1105 0
-1094 -1106 0
-1095 -1107 0
-1096 -1108 0
-1093 -1113 0
-1094 -1114 0
-1095 -1115 0
-1096 -1116 0
-1093 -1185 0
-1094 -1186 0
-1095 -1187 0
-1096 -1188 0
-1093 -1433 0
-1094 -1434 0
-1095 -1435 0
-1096 -1436 0
-1093 -1605 0
-1094 -1606 0
-1095 -1607 0
-1096 -1608 0
-1093 -1957 0
-1094 -1958 0
-1095 -1959 0
-1096 -1960 0
-1093 -2757 0
-1094 -2758 0
-1095 -2759 0
-1096 -2760 0
-1093 -2761 0
-1094 -2762 0
-1095 -2763 0
-1096 -2764 0
-1093 -3013 0
-1094 -3014 0
-1095 -3015 0
-1096 -3016 0
-1093 -3045 0
-1094 -3046 0
-1095 -3047 0
-1096 -3048 0
-1093 -3061 0
-1094 -3062 0
-1095 -3063 0
-1096 -3064 0
-1097 -1113 0
-1098 -1114 0
-1099 -1115 0
-1100 -1116 0
-1097 -1361 0
-1098 -1362 0
-1099 -1363 0
-1100 -1364 0
-1097 -1437 0
-1098 -1438 0
-1099 -1439 0
-1100 -1440 0
-1097 -1621 0
-1098 -1622 0
-1099 -1623 0
-1100 -1624 0
-1097 -3021 0
-1098 -3022 0
-1099 -3023 0
-1100 -3024 0
-1097 -3049 0
-1098 -3050 0
-1099 -3051 0
-1100 -3052 0
-1097 -3065 0
-1098 -3066 0
-1099 -3067 0
-1100 -3068 0
-1105 -1121 0
-1106 -1122 0
-1107 -1123 0
-1108 -1124 0
-1105 -1193 0
-1106 -1194 0
-1107 -1195 0
-1108 -1196 0
-1105 -1981 0
-1106 -1982 0
-1107 -1983 0
-1108 -1984 0
-1105 -2765 0
-1106 -2766 0
-1107 -2767 0
-1108 -2768 0
-1105 -3013 0
-1106 -3014 0
-1107 -3015 0
-1108 -3016 0
-1113 -1117 0
-1114 -1118 0
-1115 -1119 0
-1116 -1120 0
-1113 -1121 0
-1114 -1122 0
-1115 -1123 0
-1116 -1124 0
-1113 -1277 0
-1114 -1278 0
-1115 -1279 0
-1116 -1280 0
-1113 -1465 0
-1114 -1466 0
-1115 -1467 0
-1116 -1468 0
-1113 -1613 0
-1114 -1614 0
-1115 -1615 0
-1116 -1616 0
-1113 -1897 0
-1114 -1898 0
-1115 -1899 0
-1116 -1900 0
-1113 -2425 0
-1114 -2426 0
-1115 -2427 0
-1116 -2428 0
-1113 -3025 0
-1114 -3026 0
-1115 -3027 0
-1116 -3028 0
-1113 -3117 0
-1114 -3118 0
-1115 -3119 0
-1116 -3120 0
-1117 -1277 0
-1118 -1278 0
-1119 -1279 0
-1120 -1280 0
-1117 -1521 0
-1118 -1522 0
-1119 -1523 0
-1120 -1524 0
-1117 -1901 0
-1118 -1902 0
-1119 -1903 0
-1120 -1904 0
-1117 -2217 0
-1118 -2218 0
-1119 -2219 0
-1120 -2220 0
-1117 -2429 0
-1118 -2430 0
-1119 -2431 0
-1120 -2432 0
-1117 -3121 0
-1118 -3122 0
-1119 -3123 0
-1120 -3124 0
-1121 -1285 0
-1122 -1286 0
-1123 -1287 0
-1124 -1288 0
-1121 -1341 0
-1122 -1342 0
-1123 -1343 0
-1124 -1344 0
-1121 -1469 0
-1122 -1470 0
-1123 -1471 0
-1124 -1472 0
-1121 -2065 0
-1122 -2066 0
-1123 -2067 0
-1124 -2068 0
-1121 -2433 0
-1122 -2434 0
-1123 -2435 0
-1124 -2436 0
-1121 -3025 0
-1122 -3026 0
-1123 -3027 0
-1124 -3028 0
-1129 -1133 0
-1130 -1134 0
-1131 -1135 0
-1132 -1136 0
-1129 -1289 0
-1130 -1290 0
-1131 -1291 0
-1132 -1292 0
-1129 -1293 0
-1130 -1294 0
-1131 -1295 0
-1132 -1296 0
-1129 -1917 0
-1130 -1918 0
-1131 -1919 0
-1132 -1920 0
-1129 -2429 0
-1130 -2430 0
-1131 -2431 0
-1132 -2432 0
-1133 -1137 0
-1134 -1138 0
-1135 -1139 0
-1136 -1140 0
-1133 -1301 0
-1134 -1302 0
-1135 -1303 0
-1136 -1304 0
-1133 -1305 0
-1134 -1306 0
-1135 -1307 0
-1136 -1308 0
-1133 -1477 0
-1134 -1478 0
-1135 -1479 0
-1136 -1480 0
-1133 -1925 0
-1134 -1926 0
-1135 -1927 0
-1136 -1928 0
-1133 -2233 0
-1134 -2234 0
-1135 -2235 0
-1136 -2236 0
-1133 -2437 0
-1134 -2438 0
-1135 -2439 0
-1136 -2440 0
-1133 -2845 0
-1134 -2846 0
-1135 -2847 0
-1136 -2848 0
-1133 -3005 0
-1134 -3006 0
-1135 -3007 0
-1136 -3008 0
-1133 -3301 0
-1134 -3302 0
-1135 -3303 0
-1136 -3304 0
-1137 -1973 0
-1138 -1974 0
-1139 -1975 0
-1140 -1976 0
-1137 -2201 0
-1138 -2202 0
-1139 -2203 0
-1140 -2204 0
-1137 -2857 0
-1138 -2858 0
-1139 -2859 0
-1140 -2860 0
-1137 -2865 0
-1138 -2866 0
-1139 -2867 0
-1140 -2868 0
-1137 -3013 0
-1138 -3014 0
-1139 -3015 0
-1140 -3016 0
-1149 -1169 0
-1150 -1170 0
-1151 -1171 0
-1152 -1172 0
-1149 -3041 0
-1150 -3042 0
-1151 -3043 0
-1152 -3044 0
-1149 -3049 0
-1150 -3050 0
-1151 -3051 0
-1152 -3052 0
-1153 -1161 0
-1154 -1162 0
-1155 -1163 0
-1156 -1164 0
-1153 -1169 0
-1154 -1170 0
-1155 -1171 0
-1156 -1172 0
-1153 -1745 0
-1154 -1746 0
-1155 -1747 0
-1156 -1748 0
-1153 -2461 0
-1154 -2462 0
-1155 -2463 0
-1156 -2464 0
-1153 -3073 0
-1154 -3074 0
-1155 -3075 0
-1156 -3076 0
-1153 -3365 0
-1154 -3366 0
-1155 -3367 0
-1156 -3368 0
-1157 -1161 0
-1158 -1162 0
-1159 -1163 0
-1160 -1164 0
-1157 -1229 0
-1158 -1230 0
-1159 -1231 0
-1160 -1232 0
-1157 -2105 0
-1158 -2106 0
-1159 -2107 0
-1160 -2108 0
-1157 -3077 0
-1158 -3078 0
-1159 -3079 0
-1160 -3080 0
-1161 -1165 0
-1162 -1166 0
-1163 -1167 0
-1164 -1168 0
-1161 -1173 0
-1162 -1174 0
-1163 -1175 0
-1164 -1176 0
-1161 -1185 0
-1162 -1186 0
-1163 -1187 0
-1164 -1188 0
-1161 -1221 0
-1162 -1222 0
-1163 -1223 0
-1164 -1224 0
-1161 -1237 0
-1162 -1238 0
-1163 -1239 0
-1164 -1240 0
-1161 -1733 0
-1162 -1734 0
-1163 -1735 0
-1164 -1736 0
-1161 -1937 0
-1162 -1938 0
-1163 -1939 0
-1164 -1940 0
-1161 -2269 0
-1162 -2270 0
-1163 -2271 0
-1164 -2272 0
-1161 -3085 0
-1162 -3086 0
-1163 -3087 0
-1164 -3088 0
-1165 -1193 0
-1166 -1194 0
-1167 -1195 0
-1168 -1196 0
-1165 -1261 0
-1166 -1262 0
-1167 -1263 0
-1168 -1264 0
-1165 -1737 0
-1166 -1738 0
-1167 -1739 0
-1168 -1740 0
-1165 -2281 0
-1166 -2282 0
-1167 -2283 0
-1168 -2284 0
-1165 -3085 0
-1166 -3086 0
-1167 -3087 0
-1168 -3088 0
-1169 -1173 0
-1170 -1174 0
-1171 -1175 0
-1172 -1176 0
-1169 -1749 0
-1170 -1750 0
-1171 -1751 0
-1172 -1752 0
-1169 -2469 0
-1170 -2470 0
-1171 -2471 0
-1172 -2472 0
-1169 -3097 0
-1170 -3098 0
-1171 -3099 0
-1172 -3100 0
-1173 -1561 0
-1174 -1562 0
-1175 -1563 0
-1176 -1564 0
-1173 -1761 0
-1174 -1762 0
-1175 -1763 0
-1176 -1764 0
-1173 -1961 0
-1174 -1962 0
-1175 -1963 0
-1176 -1964 0
-1173 -3105 0
-1174 -3106 0
-1175 -3107 0
-1176 -3108 0
-1185 -1193 0
-1186 -1194 0
-1187 -1195 0
-1188 -1196 0
-1185 -1277 0
-1186 -1278 0
-1187 -1279 0
-1188 -1280 0
-1185 -1785 0
-1186 -1786 0
-1187 -1787 0
-1188 -1788 0
-1185 -2001 0
-1186 -2002 0
-1187 -2003 0
-1188 -2004 0
-1185 -2477 0
-1186 -2478 0
-1187 -2479 0
-1188 -2480 0
-1185 -2901 0
-1186 -2902 0
-1187 -2903 0
-1188 -2904 0
-1185 -3113 0
-1186 -3114 0
-1187 -3115 0
-1188 -3116 0
-1193 -1285 0
-1194 -1286 0
-1195 -1287 0
-1196 -1288 0
-1193 -2005 0
-1194 -2006 0
-1195 -2007 0
-1196 -2008 0
-1193 -2489 0
-1194 -2490 0
-1195 -2491 0
-1196 -2492 0
-1193 -2905 0
-1194 -2906 0
-1195 -2907 0
-1196 -2908 0
-1193 -3113 0
-1194 -3114 0
-1195 -3115 0
-1196 -3116 0
-1201 -1205 0
-1202 -1206 0
-1203 -1207 0
-1204 -1208 0
-1201 -1225 0
-1202 -1226 0
-1203 -1227 0
-1204 -1228 0
-1201 -1289 0
-1202 -1290 0
-1203 -1291 0
-1204 -1292 0
-1201 -2013 0
-1202 -2014 0
-1203 -2015 0
-1204 -2016 0
-1201 -2505 0
-1202 -2506 0
-1203 -2507 0
-1204 -2508 0
-1201 -3041 0
-1202 -3042 0
-1203 -3043 0
-1204 -3044 0
-1201 -3125 0
-1202 -3126 0
-1203 -3127 0
-1204 -3128 0
-1205 -1249 0
-1206 -1250 0
-1207 -1251 0
-1208 -1252 0
-1205 -1297 0
-1206 -1298 0
-1207 -1299 0
-1208 -1300 0
-1205 -1301 0
-1206 -1302 0
-1207 -1303 0
-1208 -1304 0
-1205 -2021 0
-1206 -2022 0
-1207 -2023 0
-1208 -2024 0
-1205 -2513 0
-1206 -2514 0
-1207 -2515 0
-1208 -2516 0
-1205 -2933 0
-1206 -2934 0
-1207 -2935 0
-1208 -2936 0
-1205 -3037 0
-1206 -3038 0
-1207 -3039 0
-1208 -3040 0
-1205 -3049 0
-1206 -3050 0
-1207 -3051 0
-1208 -3052 0
-1205 -3125 0
-1206 -3126 0
-1207 -3127 0
-1208 -3128 0
-1205 -3129 0
-1206 -3130 0
-1207 -3131 0
-1208 -3132 0
-1221 -1237 0
-1222 -1238 0
-1223 -1239 0
-1224 -1240 0
-1221 -1701 0
-1222 -1702 0
-1223 -1703 0
-1224 -1704 0
-1221 -2369 0
-1222 -2370 0
-1223 -2371 0
-1224 -2372 0
-1221 -3137 0
-1222 -3138 0
-1223 -3139 0
-1224 -3140 0
-1225 -1229 0
-1226 -1230 0
-1227 -1231 0
-1228 -1232 0
-1225 -1233 0
-1226 -1234 0
-1227 -1235 0
-1228 -1236 0
-1225 -1249 0
-1226 -1250 0
-1227 -1251 0
-1228 -1252 0
-1225 -1273 0
-1226 -1274 0
-1227 -1275 0
-1228 -1276 0
-1225 -1309 0
-1226 -1310 0
-1227 -1311 0
-1228 -1312 0
-1225 -1733 0
-1226 -1734 0
-1227 -1735 0
-1228 -1736 0
-1225 -2949 0
-1226 -2950 0
-1227 -2951 0
-1228 -2952 0
-1225 -3057 0
-1226 -3058 0
-1227 -3059 0
-1228 -3060 0
-1225 -3141 0
-1226 -3142 0
-1227 -3143 0
-1228 -3144 0
-1229 -1237 0
-1230 -1238 0
-1231 -1239 0
-1232 -1240 0
-1229 -1253 0
-1230 -1254 0
-1231 -1255 0
-1232 -1256 0
-1229 -1273 0
-1230 -1274 0
-1231 -1275 0
-1232 -1276 0
-1229 -1597 0
-1230 -1598 0
-1231 -1599 0
-1232 -1600 0
-1229 -2117 0
-1230 -2118 0
-1231 -2119 0
-1232 -2120 0
-1229 -2333 0
-1230 -2334 0
-1231 -2335 0
-1232 -2336 0
-1229 -3145 0
-1230 -3146 0
-1231 -3147 0
-1232 -3148 0
-1233 -1237 0
-1234 -1238 0
-1235 -1239 0
-1236 -1240 0
-1233 -1257 0
-1234 -1258 0
-1235 -1259 0
-1236 -1260 0
-1233 -1277 0
-1234 -1278 0
-1235 -1279 0
-1236 -1280 0
-1233 -1309 0
-1234 -1310 0
-1235 -1311 0
-1236 -1312 0
-1233 -1841 0
-1234 -1842 0
-1235 -1843 0
-1236 -1844 0
-1233 -2525 0
-1234 -2526 0
-1235 -2527 0
-1236 -2528 0
-1233 -3149 0
-1234 -3150 0
-1235 -3151 0
-1236 -3152 0
-1237 -1261 0
-1238 -1262 0
-1239 -1263 0
-1240 -1264 0
-1237 -1277 0
-1238 -1278 0
-1239 -1279 0
-1240 -1280 0
-1237 -1601 0
-1238 -1602 0
-1239 -1603 0
-1240 -1604 0
-1237 -2337 0
-1238 -2338 0
-1239 -2339 0
-1240 -2340 0
-1237 -2529 0
-1238 -2530 0
-1239 -2531 0
-1240 -2532 0
-1237 -3153 0
-1238 -3154 0
-1239 -3155 0
-1240 -3156 0
-1241 -1249 0
-1242 -1250 0
-1243 -1251 0
-1244 -1252 0
-1241 -2373 0
-1242 -2374 0
-1243 -2375 0
-1244 -2376 0
-1241 -2953 0
-1242 -2954 0
-1243 -2955 0
-1244 -2956 0
-1241 -3061 0
-1242 -3062 0
-1243 -3063 0
-1244 -3064 0
-1249 -1253 0
-1250 -1254 0
-1251 -1255 0
-1252 -1256 0
-1249 -1257 0
-1250 -1258 0
-1251 -1259 0
-1252 -1260 0
-1249 -1269 0
-1250 -1270 0
-1251 -1271 0
-1252 -1272 0
-1249 -1281 0
-1250 -1282 0
-1251 -1283 0
-1252 -1284 0
-1249 -1313 0
-1250 -1314 0
-1251 -1315 0
-1252 -1316 0
-1249 -1605 0
-1250 -1606 0
-1251 -1607 0
-1252 -1608 0
-1249 -1737 0
-1250 -1738 0
-1251 -1739 0
-1252 -1740 0
-1249 -2037 0
-1250 -2038 0
-1251 -2039 0
-1252 -2040 0
-1249 -2129 0
-1250 -2130 0
-1251 -2131 0
-1252 -2132 0
-1249 -2293 0
-1250 -2294 0
-1251 -2295 0
-1252 -2296 0
-1249 -2961 0
-1250 -2962 0
-1251 -2963 0
-1252 -2964 0
-1249 -3065 0
-1250 -3066 0
-1251 -3067 0
-1252 -3068 0
-1249 -3141 0
-1250 -3142 0
-1251 -3143 0
-1252 -3144 0
-1249 -3157 0
-1250 -3158 0
-1251 -3159 0
-1252 -3160 0
-1253 -1261 0
-1254 -1262 0
-1255 -1263 0
-1256 -1264 0
-1253 -1281 0
-1254 -1282 0
-1255 -1283 0
-1256 -1284 0
-1253 -1609 0
-1254 -1610 0
-1255 -1611 0
-1256 -1612 0
-1253 -2133 0
-1254 -2134 0
-1255 -2135 0
-1256 -2136 0
-1253 -2341 0
-1254 -2342 0
-1255 -2343 0
-1256 -2344 0
-1253 -3145 0
-1254 -3146 0
-1255 -3147 0
-1256 -3148 0
-1253 -3405 0
-1254 -3406 0
-1255 -3407 0
-1256 -3408 0
-1257 -1261 0
-1258 -1262 0
-1259 -1263 0
-1260 -1264 0
-1257 -1285 0
-1258 -1286 0
-1259 -1287 0
-1260 -1288 0
-1257 -1313 0
-1258 -1314 0
-1259 -1315 0
-1260 -1316 0
-1257 -1401 0
-1258 -1402 0
-1259 -1403 0
-1260 -1404 0
-1257 -1845 0
-1258 -1846 0
-1259 -1847 0
-1260 -1848 0
-1257 -2385 0
-1258 -2386 0
-1259 -2387 0
-1260 -2388 0
-1257 -2533 0
-1258 -2534 0
-1259 -2535 0
-1260 -2536 0
-1257 -3149 0
-1258 -3150 0
-1259 -3151 0
-1260 -3152 0
-1261 -1285 0
-1262 -1286 0
-1263 -1287 0
-1264 -1288 0
-1261 -1613 0
-1262 -1614 0
-1263 -1615 0
-1264 -1616 0
-1261 -2345 0
-1262 -2346 0
-1263 -2347 0
-1264 -2348 0
-1261 -2537 0
-1262 -2538 0
-1263 -2539 0
-1264 -2540 0
-1261 -3153 0
-1262 -3154 0
-1263 -3155 0
-1264 -3156 0
-1269 -1777 0
-1270 -1778 0
-1271 -1779 0
-1272 -1780 0
-1269 -2057 0
-1270 -2058 0
-1271 -2059 0
-1272 -2060 0
-1269 -2301 0
-1270 -2302 0
-1271 -2303 0
-1272 -2304 0
-1269 -3065 0
-1270 -3066 0
-1271 -3067 0
-1272 -3068 0
-1273 -1277 0
-1274 -1278 0
-1275 -1279 0
-1276 -1280 0
-1273 -1281 0
-1274 -1282 0
-1275 -1283 0
-1276 -1284 0
-1273 -1321 0
-1274 -1322 0
-1275 -1323 0
-1276 -1324 0
-1273 -1789 0
-1274 -1790 0
-1275 -1791 0
-1276 -1792 0
-1273 -2373 0
-1274 -2374 0
-1275 -2375 0
-1276 -2376 0
-1273 -2573 0
-1274 -2574 0
-1275 -2575 0
-1276 -2576 0
-1273 -3177 0
-1274 -3178 0
-1275 -3179 0
-1276 -3180 0
-1277 -1285 0
-1278 -1286 0
-1279 -1287 0
-1280 -1288 0
-1277 -1321 0
-1278 -1322 0
-1279 -1323 0
-1280 -1324 0
-1277 -1429 0
-1278 -1430 0
-1279 -1431 0
-1280 -1432 0
-1277 -1717 0
-1278 -1718 0
-1279 -1719 0
-1280 -1720 0
-1277 -2097 0
-1278 -2098 0
-1279 -2099 0
-1280 -2100 0
-1277 -2377 0
-1278 -2378 0
-1279 -2379 0
-1280 -2380 0
-1277 -2581 0
-1278 -2582 0
-1279 -2583 0
-1280 -2584 0
-1277 -3181 0
-1278 -3182 0
-1279 -3183 0
-1280 -3184 0
-1277 -3217 0
-1278 -3218 0
-1279 -3219 0
-1280 -3220 0
-1281 -1285 0
-1282 -1286 0
-1283 -1287 0
-1284 -1288 0
-1281 -1325 0
-1282 -1326 0
-1283 -1327 0
-1284 -1328 0
-1281 -2145 0
-1282 -2146 0
-1283 -2147 0
-1284 -2148 0
-1281 -2313 0
-1282 -2314 0
-1283 -2315 0
-1284 -2316 0
-1281 -2609 0
-1282 -2610 0
-1283 -2611 0
-1284 -2612 0
-1281 -3177 0
-1282 -3178 0
-1283 -3179 0
-1284 -3180 0
-1285 -1325 0
-1286 -1326 0
-1287 -1327 0
-1288 -1328 0
-1285 -1453 0
-1286 -1454 0
-1287 -1455 0
-1288 -1456 0
-1285 -2617 0
-1286 -2618 0
-1287 -2619 0
-1288 -2620 0
-1285 -3181 0
-1286 -3182 0
-1287 -3183 0
-1288 -3184 0
-1285 -3221 0
-1286 -3222 0
-1287 -3223 0
-1288 -3224 0
-1289 -1293 0
-1290 -1294 0
-1291 -1295 0
-1292 -1296 0
-1289 -1301 0
-1290 -1302 0
-1291 -1303 0
-1292 -1304 0
-1289 -1309 0
-1290 -1310 0
-1291 -1311 0
-1292 -1312 0
-1289 -2581 0
-1290 -2582 0
-1291 -2583 0
-1292 -2584 0
-1289 -3189 0
-1290 -3190 0
-1291 -3191 0
-1292 -3192 0
-1293 -1305 0
-1294 -1306 0
-1295 -1307 0
-1296 -1308 0
-1293 -1725 0
-1294 -1726 0
-1295 -1727 0
-1296 -1728 0
-1293 -2105 0
-1294 -2106 0
-1295 -2107 0
-1296 -2108 0
-1293 -2597 0
-1294 -2598 0
-1295 -2599 0
-1296 -2600 0
-1297 -1301 0
-1298 -1302 0
-1299 -1303 0
-1300 -1304 0
-1297 -2317 0
-1298 -2318 0
-1299 -2319 0
-1300 -2320 0
-1297 -2609 0
-1298 -2610 0
-1299 -2611 0
-1300 -2612 0
-1297 -3069 0
-1298 -3070 0
-1299 -3071 0
-1300 -3072 0
-1297 -3093 0
-1298 -3094 0
-1299 -3095 0
-1300 -3096 0
-1297 -3417 0
-1298 -3418 0
-1299 -3419 0
-1300 -3420 0
-1301 -1305 0
-1302 -1306 0
-1303 -1307 0
-1304 -1308 0
-1301 -1313 0
-1302 -1314 0
-1303 -1315 0
-1304 -1316 0
-1301 -1317 0
-1302 -1318 0
-1303 -1319 0
-1304 -1320 0
-1301 -1629 0
-1302 -1630 0
-1303 -1631 0
-1304 -1632 0
-1301 -2109 0
-1302 -2110 0
-1303 -2111 0
-1304 -2112 0
-1301 -2617 0
-1302 -2618 0
-1303 -2619 0
-1304 -2620 0
-1301 -2977 0
-1302 -2978 0
-1303 -2979 0
-1304 -2980 0
-1301 -3073 0
-1302 -3074 0
-1303 -3075 0
-1304 -3076 0
-1301 -3097 0
-1302 -3098 0
-1303 -3099 0
-1304 -3100 0
-1301 -3189 0
-1302 -3190 0
-1303 -3191 0
-1304 -3192 0
-1301 -3197 0
-1302 -3198 0
-1303 -3199 0
-1304 -3200 0
-1301 -3229 0
-1302 -3230 0
-1303 -3231 0
-1304 -3232 0
-1301 -3421 0
-1302 -3422 0
-1303 -3423 0
-1304 -3424 0
-1305 -1637 0
-1306 -1638 0
-1307 -1639 0
-1308 -1640 0
-1305 -1729 0
-1306 -1730 0
-1307 -1731 0
-1308 -1732 0
-1305 -2077 0
-1306 -2078 0
-1307 -2079 0
-1308 -2080 0
-1305 -2113 0
-1306 -2114 0
-1307 -2115 0
-1308 -2116 0
-1305 -2405 0
-1306 -2406 0
-1307 -2407 0
-1308 -2408 0
-1305 -2633 0
-1306 -2634 0
-1307 -2635 0
-1308 -2636 0
-1305 -3085 0
-1306 -3086 0
-1307 -3087 0
-1308 -3088 0
-1305 -3105 0
-1306 -3106 0
-1307 -3107 0
-1308 -3108 0
-1309 -1313 0
-1310 -1314 0
-1311 -1315 0
-1312 -1316 0
-1309 -1321 0
-1310 -1322 0
-1311 -1323 0
-1312 -1324 0
-1309 -1749 0
-1310 -1750 0
-1311 -1751 0
-1312 -1752 0
-1309 -2645 0
-1310 -2646 0
-1311 -2647 0
-1312 -2648 0
-1309 -3201 0
-1310 -3202 0
-1311 -3203 0
-1312 -3204 0
-1313 -1325 0
-1314 -1326 0
-1315 -1327 0
-1316 -1328 0
-1313 -1481 0
-1314 -1482 0
-1315 -1483 0
-1316 -1484 0
-1313 -1769 0
-1314 -1770 0
-1315 -1771 0
-1316 -1772 0
-1313 -2085 0
-1314 -2086 0
-1315 -2087 0
-1316 -2088 0
-1313 -2337 0
-1314 -2338 0
-1315 -2339 0
-1316 -2340 0
-1313 -2649 0
-1314 -2650 0
-1315 -2651 0
-1316 -2652 0
-1313 -3201 0
-1314 -3202 0
-1315 -3203 0
-1316 -3204 0
-1313 -3229 0
-1314 -3230 0
-1315 -3231 0
-1316 -3232 0
-1313 -3429 0
-1314 -3430 0
-1315 -3431 0
-1316 -3432 0
-1317 -1325 0
-1318 -1326 0
-1319 -1327 0
-1320 -1328 0
-1317 -1853 0
-1318 -1854 0
-1319 -1855 0
-1320 -1856 0
-1317 -2665 0
-1318 -2666 0
-1319 -2667 0
-1320 -2668 0
-1317 -2985 0
-1318 -2986 0
-1319 -2987 0
-1320 -2988 0
-1321 -1325 0
-1322 -1326 0
-1323 -1327 0
-1324 -1328 0
-1321 -1489 0
-1322 -1490 0
-1323 -1491 0
-1324 -1492 0
-1321 -1797 0
-1322 -1798 0
-1323 -1799 0
-1324 -1800 0
-1321 -2369 0
-1322 -2370 0
-1323 -2371 0
-1324 -2372 0
-1321 -2669 0
-1322 -2670 0
-1323 -2671 0
-1324 -2672 0
-1321 -2997 0
-1322 -2998 0
-1323 -2999 0
-1324 -3000 0
-1321 -3209 0
-1322 -3210 0
-1323 -3211 0
-1324 -3212 0
-1325 -1501 0
-1326 -1502 0
-1327 -1503 0
-1328 -1504 0
-1325 -1813 0
-1326 -1814 0
-1327 -1815 0
-1328 -1816 0
-1325 -2381 0
-1326 -2382 0
-1327 -2383 0
-1328 -2384 0
-1325 -2677 0
-1326 -2678 0
-1327 -2679 0
-1328 -2680 0
-1325 -3001 0
-1326 -3002 0
-1327 -3003 0
-1328 -3004 0
-1325 -3209 0
-1326 -3210 0
-1327 -3211 0
-1328 -3212 0
-1341 -1437 0
-1342 -1438 0
-1343 -1439 0
-1344 -1440 0
-1341 -1453 0
-1342 -1454 0
-1343 -1455 0
-1344 -1456 0
-1341 -1609 0
-1342 -1610 0
-1343 -1611 0
-1344 -1612 0
-1341 -2209 0
-1342 -2210 0
-1343 -2211 0
-1344 -2212 0
-1341 -2433 0
-1342 -2434 0
-1343 -2435 0
-1344 -2436 0
-1349 -1353 0
-1350 -1354 0
-1351 -1355 0
-1352 -1356 0
-1349 -1361 0
-1350 -1362 0
-1351 -1363 0
-1352 -1364 0
-1349 -1417 0
-1350 -1418 0
-1351 -1419 0
-1352 -1420 0
-1349 -1421 0
-1350 -1422 0
-1351 -1423 0
-1352 -1424 0
-1349 -1953 0
-1350 -1954 0
-1351 -1955 0
-1352 -1956 0
-1349 -2157 0
-1350 -2158 0
-1351 -2159 0
-1352 -2160 0
-1349 -3253 0
-1350 -3254 0
-1351 -3255 0
-1352 -3256 0
-1349 -3361 0
-1350 -3362 0
-1351 -3363 0
-1352 -3364 0
-1353 -1365 0
-1354 -1366 0
-1355 -1367 0
-1356 -1368 0
-1353 -1433 0
-1354 -1434 0
-1355 -1435 0
-1356 -1436 0
-1353 -1437 0
-1354 -1438 0
-1355 -1439 0
-1356 -1440 0
-1353 -1977 0
-1354 -1978 0
-1355 -1979 0
-1356 -1980 0
-1353 -2173 0
-1354 -2174 0
-1355 -2175 0
-1356 -2176 0
-1353 -3037 0
-1354 -3038 0
-1355 -3039 0
-1356 -3040 0
-1353 -3253 0
-1354 -3254 0
-1355 -3255 0
-1356 -3256 0
-1353 -3369 0
-1354 -3370 0
-1355 -3371 0
-1356 -3372 0
-1361 -1365 0
-1362 -1366 0
-1363 -1367 0
-1364 -1368 0
-1361 -1369 0
-1362 -1370 0
-1363 -1371 0
-1364 -1372 0
-1361 -1465 0
-1362 -1466 0
-1363 -1467 0
-1364 -1468 0
-1361 -1781 0
-1362 -1782 0
-1363 -1783 0
-1364 -1784 0
-1361 -2265 0
-1362 -2266 0
-1363 -2267 0
-1364 -2268 0
-1361 -3257 0
-1362 -3258 0
-1363 -3259 0
-1364 -3260 0
-1361 -3361 0
-1362 -3362 0
-1363 -3363 0
-1364 -3364 0
-1365 -1469 0
-1366 -1470 0
-1367 -1471 0
-1368 -1472 0
-1365 -2277 0
-1366 -2278 0
-1367 -2279 0
-1368 -2280 0
-1365 -2461 0
-1366 -2462 0
-1367 -2463 0
-1368 -2464 0
-1365 -3257 0
-1366 -3258 0
-1367 -3259 0
-1368 -3260 0
-1365 -3369 0
-1366 -3370 0
-1367 -3371 0
-1368 -3372 0
-1369 -1797 0
-1370 -1798 0
-1371 -1799 0
-1372 -1800 0
-1369 -2465 0
-1370 -2466 0
-1371 -2467 0
-1372 -2468 0
-1369 -3057 0
-1370 -3058 0
-1371 -3059 0
-1372 -3060 0
-1369 -3261 0
-1370 -3262 0
-1371 -3263 0
-1372 -3264 0
-1381 -1397 0
-1382 -1398 0
-1383 -1399 0
-1384 -1400 0
-1381 -1425 0
-1382 -1426 0
-1383 -1427 0
-1384 -1428 0
-1381 -1877 0
-1382 -1878 0
-1383 -1879 0
-1384 -1880 0
-1381 -2557 0
-1382 -2558 0
-1383 -2559 0
-1384 -2560 0
-1381 -3277 0
-1382 -3278 0
-1383 -3279 0
-1384 -3280 0
-1389 -1393 0
-1390 -1394 0
-1391 -1395 0
-1392 -1396 0
-1389 -1397 0
-1390 -1398 0
-1391 -1399 0
-1392 -1400 0
-1389 -1405 0
-1390 -1406 0
-1391 -1407 0
-1392 -1408 0
-1389 -1433 0
-1390 -1434 0
-1391 -1435 0
-1392 -1436 0
-1389 -1541 0
-1390 -1542 0
-1391 -1543 0
-1392 -1544 0
-1389 -2561 0
-1390 -2562 0
-1391 -2563 0
-1392 -2564 0
-1389 -2765 0
-1390 -2766 0
-1391 -2767 0
-1392 -2768 0
-1389 -3073 0
-1390 -3074 0
-1391 -3075 0
-1392 -3076 0
-1389 -3269 0
-1390 -3270 0
-1391 -3271 0
-1392 -3272 0
-1389 -3281 0
-1390 -3282 0
-1391 -3283 0
-1392 -3284 0
-1389 -3501 0
-1390 -3502 0
-1391 -3503 0
-1392 -3504 0
-1393 -1433 0
-1394 -1434 0
-1395 -1435 0
-1396 -1436 0
-1393 -3505 0
-1394 -3506 0
-1395 -3507 0
-1396 -3508 0
-1397 -1401 0
-1398 -1402 0
-1399 -1403 0
-1400 -1404 0
-1397 -1413 0
-1398 -1414 0
-1399 -1415 0
-1400 -1416 0
-1397 -1441 0
-1398 -1442 0
-1399 -1443 0
-1400 -1444 0
-1397 -1445 0
-1398 -1446 0
-1399 -1447 0
-1400 -1448 0
-1397 -1477 0
-1398 -1478 0
-1399 -1479 0
-1400 -1480 0
-1397 -1513 0
-1398 -1514 0
-1399 -1515 0
-1400 -1516 0
-1397 -1541 0
-1398 -1542 0
-1399 -1543 0
-1400 -1544 0
-1397 -1829 0
-1398 -1830 0
-1399 -1831 0
-1400 -1832 0
-1397 -1881 0
-1398 -1882 0
-1399 -1883 0
-1400 -1884 0
-1397 -2241 0
-1398 -2242 0
-1399 -2243 0
-1400 -2244 0
-1397 -2581 0
-1398 -2582 0
-1399 -2583 0
-1400 -2584 0
-1397 -3085 0
-1398 -3086 0
-1399 -3087 0
-1400 -3088 0
-1397 -3241 0
-1398 -3242 0
-1399 -3243 0
-1400 -3244 0
-1397 -3277 0
-1398 -3278 0
-1399 -3279 0
-1400 -3280 0
-1397 -3289 0
-1398 -3290 0
-1399 -3291 0
-1400 -3292 0
-1401 -1449 0
-1402 -1450 0
-1403 -1451 0
-1404 -1452 0
-1401 -1453 0
-1402 -1454 0
-1403 -1455 0
-1404 -1456 0
-1401 -1481 0
-1402 -1482 0
-1403 -1483 0
-1404 -1484 0
-1401 -1513 0
-1402 -1514 0
-1403 -1515 0
-1404 -1516 0
-1401 -1733 0
-1402 -1734 0
-1403 -1735 0
-1404 -1736 0
-1401 -2029 0
-1402 -2030 0
-1403 -2031 0
-1404 -2032 0
-1401 -2197 0
-1402 -2198 0
-1403 -2199 0
-1404 -2200 0
-1401 -2533 0
-1402 -2534 0
-1403 -2535 0
-1404 -2536 0
-1401 -2593 0
-1402 -2594 0
-1403 -2595 0
-1404 -2596 0
-1405 -1413 0
-1406 -1414 0
-1407 -1415 0
-1408 -1416 0
-1405 -1461 0
-1406 -1462 0
-1407 -1463 0
-1408 -1464 0
-1405 -1557 0
-1406 -1558 0
-1407 -1559 0
-1408 -1560 0
-1405 -1741 0
-1406 -1742 0
-1407 -1743 0
-1408 -1744 0
-1405 -1929 0
-1406 -1930 0
-1407 -1931 0
-1408 -1932 0
-1405 -2017 0
-1406 -2018 0
-1407 -2019 0
-1408 -2020 0
-1405 -2773 0
-1406 -2774 0
-1407 -2775 0
-1408 -2776 0
-1405 -3097 0
-1406 -3098 0
-1407 -3099 0
-1408 -3100 0
-1405 -3297 0
-1406 -3298 0
-1407 -3299 0
-1408 -3300 0
-1413 -1557 0
-1414 -1558 0
-1415 -1559 0
-1416 -1560 0
-1413 -1757 0
-1414 -1758 0
-1415 -1759 0
-1416 -1760 0
-1413 -1837 0
-1414 -1838 0
-1415 -1839 0
-1416 -1840 0
-1413 -2025 0
-1414 -2026 0
-1415 -2027 0
-1416 -2028 0
-1413 -2201 0
-1414 -2202 0
-1415 -2203 0
-1416 -2204 0
-1413 -2245 0
-1414 -2246 0
-1415 -2247 0
-1416 -2248 0
-1413 -2637 0
-1414 -2638 0
-1415 -2639 0
-1416 -2640 0
-1413 -3105 0
-1414 -3106 0
-1415 -3107 0
-1416 -3108 0
-1413 -3241 0
-1414 -3242 0
-1415 -3243 0
-1416 -3244 0
-1413 -3301 0
-1414 -3302 0
-1415 -3303 0
-1416 -3304 0
-1417 -1421 0
-1418 -1422 0
-1419 -1423 0
-1420 -1424 0
-1417 -1425 0
-1418 -1426 0
-1419 -1427 0
-1420 -1428 0
-1417 -1433 0
-1418 -1434 0
-1419 -1435 0
-1420 -1436 0
-1417 -1465 0
-1418 -1466 0
-1419 -1467 0
-1420 -1468 0
-1417 -1937 0
-1418 -1938 0
-1419 -1939 0
-1420 -1940 0
-1417 -3305 0
-1418 -3306 0
-1419 -3307 0
-1420 -3308 0
-1417 -3385 0
-1418 -3386 0
-1419 -3387 0
-1420 -3388 0
-1417 -3513 0
-1418 -3514 0
-1419 -3515 0
-1420 -3516 0
-1421 -1429 0
-1422 -1430 0
-1423 -1431 0
-1424 -1432 0
-1421 -1437 0
-1422 -1438 0
-1423 -1439 0
-1424 -1440 0
-1421 -1941 0
-1422 -1942 0
-1423 -1943 0
-1424 -1944 0
-1421 -2561 0
-1422 -2562 0
-1423 -2563 0
-1424 -2564 0
-1421 -3309 0
-1422 -3310 0
-1423 -3311 0
-1424 -3312 0
-1421 -3389 0
-1422 -3390 0
-1423 -3391 0
-1424 -3392 0
-1425 -1429 0
-1426 -1430 0
-1427 -1431 0
-1428 -1432 0
-1425 -1445 0
-1426 -1446 0
-1427 -1447 0
-1428 -1448 0
-1425 -1601 0
-1426 -1602 0
-1427 -1603 0
-1428 -1604 0
-1425 -1889 0
-1426 -1890 0
-1427 -1891 0
-1428 -1892 0
-1425 -2569 0
-1426 -2570 0
-1427 -2571 0
-1428 -2572 0
-1425 -3313 0
-1426 -3314 0
-1427 -3315 0
-1428 -3316 0
-1429 -1453 0
-1430 -1454 0
-1431 -1455 0
-1432 -1456 0
-1429 -1489 0
-1430 -1490 0
-1431 -1491 0
-1432 -1492 0
-1429 -2581 0
-1430 -2582 0
-1431 -2583 0
-1432 -2584 0
-1429 -3317 0
-1430 -3318 0
-1431 -3319 0
-1432 -3320 0
-1433 -1437 0
-1434 -1438 0
-1435 -1439 0
-1436 -1440 0
-1433 -1445 0
-1434 -1446 0
-1435 -1447 0
-1436 -1448 0
-1433 -1461 0
-1434 -1462 0
-1435 -1463 0
-1436 -1464 0
-1433 -1469 0
-1434 -1470 0
-1435 -1471 0
-1436 -1472 0
-1433 -1589 0
-1434 -1590 0
-1435 -1591 0
-1436 -1592 0
-1433 -2037 0
-1434 -2038 0
-1435 -2039 0
-1436 -2040 0
-1433 -2353 0
-1434 -2354 0
-1435 -2355 0
-1436 -2356 0
-1433 -3305 0
-1434 -3306 0
-1435 -3307 0
-1436 -3308 0
-1433 -3321 0
-1434 -3322 0
-1435 -3323 0
-1436 -3324 0
-1433 -3393 0
-1434 -3394 0
-1435 -3395 0
-1436 -3396 0
-1433 -3517 0
-1434 -3518 0
-1435 -3519 0
-1436 -3520 0
-1437 -1453 0
-1438 -1454 0
-1439 -1455 0
-1440 -1456 0
-1437 -1781 0
-1438 -1782 0
-1439 -1783 0
-1440 -1784 0
-1437 -2601 0
-1438 -2602 0
-1439 -2603 0
-1440 -2604 0
-1437 -2781 0
-1438 -2782 0
-1439 -2783 0
-1440 -2784 0
-1437 -3309 0
-1438 -3310 0
-1439 -3311 0
-1440 -3312 0
-1437 -3397 0
-1438 -3398 0
-1439 -3399 0
-1440 -3400 0
-1437 -3521 0
-1438 -3522 0
-1439 -3523 0
-1440 -3524 0
-1441 -1445 0
-1442 -1446 0
-1443 -1447 0
-1444 -1448 0
-1441 -1449 0
-1442 -1450 0
-1443 -1451 0
-1444 -1452 0
-1441 -1517 0
-1442 -1518 0
-1443 -1519 0
-1444 -1520 0
-1441 -2217 0
-1442 -2218 0
-1443 -2219 0
-1444 -2220 0
-1441 -2653 0
-1442 -2654 0
-1443 -2655 0
-1444 -2656 0
-1441 -3113 0
-1442 -3114 0
-1443 -3115 0
-1444 -3116 0
-1445 -1453 0
-1446 -1454 0
-1447 -1455 0
-1448 -1456 0
-1445 -1521 0
-1446 -1522 0
-1447 -1523 0
-1448 -1524 0
-1445 -1613 0
-1446 -1614 0
-1447 -1615 0
-1448 -1616 0
-1445 -1893 0
-1446 -1894 0
-1447 -1895 0
-1448 -1896 0
-1445 -2045 0
-1446 -2046 0
-1447 -2047 0
-1448 -2048 0
-1445 -2605 0
-1446 -2606 0
-1447 -2607 0
-1448 -2608 0
-1445 -2657 0
-1446 -2658 0
-1447 -2659 0
-1448 -2660 0
-1445 -3313 0
-1446 -3314 0
-1447 -3315 0
-1448 -3316 0
-1445 -3329 0
-1446 -3330 0
-1447 -3331 0
-1448 -3332 0
-1449 -1453 0
-1450 -1454 0
-1451 -1455 0
-1452 -1456 0
-1449 -1497 0
-1450 -1498 0
-1451 -1499 0
-1452 -1500 0
-1449 -1505 0
-1450 -1506 0
-1451 -1507 0
-1452 -1508 0
-1449 -1517 0
-1450 -1518 0
-1451 -1519 0
-1452 -1520 0
-1449 -1785 0
-1450 -1786 0
-1451 -1787 0
-1452 -1788 0
-1449 -2069 0
-1450 -2070 0
-1451 -2071 0
-1452 -2072 0
-1449 -2221 0
-1450 -2222 0
-1451 -2223 0
-1452 -2224 0
-1449 -2509 0
-1450 -2510 0
-1451 -2511 0
-1452 -2512 0
-1449 -2613 0
-1450 -2614 0
-1451 -2615 0
-1452 -2616 0
-1449 -2785 0
-1450 -2786 0
-1451 -2787 0
-1452 -2788 0
-1453 -1501 0
-1454 -1502 0
-1455 -1503 0
-1456 -1504 0
-1453 -1509 0
-1454 -1510 0
-1455 -1511 0
-1456 -1512 0
-1453 -1521 0
-1454 -1522 0
-1455 -1523 0
-1456 -1524 0
-1453 -1789 0
-1454 -1790 0
-1455 -1791 0
-1456 -1792 0
-1453 -1865 0
-1454 -1866 0
-1455 -1867 0
-1456 -1868 0
-1453 -2257 0
-1454 -2258 0
-1455 -2259 0
-1456 -2260 0
-1453 -2361 0
-1454 -2362 0
-1455 -2363 0
-1456 -2364 0
-1453 -2617 0
-1454 -2618 0
-1455 -2619 0
-1456 -2620 0
-1453 -2789 0
-1454 -2790 0
-1455 -2791 0
-1456 -2792 0
-1453 -3317 0
-1454 -3318 0
-1455 -3319 0
-1456 -3320 0
-1453 -3405 0
-1454 -3406 0
-1455 -3407 0
-1456 -3408 0
-1461 -1793 0
-1462 -1794 0
-1463 -1795 0
-1464 -1796 0
-1461 -1985 0
-1462 -1986 0
-1463 -1987 0
-1464 -1988 0
-1461 -2057 0
-1462 -2058 0
-1463 -2059 0
-1464 -2060 0
-1461 -3117 0
-1462 -3118 0
-1463 -3119 0
-1464 -3120 0
-1465 -1469 0
-1466 -1470 0
-1467 -1471 0
-1468 -1472 0
-1465 -1597 0
-1466 -1598 0
-1467 -1599 0
-1468 -1600 0
-1465 -1897 0
-1466 -1898 0
-1467 -1899 0
-1468 -1900 0
-1465 -2365 0
-1466 -2366 0
-1467 -2367 0
-1468 -2368 0
-1465 -3341 0
-1466 -3342 0
-1467 -3343 0
-1468 -3344 0
-1465 -3385 0
-1466 -3386 0
-1467 -3387 0
-1468 -3388 0
-1469 -1609 0
-1470 -1610 0
-1471 -1611 0
-1472 -1612 0
-1469 -2377 0
-1470 -2378 0
-1471 -2379 0
-1472 -2380 0
-1469 -2797 0
-1470 -2798 0
-1471 -2799 0
-1472 -2800 0
-1469 -3341 0
-1470 -3342 0
-1471 -3343 0
-1472 -3344 0
-1469 -3393 0
-1470 -3394 0
-1471 -3395 0
-1472 -3396 0
-1477 -1481 0
-1478 -1482 0
-1479 -1483 0
-1480 -1484 0
-1477 -1925 0
-1478 -1926 0
-1479 -1927 0
-1480 -1928 0
-1477 -2669 0
-1478 -2670 0
-1479 -2671 0
-1480 -2672 0
-1477 -3249 0
-1478 -3250 0
-1479 -3251 0
-1480 -3252 0
-1477 -3545 0
-1478 -3546 0
-1479 -3547 0
-1480 -3548 0
-1481 -1497 0
-1482 -1498 0
-1483 -1499 0
-1484 -1500 0
-1481 -1501 0
-1482 -1502 0
-1483 -1503 0
-1484 -1504 0
-1481 -2225 0
-1482 -2226 0
-1483 -2227 0
-1484 -2228 0
-1481 -2529 0
-1482 -2530 0
-1483 -2531 0
-1484 -2532 0
-1481 -2809 0
-1482 -2810 0
-1483 -2811 0
-1484 -2812 0
-1481 -3549 0
-1482 -3550 0
-1483 -3551 0
-1484 -3552 0
-1489 -1501 0
-1490 -1502 0
-1491 -1503 0
-1492 -1504 0
-1489 -2669 0
-1490 -2670 0
-1491 -2671 0
-1492 -2672 0
-1497 -1501 0
-1498 -1502 0
-1499 -1503 0
-1500 -1504 0
-1497 -1505 0
-1498 -1506 0
-1499 -1507 0
-1500 -1508 0
-1497 -1529 0
-1498 -1530 0
-1499 -1531 0
-1500 -1532 0
-1497 -1853 0
-1498 -1854 0
-1499 -1855 0
-1500 -1856 0
-1497 -1989 0
-1498 -1990 0
-1499 -1991 0
-1500 -1992 0
-1497 -2009 0
-1498 -2010 0
-1499 -2011 0
-1500 -2012 0
-1497 -2237 0
-1498 -2238 0
-1499 -2239 0
-1500 -2240 0
-1497 -2581 0
-1498 -2582 0
-1499 -2583 0
-1500 -2584 0
-1497 -3141 0
-1498 -3142 0
-1499 -3143 0
-1500 -3144 0
-1497 -3257 0
-1498 -3258 0
-1499 -3259 0
-1500 -3260 0
-1497 -3261 0
-1498 -3262 0
-1499 -3263 0
-1500 -3264 0
-1497 -3417 0
-1498 -3418 0
-1499 -3419 0
-1500 -3420 0
-1497 -3573 0
-1498 -3574 0
-1499 -3575 0
-1500 -3576 0
-1501 -1509 0
-1502 -1510 0
-1503 -1511 0
-1504 -1512 0
-1501 -2405 0
-1502 -2406 0
-1503 -2407 0
-1504 -2408 0
-1501 -2585 0
-1502 -2586 0
-1503 -2587 0
-1504 -2588 0
-1501 -2677 0
-1502 -2678 0
-1503 -2679 0
-1504 -2680 0
-1501 -3145 0
-1502 -3146 0
-1503 -3147 0
-1504 -3148 0
-1501 -3577 0
-1502 -3578 0
-1503 -3579 0
-1504 -3580 0
-1505 -1509 0
-1506 -1510 0
-1507 -1511 0
-1508 -1512 0
-1505 -1641 0
-1506 -1642 0
-1507 -1643 0
-1508 -1644 0
-1505 -2277 0
-1506 -2278 0
-1507 -2279 0
-1508 -2280 0
-1505 -2589 0
-1506 -2590 0
-1507 -2591 0
-1508 -2592 0
-1505 -2841 0
-1506 -2842 0
-1507 -2843 0
-1508 -2844 0
-1505 -3149 0
-1506 -3150 0
-1507 -3151 0
-1508 -3152 0
-1505 -3421 0
-1506 -3422 0
-1507 -3423 0
-1508 -3424 0
-1505 -3429 0
-1506 -3430 0
-1507 -3431 0
-1508 -3432 0
-1509 -2093 0
-1510 -2094 0
-1511 -2095 0
-1512 -2096 0
-1509 -2281 0
-1510 -2282 0
-1511 -2283 0
-1512 -2284 0
-1509 -2681 0
-1510 -2682 0
-1511 -2683 0
-1512 -2684 0
-1509 -2845 0
-1510 -2846 0
-1511 -2847 0
-1512 -2848 0
-1509 -3153 0
-1510 -3154 0
-1511 -3155 0
-1512 -3156 0
-1509 -3425 0
-1510 -3426 0
-1511 -3427 0
-1512 -3428 0
-1513 -1517 0
-1514 -1518 0
-1515 -1519 0
-1516 -1520 0
-1513 -1521 0
-1514 -1522 0
-1515 -1523 0
-1516 -1524 0
-1513 -2293 0
-1514 -2294 0
-1515 -2295 0
-1516 -2296 0
-1513 -2693 0
-1514 -2694 0
-1515 -2695 0
-1516 -2696 0
-1513 -3153 0
-1514 -3154 0
-1515 -3155 0
-1516 -3156 0
-1517 -1521 0
-1518 -1522 0
-1519 -1523 0
-1520 -1524 0
-1517 -1529 0
-1518 -1530 0
-1519 -1531 0
-1520 -1532 0
-1517 -2049 0
-1518 -2050 0
-1519 -2051 0
-1520 -2052 0
-1517 -2309 0
-1518 -2310 0
-1519 -2311 0
-1520 -2312 0
-1517 -2865 0
-1518 -2866 0
-1519 -2867 0
-1520 -2868 0
-1517 -3181 0
-1518 -3182 0
-1519 -3183 0
-1520 -3184 0
-1521 -2313 0
-1522 -2314 0
-1523 -2315 0
-1524 -2316 0
-1521 -2697 0
-1522 -2698 0
-1523 -2699 0
-1524 -2700 0
-1521 -2869 0
-1522 -2870 0
-1523 -2871 0
-1524 -2872 0
-1529 -1665 0
-1530 -1666 0
-1531 -1667 0
-1532 -1668 0
-1529 -2057 0
-1530 -2058 0
-1531 -2059 0
-1532 -2060 0
-1529 -2089 0
-1530 -2090 0
-1531 -2091 0
-1532 -2092 0
-1529 -2373 0
-1530 -2374 0
-1531 -2375 0
-1532 -2376 0
-1529 -2689 0
-1530 -2690 0
-1531 -2691 0
-1532 -2692 0
-1529 -3209 0
-1530 -3210 0
-1531 -3211 0
-1532 -3212 0
-1529 -3341 0
-1530 -3342 0
-1531 -3343 0
-1532 -3344 0
-1541 -1549 0
-1542 -1550 0
-1543 -1551 0
-1544 -1552 0
-1541 -1557 0
-1542 -1558 0
-1543 -1559 0
-1544 -1560 0
-1541 -2125 0
-1542 -2126 0
-1543 -2127 0
-1544 -2128 0
-1541 -2337 0
-1542 -2338 0
-1543 -2339 0
-1544 -2340 0
-1541 -2733 0
-1542 -2734 0
-1543 -2735 0
-1544 -2736 0
-1541 -2905 0
-1542 -2906 0
-1543 -2907 0
-1544 -2908 0
-1541 -3365 0
-1542 -3366 0
-1543 -3367 0
-1544 -3368 0
-1541 -3413 0
-1542 -3414 0
-1543 -3415 0
-1544 -3416 0
-1549 -1569 0
-1550 -1570 0
-1551 -1571 0
-1552 -1572 0
-1549 -2137 0
-1550 -2138 0
-1551 -2139 0
-1552 -2140 0
-1549 -2345 0
-1550 -2346 0
-1551 -2347 0
-1552 -2348 0
-1549 -2741 0
-1550 -2742 0
-1551 -2743 0
-1552 -2744 0
-1549 -3373 0
-1550 -3374 0
-1551 -3375 0
-1552 -3376 0
-1549 -3413 0
-1550 -3414 0
-1551 -3415 0
-1552 -3416 0
-1553 -1557 0
-1554 -1558 0
-1555 -1559 0
-1556 -1560 0
-1553 -1565 0
-1554 -1566 0
-1555 -1567 0
-1556 -1568 0
-1553 -1749 0
-1554 -1750 0
-1555 -1751 0
-1556 -1752 0
-1553 -1949 0
-1554 -1950 0
-1555 -1951 0
-1556 -1952 0
-1553 -2113 0
-1554 -2114 0
-1555 -2115 0
-1556 -2116 0
-1553 -2713 0
-1554 -2714 0
-1555 -2715 0
-1556 -2716 0
-1553 -3361 0
-1554 -3362 0
-1555 -3363 0
-1556 -3364 0
-1553 -3417 0
-1554 -3418 0
-1555 -3419 0
-1556 -3420 0
-1557 -1561 0
-1558 -1562 0
-1559 -1563 0
-1560 -1564 0
-1557 -1569 0
-1558 -1570 0
-1559 -1571 0
-1560 -1572 0
-1557 -1725 0
-1558 -1726 0
-1559 -1727 0
-1560 -1728 0
-1557 -1857 0
-1558 -1858 0
-1559 -1859 0
-1560 -1860 0
-1557 -1957 0
-1558 -1958 0
-1559 -1959 0
-1560 -1960 0
-1557 -2129 0
-1558 -2130 0
-1559 -2131 0
-1560 -2132 0
-1557 -2353 0
-1558 -2354 0
-1559 -2355 0
-1560 -2356 0
-1557 -2925 0
-1558 -2926 0
-1559 -2927 0
-1560 -2928 0
-1557 -3365 0
-1558 -3366 0
-1559 -3367 0
-1560 -3368 0
-1557 -3421 0
-1558 -3422 0
-1559 -3423 0
-1560 -3424 0
-1561 -1961 0
-1562 -1962 0
-1563 -1963 0
-1564 -1964 0
-1561 -2133 0
-1562 -2134 0
-1563 -2135 0
-1564 -2136 0
-1561 -3425 0
-1562 -3426 0
-1563 -3427 0
-1564 -3428 0
-1565 -1569 0
-1566 -1570 0
-1567 -1571 0
-1568 -1572 0
-1565 -1769 0
-1566 -1770 0
-1567 -1771 0
-1568 -1772 0
-1565 -1973 0
-1566 -1974 0
-1567 -1975 0
-1568 -1976 0
-1565 -2717 0
-1566 -2718 0
-1567 -2719 0
-1568 -2720 0
-1565 -3369 0
-1566 -3370 0
-1567 -3371 0
-1568 -3372 0
-1565 -3417 0
-1566 -3418 0
-1567 -3419 0
-1568 -3420 0
-1569 -1729 0
-1570 -1730 0
-1571 -1731 0
-1572 -1732 0
-1569 -1981 0
-1570 -1982 0
-1571 -1983 0
-1572 -1984 0
-1569 -3373 0
-1570 -3374 0
-1571 -3375 0
-1572 -3376 0
-1569 -3421 0
-1570 -3422 0
-1571 -3423 0
-1572 -3424 0
-1589 -1593 0
-1590 -1594 0
-1591 -1595 0
-1592 -1596 0
-1589 -1609 0
-1590 -1610 0
-1591 -1611 0
-1592 -1612 0
-1589 -1633 0
-1590 -1634 0
-1591 -1635 0
-1592 -1636 0
-1589 -2541 0
-1590 -2542 0
-1591 -2543 0
-1592 -2544 0
-1589 -3497 0
-1590 -3498 0
-1591 -3499 0
-1592 -3500 0
-1589 -3617 0
-1590 -3618 0
-1591 -3619 0
-1592 -3620 0
-1593 -1613 0
-1594 -1614 0
-1595 -1615 0
-1596 -1616 0
-1593 -1633 0
-1594 -1634 0
-1595 -1635 0
-1596 -1636 0
-1593 -1937 0
-1594 -1938 0
-1595 -1939 0
-1596 -1940 0
-1593 -2197 0
-1594 -2198 0
-1595 -2199 0
-1596 -2200 0
-1593 -3505 0
-1594 -3506 0
-1595 -3507 0
-1596 -3508 0
-1597 -1601 0
-1598 -1602 0
-1599 -1603 0
-1600 -1604 0
-1597 -1609 0
-1598 -1610 0
-1599 -1611 0
-1600 -1612 0
-1597 -2557 0
-1598 -2558 0
-1599 -2559 0
-1600 -2560 0
-1597 -3437 0
-1598 -3438 0
-1599 -3439 0
-1600 -3440 0
-1601 -1613 0
-1602 -1614 0
-1603 -1615 0
-1604 -1616 0
-1601 -3441 0
-1602 -3442 0
-1603 -3443 0
-1604 -3444 0
-1601 -3489 0
-1602 -3490 0
-1603 -3491 0
-1604 -3492 0
-1605 -1609 0
-1606 -1610 0
-1607 -1611 0
-1608 -1612 0
-1605 -1785 0
-1606 -1786 0
-1607 -1787 0
-1608 -1788 0
-1605 -2037 0
-1606 -2038 0
-1607 -2039 0
-1608 -2040 0
-1605 -2577 0
-1606 -2578 0
-1607 -2579 0
-1608 -2580 0
-1605 -2761 0
-1606 -2762 0
-1607 -2763 0
-1608 -2764 0
-1605 -3257 0
-1606 -3258 0
-1607 -3259 0
-1608 -3260 0
-1605 -3493 0
-1606 -3494 0
-1607 -3495 0
-1608 -3496 0
-1609 -1613 0
-1610 -1614 0
-1611 -1615 0
-1612 -1616 0
-1609 -1621 0
-1610 -1622 0
-1611 -1623 0
-1612 -1624 0
-1609 -1653 0
-1610 -1654 0
-1611 -1655 0
-1612 -1656 0
-1609 -1781 0
-1610 -1782 0
-1611 -1783 0
-1612 -1784 0
-1609 -1789 0
-1610 -1790 0
-1611 -1791 0
-1612 -1792 0
-1609 -2581 0
-1610 -2582 0
-1611 -2583 0
-1612 -2584 0
-1609 -2797 0
-1610 -2798 0
-1611 -2799 0
-1612 -2800 0
-1609 -3437 0
-1610 -3438 0
-1611 -3439 0
-1612 -3440 0
-1609 -3449 0
-1610 -3450 0
-1611 -3451 0
-1612 -3452 0
-1609 -3497 0
-1610 -3498 0
-1611 -3499 0
-1612 -3500 0
-1609 -3629 0
-1610 -3630 0
-1611 -3631 0
-1612 -3632 0
-1613 -1653 0
-1614 -1654 0
-1615 -1655 0
-1616 -1656 0
-1613 -2461 0
-1614 -2462 0
-1615 -2463 0
-1616 -2464 0
-1613 -2589 0
-1614 -2590 0
-1615 -2591 0
-1616 -2592 0
-1613 -3005 0
-1614 -3006 0
-1615 -3007 0
-1616 -3008 0
-1613 -3441 0
-1614 -3442 0
-1615 -3443 0
-1616 -3444 0
-1613 -3505 0
-1614 -3506 0
-1615 -3507 0
-1616 -3508 0
-1621 -1797 0
-1622 -1798 0
-1623 -1799 0
-1624 -1800 0
-1621 -1805 0
-1622 -1806 0
-1623 -1807 0
-1624 -1808 0
-1621 -2181 0
-1622 -2182 0
-1623 -2183 0
-1624 -2184 0
-1621 -2637 0
-1622 -2638 0
-1623 -2639 0
-1624 -2640 0
-1621 -3461 0
-1622 -3462 0
-1623 -3463 0
-1624 -3464 0
-1629 -1633 0
-1630 -1634 0
-1631 -1635 0
-1632 -1636 0
-1629 -1637 0
-1630 -1638 0
-1631 -1639 0
-1632 -1640 0
-1629 -3013 0
-1630 -3014 0
-1631 -3015 0
-1632 -3016 0
-1629 -3269 0
-1630 -3270 0
-1631 -3271 0
-1632 -3272 0
-1629 -3533 0
-1630 -3534 0
-1631 -3535 0
-1632 -3536 0
-1629 -3665 0
-1630 -3666 0
-1631 -3667 0
-1632 -3668 0
-1633 -1653 0
-1634 -1654 0
-1635 -1655 0
-1636 -1656 0
-1633 -2225 0
-1634 -2226 0
-1635 -2227 0
-1636 -2228 0
-1633 -3017 0
-1634 -3018 0
-1635 -3019 0
-1636 -3020 0
-1633 -3537 0
-1634 -3538 0
-1635 -3539 0
-1636 -3540 0
-1633 -3669 0
-1634 -3670 0
-1635 -3671 0
-1636 -3672 0
-1637 -1641 0
-1638 -1642 0
-1639 -1643 0
-1640 -1644 0
-1637 -1669 0
-1638 -1670 0
-1639 -1671 0
-1640 -1672 0
-1637 -2077 0
-1638 -2078 0
-1639 -2079 0
-1640 -2080 0
-1637 -2153 0
-1638 -2154 0
-1639 -2155 0
-1640 -2156 0
-1637 -2477 0
-1638 -2478 0
-1639 -2479 0
-1640 -2480 0
-1637 -2853 0
-1638 -2854 0
-1639 -2855 0
-1640 -2856 0
-1637 -3277 0
-1638 -3278 0
-1639 -3279 0
-1640 -3280 0
-1637 -3545 0
-1638 -3546 0
-1639 -3547 0
-1640 -3548 0
-1641 -1669 0
-1642 -1670 0
-1643 -1671 0
-1644 -1672 0
-1641 -2081 0
-1642 -2082 0
-1643 -2083 0
-1644 -2084 0
-1641 -2485 0
-1642 -2486 0
-1643 -2487 0
-1644 -2488 0
-1641 -2841 0
-1642 -2842 0
-1643 -2843 0
-1644 -2844 0
-1641 -3525 0
-1642 -3526 0
-1643 -3527 0
-1644 -3528 0
-1641 -3549 0
-1642 -3550 0
-1643 -3551 0
-1644 -3552 0
-1653 -2173 0
-1654 -2174 0
-1655 -2175 0
-1656 -2176 0
-1653 -2673 0
-1654 -2674 0
-1655 -2675 0
-1656 -2676 0
-1653 -3537 0
-1654 -3538 0
-1655 -3539 0
-1656 -3540 0
-1653 -3685 0
-1654 -3686 0
-1655 -3687 0
-1656 -3688 0
-1665 -1669 0
-1666 -1670 0
-1667 -1671 0
-1668 -1672 0
-1665 -1673 0
-1666 -1674 0
-1667 -1675 0
-1668 -1676 0
-1665 -2205 0
-1666 -2206 0
-1667 -2207 0
-1668 -2208 0
-1665 -2229 0
-1666 -2230 0
-1667 -2231 0
-1668 -2232 0
-1665 -2573 0
-1666 -2574 0
-1667 -2575 0
-1668 -2576 0
-1665 -3437 0
-1666 -3438 0
-1667 -3439 0
-1668 -3440 0
-1669 -1677 0
-1670 -1678 0
-1671 -1679 0
-1672 -1680 0
-1669 -2209 0
-1670 -2210 0
-1671 -2211 0
-1672 -2212 0
-1669 -2581 0
-1670 -2582 0
-1671 -2583 0
-1672 -2584 0
-1669 -2877 0
-1670 -2878 0
-1671 -2879 0
-1672 -2880 0
-1669 -3441 0
-1670 -3442 0
-1671 -3443 0
-1672 -3444 0
-1669 -3581 0
-1670 -3582 0
-1671 -3583 0
-1672 -3584 0
-1669 -3593 0
-1670 -3594 0
-1671 -3595 0
-1672 -3596 0
-1673 -1677 0
-1674 -1678 0
-1675 -1679 0
-1676 -1680 0
-1673 -1853 0
-1674 -1854 0
-1675 -1855 0
-1676 -1856 0
-1673 -2609 0
-1674 -2610 0
-1675 -2611 0
-1676 -2612 0
-1673 -2709 0
-1674 -2710 0
-1675 -2711 0
-1676 -2712 0
-1673 -2869 0
-1674 -2870 0
-1675 -2871 0
-1676 -2872 0
-1673 -3449 0
-1674 -3450 0
-1675 -3451 0
-1676 -3452 0
-1673 -3461 0
-1674 -3462 0
-1675 -3463 0
-1676 -3464 0
-1677 -2089 0
-1678 -2090 0
-1679 -2091 0
-1680 -2092 0
-1677 -2617 0
-1678 -2618 0
-1679 -2619 0
-1680 -2620 0
-1689 -1693 0
-1690 -1694 0
-1691 -1695 0
-1692 -1696 0
-1689 -1697 0
-1690 -1698 0
-1691 -1699 0
-1692 -1700 0
-1689 -1741 0
-1690 -1742 0
-1691 -1743 0
-1692 -1744 0
-1689 -2241 0
-1690 -2242 0
-1691 -2243 0
-1692 -2244 0
-1689 -3361 0
-1690 -3362 0
-1691 -3363 0
-1692 -3364 0
-1689 -3493 0
-1690 -3494 0
-1691 -3495 0
-1692 -3496 0
-1693 -1701 0
-1694 -1702 0
-1695 -1703 0
-1696 -1704 0
-1693 -1745 0
-1694 -1746 0
-1695 -1747 0
-1696 -1748 0
-1693 -2713 0
-1694 -2714 0
-1695 -2715 0
-1696 -2716 0
-1693 -3497 0
-1694 -3498 0
-1695 -3499 0
-1696 -3500 0
-1697 -1701 0
-1698 -1702 0
-1699 -1703 0
-1700 -1704 0
-1697 -1713 0
-1698 -1714 0
-1699 -1715 0
-1700 -1716 0
-1697 -1741 0
-1698 -1742 0
-1699 -1743 0
-1700 -1744 0
-1697 -1877 0
-1698 -1878 0
-1699 -1879 0
-1700 -1880 0
-1697 -2909 0
-1698 -2910 0
-1699 -2911 0
-1700 -2912 0
-1697 -3365 0
-1698 -3366 0
-1699 -3367 0
-1700 -3368 0
-1697 -3485 0
-1698 -3486 0
-1699 -3487 0
-1700 -3488 0
-1697 -3501 0
-1698 -3502 0
-1699 -3503 0
-1700 -3504 0
-1701 -1713 0
-1702 -1714 0
-1703 -1715 0
-1704 -1716 0
-1701 -1745 0
-1702 -1746 0
-1703 -1747 0
-1704 -1748 0
-1701 -2293 0
-1702 -2294 0
-1703 -2295 0
-1704 -2296 0
-1701 -2913 0
-1702 -2914 0
-1703 -2915 0
-1704 -2916 0
-1701 -3489 0
-1702 -3490 0
-1703 -3491 0
-1704 -3492 0
-1701 -3505 0
-1702 -3506 0
-1703 -3507 0
-1704 -3508 0
-1713 -1717 0
-1714 -1718 0
-1715 -1719 0
-1716 -1720 0
-1713 -1793 0
-1714 -1794 0
-1715 -1795 0
-1716 -1796 0
-1713 -1889 0
-1714 -1890 0
-1715 -1891 0
-1716 -1892 0
-1713 -2309 0
-1714 -2310 0
-1715 -2311 0
-1716 -2312 0
-1713 -3045 0
-1714 -3046 0
-1715 -3047 0
-1716 -3048 0
-1713 -3513 0
-1714 -3514 0
-1715 -3515 0
-1716 -3516 0
-1713 -3517 0
-1714 -3518 0
-1715 -3519 0
-1716 -3520 0
-1717 -1797 0
-1718 -1798 0
-1719 -1799 0
-1720 -1800 0
-1717 -2097 0
-1718 -2098 0
-1719 -2099 0
-1720 -2100 0
-1717 -2921 0
-1718 -2922 0
-1719 -2923 0
-1720 -2924 0
-1717 -3049 0
-1718 -3050 0
-1719 -3051 0
-1720 -3052 0
-1717 -3521 0
-1718 -3522 0
-1719 -3523 0
-1720 -3524 0
-1725 -1729 0
-1726 -1730 0
-1727 -1731 0
-1728 -1732 0
-1725 -1761 0
-1726 -1762 0
-1727 -1763 0
-1728 -1764 0
-1725 -1833 0
-1726 -1834 0
-1727 -1835 0
-1728 -1836 0
-1725 -2105 0
-1726 -2106 0
-1727 -2107 0
-1728 -2108 0
-1725 -2149 0
-1726 -2150 0
-1727 -2151 0
-1728 -2152 0
-1725 -2541 0
-1726 -2542 0
-1727 -2543 0
-1728 -2544 0
-1725 -3053 0
-1726 -3054 0
-1727 -3055 0
-1728 -3056 0
-1725 -3525 0
-1726 -3526 0
-1727 -3527 0
-1728 -3528 0
-1729 -1777 0
-1730 -1778 0
-1731 -1779 0
-1732 -1780 0
-1729 -1837 0
-1730 -1838 0
-1731 -1839 0
-1732 -1840 0
-1729 -2113 0
-1730 -2114 0
-1731 -2115 0
-1732 -2116 0
-1729 -2153 0
-1730 -2154 0
-1731 -2155 0
-1732 -2156 0
-1729 -2545 0
-1730 -2546 0
-1731 -2547 0
-1732 -2548 0
-1729 -3465 0
-1730 -3466 0
-1731 -3467 0
-1732 -3468 0
-1729 -3525 0
-1730 -3526 0
-1731 -3527 0
-1732 -3528 0
-1733 -1737 0
-1734 -1738 0
-1735 -1739 0
-1736 -1740 0
-1733 -1761 0
-1734 -1762 0
-1735 -1763 0
-1736 -1764 0
-1733 -1785 0
-1734 -1786 0
-1735 -1787 0
-1736 -1788 0
-1733 -1789 0
-1734 -1790 0
-1735 -1791 0
-1736 -1792 0
-1733 -2549 0
-1734 -2550 0
-1735 -2551 0
-1736 -2552 0
-1733 -2949 0
-1734 -2950 0
-1735 -2951 0
-1736 -2952 0
-1733 -3529 0
-1734 -3530 0
-1735 -3531 0
-1736 -3532 0
-1737 -1777 0
-1738 -1778 0
-1739 -1779 0
-1740 -1780 0
-1737 -2553 0
-1738 -2554 0
-1739 -2555 0
-1740 -2556 0
-1737 -2961 0
-1738 -2962 0
-1739 -2963 0
-1740 -2964 0
-1737 -3529 0
-1738 -3530 0
-1739 -3531 0
-1740 -3532 0
-1741 -1745 0
-1742 -1746 0
-1743 -1747 0
-1744 -1748 0
-1741 -1749 0
-1742 -1750 0
-1743 -1751 0
-1744 -1752 0
-1741 -1757 0
-1742 -1758 0
-1743 -1759 0
-1744 -1760 0
-1741 -1765 0
-1742 -1766 0
-1743 -1767 0
-1744 -1768 0
-1741 -1793 0
-1742 -1794 0
-1743 -1795 0
-1744 -1796 0
-1741 -1857 0
-1742 -1858 0
-1743 -1859 0
-1744 -1860 0
-1741 -1917 0
-1742 -1918 0
-1743 -1919 0
-1744 -1920 0
-1741 -3061 0
-1742 -3062 0
-1743 -3063 0
-1744 -3064 0
-1741 -3377 0
-1742 -3378 0
-1743 -3379 0
-1744 -3380 0
-1741 -3533 0
-1742 -3534 0
-1743 -3535 0
-1744 -3536 0
-1745 -1793 0
-1746 -1794 0
-1747 -1795 0
-1748 -1796 0
-1745 -2333 0
-1746 -2334 0
-1747 -2335 0
-1748 -2336 0
-1745 -3537 0
-1746 -3538 0
-1747 -3539 0
-1748 -3540 0
-1749 -1761 0
-1750 -1762 0
-1751 -1763 0
-1752 -1764 0
-1749 -1769 0
-1750 -1770 0
-1751 -1771 0
-1752 -1772 0
-1749 -1797 0
-1750 -1798 0
-1751 -1799 0
-1752 -1800 0
-1749 -2561 0
-1750 -2562 0
-1751 -2563 0
-1752 -2564 0
-1749 -3065 0
-1750 -3066 0
-1751 -3067 0
-1752 -3068 0
-1749 -3541 0
-1750 -3542 0
-1751 -3543 0
-1752 -3544 0
-1757 -1761 0
-1758 -1762 0
-1759 -1763 0
-1760 -1764 0
-1757 -1773 0
-1758 -1774 0
-1759 -1775 0
-1760 -1776 0
-1757 -1841 0
-1758 -1842 0
-1759 -1843 0
-1760 -1844 0
-1757 -1857 0
-1758 -1858 0
-1759 -1859 0
-1760 -1860 0
-1757 -2125 0
-1758 -2126 0
-1759 -2127 0
-1760 -2128 0
-1757 -2245 0
-1758 -2246 0
-1759 -2247 0
-1760 -2248 0
-1757 -2569 0
-1758 -2570 0
-1759 -2571 0
-1760 -2572 0
-1757 -2965 0
-1758 -2966 0
-1759 -2967 0
-1760 -2968 0
-1757 -3545 0
-1758 -3546 0
-1759 -3547 0
-1760 -3548 0
-1761 -1777 0
-1762 -1778 0
-1763 -1779 0
-1764 -1780 0
-1761 -1801 0
-1762 -1802 0
-1763 -1803 0
-1764 -1804 0
-1761 -1805 0
-1762 -1806 0
-1763 -1807 0
-1764 -1808 0
-1761 -1841 0
-1762 -1842 0
-1763 -1843 0
-1764 -1844 0
-1761 -2133 0
-1762 -2134 0
-1763 -2135 0
-1764 -2136 0
-1761 -2161 0
-1762 -2162 0
-1763 -2163 0
-1764 -2164 0
-1761 -2581 0
-1762 -2582 0
-1763 -2583 0
-1764 -2584 0
-1761 -3549 0
-1762 -3550 0
-1763 -3551 0
-1764 -3552 0
-1765 -1769 0
-1766 -1770 0
-1767 -1771 0
-1768 -1772 0
-1765 -1773 0
-1766 -1774 0
-1767 -1775 0
-1768 -1776 0
-1765 -1925 0
-1766 -1926 0
-1767 -1927 0
-1768 -1928 0
-1765 -3533 0
-1766 -3534 0
-1767 -3535 0
-1768 -3536 0
-1769 -1777 0
-1770 -1778 0
-1771 -1779 0
-1772 -1780 0
-1769 -1813 0
-1770 -1814 0
-1771 -1815 0
-1772 -1816 0
-1769 -2601 0
-1770 -2602 0
-1771 -2603 0
-1772 -2604 0
-1769 -3541 0
-1770 -3542 0
-1771 -3543 0
-1772 -3544 0
-1773 -1777 0
-1774 -1778 0
-1775 -1779 0
-1776 -1780 0
-1773 -1845 0
-1774 -1846 0
-1775 -1847 0
-1776 -1848 0
-1773 -2137 0
-1774 -2138 0
-1775 -2139 0
-1776 -2140 0
-1773 -2605 0
-1774 -2606 0
-1775 -2607 0
-1776 -2608 0
-1773 -2969 0
-1774 -2970 0
-1775 -2971 0
-1776 -2972 0
-1773 -3545 0
-1774 -3546 0
-1775 -3547 0
-1776 -3548 0
-1777 -1821 0
-1778 -1822 0
-1779 -1823 0
-1780 -1824 0
-1777 -1845 0
-1778 -1846 0
-1779 -1847 0
-1780 -1848 0
-1777 -2177 0
-1778 -2178 0
-1779 -2179 0
-1780 -2180 0
-1777 -2617 0
-1778 -2618 0
-1779 -2619 0
-1780 -2620 0
-1777 -2897 0
-1778 -2898 0
-1779 -2899 0
-1780 -2900 0
-1777 -3549 0
-1778 -3550 0
-1779 -3551 0
-1780 -3552 0
-1781 -1789 0
-1782 -1790 0
-1783 -1791 0
-1784 -1792 0
-1781 -1797 0
-1782 -1798 0
-1783 -1799 0
-1784 -1800 0
-1781 -2733 0
-1782 -2734 0
-1783 -2735 0
-1784 -2736 0
-1781 -3069 0
-1782 -3070 0
-1783 -3071 0
-1784 -3072 0
-1781 -3553 0
-1782 -3554 0
-1783 -3555 0
-1784 -3556 0
-1781 -3721 0
-1782 -3722 0
-1783 -3723 0
-1784 -3724 0
-1785 -1789 0
-1786 -1790 0
-1787 -1791 0
-1788 -1792 0
-1785 -1801 0
-1786 -1802 0
-1787 -1803 0
-1788 -1804 0
-1785 -2645 0
-1786 -2646 0
-1787 -2647 0
-1788 -2648 0
-1785 -2901 0
-1786 -2902 0
-1787 -2903 0
-1788 -2904 0
-1789 -1805 0
-1790 -1806 0
-1791 -1807 0
-1792 -1808 0
-1789 -2257 0
-1790 -2258 0
-1791 -2259 0
-1792 -2260 0
-1789 -2737 0
-1790 -2738 0
-1791 -2739 0
-1792 -2740 0
-1789 -2953 0
-1790 -2954 0
-1791 -2955 0
-1792 -2956 0
-1789 -3077 0
-1790 -3078 0
-1791 -3079 0
-1792 -3080 0
-1789 -3561 0
-1790 -3562 0
-1791 -3563 0
-1792 -3564 0
-1793 -1797 0
-1794 -1798 0
-1795 -1799 0
-1796 -1800 0
-1793 -1953 0
-1794 -1954 0
-1795 -1955 0
-1796 -1956 0
-1793 -2273 0
-1794 -2274 0
-1795 -2275 0
-1796 -2276 0
-1793 -2373 0
-1794 -2374 0
-1795 -2375 0
-1796 -2376 0
-1793 -3385 0
-1794 -3386 0
-1795 -3387 0
-1796 -3388 0
-1793 -3565 0
-1794 -3566 0
-1795 -3567 0
-1796 -3568 0
-1797 -1805 0
-1798 -1806 0
-1799 -1807 0
-1800 -1808 0
-1797 -1813 0
-1798 -1814 0
-1799 -1815 0
-1800 -1816 0
-1797 -2281 0
-1798 -2282 0
-1799 -2283 0
-1800 -2284 0
-1797 -2913 0
-1798 -2914 0
-1799 -2915 0
-1800 -2916 0
-1797 -3093 0
-1798 -3094 0
-1799 -3095 0
-1800 -3096 0
-1797 -3389 0
-1798 -3390 0
-1799 -3391 0
-1800 -3392 0
-1797 -3569 0
-1798 -3570 0
-1799 -3571 0
-1800 -3572 0
-1801 -1805 0
-1802 -1806 0
-1803 -1807 0
-1804 -1808 0
-1801 -2145 0
-1802 -2146 0
-1803 -2147 0
-1804 -2148 0
-1801 -2653 0
-1802 -2654 0
-1803 -2655 0
-1804 -2656 0
-1801 -2917 0
-1802 -2918 0
-1803 -2919 0
-1804 -2920 0
-1801 -3573 0
-1802 -3574 0
-1803 -3575 0
-1804 -3576 0
-1805 -1821 0
-1806 -1822 0
-1807 -1823 0
-1808 -1824 0
-1805 -2657 0
-1806 -2658 0
-1807 -2659 0
-1808 -2660 0
-1805 -2969 0
-1806 -2970 0
-1807 -2971 0
-1808 -2972 0
-1805 -3577 0
-1806 -3578 0
-1807 -3579 0
-1808 -3580 0
-1813 -1821 0
-1814 -1822 0
-1815 -1823 0
-1816 -1824 0
-1813 -3397 0
-1814 -3398 0
-1815 -3399 0
-1816 -3400 0
-1813 -3569 0
-1814 -3570 0
-1815 -3571 0
-1816 -3572 0
-1821 -2189 0
-1822 -2190 0
-1823 -2191 0
-1824 -2192 0
-1821 -2665 0
-1822 -2666 0
-1823 -2667 0
-1824 -2668 0
-1821 -3405 0
-1822 -3406 0
-1823 -3407 0
-1824 -3408 0
-1821 -3577 0
-1822 -3578 0
-1823 -3579 0
-1824 -3580 0
-1829 -1837 0
-1830 -1838 0
-1831 -1839 0
-1832 -1840 0
-1829 -2985 0
-1830 -2986 0
-1831 -2987 0
-1832 -2988 0
-1829 -3505 0
-1830 -3506 0
-1831 -3507 0
-1832 -3508 0
-1833 -1837 0
-1834 -1838 0
-1835 -1839 0
-1836 -1840 0
-1833 -1841 0
-1834 -1842 0
-1835 -1843 0
-1836 -1844 0
-1833 -2713 0
-1834 -2714 0
-1835 -2715 0
-1836 -2716 0
-1833 -3121 0
-1834 -3122 0
-1835 -3123 0
-1836 -3124 0
-1833 -3489 0
-1834 -3490 0
-1835 -3491 0
-1836 -3492 0
-1833 -3581 0
-1834 -3582 0
-1835 -3583 0
-1836 -3584 0
-1837 -1845 0
-1838 -1846 0
-1839 -1847 0
-1840 -1848 0
-1837 -2125 0
-1838 -2126 0
-1839 -2127 0
-1840 -2128 0
-1837 -2201 0
-1838 -2202 0
-1839 -2203 0
-1840 -2204 0
-1837 -2413 0
-1838 -2414 0
-1839 -2415 0
-1840 -2416 0
-1837 -2717 0
-1838 -2718 0
-1839 -2719 0
-1840 -2720 0
-1837 -3425 0
-1838 -3426 0
-1839 -3427 0
-1840 -3428 0
-1837 -3505 0
-1838 -3506 0
-1839 -3507 0
-1840 -3508 0
-1837 -3581 0
-1838 -3582 0
-1839 -3583 0
-1840 -3584 0
-1841 -1845 0
-1842 -1846 0
-1843 -1847 0
-1844 -1848 0
-1841 -2301 0
-1842 -2302 0
-1843 -2303 0
-1844 -2304 0
-1841 -2689 0
-1842 -2690 0
-1843 -2691 0
-1844 -2692 0
-1841 -2721 0
-1842 -2722 0
-1843 -2723 0
-1844 -2724 0
-1841 -3593 0
-1842 -3594 0
-1843 -3595 0
-1844 -3596 0
-1845 -2029 0
-1846 -2030 0
-1847 -2031 0
-1848 -2032 0
-1845 -2217 0
-1846 -2218 0
-1847 -2219 0
-1848 -2220 0
-1845 -2697 0
-1846 -2698 0
-1847 -2699 0
-1848 -2700 0
-1845 -2725 0
-1846 -2726 0
-1847 -2727 0
-1848 -2728 0
-1845 -3593 0
-1846 -3594 0
-1847 -3595 0
-1848 -3596 0
-1853 -2237 0
-1854 -2238 0
-1855 -2239 0
-1856 -2240 0
-1853 -2985 0
-1854 -2986 0
-1855 -2987 0
-1856 -2988 0
-1853 -3553 0
-1854 -3554 0
-1855 -3555 0
-1856 -3556 0
-1853 -3569 0
-1854 -3570 0
-1855 -3571 0
-1856 -3572 0
-1857 -2105 0
-1858 -2106 0
-1859 -2107 0
-1860 -2108 0
-1857 -3597 0
-1858 -3598 0
-1859 -3599 0
-1860 -3600 0
-1865 -2817 0
-1866 -2818 0
-1867 -2819 0
-1868 -2820 0
-1865 -3013 0
-1866 -3014 0
-1867 -3015 0
-1868 -3016 0
-1865 -3617 0
-1866 -3618 0
-1867 -3619 0
-1868 -3620 0
-1865 -3629 0
-1866 -3630 0
-1867 -3631 0
-1868 -3632 0
-1877 -1881 0
-1878 -1882 0
-1879 -1883 0
-1880 -1884 0
-1877 -1885 0
-1878 -1886 0
-1879 -1887 0
-1880 -1888 0
-1877 -1889 0
-1878 -1890 0
-1879 -1891 0
-1880 -1892 0
-1877 -1917 0
-1878 -1918 0
-1879 -1919 0
-1880 -1920 0
-1877 -1921 0
-1878 -1922 0
-1879 -1923 0
-1880 -1924 0
-1877 -3041 0
-1878 -3042 0
-1879 -3043 0
-1880 -3044 0
-1877 -3605 0
-1878 -3606 0
-1879 -3607 0
-1880 -3608 0
-1881 -1893 0
-1882 -1894 0
-1883 -1895 0
-1884 -1896 0
-1881 -1925 0
-1882 -1926 0
-1883 -1927 0
-1884 -1928 0
-1881 -1929 0
-1882 -1930 0
-1883 -1931 0
-1884 -1932 0
-1881 -2241 0
-1882 -2242 0
-1883 -2243 0
-1884 -2244 0
-1881 -3049 0
-1882 -3050 0
-1883 -3051 0
-1884 -3052 0
-1881 -3465 0
-1882 -3466 0
-1883 -3467 0
-1884 -3468 0
-1881 -3605 0
-1882 -3606 0
-1883 -3607 0
-1884 -3608 0
-1885 -1901 0
-1886 -1902 0
-1887 -1903 0
-1888 -1904 0
-1885 -2293 0
-1886 -2294 0
-1887 -2295 0
-1888 -2296 0
-1885 -2761 0
-1886 -2762 0
-1887 -2763 0
-1888 -2764 0
-1885 -3057 0
-1886 -3058 0
-1887 -3059 0
-1888 -3060 0
-1885 -3613 0
-1886 -3614 0
-1887 -3615 0
-1888 -3616 0
-1889 -1893 0
-1890 -1894 0
-1891 -1895 0
-1892 -1896 0
-1889 -1901 0
-1890 -1902 0
-1891 -1903 0
-1892 -1904 0
-1889 -1953 0
-1890 -1954 0
-1891 -1955 0
-1892 -1956 0
-1889 -1961 0
-1890 -1962 0
-1891 -1963 0
-1892 -1964 0
-1889 -2505 0
-1890 -2506 0
-1891 -2507 0
-1892 -2508 0
-1889 -3045 0
-1890 -3046 0
-1891 -3047 0
-1892 -3048 0
-1889 -3617 0
-1890 -3618 0
-1891 -3619 0
-1892 -3620 0
-1893 -1913 0
-1894 -1914 0
-1895 -1915 0
-1896 -1916 0
-1893 -1977 0
-1894 -1978 0
-1895 -1979 0
-1896 -1980 0
-1893 -1985 0
-1894 -1986 0
-1895 -1987 0
-1896 -1988 0
-1893 -2513 0
-1894 -2514 0
-1895 -2515 0
-1896 -2516 0
-1893 -3617 0
-1894 -3618 0
-1895 -3619 0
-1896 -3620 0
-1897 -1901 0
-1898 -1902 0
-1899 -1903 0
-1900 -1904 0
-1897 -2097 0
-1898 -2098 0
-1899 -2099 0
-1900 -2100 0
-1897 -2461 0
-1898 -2462 0
-1899 -2463 0
-1900 -2464 0
-1897 -2909 0
-1898 -2910 0
-1899 -2911 0
-1900 -2912 0
-1897 -3621 0
-1898 -3622 0
-1899 -3623 0
-1900 -3624 0
-1897 -3625 0
-1898 -3626 0
-1899 -3627 0
-1900 -3628 0
-1901 -1913 0
-1902 -1914 0
-1903 -1915 0
-1904 -1916 0
-1901 -2001 0
-1902 -2002 0
-1903 -2003 0
-1904 -2004 0
-1901 -2097 0
-1902 -2098 0
-1903 -2099 0
-1904 -2100 0
-1901 -2313 0
-1902 -2314 0
-1903 -2315 0
-1904 -2316 0
-1901 -2917 0
-1902 -2918 0
-1903 -2919 0
-1904 -2920 0
-1901 -3061 0
-1902 -3062 0
-1903 -3063 0
-1904 -3064 0
-1901 -3237 0
-1902 -3238 0
-1903 -3239 0
-1904 -3240 0
-1901 -3629 0
-1902 -3630 0
-1903 -3631 0
-1904 -3632 0
-1913 -2005 0
-1914 -2006 0
-1915 -2007 0
-1916 -2008 0
-1913 -2925 0
-1914 -2926 0
-1915 -2927 0
-1916 -2928 0
-1913 -3245 0
-1914 -3246 0
-1915 -3247 0
-1916 -3248 0
-1913 -3629 0
-1914 -3630 0
-1915 -3631 0
-1916 -3632 0
-1917 -1921 0
-1918 -1922 0
-1919 -1923 0
-1920 -1924 0
-1917 -1925 0
-1918 -1926 0
-1919 -1927 0
-1920 -1928 0
-1917 -1949 0
-1918 -1950 0
-1919 -1951 0
-1920 -1952 0
-1917 -1953 0
-1918 -1954 0
-1919 -1955 0
-1920 -1956 0
-1917 -2013 0
-1918 -2014 0
-1919 -2015 0
-1920 -2016 0
-1917 -2105 0
-1918 -2106 0
-1919 -2107 0
-1920 -2108 0
-1917 -2317 0
-1918 -2318 0
-1919 -2319 0
-1920 -2320 0
-1917 -3237 0
-1918 -3238 0
-1919 -3239 0
-1920 -3240 0
-1917 -3633 0
-1918 -3634 0
-1919 -3635 0
-1920 -3636 0
-1917 -3797 0
-1918 -3798 0
-1919 -3799 0
-1920 -3800 0
-1921 -1929 0
-1922 -1930 0
-1923 -1931 0
-1924 -1932 0
-1921 -1957 0
-1922 -1958 0
-1923 -1959 0
-1924 -1960 0
-1921 -1961 0
-1922 -1962 0
-1923 -1963 0
-1924 -1964 0
-1921 -2525 0
-1922 -2526 0
-1923 -2527 0
-1924 -2528 0
-1921 -3241 0
-1922 -3242 0
-1923 -3243 0
-1924 -3244 0
-1921 -3637 0
-1922 -3638 0
-1923 -3639 0
-1924 -3640 0
-1925 -1929 0
-1926 -1930 0
-1927 -1931 0
-1928 -1932 0
-1925 -1973 0
-1926 -1974 0
-1927 -1975 0
-1928 -1976 0
-1925 -1977 0
-1926 -1978 0
-1927 -1979 0
-1928 -1980 0
-1925 -2021 0
-1926 -2022 0
-1927 -2023 0
-1928 -2024 0
-1925 -2109 0
-1926 -2110 0
-1927 -2111 0
-1928 -2112 0
-1925 -2113 0
-1926 -2114 0
-1927 -2115 0
-1928 -2116 0
-1925 -3093 0
-1926 -3094 0
-1927 -3095 0
-1928 -3096 0
-1925 -3245 0
-1926 -3246 0
-1927 -3247 0
-1928 -3248 0
-1925 -3633 0
-1926 -3634 0
-1927 -3635 0
-1928 -3636 0
-1925 -3641 0
-1926 -3642 0
-1927 -3643 0
-1928 -3644 0
-1925 -3801 0
-1926 -3802 0
-1927 -3803 0
-1928 -3804 0
-1929 -1981 0
-1930 -1982 0
-1931 -1983 0
-1932 -1984 0
-1929 -1985 0
-1930 -1986 0
-1931 -1987 0
-1932 -1988 0
-1929 -2533 0
-1930 -2534 0
-1931 -2535 0
-1932 -2536 0
-1929 -3097 0
-1930 -3098 0
-1931 -3099 0
-1932 -3100 0
-1929 -3637 0
-1930 -3638 0
-1931 -3639 0
-1932 -3640 0
-1937 -1941 0
-1938 -1942 0
-1939 -1943 0
-1940 -1944 0
-1937 -1961 0
-1938 -1962 0
-1939 -1963 0
-1940 -1964 0
-1937 -2549 0
-1938 -2550 0
-1939 -2551 0
-1940 -2552 0
-1937 -3649 0
-1938 -3650 0
-1939 -3651 0
-1940 -3652 0
-1941 -1969 0
-1942 -1970 0
-1943 -1971 0
-1944 -1972 0
-1941 -2585 0
-1942 -2586 0
-1943 -2587 0
-1944 -2588 0
-1941 -3073 0
-1942 -3074 0
-1943 -3075 0
-1944 -3076 0
-1941 -3717 0
-1942 -3718 0
-1943 -3719 0
-1944 -3720 0
-1949 -1953 0
-1950 -1954 0
-1951 -1955 0
-1952 -1956 0
-1949 -1957 0
-1950 -1958 0
-1951 -1959 0
-1952 -1960 0
-1949 -1973 0
-1950 -1974 0
-1951 -1975 0
-1952 -1976 0
-1949 -2053 0
-1950 -2054 0
-1951 -2055 0
-1952 -2056 0
-1949 -2477 0
-1950 -2478 0
-1951 -2479 0
-1952 -2480 0
-1949 -3657 0
-1950 -3658 0
-1951 -3659 0
-1952 -3660 0
-1953 -1961 0
-1954 -1962 0
-1955 -1963 0
-1956 -1964 0
-1953 -1977 0
-1954 -1978 0
-1955 -1979 0
-1956 -1980 0
-1953 -2157 0
-1954 -2158 0
-1955 -2159 0
-1956 -2160 0
-1953 -2573 0
-1954 -2574 0
-1955 -2575 0
-1956 -2576 0
-1953 -3661 0
-1954 -3662 0
-1955 -3663 0
-1956 -3664 0
-1957 -1961 0
-1958 -1962 0
-1959 -1963 0
-1960 -1964 0
-1957 -1981 0
-1958 -1982 0
-1959 -1983 0
-1960 -1984 0
-1957 -2149 0
-1958 -2150 0
-1959 -2151 0
-1960 -2152 0
-1957 -2353 0
-1958 -2354 0
-1959 -2355 0
-1960 -2356 0
-1957 -2577 0
-1958 -2578 0
-1959 -2579 0
-1960 -2580 0
-1957 -3485 0
-1958 -3486 0
-1959 -3487 0
-1960 -3488 0
-1957 -3665 0
-1958 -3666 0
-1959 -3667 0
-1960 -3668 0
-1961 -1969 0
-1962 -1970 0
-1963 -1971 0
-1964 -1972 0
-1961 -1985 0
-1962 -1986 0
-1963 -1987 0
-1964 -1988 0
-1961 -2001 0
-1962 -2002 0
-1963 -2003 0
-1964 -2004 0
-1961 -2581 0
-1962 -2582 0
-1963 -2583 0
-1964 -2584 0
-1961 -3489 0
-1962 -3490 0
-1963 -3491 0
-1964 -3492 0
-1961 -3669 0
-1962 -3670 0
-1963 -3671 0
-1964 -3672 0
-1969 -2269 0
-1970 -2270 0
-1971 -2271 0
-1972 -2272 0
-1969 -2593 0
-1970 -2594 0
-1971 -2595 0
-1972 -2596 0
-1969 -3097 0
-1970 -3098 0
-1971 -3099 0
-1972 -3100 0
-1969 -3673 0
-1970 -3674 0
-1971 -3675 0
-1972 -3676 0
-1973 -1977 0
-1974 -1978 0
-1975 -1979 0
-1976 -1980 0
-1973 -1981 0
-1974 -1982 0
-1975 -1983 0
-1976 -1984 0
-1973 -1989 0
-1974 -1990 0
-1975 -1991 0
-1976 -1992 0
-1973 -2057 0
-1974 -2058 0
-1975 -2059 0
-1976 -2060 0
-1973 -2489 0
-1974 -2490 0
-1975 -2491 0
-1976 -2492 0
-1973 -3045 0
-1974 -3046 0
-1975 -3047 0
-1976 -3048 0
-1973 -3477 0
-1974 -3478 0
-1975 -3479 0
-1976 -3480 0
-1973 -3493 0
-1974 -3494 0
-1975 -3495 0
-1976 -3496 0
-1973 -3657 0
-1974 -3658 0
-1975 -3659 0
-1976 -3660 0
-1977 -1985 0
-1978 -1986 0
-1979 -1987 0
-1980 -1988 0
-1977 -2173 0
-1978 -2174 0
-1979 -2175 0
-1980 -2176 0
-1977 -2609 0
-1978 -2610 0
-1979 -2611 0
-1980 -2612 0
-1977 -2937 0
-1978 -2938 0
-1979 -2939 0
-1980 -2940 0
-1977 -3497 0
-1978 -3498 0
-1979 -3499 0
-1980 -3500 0
-1977 -3661 0
-1978 -3662 0
-1979 -3663 0
-1980 -3664 0
-1981 -1985 0
-1982 -1986 0
-1983 -1987 0
-1984 -1988 0
-1981 -2065 0
-1982 -2066 0
-1983 -2067 0
-1984 -2068 0
-1981 -2153 0
-1982 -2154 0
-1983 -2155 0
-1984 -2156 0
-1981 -2613 0
-1982 -2614 0
-1983 -2615 0
-1984 -2616 0
-1981 -3501 0
-1982 -3502 0
-1983 -3503 0
-1984 -3504 0
-1981 -3665 0
-1982 -3666 0
-1983 -3667 0
-1984 -3668 0
-1985 -2005 0
-1986 -2006 0
-1987 -2007 0
-1988 -2008 0
-1985 -2273 0
-1986 -2274 0
-1987 -2275 0
-1988 -2276 0
-1985 -2617 0
-1986 -2618 0
-1987 -2619 0
-1988 -2620 0
-1985 -3505 0
-1986 -3506 0
-1987 -3507 0
-1988 -3508 0
-1985 -3669 0
-1986 -3670 0
-1987 -3671 0
-1988 -3672 0
-1989 -2057 0
-1990 -2058 0
-1991 -2059 0
-1992 -2060 0
-1989 -2493 0
-1990 -2494 0
-1991 -2495 0
-1992 -2496 0
-1989 -3049 0
-1990 -3050 0
-1991 -3051 0
-1992 -3052 0
-2001 -2005 0
-2002 -2006 0
-2003 -2007 0
-2004 -2008 0
-2001 -2165 0
-2002 -2166 0
-2003 -2167 0
-2004 -2168 0
-2001 -2381 0
-2002 -2382 0
-2003 -2383 0
-2004 -2384 0
-2001 -2469 0
-2002 -2470 0
-2003 -2471 0
-2004 -2472 0
-2001 -2645 0
-2002 -2646 0
-2003 -2647 0
-2004 -2648 0
-2001 -3249 0
-2002 -3250 0
-2003 -3251 0
-2004 -3252 0
-2001 -3685 0
-2002 -3686 0
-2003 -3687 0
-2004 -3688 0
-2005 -2181 0
-2006 -2182 0
-2007 -2183 0
-2008 -2184 0
-2005 -2649 0
-2006 -2650 0
-2007 -2651 0
-2008 -2652 0
-2005 -3685 0
-2006 -3686 0
-2007 -3687 0
-2008 -3688 0
-2009 -2089 0
-2010 -2090 0
-2011 -2091 0
-2012 -2092 0
-2009 -2093 0
-2010 -2094 0
-2011 -2095 0
-2012 -2096 0
-2009 -2493 0
-2010 -2494 0
-2011 -2495 0
-2012 -2496 0
-2009 -3085 0
-2010 -3086 0
-2011 -3087 0
-2012 -3088 0
-2009 -3529 0
-2010 -3530 0
-2011 -3531 0
-2012 -3532 0
-2009 -3737 0
-2010 -3738 0
-2011 -3739 0
-2012 -3740 0
-2013 -2021 0
-2014 -2022 0
-2015 -2023 0
-2016 -2024 0
-2013 -2053 0
-2014 -2054 0
-2015 -2055 0
-2016 -2056 0
-2013 -2117 0
-2014 -2118 0
-2015 -2119 0
-2016 -2120 0
-2013 -2529 0
-2014 -2530 0
-2015 -2531 0
-2016 -2532 0
-2013 -3689 0
-2014 -3690 0
-2015 -3691 0
-2016 -3692 0
-2017 -2021 0
-2018 -2022 0
-2019 -2023 0
-2020 -2024 0
-2017 -2025 0
-2018 -2026 0
-2019 -2027 0
-2020 -2028 0
-2017 -2057 0
-2018 -2058 0
-2019 -2059 0
-2020 -2060 0
-2017 -2129 0
-2018 -2130 0
-2019 -2131 0
-2020 -2132 0
-2017 -2533 0
-2018 -2534 0
-2019 -2535 0
-2020 -2536 0
-2017 -3541 0
-2018 -3542 0
-2019 -3543 0
-2020 -3544 0
-2021 -2029 0
-2022 -2030 0
-2023 -2031 0
-2024 -2032 0
-2021 -2057 0
-2022 -2058 0
-2023 -2059 0
-2024 -2060 0
-2021 -2133 0
-2022 -2134 0
-2023 -2135 0
-2024 -2136 0
-2021 -2333 0
-2022 -2334 0
-2023 -2335 0
-2024 -2336 0
-2021 -2425 0
-2022 -2426 0
-2023 -2427 0
-2024 -2428 0
-2021 -2537 0
-2022 -2538 0
-2023 -2539 0
-2024 -2540 0
-2021 -3689 0
-2022 -3690 0
-2023 -3691 0
-2024 -3692 0
-2021 -3693 0
-2022 -3694 0
-2023 -3695 0
-2024 -3696 0
-2021 -3837 0
-2022 -3838 0
-2023 -3839 0
-2024 -3840 0
-2025 -2029 0
-2026 -2030 0
-2027 -2031 0
-2028 -2032 0
-2025 -2069 0
-2026 -2070 0
-2027 -2071 0
-2028 -2072 0
-2025 -2129 0
-2026 -2130 0
-2027 -2131 0
-2028 -2132 0
-2025 -2413 0
-2026 -2414 0
-2027 -2415 0
-2028 -2416 0
-2025 -2865 0
-2026 -2866 0
-2027 -2867 0
-2028 -2868 0
-2025 -3549 0
-2026 -3550 0
-2027 -3551 0
-2028 -3552 0
-2025 -3613 0
-2026 -3614 0
-2027 -3615 0
-2028 -3616 0
-2029 -2069 0
-2030 -2070 0
-2031 -2071 0
-2032 -2072 0
-2029 -2133 0
-2030 -2134 0
-2031 -2135 0
-2032 -2136 0
-2029 -2429 0
-2030 -2430 0
-2031 -2431 0
-2032 -2432 0
-2029 -2869 0
-2030 -2870 0
-2031 -2871 0
-2032 -2872 0
-2037 -2045 0
-2038 -2046 0
-2039 -2047 0
-2040 -2048 0
-2037 -2057 0
-2038 -2058 0
-2039 -2059 0
-2040 -2060 0
-2037 -2085 0
-2038 -2086 0
-2039 -2087 0
-2040 -2088 0
-2037 -2553 0
-2038 -2554 0
-2039 -2555 0
-2040 -2556 0
-2037 -2981 0
-2038 -2982 0
-2039 -2983 0
-2040 -2984 0
-2037 -3553 0
-2038 -3554 0
-2039 -3555 0
-2040 -3556 0
-2037 -3625 0
-2038 -3626 0
-2039 -3627 0
-2040 -3628 0
-2037 -3841 0
-2038 -3842 0
-2039 -3843 0
-2040 -3844 0
-2045 -2049 0
-2046 -2050 0
-2047 -2051 0
-2048 -2052 0
-2045 -2069 0
-2046 -2070 0
-2047 -2071 0
-2048 -2072 0
-2045 -2089 0
-2046 -2090 0
-2047 -2091 0
-2048 -2092 0
-2045 -2513 0
-2046 -2514 0
-2047 -2515 0
-2048 -2516 0
-2045 -2989 0
-2046 -2990 0
-2047 -2991 0
-2048 -2992 0
-2045 -3177 0
-2046 -3178 0
-2047 -3179 0
-2048 -3180 0
-2045 -3561 0
-2046 -3562 0
-2047 -3563 0
-2048 -3564 0
-2045 -3629 0
-2046 -3630 0
-2047 -3631 0
-2048 -3632 0
-2049 -2089 0
-2050 -2090 0
-2051 -2091 0
-2052 -2092 0
-2049 -2517 0
-2050 -2518 0
-2051 -2519 0
-2052 -2520 0
-2049 -2905 0
-2050 -2906 0
-2051 -2907 0
-2052 -2908 0
-2049 -3181 0
-2050 -3182 0
-2051 -3183 0
-2052 -3184 0
-2049 -3289 0
-2050 -3290 0
-2051 -3291 0
-2052 -3292 0
-2053 -2057 0
-2054 -2058 0
-2055 -2059 0
-2056 -2060 0
-2053 -2581 0
-2054 -2582 0
-2055 -2583 0
-2056 -2584 0
-2053 -3621 0
-2054 -3622 0
-2055 -3623 0
-2056 -3624 0
-2053 -3701 0
-2054 -3702 0
-2055 -3703 0
-2056 -3704 0
-2057 -2065 0
-2058 -2066 0
-2059 -2067 0
-2060 -2068 0
-2057 -2069 0
-2058 -2070 0
-2059 -2071 0
-2060 -2072 0
-2057 -2145 0
-2058 -2146 0
-2059 -2147 0
-2060 -2148 0
-2057 -2205 0
-2058 -2206 0
-2059 -2207 0
-2060 -2208 0
-2057 -2373 0
-2058 -2374 0
-2059 -2375 0
-2060 -2376 0
-2057 -2617 0
-2058 -2618 0
-2059 -2619 0
-2060 -2620 0
-2057 -3117 0
-2058 -3118 0
-2059 -3119 0
-2060 -3120 0
-2057 -3569 0
-2058 -3570 0
-2059 -3571 0
-2060 -3572 0
-2057 -3625 0
-2058 -3626 0
-2059 -3627 0
-2060 -3628 0
-2057 -3701 0
-2058 -3702 0
-2059 -3703 0
-2060 -3704 0
-2057 -3705 0
-2058 -3706 0
-2059 -3707 0
-2060 -3708 0
-2065 -2209 0
-2066 -2210 0
-2067 -2211 0
-2068 -2212 0
-2065 -2377 0
-2066 -2378 0
-2067 -2379 0
-2068 -2380 0
-2065 -2625 0
-2066 -2626 0
-2067 -2627 0
-2068 -2628 0
-2065 -2921 0
-2066 -2922 0
-2067 -2923 0
-2068 -2924 0
-2065 -3297 0
-2066 -3298 0
-2067 -3299 0
-2068 -3300 0
-2069 -2145 0
-2070 -2146 0
-2071 -2147 0
-2072 -2148 0
-2069 -2221 0
-2070 -2222 0
-2071 -2223 0
-2072 -2224 0
-2069 -2633 0
-2070 -2634 0
-2071 -2635 0
-2072 -2636 0
-2069 -3121 0
-2070 -3122 0
-2071 -3123 0
-2072 -3124 0
-2069 -3577 0
-2070 -3578 0
-2071 -3579 0
-2072 -3580 0
-2069 -3629 0
-2070 -3630 0
-2071 -3631 0
-2072 -3632 0
-2077 -2081 0
-2078 -2082 0
-2079 -2083 0
-2080 -2084 0
-2077 -2089 0
-2078 -2090 0
-2079 -2091 0
-2080 -2092 0
-2077 -2545 0
-2078 -2546 0
-2079 -2547 0
-2080 -2548 0
-2077 -2929 0
-2078 -2930 0
-2079 -2931 0
-2080 -2932 0
-2077 -3329 0
-2078 -3330 0
-2079 -3331 0
-2080 -3332 0
-2077 -3649 0
-2078 -3650 0
-2079 -3651 0
-2080 -3652 0
-2077 -3669 0
-2078 -3670 0
-2079 -3671 0
-2080 -3672 0
-2077 -3749 0
-2078 -3750 0
-2079 -3751 0
-2080 -3752 0
-2081 -2093 0
-2082 -2094 0
-2083 -2095 0
-2084 -2096 0
-2081 -2397 0
-2082 -2398 0
-2083 -2399 0
-2084 -2400 0
-2081 -2933 0
-2082 -2934 0
-2083 -2935 0
-2084 -2936 0
-2081 -3197 0
-2082 -3198 0
-2083 -3199 0
-2084 -3200 0
-2081 -3673 0
-2082 -3674 0
-2083 -3675 0
-2084 -3676 0
-2081 -3753 0
-2082 -3754 0
-2083 -3755 0
-2084 -3756 0
-2085 -2089 0
-2086 -2090 0
-2087 -2091 0
-2088 -2092 0
-2085 -2225 0
-2086 -2226 0
-2087 -2227 0
-2088 -2228 0
-2085 -2601 0
-2086 -2602 0
-2087 -2603 0
-2088 -2604 0
-2085 -3885 0
-2086 -3886 0
-2087 -3887 0
-2088 -3888 0
-2089 -2093 0
-2090 -2094 0
-2091 -2095 0
-2092 -2096 0
-2089 -2229 0
-2090 -2230 0
-2091 -2231 0
-2092 -2232 0
-2089 -2617 0
-2090 -2618 0
-2091 -2619 0
-2092 -2620 0
-2089 -2953 0
-2090 -2954 0
-2091 -2955 0
-2092 -2956 0
-2089 -3137 0
-2090 -3138 0
-2091 -3139 0
-2092 -3140 0
-2089 -3209 0
-2090 -3210 0
-2091 -3211 0
-2092 -3212 0
-2089 -3685 0
-2090 -3686 0
-2091 -3687 0
-2092 -3688 0
-2089 -3749 0
-2090 -3750 0
-2091 -3751 0
-2092 -3752 0
-2093 -2449 0
-2094 -2450 0
-2095 -2451 0
-2096 -2452 0
-2093 -2629 0
-2094 -2630 0
-2095 -2631 0
-2096 -2632 0
-2093 -2961 0
-2094 -2962 0
-2095 -2963 0
-2096 -2964 0
-2093 -3153 0
-2094 -3154 0
-2095 -3155 0
-2096 -3156 0
-2093 -3753 0
-2094 -3754 0
-2095 -3755 0
-2096 -3756 0
-2097 -3361 0
-2098 -3362 0
-2099 -3363 0
-2100 -3364 0
-2097 -3721 0
-2098 -3722 0
-2099 -3723 0
-2100 -3724 0
-2105 -2113 0
-2106 -2114 0
-2107 -2115 0
-2108 -2116 0
-2105 -2117 0
-2106 -2118 0
-2107 -2119 0
-2108 -2120 0
-2105 -3729 0
-2106 -3730 0
-2107 -3731 0
-2108 -3732 0
-2109 -2113 0
-2110 -2114 0
-2111 -2115 0
-2112 -2116 0
-2109 -3369 0
-2110 -3370 0
-2111 -3371 0
-2112 -3372 0
-2113 -2125 0
-2114 -2126 0
-2115 -2127 0
-2116 -2128 0
-2113 -2133 0
-2114 -2134 0
-2115 -2135 0
-2116 -2136 0
-2113 -2477 0
-2114 -2478 0
-2115 -2479 0
-2116 -2480 0
-2113 -2929 0
-2114 -2930 0
-2115 -2931 0
-2116 -2932 0
-2113 -3729 0
-2114 -3730 0
-2115 -3731 0
-2116 -3732 0
-2113 -3737 0
-2114 -3738 0
-2115 -3739 0
-2116 -3740 0
-2117 -2133 0
-2118 -2134 0
-2119 -2135 0
-2120 -2136 0
-2117 -2557 0
-2118 -2558 0
-2119 -2559 0
-2120 -2560 0
-2117 -3745 0
-2118 -3746 0
-2119 -3747 0
-2120 -3748 0
-2125 -2133 0
-2126 -2134 0
-2127 -2135 0
-2128 -2136 0
-2125 -2137 0
-2126 -2138 0
-2127 -2139 0
-2128 -2140 0
-2125 -2337 0
-2126 -2338 0
-2127 -2339 0
-2128 -2340 0
-2125 -2569 0
-2126 -2570 0
-2127 -2571 0
-2128 -2572 0
-2125 -2717 0
-2126 -2718 0
-2127 -2719 0
-2128 -2720 0
-2125 -3749 0
-2126 -3750 0
-2127 -3751 0
-2128 -3752 0
-2129 -2133 0
-2130 -2134 0
-2131 -2135 0
-2132 -2136 0
-2129 -2145 0
-2130 -2146 0
-2131 -2147 0
-2132 -2148 0
-2129 -2577 0
-2130 -2578 0
-2131 -2579 0
-2132 -2580 0
-2129 -2981 0
-2130 -2982 0
-2131 -2983 0
-2132 -2984 0
-2133 -2145 0
-2134 -2146 0
-2135 -2147 0
-2136 -2148 0
-2133 -2581 0
-2134 -2582 0
-2135 -2583 0
-2136 -2584 0
-2133 -2985 0
-2134 -2986 0
-2135 -2987 0
-2136 -2988 0
-2133 -3229 0
-2134 -3230 0
-2135 -3231 0
-2136 -3232 0
-2133 -3405 0
-2134 -3406 0
-2135 -3407 0
-2136 -3408 0
-2133 -3717 0
-2134 -3718 0
-2135 -3719 0
-2136 -3720 0
-2133 -3745 0
-2134 -3746 0
-2135 -3747 0
-2136 -3748 0
-2133 -3753 0
-2134 -3754 0
-2135 -3755 0
-2136 -3756 0
-2137 -2345 0
-2138 -2346 0
-2139 -2347 0
-2140 -2348 0
-2137 -2605 0
-2138 -2606 0
-2139 -2607 0
-2140 -2608 0
-2137 -3749 0
-2138 -3750 0
-2139 -3751 0
-2140 -3752 0
-2145 -2385 0
-2146 -2386 0
-2147 -2387 0
-2148 -2388 0
-2145 -2653 0
-2146 -2654 0
-2147 -2655 0
-2148 -2656 0
-2145 -2745 0
-2146 -2746 0
-2147 -2747 0
-2148 -2748 0
-2145 -3217 0
-2146 -3218 0
-2147 -3219 0
-2148 -3220 0
-2145 -3417 0
-2146 -3418 0
-2147 -3419 0
-2148 -3420 0
-2145 -3721 0
-2146 -3722 0
-2147 -3723 0
-2148 -3724 0
-2149 -2153 0
-2150 -2154 0
-2151 -2155 0
-2152 -2156 0
-2149 -2161 0
-2150 -2162 0
-2151 -2163 0
-2152 -2164 0
-2149 -2541 0
-2150 -2542 0
-2151 -2543 0
-2152 -2544 0
-2149 -3797 0
-2150 -3798 0
-2151 -3799 0
-2152 -3800 0
-2153 -2177 0
-2154 -2178 0
-2155 -2179 0
-2156 -2180 0
-2153 -2201 0
-2154 -2202 0
-2155 -2203 0
-2156 -2204 0
-2153 -2209 0
-2154 -2210 0
-2155 -2211 0
-2156 -2212 0
-2153 -2477 0
-2154 -2478 0
-2155 -2479 0
-2156 -2480 0
-2153 -2545 0
-2154 -2546 0
-2155 -2547 0
-2156 -2548 0
-2153 -2785 0
-2154 -2786 0
-2155 -2787 0
-2156 -2788 0
-2153 -3605 0
-2154 -3606 0
-2155 -3607 0
-2156 -3608 0
-2153 -3801 0
-2154 -3802 0
-2155 -3803 0
-2156 -3804 0
-2157 -2165 0
-2158 -2166 0
-2159 -2167 0
-2160 -2168 0
-2157 -2173 0
-2158 -2174 0
-2159 -2175 0
-2160 -2176 0
-2157 -2269 0
-2158 -2270 0
-2159 -2271 0
-2160 -2272 0
-2157 -3769 0
-2158 -3770 0
-2159 -3771 0
-2160 -3772 0
-2157 -3909 0
-2158 -3910 0
-2159 -3911 0
-2160 -3912 0
-2161 -2165 0
-2162 -2166 0
-2163 -2167 0
-2164 -2168 0
-2161 -2177 0
-2162 -2178 0
-2163 -2179 0
-2164 -2180 0
-2161 -2265 0
-2162 -2266 0
-2163 -2267 0
-2164 -2268 0
-2161 -2581 0
-2162 -2582 0
-2163 -2583 0
-2164 -2584 0
-2161 -3773 0
-2162 -3774 0
-2163 -3775 0
-2164 -3776 0
-2161 -3797 0
-2162 -3798 0
-2163 -3799 0
-2164 -3800 0
-2165 -2181 0
-2166 -2182 0
-2167 -2183 0
-2168 -2184 0
-2165 -2269 0
-2166 -2270 0
-2167 -2271 0
-2168 -2272 0
-2165 -2585 0
-2166 -2586 0
-2167 -2587 0
-2168 -2588 0
-2165 -3249 0
-2166 -3250 0
-2167 -3251 0
-2168 -3252 0
-2165 -3777 0
-2166 -3778 0
-2167 -3779 0
-2168 -3780 0
-2173 -2181 0
-2174 -2182 0
-2175 -2183 0
-2176 -2184 0
-2173 -2281 0
-2174 -2282 0
-2175 -2283 0
-2176 -2284 0
-2173 -3097 0
-2174 -3098 0
-2175 -3099 0
-2176 -3100 0
-2173 -3769 0
-2174 -3770 0
-2175 -3771 0
-2176 -3772 0
-2173 -3917 0
-2174 -3918 0
-2175 -3919 0
-2176 -3920 0
-2177 -2181 0
-2178 -2182 0
-2179 -2183 0
-2180 -2184 0
-2177 -2189 0
-2178 -2190 0
-2179 -2191 0
-2180 -2192 0
-2177 -2217 0
-2178 -2218 0
-2179 -2219 0
-2180 -2220 0
-2177 -2221 0
-2178 -2222 0
-2179 -2223 0
-2180 -2224 0
-2177 -2277 0
-2178 -2278 0
-2179 -2279 0
-2180 -2280 0
-2177 -2617 0
-2178 -2618 0
-2179 -2619 0
-2180 -2620 0
-2177 -3013 0
-2178 -3014 0
-2179 -3015 0
-2180 -3016 0
-2177 -3241 0
-2178 -3242 0
-2179 -3243 0
-2180 -3244 0
-2177 -3261 0
-2178 -3262 0
-2179 -3263 0
-2180 -3264 0
-2177 -3613 0
-2178 -3614 0
-2179 -3615 0
-2180 -3616 0
-2177 -3773 0
-2178 -3774 0
-2179 -3775 0
-2180 -3776 0
-2177 -3801 0
-2178 -3802 0
-2179 -3803 0
-2180 -3804 0
-2181 -2189 0
-2182 -2190 0
-2183 -2191 0
-2184 -2192 0
-2181 -2281 0
-2182 -2282 0
-2183 -2283 0
-2184 -2284 0
-2181 -2621 0
-2182 -2622 0
-2183 -2623 0
-2184 -2624 0
-2181 -2809 0
-2182 -2810 0
-2183 -2811 0
-2184 -2812 0
-2181 -3017 0
-2182 -3018 0
-2183 -3019 0
-2184 -3020 0
-2181 -3105 0
-2182 -3106 0
-2183 -3107 0
-2184 -3108 0
-2181 -3777 0
-2182 -3778 0
-2183 -3779 0
-2184 -3780 0
-2189 -2665 0
-2190 -2666 0
-2191 -2667 0
-2192 -2668 0
-2189 -3629 0
-2190 -3630 0
-2191 -3631 0
-2192 -3632 0
-2197 -2209 0
-2198 -2210 0
-2199 -2211 0
-2200 -2212 0
-2197 -2225 0
-2198 -2226 0
-2199 -2227 0
-2200 -2228 0
-2197 -2549 0
-2198 -2550 0
-2199 -2551 0
-2200 -2552 0
-2197 -2869 0
-2198 -2870 0
-2199 -2871 0
-2200 -2872 0
-2197 -3037 0
-2198 -3038 0
-2199 -3039 0
-2200 -3040 0
-2197 -3281 0
-2198 -3282 0
-2199 -3283 0
-2200 -3284 0
-2197 -3309 0
-2198 -3310 0
-2199 -3311 0
-2200 -3312 0
-2197 -3833 0
-2198 -3834 0
-2199 -3835 0
-2200 -3836 0
-2197 -3933 0
-2198 -3934 0
-2199 -3935 0
-2200 -3936 0
-2201 -2209 0
-2202 -2210 0
-2203 -2211 0
-2204 -2212 0
-2201 -2217 0
-2202 -2218 0
-2203 -2219 0
-2204 -2220 0
-2201 -2353 0
-2202 -2354 0
-2203 -2355 0
-2204 -2356 0
-2201 -2569 0
-2202 -2570 0
-2203 -2571 0
-2204 -2572 0
-2201 -2865 0
-2202 -2866 0
-2203 -2867 0
-2204 -2868 0
-2201 -3045 0
-2202 -3046 0
-2203 -3047 0
-2204 -3048 0
-2201 -3669 0
-2202 -3670 0
-2203 -3671 0
-2204 -3672 0
-2205 -2209 0
-2206 -2210 0
-2207 -2211 0
-2208 -2212 0
-2205 -2233 0
-2206 -2234 0
-2207 -2235 0
-2208 -2236 0
-2205 -2573 0
-2206 -2574 0
-2207 -2575 0
-2208 -2576 0
-2205 -2789 0
-2206 -2790 0
-2207 -2791 0
-2208 -2792 0
-2209 -2221 0
-2210 -2222 0
-2211 -2223 0
-2212 -2224 0
-2209 -2233 0
-2210 -2234 0
-2211 -2235 0
-2212 -2236 0
-2209 -2361 0
-2210 -2362 0
-2211 -2363 0
-2212 -2364 0
-2209 -2581 0
-2210 -2582 0
-2211 -2583 0
-2212 -2584 0
-2209 -2793 0
-2210 -2794 0
-2211 -2795 0
-2212 -2796 0
-2209 -2873 0
-2210 -2874 0
-2211 -2875 0
-2212 -2876 0
-2209 -3049 0
-2210 -3050 0
-2211 -3051 0
-2212 -3052 0
-2209 -3297 0
-2210 -3298 0
-2211 -3299 0
-2212 -3300 0
-2209 -3673 0
-2210 -3674 0
-2211 -3675 0
-2212 -3676 0
-2209 -3837 0
-2210 -3838 0
-2211 -3839 0
-2212 -3840 0
-2217 -2221 0
-2218 -2222 0
-2219 -2223 0
-2220 -2224 0
-2217 -2377 0
-2218 -2378 0
-2219 -2379 0
-2220 -2380 0
-2217 -2389 0
-2218 -2390 0
-2219 -2391 0
-2220 -2392 0
-2217 -2429 0
-2218 -2430 0
-2219 -2431 0
-2220 -2432 0
-2217 -2697 0
-2218 -2698 0
-2219 -2699 0
-2220 -2700 0
-2217 -2773 0
-2218 -2774 0
-2219 -2775 0
-2220 -2776 0
-2217 -3061 0
-2218 -3062 0
-2219 -3063 0
-2220 -3064 0
-2217 -3685 0
-2218 -3686 0
-2219 -3687 0
-2220 -3688 0
-2221 -2385 0
-2222 -2386 0
-2223 -2387 0
-2224 -2388 0
-2221 -2393 0
-2222 -2394 0
-2223 -2395 0
-2224 -2396 0
-2221 -2645 0
-2222 -2646 0
-2223 -2647 0
-2224 -2648 0
-2221 -2701 0
-2222 -2702 0
-2223 -2703 0
-2224 -2704 0
-2221 -3025 0
-2222 -3026 0
-2223 -3027 0
-2224 -3028 0
-2221 -3065 0
-2222 -3066 0
-2223 -3067 0
-2224 -3068 0
-2221 -3837 0
-2222 -3838 0
-2223 -3839 0
-2224 -3840 0
-2225 -2229 0
-2226 -2230 0
-2227 -2231 0
-2228 -2232 0
-2225 -2233 0
-2226 -2234 0
-2227 -2235 0
-2228 -2236 0
-2225 -2237 0
-2226 -2238 0
-2227 -2239 0
-2228 -2240 0
-2225 -2397 0
-2226 -2398 0
-2227 -2399 0
-2228 -2400 0
-2225 -2781 0
-2226 -2782 0
-2227 -2783 0
-2228 -2784 0
-2225 -3069 0
-2226 -3070 0
-2227 -3071 0
-2228 -3072 0
-2225 -3189 0
-2226 -3190 0
-2227 -3191 0
-2228 -3192 0
-2225 -3449 0
-2226 -3450 0
-2227 -3451 0
-2228 -3452 0
-2225 -3769 0
-2226 -3770 0
-2227 -3771 0
-2228 -3772 0
-2225 -3849 0
-2226 -3850 0
-2227 -3851 0
-2228 -3852 0
-2225 -3857 0
-2226 -3858 0
-2227 -3859 0
-2228 -3860 0
-2225 -3973 0
-2226 -3974 0
-2227 -3975 0
-2228 -3976 0
-2229 -2397 0
-2230 -2398 0
-2231 -2399 0
-2232 -2400 0
-2229 -2789 0
-2230 -2790 0
-2231 -2791 0
-2232 -2792 0
-2229 -3077 0
-2230 -3078 0
-2231 -3079 0
-2232 -3080 0
-2229 -3777 0
-2230 -3778 0
-2231 -3779 0
-2232 -3780 0
-2233 -2405 0
-2234 -2406 0
-2235 -2407 0
-2236 -2408 0
-2233 -2669 0
-2234 -2670 0
-2235 -2671 0
-2236 -2672 0
-2233 -2845 0
-2234 -2846 0
-2235 -2847 0
-2236 -2848 0
-2233 -3093 0
-2234 -3094 0
-2235 -3095 0
-2236 -3096 0
-2233 -3461 0
-2234 -3462 0
-2235 -3463 0
-2236 -3464 0
-2233 -3689 0
-2234 -3690 0
-2235 -3691 0
-2236 -3692 0
-2233 -3769 0
-2234 -3770 0
-2235 -3771 0
-2236 -3772 0
-2233 -3997 0
-2234 -3998 0
-2235 -3999 0
-2236 -4000 0
-2237 -3305 0
-2238 -3306 0
-2239 -3307 0
-2240 -3308 0
-2237 -3881 0
-2238 -3882 0
-2239 -3883 0
-2240 -3884 0
-2237 -4005 0
-2238 -4006 0
-2239 -4007 0
-2240 -4008 0
-2241 -2245 0
-2242 -2246 0
-2243 -2247 0
-2244 -2248 0
-2241 -2293 0
-2242 -2294 0
-2243 -2295 0
-2244 -2296 0
-2241 -3361 0
-2242 -3362 0
-2243 -3363 0
-2244 -3364 0
-2241 -3793 0
-2242 -3794 0
-2243 -3795 0
-2244 -3796 0
-2245 -2301 0
-2246 -2302 0
-2247 -2303 0
-2248 -2304 0
-2245 -2717 0
-2246 -2718 0
-2247 -2719 0
-2248 -2720 0
-2245 -3045 0
-2246 -3046 0
-2247 -3047 0
-2248 -3048 0
-2245 -3797 0
-2246 -3798 0
-2247 -3799 0
-2248 -3800 0
-2245 -3801 0
-2246 -3802 0
-2247 -3803 0
-2248 -3804 0
-2257 -2281 0
-2258 -2282 0
-2259 -2283 0
-2260 -2284 0
-2257 -2313 0
-2258 -2314 0
-2259 -2315 0
-2260 -2316 0
-2257 -3369 0
-2258 -3370 0
-2259 -3371 0
-2260 -3372 0
-2265 -2269 0
-2266 -2270 0
-2267 -2271 0
-2268 -2272 0
-2265 -2277 0
-2266 -2278 0
-2267 -2279 0
-2268 -2280 0
-2265 -2365 0
-2266 -2366 0
-2267 -2367 0
-2268 -2368 0
-2265 -2733 0
-2266 -2734 0
-2267 -2735 0
-2268 -2736 0
-2265 -2965 0
-2266 -2966 0
-2267 -2967 0
-2268 -2968 0
-2265 -3813 0
-2266 -3814 0
-2267 -3815 0
-2268 -3816 0
-2269 -2281 0
-2270 -2282 0
-2271 -2283 0
-2272 -2284 0
-2269 -2369 0
-2270 -2370 0
-2271 -2371 0
-2272 -2372 0
-2269 -2949 0
-2270 -2950 0
-2271 -2951 0
-2272 -2952 0
-2269 -3377 0
-2270 -3378 0
-2271 -3379 0
-2272 -3380 0
-2269 -3817 0
-2270 -3818 0
-2271 -3819 0
-2272 -3820 0
-2273 -2281 0
-2274 -2282 0
-2275 -2283 0
-2276 -2284 0
-2273 -2381 0
-2274 -2382 0
-2275 -2383 0
-2276 -2384 0
-2273 -2953 0
-2274 -2954 0
-2275 -2955 0
-2276 -2956 0
-2277 -2281 0
-2278 -2282 0
-2279 -2283 0
-2280 -2284 0
-2277 -2377 0
-2278 -2378 0
-2279 -2379 0
-2280 -2380 0
-2277 -2385 0
-2278 -2386 0
-2279 -2387 0
-2280 -2388 0
-2277 -2485 0
-2278 -2486 0
-2279 -2487 0
-2280 -2488 0
-2277 -2741 0
-2278 -2742 0
-2279 -2743 0
-2280 -2744 0
-2277 -2969 0
-2278 -2970 0
-2279 -2971 0
-2280 -2972 0
-2277 -3365 0
-2278 -3366 0
-2279 -3367 0
-2280 -3368 0
-2277 -3813 0
-2278 -3814 0
-2279 -3815 0
-2280 -3816 0
-2277 -3825 0
-2278 -3826 0
-2279 -3827 0
-2280 -3828 0
-2281 -2381 0
-2282 -2382 0
-2283 -2383 0
-2284 -2384 0
-2281 -2757 0
-2282 -2758 0
-2283 -2759 0
-2284 -2760 0
-2281 -2961 0
-2282 -2962 0
-2283 -2963 0
-2284 -2964 0
-2281 -3717 0
-2282 -3718 0
-2283 -3719 0
-2284 -3720 0
-2281 -3817 0
-2282 -3818 0
-2283 -3819 0
-2284 -3820 0
-2281 -3829 0
-2282 -3830 0
-2283 -3831 0
-2284 -3832 0
-2293 -2297 0
-2294 -2298 0
-2295 -2299 0
-2296 -2300 0
-2293 -2301 0
-2294 -2302 0
-2295 -2303 0
-2296 -2304 0
-2293 -2309 0
-2294 -2310 0
-2295 -2311 0
-2296 -2312 0
-2293 -2313 0
-2294 -2314 0
-2295 -2315 0
-2296 -2316 0
-2293 -2333 0
-2294 -2334 0
-2295 -2335 0
-2296 -2336 0
-2293 -2337 0
-2294 -2338 0
-2295 -2339 0
-2296 -2340 0
-2293 -2761 0
-2294 -2762 0
-2295 -2763 0
-2296 -2764 0
-2293 -3389 0
-2294 -3390 0
-2295 -3391 0
-2296 -3392 0
-2293 -3717 0
-2294 -3718 0
-2295 -3719 0
-2296 -3720 0
-2293 -3833 0
-2294 -3834 0
-2295 -3835 0
-2296 -3836 0
-2297 -2341 0
-2298 -2342 0
-2299 -2343 0
-2300 -2344 0
-2297 -2345 0
-2298 -2346 0
-2299 -2347 0
-2300 -2348 0
-2297 -2765 0
-2298 -2766 0
-2299 -2767 0
-2300 -2768 0
-2297 -3397 0
-2298 -3398 0
-2299 -3399 0
-2300 -3400 0
-2297 -3833 0
-2298 -3834 0
-2299 -3835 0
-2300 -3836 0
-2301 -2721 0
-2302 -2722 0
-2303 -2723 0
-2304 -2724 0
-2301 -2769 0
-2302 -2770 0
-2303 -2771 0
-2304 -2772 0
-2301 -2897 0
-2302 -2898 0
-2303 -2899 0
-2304 -2900 0
-2301 -3117 0
-2302 -3118 0
-2303 -3119 0
-2304 -3120 0
-2301 -3837 0
-2302 -3838 0
-2303 -3839 0
-2304 -3840 0
-2309 -2313 0
-2310 -2314 0
-2311 -2315 0
-2312 -2316 0
-2309 -2373 0
-2310 -2374 0
-2311 -2375 0
-2312 -2376 0
-2309 -2377 0
-2310 -2378 0
-2311 -2379 0
-2312 -2380 0
-2309 -2505 0
-2310 -2506 0
-2311 -2507 0
-2312 -2508 0
-2309 -2905 0
-2310 -2906 0
-2311 -2907 0
-2312 -2908 0
-2309 -3493 0
-2310 -3494 0
-2311 -3495 0
-2312 -3496 0
-2309 -3721 0
-2310 -3722 0
-2311 -3723 0
-2312 -3724 0
-2309 -3841 0
-2310 -3842 0
-2311 -3843 0
-2312 -3844 0
-2313 -2381 0
-2314 -2382 0
-2315 -2383 0
-2316 -2384 0
-2313 -3217 0
-2314 -3218 0
-2315 -3219 0
-2316 -3220 0
-2313 -3393 0
-2314 -3394 0
-2315 -3395 0
-2316 -3396 0
-2313 -3497 0
-2314 -3498 0
-2315 -3499 0
-2316 -3500 0
-2313 -3845 0
-2314 -3846 0
-2315 -3847 0
-2316 -3848 0
-2317 -2333 0
-2318 -2334 0
-2319 -2335 0
-2320 -2336 0
-2317 -3497 0
-2318 -3498 0
-2319 -3499 0
-2320 -3500 0
-2317 -3849 0
-2318 -3850 0
-2319 -3851 0
-2320 -3852 0
-2317 -4029 0
-2318 -4030 0
-2319 -4031 0
-2320 -4032 0
-2333 -2337 0
-2334 -2338 0
-2335 -2339 0
-2336 -2340 0
-2333 -2341 0
-2334 -2342 0
-2335 -2343 0
-2336 -2344 0
-2333 -2373 0
-2334 -2374 0
-2335 -2375 0
-2336 -2376 0
-2333 -3857 0
-2334 -3858 0
-2335 -3859 0
-2336 -3860 0
-2333 -4037 0
-2334 -4038 0
-2335 -4039 0
-2336 -4040 0
-2337 -2345 0
-2338 -2346 0
-2339 -2347 0
-2340 -2348 0
-2337 -2377 0
-2338 -2378 0
-2339 -2379 0
-2340 -2380 0
-2337 -2381 0
-2338 -2382 0
-2339 -2383 0
-2340 -2384 0
-2337 -2529 0
-2338 -2530 0
-2339 -2531 0
-2340 -2532 0
-2337 -3861 0
-2338 -3862 0
-2339 -3863 0
-2340 -3864 0
-2341 -2345 0
-2342 -2346 0
-2343 -2347 0
-2344 -2348 0
-2341 -2797 0
-2342 -2798 0
-2343 -2799 0
-2344 -2800 0
-2341 -3229 0
-2342 -3230 0
-2343 -3231 0
-2344 -3232 0
-2341 -3857 0
-2342 -3858 0
-2343 -3859 0
-2344 -3860 0
-2341 -4045 0
-2342 -4046 0
-2343 -4047 0
-2344 -4048 0
-2345 -2537 0
-2346 -2538 0
-2347 -2539 0
-2348 -2540 0
-2345 -3861 0
-2346 -3862 0
-2347 -3863 0
-2348 -3864 0
-2353 -2377 0
-2354 -2378 0
-2355 -2379 0
-2356 -2380 0
-2353 -2541 0
-2354 -2542 0
-2355 -2543 0
-2356 -2544 0
-2353 -2981 0
-2354 -2982 0
-2355 -2983 0
-2356 -2984 0
-2353 -3517 0
-2354 -3518 0
-2355 -3519 0
-2356 -3520 0
-2361 -2393 0
-2362 -2394 0
-2363 -2395 0
-2364 -2396 0
-2361 -2405 0
-2362 -2406 0
-2363 -2407 0
-2364 -2408 0
-2361 -2737 0
-2362 -2738 0
-2363 -2739 0
-2364 -2740 0
-2361 -2817 0
-2362 -2818 0
-2363 -2819 0
-2364 -2820 0
-2361 -3421 0
-2362 -3422 0
-2363 -3423 0
-2364 -3424 0
-2361 -3525 0
-2362 -3526 0
-2363 -3527 0
-2364 -3528 0
-2365 -2369 0
-2366 -2370 0
-2367 -2371 0
-2368 -2372 0
-2365 -2377 0
-2366 -2378 0
-2367 -2379 0
-2368 -2380 0
-2365 -2557 0
-2366 -2558 0
-2367 -2559 0
-2368 -2560 0
-2365 -2909 0
-2366 -2910 0
-2367 -2911 0
-2368 -2912 0
-2365 -3873 0
-2366 -3874 0
-2367 -3875 0
-2368 -3876 0
-2369 -2381 0
-2370 -2382 0
-2371 -2383 0
-2372 -2384 0
-2369 -2913 0
-2370 -2914 0
-2371 -2915 0
-2372 -2916 0
-2369 -2997 0
-2370 -2998 0
-2371 -2999 0
-2372 -3000 0
-2369 -3877 0
-2370 -3878 0
-2371 -3879 0
-2372 -3880 0
-2373 -2377 0
-2374 -2378 0
-2375 -2379 0
-2376 -2380 0
-2373 -2573 0
-2374 -2574 0
-2375 -2575 0
-2376 -2576 0
-2373 -2953 0
-2374 -2954 0
-2375 -2955 0
-2376 -2956 0
-2373 -3385 0
-2374 -3386 0
-2375 -3387 0
-2376 -3388 0
-2373 -3881 0
-2374 -3882 0
-2375 -3883 0
-2376 -3884 0
-2377 -2381 0
-2378 -2382 0
-2379 -2383 0
-2380 -2384 0
-2377 -2385 0
-2378 -2386 0
-2379 -2387 0
-2380 -2388 0
-2377 -2389 0
-2378 -2390 0
-2379 -2391 0
-2380 -2392 0
-2377 -2581 0
-2378 -2582 0
-2379 -2583 0
-2380 -2584 0
-2377 -2921 0
-2378 -2922 0
-2379 -2923 0
-2380 -2924 0
-2377 -2957 0
-2378 -2958 0
-2379 -2959 0
-2380 -2960 0
-2377 -3533 0
-2378 -3534 0
-2379 -3535 0
-2380 -3536 0
-2377 -3873 0
-2378 -3874 0
-2379 -3875 0
-2380 -3876 0
-2377 -3885 0
-2378 -3886 0
-2379 -3887 0
-2380 -3888 0
-2381 -2585 0
-2382 -2586 0
-2383 -2587 0
-2384 -2588 0
-2381 -3001 0
-2382 -3002 0
-2383 -3003 0
-2384 -3004 0
-2381 -3537 0
-2382 -3538 0
-2383 -3539 0
-2384 -3540 0
-2381 -3877 0
-2382 -3878 0
-2383 -3879 0
-2384 -3880 0
-2381 -3889 0
-2382 -3890 0
-2383 -3891 0
-2384 -3892 0
-2385 -2393 0
-2386 -2394 0
-2387 -2395 0
-2388 -2396 0
-2385 -2593 0
-2386 -2594 0
-2387 -2595 0
-2388 -2596 0
-2385 -3541 0
-2386 -3542 0
-2387 -3543 0
-2388 -3544 0
-2389 -2393 0
-2390 -2394 0
-2391 -2395 0
-2392 -2396 0
-2389 -2597 0
-2390 -2598 0
-2391 -2599 0
-2392 -2600 0
-2389 -2925 0
-2390 -2926 0
-2391 -2927 0
-2392 -2928 0
-2389 -3545 0
-2390 -3546 0
-2391 -3547 0
-2392 -3548 0
-2393 -3181 0
-2394 -3182 0
-2395 -3183 0
-2396 -3184 0
-2393 -3429 0
-2394 -3430 0
-2395 -3431 0
-2396 -3432 0
-2393 -3549 0
-2394 -3550 0
-2395 -3551 0
-2396 -3552 0
-2397 -2405 0
-2398 -2406 0
-2399 -2407 0
-2400 -2408 0
-2397 -2933 0
-2398 -2934 0
-2399 -2935 0
-2400 -2936 0
-2397 -3561 0
-2398 -3562 0
-2399 -3563 0
-2400 -3564 0
-2397 -3817 0
-2398 -3818 0
-2399 -3819 0
-2400 -3820 0
-2405 -2853 0
-2406 -2854 0
-2407 -2855 0
-2408 -2856 0
-2405 -3577 0
-2406 -3578 0
-2407 -3579 0
-2408 -3580 0
-2405 -3745 0
-2406 -3746 0
-2407 -3747 0
-2408 -3748 0
-2405 -3817 0
-2406 -3818 0
-2407 -3819 0
-2408 -3820 0
-2413 -2865 0
-2414 -2866 0
-2415 -2867 0
-2416 -2868 0
-2413 -3753 0
-2414 -3754 0
-2415 -3755 0
-2416 -3756 0
-2413 -3833 0
-2414 -3834 0
-2415 -3835 0
-2416 -3836 0
-2413 -3837 0
-2414 -3838 0
-2415 -3839 0
-2416 -3840 0
-2425 -2429 0
-2426 -2430 0
-2427 -2431 0
-2428 -2432 0
-2425 -2433 0
-2426 -2434 0
-2427 -2435 0
-2428 -2436 0
-2425 -2561 0
-2426 -2562 0
-2427 -2563 0
-2428 -2564 0
-2425 -2581 0
-2426 -2582 0
-2427 -2583 0
-2428 -2584 0
-2425 -3005 0
-2426 -3006 0
-2427 -3007 0
-2428 -3008 0
-2425 -3769 0
-2426 -3770 0
-2427 -3771 0
-2428 -3772 0
-2425 -4061 0
-2426 -4062 0
-2427 -4063 0
-2428 -4064 0
-2429 -2437 0
-2430 -2438 0
-2431 -2439 0
-2432 -2440 0
-2429 -2581 0
-2430 -2582 0
-2431 -2583 0
-2432 -2584 0
-2429 -2597 0
-2430 -2598 0
-2431 -2599 0
-2432 -2600 0
-2429 -2869 0
-2430 -2870 0
-2431 -2871 0
-2432 -2872 0
-2429 -3237 0
-2430 -3238 0
-2431 -3239 0
-2432 -3240 0
-2429 -3777 0
-2430 -3778 0
-2431 -3779 0
-2432 -3780 0
-2429 -3897 0
-2430 -3898 0
-2431 -3899 0
-2432 -3900 0
-2433 -2437 0
-2434 -2438 0
-2435 -2439 0
-2436 -2440 0
-2433 -2601 0
-2434 -2602 0
-2435 -2603 0
-2436 -2604 0
-2433 -2617 0
-2434 -2618 0
-2435 -2619 0
-2436 -2620 0
-2433 -2797 0
-2434 -2798 0
-2435 -2799 0
-2436 -2800 0
-2433 -3297 0
-2434 -3298 0
-2435 -3299 0
-2436 -3300 0
-2437 -2617 0
-2438 -2618 0
-2439 -2619 0
-2440 -2620 0
-2437 -2633 0
-2438 -2634 0
-2439 -2635 0
-2440 -2636 0
-2437 -3245 0
-2438 -3246 0
-2439 -3247 0
-2440 -3248 0
-2437 -3301 0
-2438 -3302 0
-2439 -3303 0
-2440 -3304 0
-2437 -3461 0
-2438 -3462 0
-2439 -3463 0
-2440 -3464 0
-2437 -3897 0
-2438 -3898 0
-2439 -3899 0
-2440 -3900 0
-2449 -3021 0
-2450 -3022 0
-2451 -3023 0
-2452 -3024 0
-2449 -3257 0
-2450 -3258 0
-2451 -3259 0
-2452 -3260 0
-2449 -3441 0
-2450 -3442 0
-2451 -3443 0
-2452 -3444 0
-2449 -3973 0
-2450 -3974 0
-2451 -3975 0
-2452 -3976 0
-2449 -4001 0
-2450 -4002 0
-2451 -4003 0
-2452 -4004 0
-2461 -2469 0
-2462 -2470 0
-2463 -2471 0
-2464 -2472 0
-2461 -3365 0
-2462 -3366 0
-2463 -3367 0
-2464 -3368 0
-2461 -3901 0
-2462 -3902 0
-2463 -3903 0
-2464 -3904 0
-2461 -3905 0
-2462 -3906 0
-2463 -3907 0
-2464 -3908 0
-2465 -2469 0
-2466 -2470 0
-2467 -2471 0
-2468 -2472 0
-2465 -2913 0
-2466 -2914 0
-2467 -2915 0
-2468 -2916 0
-2465 -3057 0
-2466 -3058 0
-2467 -3059 0
-2468 -3060 0
-2465 -3909 0
-2466 -3910 0
-2467 -3911 0
-2468 -3912 0
-2469 -3065 0
-2470 -3066 0
-2471 -3067 0
-2472 -3068 0
-2469 -3909 0
-2470 -3910 0
-2471 -3911 0
-2472 -3912 0
-2469 -3917 0
-2470 -3918 0
-2471 -3919 0
-2472 -3920 0
-2477 -2485 0
-2478 -2486 0
-2479 -2487 0
-2480 -2488 0
-2477 -2489 0
-2478 -2490 0
-2479 -2491 0
-2480 -2492 0
-2477 -2569 0
-2478 -2570 0
-2479 -2571 0
-2480 -2572 0
-2477 -2581 0
-2478 -2582 0
-2479 -2583 0
-2480 -2584 0
-2477 -2929 0
-2478 -2930 0
-2479 -2931 0
-2480 -2932 0
-2477 -3249 0
-2478 -3250 0
-2479 -3251 0
-2480 -3252 0
-2477 -3921 0
-2478 -3922 0
-2479 -3923 0
-2480 -3924 0
-2485 -2493 0
-2486 -2494 0
-2487 -2495 0
-2488 -2496 0
-2485 -2581 0
-2486 -2582 0
-2487 -2583 0
-2488 -2584 0
-2485 -2593 0
-2486 -2594 0
-2487 -2595 0
-2488 -2596 0
-2485 -2933 0
-2486 -2934 0
-2487 -2935 0
-2488 -2936 0
-2485 -3253 0
-2486 -3254 0
-2487 -3255 0
-2488 -3256 0
-2489 -2493 0
-2490 -2494 0
-2491 -2495 0
-2492 -2496 0
-2489 -2605 0
-2490 -2606 0
-2491 -2607 0
-2492 -2608 0
-2489 -2617 0
-2490 -2618 0
-2491 -2619 0
-2492 -2620 0
-2489 -3477 0
-2490 -3478 0
-2491 -3479 0
-2492 -3480 0
-2489 -3793 0
-2490 -3794 0
-2491 -3795 0
-2492 -3796 0
-2489 -3921 0
-2490 -3922 0
-2491 -3923 0
-2492 -3924 0
-2493 -2617 0
-2494 -2618 0
-2495 -2619 0
-2496 -2620 0
-2493 -2629 0
-2494 -2630 0
-2495 -2631 0
-2496 -2632 0
-2493 -3465 0
-2494 -3466 0
-2495 -3467 0
-2496 -3468 0
-2505 -2509 0
-2506 -2510 0
-2507 -2511 0
-2508 -2512 0
-2505 -2513 0
-2506 -2514 0
-2507 -2515 0
-2508 -2516 0
-2505 -2573 0
-2506 -2574 0
-2507 -2575 0
-2508 -2576 0
-2505 -2581 0
-2506 -2582 0
-2507 -2583 0
-2508 -2584 0
-2505 -3493 0
-2506 -3494 0
-2507 -3495 0
-2508 -3496 0
-2505 -3929 0
-2506 -3930 0
-2507 -3931 0
-2508 -3932 0
-2509 -2517 0
-2510 -2518 0
-2511 -2519 0
-2512 -2520 0
-2509 -2581 0
-2510 -2582 0
-2511 -2583 0
-2512 -2584 0
-2509 -2589 0
-2510 -2590 0
-2511 -2591 0
-2512 -2592 0
-2509 -2901 0
-2510 -2902 0
-2511 -2903 0
-2512 -2904 0
-2509 -3121 0
-2510 -3122 0
-2511 -3123 0
-2512 -3124 0
-2509 -3501 0
-2510 -3502 0
-2511 -3503 0
-2512 -3504 0
-2509 -3605 0
-2510 -3606 0
-2511 -3607 0
-2512 -3608 0
-2509 -3933 0
-2510 -3934 0
-2511 -3935 0
-2512 -3936 0
-2513 -2517 0
-2514 -2518 0
-2515 -2519 0
-2516 -2520 0
-2513 -2609 0
-2514 -2610 0
-2515 -2611 0
-2516 -2612 0
-2513 -2617 0
-2514 -2618 0
-2515 -2619 0
-2516 -2620 0
-2513 -3929 0
-2514 -3930 0
-2515 -3931 0
-2516 -3932 0
-2517 -2617 0
-2518 -2618 0
-2519 -2619 0
-2520 -2620 0
-2517 -2625 0
-2518 -2626 0
-2519 -2627 0
-2520 -2628 0
-2517 -2905 0
-2518 -2906 0
-2519 -2907 0
-2520 -2908 0
-2517 -3521 0
-2518 -3522 0
-2519 -3523 0
-2520 -3524 0
-2517 -3933 0
-2518 -3934 0
-2519 -3935 0
-2520 -3936 0
-2525 -2529 0
-2526 -2530 0
-2527 -2531 0
-2528 -2532 0
-2525 -2533 0
-2526 -2534 0
-2527 -2535 0
-2528 -2536 0
-2525 -2577 0
-2526 -2578 0
-2527 -2579 0
-2528 -2580 0
-2525 -2581 0
-2526 -2582 0
-2527 -2583 0
-2528 -2584 0
-2525 -2977 0
-2526 -2978 0
-2527 -2979 0
-2528 -2980 0
-2525 -3269 0
-2526 -3270 0
-2527 -3271 0
-2528 -3272 0
-2525 -3613 0
-2526 -3614 0
-2527 -3615 0
-2528 -3616 0
-2529 -2537 0
-2530 -2538 0
-2531 -2539 0
-2532 -2540 0
-2529 -2581 0
-2530 -2582 0
-2531 -2583 0
-2532 -2584 0
-2529 -2585 0
-2530 -2586 0
-2531 -2587 0
-2532 -2588 0
-2529 -3941 0
-2530 -3942 0
-2531 -3943 0
-2532 -3944 0
-2533 -2537 0
-2534 -2538 0
-2535 -2539 0
-2536 -2540 0
-2533 -2613 0
-2534 -2614 0
-2535 -2615 0
-2536 -2616 0
-2533 -2617 0
-2534 -2618 0
-2535 -2619 0
-2536 -2620 0
-2533 -3281 0
-2534 -3282 0
-2535 -3283 0
-2536 -3284 0
-2533 -3541 0
-2534 -3542 0
-2535 -3543 0
-2536 -3544 0
-2537 -2617 0
-2538 -2618 0
-2539 -2619 0
-2540 -2620 0
-2537 -2621 0
-2538 -2622 0
-2539 -2623 0
-2540 -2624 0
-2537 -3005 0
-2538 -3006 0
-2539 -3007 0
-2540 -3008 0
-2537 -3941 0
-2538 -3942 0
-2539 -3943 0
-2540 -3944 0
-2541 -2545 0
-2542 -2546 0
-2543 -2547 0
-2544 -2548 0
-2541 -2581 0
-2542 -2582 0
-2543 -2583 0
-2544 -2584 0
-2541 -3125 0
-2542 -3126 0
-2543 -3127 0
-2544 -3128 0
-2541 -3617 0
-2542 -3618 0
-2543 -3619 0
-2544 -3620 0
-2541 -4029 0
-2542 -4030 0
-2543 -4031 0
-2544 -4032 0
-2545 -2617 0
-2546 -2618 0
-2547 -2619 0
-2548 -2620 0
-2545 -2929 0
-2546 -2930 0
-2547 -2931 0
-2548 -2932 0
-2545 -3129 0
-2546 -3130 0
-2547 -3131 0
-2548 -3132 0
-2545 -4033 0
-2546 -4034 0
-2547 -4035 0
-2548 -4036 0
-2549 -2553 0
-2550 -2554 0
-2551 -2555 0
-2552 -2556 0
-2549 -2581 0
-2550 -2582 0
-2551 -2583 0
-2552 -2584 0
-2549 -3037 0
-2550 -3038 0
-2551 -3039 0
-2552 -3040 0
-2549 -3901 0
-2550 -3902 0
-2551 -3903 0
-2552 -3904 0
-2549 -3949 0
-2550 -3950 0
-2551 -3951 0
-2552 -3952 0
-2549 -4081 0
-2550 -4082 0
-2551 -4083 0
-2552 -4084 0
-2553 -2617 0
-2554 -2618 0
-2555 -2619 0
-2556 -2620 0
-2553 -3413 0
-2554 -3414 0
-2555 -3415 0
-2556 -3416 0
-2553 -3553 0
-2554 -3554 0
-2555 -3555 0
-2556 -3556 0
-2553 -3905 0
-2554 -3906 0
-2555 -3907 0
-2556 -3908 0
-2553 -3949 0
-2554 -3950 0
-2555 -3951 0
-2556 -3952 0
-2557 -2581 0
-2558 -2582 0
-2559 -2583 0
-2560 -2584 0
-2557 -3041 0
-2558 -3042 0
-2559 -3043 0
-2560 -3044 0
-2557 -3953 0
-2558 -3954 0
-2559 -3955 0
-2560 -3956 0
-2561 -2581 0
-2562 -2582 0
-2563 -2583 0
-2564 -2584 0
-2561 -2601 0
-2562 -2602 0
-2563 -2603 0
-2564 -2604 0
-2561 -2733 0
-2562 -2734 0
-2563 -2735 0
-2564 -2736 0
-2561 -3073 0
-2562 -3074 0
-2563 -3075 0
-2564 -3076 0
-2561 -3625 0
-2562 -3626 0
-2563 -3627 0
-2564 -3628 0
-2561 -3957 0
-2562 -3958 0
-2563 -3959 0
-2564 -3960 0
-2561 -4089 0
-2562 -4090 0
-2563 -4091 0
-2564 -4092 0
-2569 -2581 0
-2570 -2582 0
-2571 -2583 0
-2572 -2584 0
-2569 -2605 0
-2570 -2606 0
-2571 -2607 0
-2572 -2608 0
-2569 -2689 0
-2570 -2690 0
-2571 -2691 0
-2572 -2692 0
-2569 -3045 0
-2570 -3046 0
-2571 -3047 0
-2572 -3048 0
-2569 -3961 0
-2570 -3962 0
-2571 -3963 0
-2572 -3964 0
-2573 -2581 0
-2574 -2582 0
-2575 -2583 0
-2576 -2584 0
-2573 -2609 0
-2574 -2610 0
-2575 -2611 0
-2576 -2612 0
-2573 -2669 0
-2574 -2670 0
-2575 -2671 0
-2576 -2672 0
-2573 -3077 0
-2574 -3078 0
-2575 -3079 0
-2576 -3080 0
-2577 -2581 0
-2578 -2582 0
-2579 -2583 0
-2580 -2584 0
-2577 -2613 0
-2578 -2614 0
-2579 -2615 0
-2580 -2616 0
-2577 -2653 0
-2578 -2654 0
-2579 -2655 0
-2580 -2656 0
-2577 -2981 0
-2578 -2982 0
-2579 -2983 0
-2580 -2984 0
-2577 -3485 0
-2578 -3486 0
-2579 -3487 0
-2580 -3488 0
-2577 -3813 0
-2578 -3814 0
-2579 -3815 0
-2580 -3816 0
-2581 -2585 0
-2582 -2586 0
-2583 -2587 0
-2584 -2588 0
-2581 -2589 0
-2582 -2590 0
-2583 -2591 0
-2584 -2592 0
-2581 -2593 0
-2582 -2594 0
-2583 -2595 0
-2584 -2596 0
-2581 -2597 0
-2582 -2598 0
-2583 -2599 0
-2584 -2600 0
-2581 -2617 0
-2582 -2618 0
-2583 -2619 0
-2584 -2620 0
-2581 -2637 0
-2582 -2638 0
-2583 -2639 0
-2584 -2640 0
-2581 -2645 0
-2582 -2646 0
-2583 -2647 0
-2584 -2648 0
-2581 -2653 0
-2582 -2654 0
-2583 -2655 0
-2584 -2656 0
-2581 -2657 0
-2582 -2658 0
-2583 -2659 0
-2584 -2660 0
-2581 -2669 0
-2582 -2670 0
-2583 -2671 0
-2584 -2672 0
-2581 -2673 0
-2582 -2674 0
-2583 -2675 0
-2584 -2676 0
-2581 -2689 0
-2582 -2690 0
-2583 -2691 0
-2584 -2692 0
-2581 -2693 0
-2582 -2694 0
-2583 -2695 0
-2584 -2696 0
-2581 -2733 0
-2582 -2734 0
-2583 -2735 0
-2584 -2736 0
-2581 -2737 0
-2582 -2738 0
-2583 -2739 0
-2584 -2740 0
-2581 -2941 0
-2582 -2942 0
-2583 -2943 0
-2584 -2944 0
-2581 -2985 0
-2582 -2986 0
-2583 -2987 0
-2584 -2988 0
-2581 -3049 0
-2582 -3050 0
-2583 -3051 0
-2584 -3052 0
-2581 -3085 0
-2582 -3086 0
-2583 -3087 0
-2584 -3088 0
-2581 -3141 0
-2582 -3142 0
-2583 -3143 0
-2584 -3144 0
-2581 -3305 0
-2582 -3306 0
-2583 -3307 0
-2584 -3308 0
-2581 -3361 0
-2582 -3362 0
-2583 -3363 0
-2584 -3364 0
-2581 -3489 0
-2582 -3490 0
-2583 -3491 0
-2584 -3492 0
-2581 -3533 0
-2582 -3534 0
-2583 -3535 0
-2584 -3536 0
-2581 -3629 0
-2582 -3630 0
-2583 -3631 0
-2584 -3632 0
-2581 -3633 0
-2582 -3634 0
-2583 -3635 0
-2584 -3636 0
-2581 -3817 0
-2582 -3818 0
-2583 -3819 0
-2584 -3820 0
-2581 -3901 0
-2582 -3902 0
-2583 -3903 0
-2584 -3904 0
-2581 -3909 0
-2582 -3910 0
-2583 -3911 0
-2584 -3912 0
-2581 -3953 0
-2582 -3954 0
-2583 -3955 0
-2584 -3956 0
-2581 -3973 0
-2582 -3974 0
-2583 -3975 0
-2584 -3976 0
-2581 -4029 0
-2582 -4030 0
-2583 -4031 0
-2584 -4032 0
-2581 -4037 0
-2582 -4038 0
-2583 -4039 0
-2584 -4040 0
-2581 -4097 0
-2582 -4098 0
-2583 -4099 0
-2584 -4100 0
-2585 -2621 0
-2586 -2622 0
-2587 -2623 0
-2588 -2624 0
-2585 -2657 0
-2586 -2658 0
-2587 -2659 0
-2588 -2660 0
-2585 -3145 0
-2586 -3146 0
-2587 -3147 0
-2588 -3148 0
-2585 -3537 0
-2586 -3538 0
-2587 -3539 0
-2588 -3540 0
-2585 -3977 0
-2586 -3978 0
-2587 -3979 0
-2588 -3980 0
-2589 -2625 0
-2590 -2626 0
-2591 -2627 0
-2592 -2628 0
-2589 -2673 0
-2590 -2674 0
-2591 -2675 0
-2592 -2676 0
-2589 -3149 0
-2590 -3150 0
-2591 -3151 0
-2592 -3152 0
-2589 -3365 0
-2590 -3366 0
-2591 -3367 0
-2592 -3368 0
-2589 -3637 0
-2590 -3638 0
-2591 -3639 0
-2592 -3640 0
-2593 -2629 0
-2594 -2630 0
-2595 -2631 0
-2596 -2632 0
-2593 -2693 0
-2594 -2694 0
-2595 -2695 0
-2596 -2696 0
-2593 -2949 0
-2594 -2950 0
-2595 -2951 0
-2596 -2952 0
-2593 -3309 0
-2594 -3310 0
-2595 -3311 0
-2596 -3312 0
-2593 -3541 0
-2594 -3542 0
-2595 -3543 0
-2596 -3544 0
-2593 -3985 0
-2594 -3986 0
-2595 -3987 0
-2596 -3988 0
-2597 -2633 0
-2598 -2634 0
-2599 -2635 0
-2600 -2636 0
-2597 -2737 0
-2598 -2738 0
-2599 -2739 0
-2600 -2740 0
-2597 -3053 0
-2598 -3054 0
-2599 -3055 0
-2600 -3056 0
-2597 -3313 0
-2598 -3314 0
-2599 -3315 0
-2600 -3316 0
-2597 -3545 0
-2598 -3546 0
-2599 -3547 0
-2600 -3548 0
-2601 -2617 0
-2602 -2618 0
-2603 -2619 0
-2604 -2620 0
-2601 -2741 0
-2602 -2742 0
-2603 -2743 0
-2604 -2744 0
-2601 -2781 0
-2602 -2782 0
-2603 -2783 0
-2604 -2784 0
-2601 -3957 0
-2602 -3958 0
-2603 -3959 0
-2604 -3960 0
-2605 -2617 0
-2606 -2618 0
-2607 -2619 0
-2608 -2620 0
-2605 -2697 0
-2606 -2698 0
-2607 -2699 0
-2608 -2700 0
-2605 -3565 0
-2606 -3566 0
-2607 -3567 0
-2608 -3568 0
-2605 -3961 0
-2606 -3962 0
-2607 -3963 0
-2608 -3964 0
-2609 -2617 0
-2610 -2618 0
-2611 -2619 0
-2612 -2620 0
-2609 -2677 0
-2610 -2678 0
-2611 -2679 0
-2612 -2680 0
-2609 -3417 0
-2610 -3418 0
-2611 -3419 0
-2612 -3420 0
-2609 -3497 0
-2610 -3498 0
-2611 -3499 0
-2612 -3500 0
-2613 -2617 0
-2614 -2618 0
-2615 -2619 0
-2616 -2620 0
-2613 -2661 0
-2614 -2662 0
-2615 -2663 0
-2616 -2664 0
-2613 -2785 0
-2614 -2786 0
-2615 -2787 0
-2616 -2788 0
-2613 -3501 0
-2614 -3502 0
-2615 -3503 0
-2616 -3504 0
-2613 -3825 0
-2614 -3826 0
-2615 -3827 0
-2616 -3828 0
-2617 -2621 0
-2618 -2622 0
-2619 -2623 0
-2620 -2624 0
-2617 -2625 0
-2618 -2626 0
-2619 -2627 0
-2620 -2628 0
-2617 -2629 0
-2618 -2630 0
-2619 -2631 0
-2620 -2632 0
-2617 -2633 0
-2618 -2634 0
-2619 -2635 0
-2620 -2636 0
-2617 -2641 0
-2618 -2642 0
-2619 -2643 0
-2620 -2644 0
-2617 -2649 0
-2618 -2650 0
-2619 -2651 0
-2620 -2652 0
-2617 -2661 0
-2618 -2662 0
-2619 -2663 0
-2620 -2664 0
-2617 -2665 0
-2618 -2666 0
-2619 -2667 0
-2620 -2668 0
-2617 -2677 0
-2618 -2678 0
-2619 -2679 0
-2620 -2680 0
-2617 -2681 0
-2618 -2682 0
-2619 -2683 0
-2620 -2684 0
-2617 -2697 0
-2618 -2698 0
-2619 -2699 0
-2620 -2700 0
-2617 -2701 0
-2618 -2702 0
-2619 -2703 0
-2620 -2704 0
-2617 -2741 0
-2618 -2742 0
-2619 -2743 0
-2620 -2744 0
-2617 -2745 0
-2618 -2746 0
-2619 -2747 0
-2620 -2748 0
-2617 -2789 0
-2618 -2790 0
-2619 -2791 0
-2620 -2792 0
-2617 -2953 0
-2618 -2954 0
-2619 -2955 0
-2620 -2956 0
-2617 -3013 0
-2618 -3014 0
-2619 -3015 0
-2620 -3016 0
-2617 -3157 0
-2618 -3158 0
-2619 -3159 0
-2620 -3160 0
-2617 -3321 0
-2618 -3322 0
-2619 -3323 0
-2620 -3324 0
-2617 -3369 0
-2618 -3370 0
-2619 -3371 0
-2620 -3372 0
-2617 -3421 0
-2618 -3422 0
-2619 -3423 0
-2620 -3424 0
-2617 -3505 0
-2618 -3506 0
-2619 -3507 0
-2620 -3508 0
-2617 -3569 0
-2618 -3570 0
-2619 -3571 0
-2620 -3572 0
-2617 -3641 0
-2618 -3642 0
-2619 -3643 0
-2620 -3644 0
-2617 -3829 0
-2618 -3830 0
-2619 -3831 0
-2620 -3832 0
-2617 -3833 0
-2618 -3834 0
-2619 -3835 0
-2620 -3836 0
-2617 -3905 0
-2618 -3906 0
-2619 -3907 0
-2620 -3908 0
-2617 -3917 0
-2618 -3918 0
-2619 -3919 0
-2620 -3920 0
-2617 -3973 0
-2618 -3974 0
-2619 -3975 0
-2620 -3976 0
-2617 -4033 0
-2618 -4034 0
-2619 -4035 0
-2620 -4036 0
-2617 -4045 0
-2618 -4046 0
-2619 -4047 0
-2620 -4048 0
-2617 -4105 0
-2618 -4106 0
-2619 -4107 0
-2620 -4108 0
-2621 -2665 0
-2622 -2666 0
-2623 -2667 0
-2624 -2668 0
-2621 -3017 0
-2622 -3018 0
-2623 -3019 0
-2624 -3020 0
-2621 -3425 0
-2622 -3426 0
-2623 -3427 0
-2624 -3428 0
-2621 -3977 0
-2622 -3978 0
-2623 -3979 0
-2624 -3980 0
-2625 -2681 0
-2626 -2682 0
-2627 -2683 0
-2628 -2684 0
-2625 -2793 0
-2626 -2794 0
-2627 -2795 0
-2628 -2796 0
-2625 -2957 0
-2626 -2958 0
-2627 -2959 0
-2628 -2960 0
-2625 -3373 0
-2626 -3374 0
-2627 -3375 0
-2628 -3376 0
-2629 -2701 0
-2630 -2702 0
-2631 -2703 0
-2632 -2704 0
-2629 -2961 0
-2630 -2962 0
-2631 -2963 0
-2632 -2964 0
-2629 -3021 0
-2630 -3022 0
-2631 -3023 0
-2632 -3024 0
-2629 -3985 0
-2630 -3986 0
-2631 -3987 0
-2632 -3988 0
-2633 -2745 0
-2634 -2746 0
-2635 -2747 0
-2636 -2748 0
-2633 -3329 0
-2634 -3330 0
-2635 -3331 0
-2636 -3332 0
-2633 -3577 0
-2634 -3578 0
-2635 -3579 0
-2636 -3580 0
-2637 -2641 0
-2638 -2642 0
-2639 -2643 0
-2640 -2644 0
-2637 -2965 0
-2638 -2966 0
-2639 -2967 0
-2640 -2968 0
-2637 -3105 0
-2638 -3106 0
-2639 -3107 0
-2640 -3108 0
-2637 -3909 0
-2638 -3910 0
-2639 -3911 0
-2640 -3912 0
-2637 -3997 0
-2638 -3998 0
-2639 -3999 0
-2640 -4000 0
-2641 -2969 0
-2642 -2970 0
-2643 -2971 0
-2644 -2972 0
-2641 -3837 0
-2642 -3838 0
-2643 -3839 0
-2644 -3840 0
-2641 -3917 0
-2642 -3918 0
-2643 -3919 0
-2644 -3920 0
-2641 -3997 0
-2642 -3998 0
-2643 -3999 0
-2644 -4000 0
-2645 -2649 0
-2646 -2650 0
-2647 -2651 0
-2648 -2652 0
-2645 -3001 0
-2646 -3002 0
-2647 -3003 0
-2648 -3004 0
-2645 -3065 0
-2646 -3066 0
-2647 -3067 0
-2648 -3068 0
-2645 -3341 0
-2646 -3342 0
-2647 -3343 0
-2648 -3344 0
-2645 -4001 0
-2646 -4002 0
-2647 -4003 0
-2648 -4004 0
-2645 -4037 0
-2646 -4038 0
-2647 -4039 0
-2648 -4040 0
-2649 -2809 0
-2650 -2810 0
-2651 -2811 0
-2652 -2812 0
-2649 -3429 0
-2650 -3430 0
-2651 -3431 0
-2652 -3432 0
-2649 -4001 0
-2650 -4002 0
-2651 -4003 0
-2652 -4004 0
-2649 -4045 0
-2650 -4046 0
-2651 -4047 0
-2652 -4048 0
-2653 -2657 0
-2654 -2658 0
-2655 -2659 0
-2656 -2660 0
-2653 -2661 0
-2654 -2662 0
-2655 -2663 0
-2656 -2664 0
-2653 -3113 0
-2654 -3114 0
-2655 -3115 0
-2656 -3116 0
-2653 -3513 0
-2654 -3514 0
-2655 -3515 0
-2656 -3516 0
-2653 -3657 0
-2654 -3658 0
-2655 -3659 0
-2656 -3660 0
-2653 -4005 0
-2654 -4006 0
-2655 -4007 0
-2656 -4008 0
-2657 -2665 0
-2658 -2666 0
-2659 -2667 0
-2660 -2668 0
-2657 -3177 0
-2658 -3178 0
-2659 -3179 0
-2660 -3180 0
-2657 -3565 0
-2658 -3566 0
-2659 -3567 0
-2660 -3568 0
-2657 -3661 0
-2658 -3662 0
-2659 -3663 0
-2660 -3664 0
-2661 -2665 0
-2662 -2666 0
-2663 -2667 0
-2664 -2668 0
-2661 -2821 0
-2662 -2822 0
-2663 -2823 0
-2664 -2824 0
-2661 -3517 0
-2662 -3518 0
-2663 -3519 0
-2664 -3520 0
-2661 -3841 0
-2662 -3842 0
-2663 -3843 0
-2664 -3844 0
-2661 -4005 0
-2662 -4006 0
-2663 -4007 0
-2664 -4008 0
-2665 -3845 0
-2666 -3846 0
-2667 -3847 0
-2668 -3848 0
-2669 -2673 0
-2670 -2674 0
-2671 -2675 0
-2672 -2676 0
-2669 -2677 0
-2670 -2678 0
-2671 -2679 0
-2672 -2680 0
-2669 -3093 0
-2670 -3094 0
-2671 -3095 0
-2672 -3096 0
-2669 -4121 0
-2670 -4122 0
-2671 -4123 0
-2672 -4124 0
-2673 -2681 0
-2674 -2682 0
-2675 -2683 0
-2676 -2684 0
-2673 -3097 0
-2674 -3098 0
-2675 -3099 0
-2676 -3100 0
-2673 -3201 0
-2674 -3202 0
-2675 -3203 0
-2676 -3204 0
-2673 -3377 0
-2674 -3378 0
-2675 -3379 0
-2676 -3380 0
-2673 -3685 0
-2674 -3686 0
-2675 -3687 0
-2676 -3688 0
-2673 -4017 0
-2674 -4018 0
-2675 -4019 0
-2676 -4020 0
-2677 -2681 0
-2678 -2682 0
-2679 -2683 0
-2680 -2684 0
-2677 -3537 0
-2678 -3538 0
-2679 -3539 0
-2680 -3540 0
-2677 -3857 0
-2678 -3858 0
-2679 -3859 0
-2680 -3860 0
-2677 -4125 0
-2678 -4126 0
-2679 -4127 0
-2680 -4128 0
-2681 -2845 0
-2682 -2846 0
-2683 -2847 0
-2684 -2848 0
-2681 -3861 0
-2682 -3862 0
-2683 -3863 0
-2684 -3864 0
-2681 -4017 0
-2682 -4018 0
-2683 -4019 0
-2684 -4020 0
-2689 -2693 0
-2690 -2694 0
-2691 -2695 0
-2692 -2696 0
-2689 -2697 0
-2690 -2698 0
-2691 -2699 0
-2692 -2700 0
-2689 -3117 0
-2690 -3118 0
-2691 -3119 0
-2692 -3120 0
-2689 -3137 0
-2690 -3138 0
-2691 -3139 0
-2692 -3140 0
-2689 -3385 0
-2690 -3386 0
-2691 -3387 0
-2692 -3388 0
-2689 -3877 0
-2690 -3878 0
-2691 -3879 0
-2692 -3880 0
-2693 -2701 0
-2694 -2702 0
-2695 -2703 0
-2696 -2704 0
-2693 -2997 0
-2694 -2998 0
-2695 -2999 0
-2696 -3000 0
-2693 -3153 0
-2694 -3154 0
-2695 -3155 0
-2696 -3156 0
-2693 -3389 0
-2694 -3390 0
-2695 -3391 0
-2696 -3392 0
-2693 -3689 0
-2694 -3690 0
-2695 -3691 0
-2696 -3692 0
-2697 -2701 0
-2698 -2702 0
-2699 -2703 0
-2700 -2704 0
-2697 -2869 0
-2698 -2870 0
-2699 -2871 0
-2700 -2872 0
-2697 -3393 0
-2698 -3394 0
-2699 -3395 0
-2700 -3396 0
-2697 -3889 0
-2698 -3890 0
-2699 -3891 0
-2700 -3892 0
-2701 -3001 0
-2702 -3002 0
-2703 -3003 0
-2704 -3004 0
-2701 -3025 0
-2702 -3026 0
-2703 -3027 0
-2704 -3028 0
-2701 -3397 0
-2702 -3398 0
-2703 -3399 0
-2704 -3400 0
-2701 -3693 0
-2702 -3694 0
-2703 -3695 0
-2704 -3696 0
-2709 -3417 0
-2710 -3418 0
-2711 -3419 0
-2712 -3420 0
-2709 -3581 0
-2710 -3582 0
-2711 -3583 0
-2712 -3584 0
-2709 -3973 0
-2710 -3974 0
-2711 -3975 0
-2712 -3976 0
-2709 -3997 0
-2710 -3998 0
-2711 -3999 0
-2712 -4000 0
-2713 -2717 0
-2714 -2718 0
-2715 -2719 0
-2716 -2720 0
-2713 -2721 0
-2714 -2722 0
-2715 -2723 0
-2716 -2724 0
-2713 -4029 0
-2714 -4030 0
-2715 -4031 0
-2716 -4032 0
-2717 -2725 0
-2718 -2726 0
-2719 -2727 0
-2720 -2728 0
-2717 -3045 0
-2718 -3046 0
-2719 -3047 0
-2720 -3048 0
-2717 -4029 0
-2718 -4030 0
-2719 -4031 0
-2720 -4032 0
-2717 -4033 0
-2718 -4034 0
-2719 -4035 0
-2720 -4036 0
-2721 -2725 0
-2722 -2726 0
-2723 -2727 0
-2724 -2728 0
-2721 -3385 0
-2722 -3386 0
-2723 -3387 0
-2724 -3388 0
-2721 -4037 0
-2722 -4038 0
-2723 -4039 0
-2724 -4040 0
-2725 -3061 0
-2726 -3062 0
-2727 -3063 0
-2728 -3064 0
-2725 -3393 0
-2726 -3394 0
-2727 -3395 0
-2728 -3396 0
-2725 -4037 0
-2726 -4038 0
-2727 -4039 0
-2728 -4040 0
-2725 -4045 0
-2726 -4046 0
-2727 -4047 0
-2728 -4048 0
-2733 -2737 0
-2734 -2738 0
-2735 -2739 0
-2736 -2740 0
-2733 -2741 0
-2734 -2742 0
-2735 -2743 0
-2736 -2744 0
-2733 -3721 0
-2734 -3722 0
-2735 -3723 0
-2736 -3724 0
-2733 -4049 0
-2734 -4050 0
-2735 -4051 0
-2736 -4052 0
-2737 -2745 0
-2738 -2746 0
-2739 -2747 0
-2740 -2748 0
-2737 -3597 0
-2738 -3598 0
-2739 -3599 0
-2740 -3600 0
-2737 -3729 0
-2738 -3730 0
-2739 -3731 0
-2740 -3732 0
-2741 -2745 0
-2742 -2746 0
-2743 -2747 0
-2744 -2748 0
-2741 -2933 0
-2742 -2934 0
-2743 -2935 0
-2744 -2936 0
-2741 -4049 0
-2742 -4050 0
-2743 -4051 0
-2744 -4052 0
-2745 -3113 0
-2746 -3114 0
-2747 -3115 0
-2748 -3116 0
-2745 -3737 0
-2746 -3738 0
-2747 -3739 0
-2748 -3740 0
-2757 -3257 0
-2758 -3258 0
-2759 -3259 0
-2760 -3260 0
-2757 -3901 0
-2758 -3902 0
-2759 -3903 0
-2760 -3904 0
-2757 -4069 0
-2758 -4070 0
-2759 -4071 0
-2760 -4072 0
-2757 -4073 0
-2758 -4074 0
-2759 -4075 0
-2760 -4076 0
-2761 -2765 0
-2762 -2766 0
-2763 -2767 0
-2764 -2768 0
-2761 -2769 0
-2762 -2770 0
-2763 -2771 0
-2764 -2772 0
-2761 -2901 0
-2762 -2902 0
-2763 -2903 0
-2764 -2904 0
-2761 -3485 0
-2762 -3486 0
-2763 -3487 0
-2764 -3488 0
-2761 -3621 0
-2762 -3622 0
-2763 -3623 0
-2764 -3624 0
-2761 -3901 0
-2762 -3902 0
-2763 -3903 0
-2764 -3904 0
-2761 -4057 0
-2762 -4058 0
-2763 -4059 0
-2764 -4060 0
-2765 -2773 0
-2766 -2774 0
-2767 -2775 0
-2768 -2776 0
-2765 -2797 0
-2766 -2798 0
-2767 -2799 0
-2768 -2800 0
-2765 -2905 0
-2766 -2906 0
-2767 -2907 0
-2768 -2908 0
-2765 -3501 0
-2766 -3502 0
-2767 -3503 0
-2768 -3504 0
-2765 -3625 0
-2766 -3626 0
-2767 -3627 0
-2768 -3628 0
-2765 -3905 0
-2766 -3906 0
-2767 -3907 0
-2768 -3908 0
-2765 -4057 0
-2766 -4058 0
-2767 -4059 0
-2768 -4060 0
-2769 -2773 0
-2770 -2774 0
-2771 -2775 0
-2772 -2776 0
-2769 -2909 0
-2770 -2910 0
-2771 -2911 0
-2772 -2912 0
-2769 -2917 0
-2770 -2918 0
-2771 -2919 0
-2772 -2920 0
-2769 -3117 0
-2770 -3118 0
-2771 -3119 0
-2772 -3120 0
-2769 -3241 0
-2770 -3242 0
-2771 -3243 0
-2772 -3244 0
-2769 -3909 0
-2770 -3910 0
-2771 -3911 0
-2772 -3912 0
-2769 -4061 0
-2770 -4062 0
-2771 -4063 0
-2772 -4064 0
-2773 -2921 0
-2774 -2922 0
-2775 -2923 0
-2776 -2924 0
-2773 -2925 0
-2774 -2926 0
-2775 -2927 0
-2776 -2928 0
-2773 -3061 0
-2774 -3062 0
-2775 -3063 0
-2776 -3064 0
-2773 -3917 0
-2774 -3918 0
-2775 -3919 0
-2776 -3920 0
-2773 -4061 0
-2774 -4062 0
-2775 -4063 0
-2776 -4064 0
-2781 -2789 0
-2782 -2790 0
-2783 -2791 0
-2784 -2792 0
-2781 -2933 0
-2782 -2934 0
-2783 -2935 0
-2784 -2936 0
-2781 -3069 0
-2782 -3070 0
-2783 -3071 0
-2784 -3072 0
-2781 -4141 0
-2782 -4142 0
-2783 -4143 0
-2784 -4144 0
-2785 -2789 0
-2786 -2790 0
-2787 -2791 0
-2788 -2792 0
-2785 -2821 0
-2786 -2822 0
-2787 -2823 0
-2788 -2824 0
-2785 -2841 0
-2786 -2842 0
-2787 -2843 0
-2788 -2844 0
-2785 -2865 0
-2786 -2866 0
-2787 -2867 0
-2788 -2868 0
-2785 -2873 0
-2786 -2874 0
-2787 -2875 0
-2788 -2876 0
-2785 -3129 0
-2786 -3130 0
-2787 -3131 0
-2788 -3132 0
-2785 -3605 0
-2786 -3606 0
-2787 -3607 0
-2788 -3608 0
-2789 -2793 0
-2790 -2794 0
-2791 -2795 0
-2792 -2796 0
-2789 -2809 0
-2790 -2810 0
-2791 -2811 0
-2792 -2812 0
-2789 -2821 0
-2790 -2822 0
-2791 -2823 0
-2792 -2824 0
-2789 -2845 0
-2790 -2846 0
-2791 -2847 0
-2792 -2848 0
-2789 -2869 0
-2790 -2870 0
-2791 -2871 0
-2792 -2872 0
-2789 -2933 0
-2790 -2934 0
-2791 -2935 0
-2792 -2936 0
-2789 -3077 0
-2790 -3078 0
-2791 -3079 0
-2792 -3080 0
-2789 -3525 0
-2790 -3526 0
-2791 -3527 0
-2792 -3528 0
-2789 -3641 0
-2790 -3642 0
-2791 -3643 0
-2792 -3644 0
-2793 -2825 0
-2794 -2826 0
-2795 -2827 0
-2796 -2828 0
-2793 -2845 0
-2794 -2846 0
-2795 -2847 0
-2796 -2848 0
-2793 -3085 0
-2794 -3086 0
-2795 -3087 0
-2796 -3088 0
-2793 -3465 0
-2794 -3466 0
-2795 -3467 0
-2796 -3468 0
-2793 -3673 0
-2794 -3674 0
-2795 -3675 0
-2796 -3676 0
-2797 -2953 0
-2798 -2954 0
-2799 -2955 0
-2800 -2956 0
-2797 -3533 0
-2798 -3534 0
-2799 -3535 0
-2800 -3536 0
-2797 -4153 0
-2798 -4154 0
-2799 -4155 0
-2800 -4156 0
-2809 -2961 0
-2810 -2962 0
-2811 -2963 0
-2812 -2964 0
-2809 -3449 0
-2810 -3450 0
-2811 -3451 0
-2812 -3452 0
-2809 -3549 0
-2810 -3550 0
-2811 -3551 0
-2812 -3552 0
-2817 -2825 0
-2818 -2826 0
-2819 -2827 0
-2820 -2828 0
-2817 -2853 0
-2818 -2854 0
-2819 -2855 0
-2820 -2856 0
-2817 -3665 0
-2818 -3666 0
-2819 -3667 0
-2820 -3668 0
-2817 -4097 0
-2818 -4098 0
-2819 -4099 0
-2820 -4100 0
-2821 -2825 0
-2822 -2826 0
-2823 -2827 0
-2824 -2828 0
-2821 -2857 0
-2822 -2858 0
-2823 -2859 0
-2824 -2860 0
-2821 -3021 0
-2822 -3022 0
-2823 -3023 0
-2824 -3024 0
-2821 -3461 0
-2822 -3462 0
-2823 -3463 0
-2824 -3464 0
-2821 -3617 0
-2822 -3618 0
-2823 -3619 0
-2824 -3620 0
-2821 -3929 0
-2822 -3930 0
-2823 -3931 0
-2824 -3932 0
-2825 -2857 0
-2826 -2858 0
-2827 -2859 0
-2828 -2860 0
-2825 -3113 0
-2826 -3114 0
-2827 -3115 0
-2828 -3116 0
-2825 -3933 0
-2826 -3934 0
-2827 -3935 0
-2828 -3936 0
-2825 -4105 0
-2826 -4106 0
-2827 -4107 0
-2828 -4108 0
-2841 -2845 0
-2842 -2846 0
-2843 -2847 0
-2844 -2848 0
-2841 -2857 0
-2842 -2858 0
-2843 -2859 0
-2844 -2860 0
-2841 -2877 0
-2842 -2878 0
-2843 -2879 0
-2844 -2880 0
-2841 -3197 0
-2842 -3198 0
-2843 -3199 0
-2844 -3200 0
-2841 -3637 0
-2842 -3638 0
-2843 -3639 0
-2844 -3640 0
-2845 -2857 0
-2846 -2858 0
-2847 -2859 0
-2848 -2860 0
-2845 -3941 0
-2846 -3942 0
-2847 -3943 0
-2848 -3944 0
-2853 -2857 0
-2854 -2858 0
-2855 -2859 0
-2856 -2860 0
-2853 -3953 0
-2854 -3954 0
-2855 -3955 0
-2856 -3956 0
-2853 -4121 0
-2854 -4122 0
-2855 -4123 0
-2856 -4124 0
-2857 -3477 0
-2858 -3478 0
-2859 -3479 0
-2860 -3480 0
-2857 -3669 0
-2858 -3670 0
-2859 -3671 0
-2860 -3672 0
-2857 -3973 0
-2858 -3974 0
-2859 -3975 0
-2860 -3976 0
-2857 -4125 0
-2858 -4126 0
-2859 -4127 0
-2860 -4128 0
-2865 -2869 0
-2866 -2870 0
-2867 -2871 0
-2868 -2872 0
-2865 -2873 0
-2866 -2874 0
-2867 -2875 0
-2868 -2876 0
-2865 -2877 0
-2866 -2878 0
-2867 -2879 0
-2868 -2880 0
-2865 -2981 0
-2866 -2982 0
-2867 -2983 0
-2868 -2984 0
-2865 -2989 0
-2866 -2990 0
-2867 -2991 0
-2868 -2992 0
-2865 -3289 0
-2866 -3290 0
-2867 -3291 0
-2868 -3292 0
-2865 -3493 0
-2866 -3494 0
-2867 -3495 0
-2868 -3496 0
-2865 -3701 0
-2866 -3702 0
-2867 -3703 0
-2868 -3704 0
-2865 -3973 0
-2866 -3974 0
-2867 -3975 0
-2868 -3976 0
-2865 -4057 0
-2866 -4058 0
-2867 -4059 0
-2868 -4060 0
-2865 -4061 0
-2866 -4062 0
-2867 -4063 0
-2868 -4064 0
-2869 -2985 0
-2870 -2986 0
-2871 -2987 0
-2872 -2988 0
-2869 -3497 0
-2870 -3498 0
-2871 -3499 0
-2872 -3500 0
-2869 -3581 0
-2870 -3582 0
-2871 -3583 0
-2872 -3584 0
-2869 -3977 0
-2870 -3978 0
-2871 -3979 0
-2872 -3980 0
-2873 -3141 0
-2874 -3142 0
-2875 -3143 0
-2876 -3144 0
-2873 -3985 0
-2874 -3986 0
-2875 -3987 0
-2876 -3988 0
-2877 -3297 0
-2878 -3298 0
-2879 -3299 0
-2880 -3300 0
-2877 -3533 0
-2878 -3534 0
-2879 -3535 0
-2880 -3536 0
-2877 -4017 0
-2878 -4018 0
-2879 -4019 0
-2880 -4020 0
-2897 -2925 0
-2898 -2926 0
-2899 -2927 0
-2900 -2928 0
-2897 -3241 0
-2898 -3242 0
-2899 -3243 0
-2900 -3244 0
-2897 -3505 0
-2898 -3506 0
-2899 -3507 0
-2900 -3508 0
-2901 -2905 0
-2902 -2906 0
-2903 -2907 0
-2904 -2908 0
-2901 -2917 0
-2902 -2918 0
-2903 -2919 0
-2904 -2920 0
-2901 -2941 0
-2902 -2942 0
-2903 -2943 0
-2904 -2944 0
-2901 -4081 0
-2902 -4082 0
-2903 -4083 0
-2904 -4084 0
-2905 -2925 0
-2906 -2926 0
-2907 -2927 0
-2908 -2928 0
-2905 -2953 0
-2906 -2954 0
-2907 -2955 0
-2908 -2956 0
-2905 -2957 0
-2906 -2958 0
-2907 -2959 0
-2908 -2960 0
-2905 -3721 0
-2906 -3722 0
-2907 -3723 0
-2908 -3724 0
-2905 -3793 0
-2906 -3794 0
-2907 -3795 0
-2908 -3796 0
-2905 -4081 0
-2906 -4082 0
-2907 -4083 0
-2908 -4084 0
-2909 -2913 0
-2910 -2914 0
-2911 -2915 0
-2912 -2916 0
-2909 -2917 0
-2910 -2918 0
-2911 -2919 0
-2912 -2920 0
-2909 -2921 0
-2910 -2922 0
-2911 -2923 0
-2912 -2924 0
-2909 -3041 0
-2910 -3042 0
-2911 -3043 0
-2912 -3044 0
-2909 -3365 0
-2910 -3366 0
-2911 -3367 0
-2912 -3368 0
-2909 -4089 0
-2910 -4090 0
-2911 -4091 0
-2912 -4092 0
-2913 -3389 0
-2914 -3390 0
-2915 -3391 0
-2916 -3392 0
-2913 -4093 0
-2914 -4094 0
-2915 -4095 0
-2916 -4096 0
-2917 -2925 0
-2918 -2926 0
-2919 -2927 0
-2920 -2928 0
-2917 -2965 0
-2918 -2966 0
-2919 -2967 0
-2920 -2968 0
-2917 -3217 0
-2918 -3218 0
-2919 -3219 0
-2920 -3220 0
-2917 -3513 0
-2918 -3514 0
-2919 -3515 0
-2920 -3516 0
-2917 -3797 0
-2918 -3798 0
-2919 -3799 0
-2920 -3800 0
-2917 -4097 0
-2918 -4098 0
-2919 -4099 0
-2920 -4100 0
-2921 -2925 0
-2922 -2926 0
-2923 -2927 0
-2924 -2928 0
-2921 -3049 0
-2922 -3050 0
-2923 -3051 0
-2924 -3052 0
-2921 -3373 0
-2922 -3374 0
-2923 -3375 0
-2924 -3376 0
-2921 -4089 0
-2922 -4090 0
-2923 -4091 0
-2924 -4092 0
-2925 -2969 0
-2926 -2970 0
-2927 -2971 0
-2928 -2972 0
-2925 -3053 0
-2926 -3054 0
-2927 -3055 0
-2928 -3056 0
-2925 -3221 0
-2926 -3222 0
-2927 -3223 0
-2928 -3224 0
-2925 -3517 0
-2926 -3518 0
-2927 -3519 0
-2928 -3520 0
-2925 -3801 0
-2926 -3802 0
-2927 -3803 0
-2928 -3804 0
-2925 -4097 0
-2926 -4098 0
-2927 -4099 0
-2928 -4100 0
-2925 -4105 0
-2926 -4106 0
-2927 -4107 0
-2928 -4108 0
-2929 -2933 0
-2930 -2934 0
-2931 -2935 0
-2932 -2936 0
-2929 -2937 0
-2930 -2938 0
-2931 -2939 0
-2932 -2940 0
-2929 -2953 0
-2930 -2954 0
-2931 -2955 0
-2932 -2956 0
-2929 -2985 0
-2930 -2986 0
-2931 -2987 0
-2932 -2988 0
-2929 -3073 0
-2930 -3074 0
-2931 -3075 0
-2932 -3076 0
-2929 -3537 0
-2930 -3538 0
-2931 -3539 0
-2932 -3540 0
-2929 -4069 0
-2930 -4070 0
-2931 -4071 0
-2932 -4072 0
-2933 -2961 0
-2934 -2962 0
-2935 -2963 0
-2936 -2964 0
-2933 -2985 0
-2934 -2986 0
-2935 -2987 0
-2936 -2988 0
-2933 -3253 0
-2934 -3254 0
-2935 -3255 0
-2936 -3256 0
-2937 -2969 0
-2938 -2970 0
-2939 -2971 0
-2940 -2972 0
-2937 -3097 0
-2938 -3098 0
-2939 -3099 0
-2940 -3100 0
-2937 -3417 0
-2938 -3418 0
-2939 -3419 0
-2940 -3420 0
-2937 -4029 0
-2938 -4030 0
-2939 -4031 0
-2940 -4032 0
-2937 -4069 0
-2938 -4070 0
-2939 -4071 0
-2940 -4072 0
-2941 -2949 0
-2942 -2950 0
-2943 -2951 0
-2944 -2952 0
-2941 -2953 0
-2942 -2954 0
-2943 -2955 0
-2944 -2956 0
-2941 -2965 0
-2942 -2966 0
-2943 -2967 0
-2944 -2968 0
-2941 -2997 0
-2942 -2998 0
-2943 -2999 0
-2944 -3000 0
-2941 -3361 0
-2942 -3362 0
-2943 -3363 0
-2944 -3364 0
-2941 -4109 0
-2942 -4110 0
-2943 -4111 0
-2944 -4112 0
-2949 -2961 0
-2950 -2962 0
-2951 -2963 0
-2952 -2964 0
-2949 -2997 0
-2950 -2998 0
-2951 -2999 0
-2952 -3000 0
-2953 -2957 0
-2954 -2958 0
-2955 -2959 0
-2956 -2960 0
-2953 -2961 0
-2954 -2962 0
-2955 -2963 0
-2956 -2964 0
-2953 -2969 0
-2954 -2970 0
-2955 -2971 0
-2956 -2972 0
-2953 -3001 0
-2954 -3002 0
-2955 -3003 0
-2956 -3004 0
-2953 -3077 0
-2954 -3078 0
-2955 -3079 0
-2956 -3080 0
-2953 -3369 0
-2954 -3370 0
-2955 -3371 0
-2956 -3372 0
-2953 -3597 0
-2954 -3598 0
-2955 -3599 0
-2956 -3600 0
-2953 -4073 0
-2954 -4074 0
-2955 -4075 0
-2956 -4076 0
-2953 -4109 0
-2954 -4110 0
-2955 -4111 0
-2956 -4112 0
-2953 -4117 0
-2954 -4118 0
-2955 -4119 0
-2956 -4120 0
-2957 -3085 0
-2958 -3086 0
-2959 -3087 0
-2960 -3088 0
-2957 -3373 0
-2958 -3374 0
-2959 -3375 0
-2960 -3376 0
-2961 -3001 0
-2962 -3002 0
-2963 -3003 0
-2964 -3004 0
-2961 -3257 0
-2962 -3258 0
-2963 -3259 0
-2964 -3260 0
-2961 -3553 0
-2962 -3554 0
-2963 -3555 0
-2964 -3556 0
-2961 -3717 0
-2962 -3718 0
-2963 -3719 0
-2964 -3720 0
-2965 -2969 0
-2966 -2970 0
-2967 -2971 0
-2968 -2972 0
-2965 -4121 0
-2966 -4122 0
-2967 -4123 0
-2968 -4124 0
-2969 -3565 0
-2970 -3566 0
-2971 -3567 0
-2972 -3568 0
-2969 -4037 0
-2970 -4038 0
-2971 -4039 0
-2972 -4040 0
-2969 -4073 0
-2970 -4074 0
-2971 -4075 0
-2972 -4076 0
-2969 -4121 0
-2970 -4122 0
-2971 -4123 0
-2972 -4124 0
-2969 -4125 0
-2970 -4126 0
-2971 -4127 0
-2972 -4128 0
-2977 -2981 0
-2978 -2982 0
-2979 -2983 0
-2980 -2984 0
-2977 -2985 0
-2978 -2986 0
-2979 -2987 0
-2980 -2988 0
-2977 -3269 0
-2978 -3270 0
-2979 -3271 0
-2980 -3272 0
-2977 -3833 0
-2978 -3834 0
-2979 -3835 0
-2980 -3836 0
-2981 -2985 0
-2982 -2986 0
-2983 -2987 0
-2984 -2988 0
-2981 -2989 0
-2982 -2990 0
-2983 -2991 0
-2984 -2992 0
-2981 -3125 0
-2982 -3126 0
-2983 -3127 0
-2984 -3128 0
-2981 -3413 0
-2982 -3414 0
-2983 -3415 0
-2984 -3416 0
-2981 -3841 0
-2982 -3842 0
-2983 -3843 0
-2984 -3844 0
-2981 -4049 0
-2982 -4050 0
-2983 -4051 0
-2984 -4052 0
-2981 -4089 0
-2982 -4090 0
-2983 -4091 0
-2984 -4092 0
-2985 -3001 0
-2986 -3002 0
-2987 -3003 0
-2988 -3004 0
-2985 -3305 0
-2986 -3306 0
-2987 -3307 0
-2988 -3308 0
-2985 -3845 0
-2986 -3846 0
-2987 -3847 0
-2988 -3848 0
-2985 -3849 0
-2986 -3850 0
-2987 -3851 0
-2988 -3852 0
-2985 -4093 0
-2986 -4094 0
-2987 -4095 0
-2988 -4096 0
-2985 -4173 0
-2986 -4174 0
-2987 -4175 0
-2988 -4176 0
-2989 -3149 0
-2990 -3150 0
-2991 -3151 0
-2992 -3152 0
-2989 -3593 0
-2990 -3594 0
-2991 -3595 0
-2992 -3596 0
-2989 -4081 0
-2990 -4082 0
-2991 -4083 0
-2992 -4084 0
-2989 -4097 0
-2990 -4098 0
-2991 -4099 0
-2992 -4100 0
-2997 -3001 0
-2998 -3002 0
-2999 -3003 0
-3000 -3004 0
-2997 -3389 0
-2998 -3390 0
-2999 -3391 0
-3000 -3392 0
-3001 -3145 0
-3002 -3146 0
-3003 -3147 0
-3004 -3148 0
-3001 -3341 0
-3002 -3342 0
-3003 -3343 0
-3004 -3344 0
-3001 -3397 0
-3002 -3398 0
-3003 -3399 0
-3004 -3400 0
-3001 -3857 0
-3002 -3858 0
-3003 -3859 0
-3004 -3860 0
-3005 -3013 0
-3006 -3014 0
-3007 -3015 0
-3008 -3016 0
-3005 -3017 0
-3006 -3018 0
-3007 -3019 0
-3008 -3020 0
-3005 -3073 0
-3006 -3074 0
-3007 -3075 0
-3008 -3076 0
-3005 -3085 0
-3006 -3086 0
-3007 -3087 0
-3008 -3088 0
-3005 -3637 0
-3006 -3638 0
-3007 -3639 0
-3008 -3640 0
-3005 -3769 0
-3006 -3770 0
-3007 -3771 0
-3008 -3772 0
-3005 -4181 0
-3006 -4182 0
-3007 -4183 0
-3008 -4184 0
-3013 -3017 0
-3014 -3018 0
-3015 -3019 0
-3016 -3020 0
-3013 -3021 0
-3014 -3022 0
-3015 -3023 0
-3016 -3024 0
-3013 -3025 0
-3014 -3026 0
-3015 -3027 0
-3016 -3028 0
-3013 -3113 0
-3014 -3114 0
-3015 -3115 0
-3016 -3116 0
-3013 -3321 0
-3014 -3322 0
-3015 -3323 0
-3016 -3324 0
-3013 -3665 0
-3014 -3666 0
-3015 -3667 0
-3016 -3668 0
-3013 -4057 0
-3014 -4058 0
-3015 -4059 0
-3016 -4060 0
-3013 -4137 0
-3014 -4138 0
-3015 -4139 0
-3016 -4140 0
-3013 -4153 0
-3014 -4154 0
-3015 -4155 0
-3016 -4156 0
-3017 -3449 0
-3018 -3450 0
-3019 -3451 0
-3020 -3452 0
-3017 -3669 0
-3018 -3670 0
-3019 -3671 0
-3020 -3672 0
-3021 -3025 0
-3022 -3026 0
-3023 -3027 0
-3024 -3028 0
-3021 -3257 0
-3022 -3258 0
-3023 -3259 0
-3024 -3260 0
-3021 -3461 0
-3022 -3462 0
-3023 -3463 0
-3024 -3464 0
-3021 -4141 0
-3022 -4142 0
-3023 -4143 0
-3024 -4144 0
-3021 -4157 0
-3022 -4158 0
-3023 -4159 0
-3024 -4160 0
-3025 -3181 0
-3026 -3182 0
-3027 -3183 0
-3028 -3184 0
-3025 -3341 0
-3026 -3342 0
-3027 -3343 0
-3028 -3344 0
-3025 -3625 0
-3026 -3626 0
-3027 -3627 0
-3028 -3628 0
-3025 -4165 0
-3026 -4166 0
-3027 -4167 0
-3028 -4168 0
-3037 -3049 0
-3038 -3050 0
-3039 -3051 0
-3040 -3052 0
-3037 -3069 0
-3038 -3070 0
-3039 -3071 0
-3040 -3072 0
-3037 -3073 0
-3038 -3074 0
-3039 -3075 0
-3040 -3076 0
-3037 -3497 0
-3038 -3498 0
-3039 -3499 0
-3040 -3500 0
-3041 -3049 0
-3042 -3050 0
-3043 -3051 0
-3044 -3052 0
-3041 -3057 0
-3042 -3058 0
-3043 -3059 0
-3044 -3060 0
-3041 -4133 0
-3042 -4134 0
-3043 -4135 0
-3044 -4136 0
-3045 -3049 0
-3046 -3050 0
-3047 -3051 0
-3048 -3052 0
-3045 -3061 0
-3046 -3062 0
-3047 -3063 0
-3048 -3064 0
-3045 -3117 0
-3046 -3118 0
-3047 -3119 0
-3048 -3120 0
-3045 -3493 0
-3046 -3494 0
-3047 -3495 0
-3048 -3496 0
-3045 -4069 0
-3046 -4070 0
-3047 -4071 0
-3048 -4072 0
-3045 -4137 0
-3046 -4138 0
-3047 -4139 0
-3048 -4140 0
-3049 -3053 0
-3050 -3054 0
-3051 -3055 0
-3052 -3056 0
-3049 -3065 0
-3050 -3066 0
-3051 -3067 0
-3052 -3068 0
-3049 -3093 0
-3050 -3094 0
-3051 -3095 0
-3052 -3096 0
-3049 -3097 0
-3050 -3098 0
-3051 -3099 0
-3052 -3100 0
-3049 -3117 0
-3050 -3118 0
-3051 -3119 0
-3052 -3120 0
-3049 -3361 0
-3050 -3362 0
-3051 -3363 0
-3052 -3364 0
-3049 -3465 0
-3050 -3466 0
-3051 -3467 0
-3052 -3468 0
-3049 -4133 0
-3050 -4134 0
-3051 -4135 0
-3052 -4136 0
-3049 -4141 0
-3050 -4142 0
-3051 -4143 0
-3052 -4144 0
-3053 -3105 0
-3054 -3106 0
-3055 -3107 0
-3056 -3108 0
-3053 -3121 0
-3054 -3122 0
-3055 -3123 0
-3056 -3124 0
-3053 -3617 0
-3054 -3618 0
-3055 -3619 0
-3056 -3620 0
-3053 -3801 0
-3054 -3802 0
-3055 -3803 0
-3056 -3804 0
-3057 -3065 0
-3058 -3066 0
-3059 -3067 0
-3060 -3068 0
-3057 -3389 0
-3058 -3390 0
-3059 -3391 0
-3060 -3392 0
-3057 -3621 0
-3058 -3622 0
-3059 -3623 0
-3060 -3624 0
-3057 -4149 0
-3058 -4150 0
-3059 -4151 0
-3060 -4152 0
-3061 -3065 0
-3062 -3066 0
-3063 -3067 0
-3064 -3068 0
-3061 -3237 0
-3062 -3238 0
-3063 -3239 0
-3064 -3240 0
-3061 -3393 0
-3062 -3394 0
-3063 -3395 0
-3064 -3396 0
-3061 -4073 0
-3062 -4074 0
-3063 -4075 0
-3064 -4076 0
-3061 -4153 0
-3062 -4154 0
-3063 -4155 0
-3064 -4156 0
-3065 -3397 0
-3066 -3398 0
-3067 -3399 0
-3068 -3400 0
-3065 -3625 0
-3066 -3626 0
-3067 -3627 0
-3068 -3628 0
-3065 -4149 0
-3066 -4150 0
-3067 -4151 0
-3068 -4152 0
-3065 -4157 0
-3066 -4158 0
-3067 -4159 0
-3068 -4160 0
-3069 -3073 0
-3070 -3074 0
-3071 -3075 0
-3072 -3076 0
-3069 -3077 0
-3070 -3078 0
-3071 -3079 0
-3072 -3080 0
-3069 -3093 0
-3070 -3094 0
-3071 -3095 0
-3072 -3096 0
-3069 -4189 0
-3070 -4190 0
-3071 -4191 0
-3072 -4192 0
-3073 -3085 0
-3074 -3086 0
-3075 -3087 0
-3076 -3088 0
-3073 -3097 0
-3074 -3098 0
-3075 -3099 0
-3076 -3100 0
-3073 -3537 0
-3074 -3538 0
-3075 -3539 0
-3076 -3540 0
-3073 -3905 0
-3074 -3906 0
-3075 -3907 0
-3076 -3908 0
-3073 -4193 0
-3074 -4194 0
-3075 -4195 0
-3076 -4196 0
-3077 -3085 0
-3078 -3086 0
-3079 -3087 0
-3080 -3088 0
-3077 -3145 0
-3078 -3146 0
-3079 -3147 0
-3080 -3148 0
-3077 -3729 0
-3078 -3730 0
-3079 -3731 0
-3080 -3732 0
-3085 -3105 0
-3086 -3106 0
-3087 -3107 0
-3088 -3108 0
-3085 -3113 0
-3086 -3114 0
-3087 -3115 0
-3088 -3116 0
-3085 -3137 0
-3086 -3138 0
-3087 -3139 0
-3088 -3140 0
-3085 -3153 0
-3086 -3154 0
-3087 -3155 0
-3088 -3156 0
-3085 -3465 0
-3086 -3466 0
-3087 -3467 0
-3088 -3468 0
-3085 -3529 0
-3086 -3530 0
-3087 -3531 0
-3088 -3532 0
-3085 -3649 0
-3086 -3650 0
-3087 -3651 0
-3088 -3652 0
-3085 -3817 0
-3086 -3818 0
-3087 -3819 0
-3088 -3820 0
-3093 -3097 0
-3094 -3098 0
-3095 -3099 0
-3096 -3100 0
-3097 -3105 0
-3098 -3106 0
-3099 -3107 0
-3100 -3108 0
-3097 -3377 0
-3098 -3378 0
-3099 -3379 0
-3100 -3380 0
-3097 -3541 0
-3098 -3542 0
-3099 -3543 0
-3100 -3544 0
-3097 -3917 0
-3098 -3918 0
-3099 -3919 0
-3100 -3920 0
-3105 -3425 0
-3106 -3426 0
-3107 -3427 0
-3108 -3428 0
-3105 -3549 0
-3106 -3550 0
-3107 -3551 0
-3108 -3552 0
-3105 -3669 0
-3106 -3670 0
-3107 -3671 0
-3108 -3672 0
-3113 -3181 0
-3114 -3182 0
-3115 -3183 0
-3116 -3184 0
-3113 -3685 0
-3114 -3686 0
-3115 -3687 0
-3116 -3688 0
-3113 -3921 0
-3114 -3922 0
-3115 -3923 0
-3116 -3924 0
-3113 -4081 0
-3114 -4082 0
-3115 -4083 0
-3116 -4084 0
-3117 -3121 0
-3118 -3122 0
-3119 -3123 0
-3120 -3124 0
-3117 -3217 0
-3118 -3218 0
-3119 -3219 0
-3120 -3220 0
-3117 -3385 0
-3118 -3386 0
-3119 -3387 0
-3120 -3388 0
-3117 -3505 0
-3118 -3506 0
-3119 -3507 0
-3120 -3508 0
-3117 -4093 0
-3118 -4094 0
-3119 -4095 0
-3120 -4096 0
-3117 -4165 0
-3118 -4166 0
-3119 -4167 0
-3120 -4168 0
-3121 -3217 0
-3122 -3218 0
-3123 -3219 0
-3124 -3220 0
-3125 -3129 0
-3126 -3130 0
-3127 -3131 0
-3128 -3132 0
-3125 -3141 0
-3126 -3142 0
-3127 -3143 0
-3128 -3144 0
-3125 -3189 0
-3126 -3190 0
-3127 -3191 0
-3128 -3192 0
-3125 -3689 0
-3126 -3690 0
-3127 -3691 0
-3128 -3692 0
-3125 -3929 0
-3126 -3930 0
-3127 -3931 0
-3128 -3932 0
-3125 -4133 0
-3126 -4134 0
-3127 -4135 0
-3128 -4136 0
-3129 -3157 0
-3130 -3158 0
-3131 -3159 0
-3132 -3160 0
-3129 -3197 0
-3130 -3198 0
-3131 -3199 0
-3132 -3200 0
-3129 -3693 0
-3130 -3694 0
-3131 -3695 0
-3132 -3696 0
-3129 -4141 0
-3130 -4142 0
-3131 -4143 0
-3132 -4144 0
-3137 -3153 0
-3138 -3154 0
-3139 -3155 0
-3140 -3156 0
-3137 -3505 0
-3138 -3506 0
-3139 -3507 0
-3140 -3508 0
-3137 -3877 0
-3138 -3878 0
-3139 -3879 0
-3140 -3880 0
-3141 -3145 0
-3142 -3146 0
-3143 -3147 0
-3144 -3148 0
-3141 -3149 0
-3142 -3150 0
-3143 -3151 0
-3144 -3152 0
-3141 -3157 0
-3142 -3158 0
-3143 -3159 0
-3144 -3160 0
-3141 -3177 0
-3142 -3178 0
-3143 -3179 0
-3144 -3180 0
-3141 -3201 0
-3142 -3202 0
-3143 -3203 0
-3144 -3204 0
-3141 -3529 0
-3142 -3530 0
-3143 -3531 0
-3144 -3532 0
-3141 -4149 0
-3142 -4150 0
-3143 -4151 0
-3144 -4152 0
-3145 -3153 0
-3146 -3154 0
-3147 -3155 0
-3148 -3156 0
-3145 -3177 0
-3146 -3178 0
-3147 -3179 0
-3148 -3180 0
-3145 -3437 0
-3146 -3438 0
-3147 -3439 0
-3148 -3440 0
-3145 -3745 0
-3146 -3746 0
-3147 -3747 0
-3148 -3748 0
-3145 -3857 0
-3146 -3858 0
-3147 -3859 0
-3148 -3860 0
-3149 -3153 0
-3150 -3154 0
-3151 -3155 0
-3152 -3156 0
-3149 -3181 0
-3150 -3182 0
-3151 -3183 0
-3152 -3184 0
-3149 -3201 0
-3150 -3202 0
-3151 -3203 0
-3152 -3204 0
-3149 -3593 0
-3150 -3594 0
-3151 -3595 0
-3152 -3596 0
-3153 -3181 0
-3154 -3182 0
-3155 -3183 0
-3156 -3184 0
-3153 -3441 0
-3154 -3442 0
-3155 -3443 0
-3156 -3444 0
-3153 -3717 0
-3154 -3718 0
-3155 -3719 0
-3156 -3720 0
-3153 -3861 0
-3154 -3862 0
-3155 -3863 0
-3156 -3864 0
-3153 -3941 0
-3154 -3942 0
-3155 -3943 0
-3156 -3944 0
-3157 -3833 0
-3158 -3834 0
-3159 -3835 0
-3160 -3836 0
-3157 -4157 0
-3158 -4158 0
-3159 -4159 0
-3160 -4160 0
-3177 -3181 0
-3178 -3182 0
-3179 -3183 0
-3180 -3184 0
-3177 -3209 0
-3178 -3210 0
-3179 -3211 0
-3180 -3212 0
-3177 -3561 0
-3178 -3562 0
-3179 -3563 0
-3180 -3564 0
-3177 -3881 0
-3178 -3882 0
-3179 -3883 0
-3180 -3884 0
-3181 -3209 0
-3182 -3210 0
-3183 -3211 0
-3184 -3212 0
-3181 -3317 0
-3182 -3318 0
-3183 -3319 0
-3184 -3320 0
-3181 -3521 0
-3182 -3522 0
-3183 -3523 0
-3184 -3524 0
-3181 -3721 0
-3182 -3722 0
-3183 -3723 0
-3184 -3724 0
-3181 -3885 0
-3182 -3886 0
-3183 -3887 0
-3184 -3888 0
-3181 -3973 0
-3182 -3974 0
-3183 -3975 0
-3184 -3976 0
-3181 -4173 0
-3182 -4174 0
-3183 -4175 0
-3184 -4176 0
-3189 -3197 0
-3190 -3198 0
-3191 -3199 0
-3192 -3200 0
-3189 -3201 0
-3190 -3202 0
-3191 -3203 0
-3192 -3204 0
-3189 -3973 0
-3190 -3974 0
-3191 -3975 0
-3192 -3976 0
-3201 -3209 0
-3202 -3210 0
-3203 -3211 0
-3204 -3212 0
-3201 -3541 0
-3202 -3542 0
-3203 -3543 0
-3204 -3544 0
-3201 -4001 0
-3202 -4002 0
-3203 -4003 0
-3204 -4004 0
-3209 -3569 0
-3210 -3570 0
-3211 -3571 0
-3212 -3572 0
-3209 -3877 0
-3210 -3878 0
-3211 -3879 0
-3212 -3880 0
-3217 -3221 0
-3218 -3222 0
-3219 -3223 0
-3220 -3224 0
-3217 -3513 0
-3218 -3514 0
-3219 -3515 0
-3220 -3516 0
-3217 -4029 0
-3218 -4030 0
-3219 -4031 0
-3220 -4032 0
-3217 -4173 0
-3218 -4174 0
-3219 -4175 0
-3220 -4176 0
-3221 -3517 0
-3222 -3518 0
-3223 -3519 0
-3224 -3520 0
-3221 -4033 0
-3222 -4034 0
-3223 -4035 0
-3224 -4036 0
-3221 -4173 0
-3222 -4174 0
-3223 -4175 0
-3224 -4176 0
-3229 -3533 0
-3230 -3534 0
-3231 -3535 0
-3232 -3536 0
-3229 -4045 0
-3230 -4046 0
-3231 -4047 0
-3232 -4048 0
-3237 -3241 0
-3238 -3242 0
-3239 -3243 0
-3240 -3244 0
-3237 -3245 0
-3238 -3246 0
-3239 -3247 0
-3240 -3248 0
-3237 -3249 0
-3238 -3250 0
-3239 -3251 0
-3240 -3252 0
-3237 -3361 0
-3238 -3362 0
-3239 -3363 0
-3240 -3364 0
-3237 -3497 0
-3238 -3498 0
-3239 -3499 0
-3240 -3500 0
-3237 -3797 0
-3238 -3798 0
-3239 -3799 0
-3240 -3800 0
-3237 -4177 0
-3238 -4178 0
-3239 -4179 0
-3240 -4180 0
-3241 -3249 0
-3242 -3250 0
-3243 -3251 0
-3244 -3252 0
-3241 -3365 0
-3242 -3366 0
-3243 -3367 0
-3244 -3368 0
-3241 -3505 0
-3242 -3506 0
-3243 -3507 0
-3244 -3508 0
-3241 -3613 0
-3242 -3614 0
-3243 -3615 0
-3244 -3616 0
-3241 -3909 0
-3242 -3910 0
-3243 -3911 0
-3244 -3912 0
-3241 -4181 0
-3242 -4182 0
-3243 -4183 0
-3244 -4184 0
-3245 -3369 0
-3246 -3370 0
-3247 -3371 0
-3248 -3372 0
-3245 -3801 0
-3246 -3802 0
-3247 -3803 0
-3248 -3804 0
-3245 -4177 0
-3246 -4178 0
-3247 -4179 0
-3248 -4180 0
-3249 -3377 0
-3250 -3378 0
-3251 -3379 0
-3252 -3380 0
-3249 -3537 0
-3250 -3538 0
-3251 -3539 0
-3252 -3540 0
-3253 -3257 0
-3254 -3258 0
-3255 -3259 0
-3256 -3260 0
-3253 -3305 0
-3254 -3306 0
-3255 -3307 0
-3256 -3308 0
-3253 -3309 0
-3254 -3310 0
-3255 -3311 0
-3256 -3312 0
-3253 -3661 0
-3254 -3662 0
-3255 -3663 0
-3256 -3664 0
-3253 -3769 0
-3254 -3770 0
-3255 -3771 0
-3256 -3772 0
-3253 -4189 0
-3254 -4190 0
-3255 -4191 0
-3256 -4192 0
-3257 -3261 0
-3258 -3262 0
-3259 -3263 0
-3260 -3264 0
-3257 -3341 0
-3258 -3342 0
-3259 -3343 0
-3260 -3344 0
-3257 -3553 0
-3258 -3554 0
-3259 -3555 0
-3260 -3556 0
-3257 -3813 0
-3258 -3814 0
-3259 -3815 0
-3260 -3816 0
-3257 -3901 0
-3258 -3902 0
-3259 -3903 0
-3260 -3904 0
-3257 -4189 0
-3258 -4190 0
-3259 -4191 0
-3260 -4192 0
-3261 -3569 0
-3262 -3570 0
-3263 -3571 0
-3264 -3572 0
-3261 -3909 0
-3262 -3910 0
-3263 -3911 0
-3264 -3912 0
-3261 -4149 0
-3262 -4150 0
-3263 -4151 0
-3264 -4152 0
-3269 -3277 0
-3270 -3278 0
-3271 -3279 0
-3272 -3280 0
-3269 -3281 0
-3270 -3282 0
-3271 -3283 0
-3272 -3284 0
-3269 -3305 0
-3270 -3306 0
-3271 -3307 0
-3272 -3308 0
-3269 -4057 0
-3270 -4058 0
-3271 -4059 0
-3272 -4060 0
-3277 -3289 0
-3278 -3290 0
-3279 -3291 0
-3280 -3292 0
-3277 -3313 0
-3278 -3314 0
-3279 -3315 0
-3280 -3316 0
-3277 -3605 0
-3278 -3606 0
-3279 -3607 0
-3280 -3608 0
-3277 -3953 0
-3278 -3954 0
-3279 -3955 0
-3280 -3956 0
-3281 -3289 0
-3282 -3290 0
-3283 -3291 0
-3284 -3292 0
-3281 -3297 0
-3282 -3298 0
-3283 -3299 0
-3284 -3300 0
-3281 -3321 0
-3282 -3322 0
-3283 -3323 0
-3284 -3324 0
-3281 -3413 0
-3282 -3414 0
-3283 -3415 0
-3284 -3416 0
-3281 -3957 0
-3282 -3958 0
-3283 -3959 0
-3284 -3960 0
-3289 -3301 0
-3290 -3302 0
-3291 -3303 0
-3292 -3304 0
-3289 -3329 0
-3290 -3330 0
-3291 -3331 0
-3292 -3332 0
-3289 -3413 0
-3290 -3414 0
-3291 -3415 0
-3292 -3416 0
-3289 -3793 0
-3290 -3794 0
-3291 -3795 0
-3292 -3796 0
-3289 -3973 0
-3290 -3974 0
-3291 -3975 0
-3292 -3976 0
-3289 -4181 0
-3290 -4182 0
-3291 -4183 0
-3292 -4184 0
-3297 -3301 0
-3298 -3302 0
-3299 -3303 0
-3300 -3304 0
-3297 -3421 0
-3298 -3422 0
-3299 -3423 0
-3300 -3424 0
-3297 -3533 0
-3298 -3534 0
-3299 -3535 0
-3300 -3536 0
-3301 -3421 0
-3302 -3422 0
-3303 -3423 0
-3304 -3424 0
-3301 -3545 0
-3302 -3546 0
-3303 -3547 0
-3304 -3548 0
-3301 -3801 0
-3302 -3802 0
-3303 -3803 0
-3304 -3804 0
-3301 -3997 0
-3302 -3998 0
-3303 -3999 0
-3304 -4000 0
-3301 -4181 0
-3302 -4182 0
-3303 -4183 0
-3304 -4184 0
-3305 -3309 0
-3306 -3310 0
-3307 -3311 0
-3308 -3312 0
-3305 -3313 0
-3306 -3314 0
-3307 -3315 0
-3308 -3316 0
-3305 -3321 0
-3306 -3322 0
-3307 -3323 0
-3308 -3324 0
-3305 -3341 0
-3306 -3342 0
-3307 -3343 0
-3308 -3344 0
-3305 -3649 0
-3306 -3650 0
-3307 -3651 0
-3308 -3652 0
-3305 -4205 0
-3306 -4206 0
-3307 -4207 0
-3308 -4208 0
-3309 -3317 0
-3310 -3318 0
-3311 -3319 0
-3312 -3320 0
-3309 -3957 0
-3310 -3958 0
-3311 -3959 0
-3312 -3960 0
-3309 -4209 0
-3310 -4210 0
-3311 -4211 0
-3312 -4212 0
-3313 -3317 0
-3314 -3318 0
-3315 -3319 0
-3316 -3320 0
-3313 -3329 0
-3314 -3330 0
-3315 -3331 0
-3316 -3332 0
-3313 -3441 0
-3314 -3442 0
-3315 -3443 0
-3316 -3444 0
-3313 -3617 0
-3314 -3618 0
-3315 -3619 0
-3316 -3620 0
-3313 -3961 0
-3314 -3962 0
-3315 -3963 0
-3316 -3964 0
-3317 -3973 0
-3318 -3974 0
-3319 -3975 0
-3320 -3976 0
-3321 -3329 0
-3322 -3330 0
-3323 -3331 0
-3324 -3332 0
-3341 -3437 0
-3342 -3438 0
-3343 -3439 0
-3344 -3440 0
-3341 -3625 0
-3342 -3626 0
-3343 -3627 0
-3344 -3628 0
-3341 -3873 0
-3342 -3874 0
-3343 -3875 0
-3344 -3876 0
-3341 -4205 0
-3342 -4206 0
-3343 -4207 0
-3344 -4208 0
-3361 -3365 0
-3362 -3366 0
-3363 -3367 0
-3364 -3368 0
-3361 -3369 0
-3362 -3370 0
-3363 -3371 0
-3364 -3372 0
-3361 -3377 0
-3362 -3378 0
-3363 -3379 0
-3364 -3380 0
-3361 -3385 0
-3362 -3386 0
-3363 -3387 0
-3364 -3388 0
-3361 -3389 0
-3362 -3390 0
-3363 -3391 0
-3364 -3392 0
-3361 -4189 0
-3362 -4190 0
-3363 -4191 0
-3364 -4192 0
-3365 -3373 0
-3366 -3374 0
-3367 -3375 0
-3368 -3376 0
-3365 -3377 0
-3366 -3378 0
-3367 -3379 0
-3368 -3380 0
-3365 -4193 0
-3366 -4194 0
-3367 -4195 0
-3368 -4196 0
-3369 -3373 0
-3370 -3374 0
-3371 -3375 0
-3372 -3376 0
-3369 -3393 0
-3370 -3394 0
-3371 -3395 0
-3372 -3396 0
-3369 -3397 0
-3370 -3398 0
-3371 -3399 0
-3372 -3400 0
-3369 -4189 0
-3370 -4190 0
-3371 -4191 0
-3372 -4192 0
-3373 -3465 0
-3374 -3466 0
-3375 -3467 0
-3376 -3468 0
-3373 -4193 0
-3374 -4194 0
-3375 -4195 0
-3376 -4196 0
-3377 -4073 0
-3378 -4074 0
-3379 -4075 0
-3380 -4076 0
-3377 -4201 0
-3378 -4202 0
-3379 -4203 0
-3380 -4204 0
-3385 -3389 0
-3386 -3390 0
-3387 -3391 0
-3388 -3392 0
-3385 -3393 0
-3386 -3394 0
-3387 -3395 0
-3388 -3396 0
-3385 -4205 0
-3386 -4206 0
-3387 -4207 0
-3388 -4208 0
-3389 -3397 0
-3390 -3398 0
-3391 -3399 0
-3392 -3400 0
-3389 -3621 0
-3390 -3622 0
-3391 -3623 0
-3392 -3624 0
-3389 -3717 0
-3390 -3718 0
-3391 -3719 0
-3392 -3720 0
-3389 -4209 0
-3390 -4210 0
-3391 -4211 0
-3392 -4212 0
-3393 -3397 0
-3394 -3398 0
-3395 -3399 0
-3396 -3400 0
-3393 -3497 0
-3394 -3498 0
-3395 -3499 0
-3396 -3500 0
-3393 -4205 0
-3394 -4206 0
-3395 -4207 0
-3396 -4208 0
-3397 -3405 0
-3398 -3406 0
-3399 -3407 0
-3400 -3408 0
-3397 -3625 0
-3398 -3626 0
-3399 -3627 0
-3400 -3628 0
-3397 -4209 0
-3398 -4210 0
-3399 -4211 0
-3400 -4212 0
-3405 -3629 0
-3406 -3630 0
-3407 -3631 0
-3408 -3632 0
-3405 -3845 0
-3406 -3846 0
-3407 -3847 0
-3408 -3848 0
-3405 -4045 0
-3406 -4046 0
-3407 -4047 0
-3408 -4048 0
-3413 -3421 0
-3414 -3422 0
-3415 -3423 0
-3416 -3424 0
-3413 -3749 0
-3414 -3750 0
-3415 -3751 0
-3416 -3752 0
-3413 -3861 0
-3414 -3862 0
-3415 -3863 0
-3416 -3864 0
-3413 -4049 0
-3414 -4050 0
-3415 -4051 0
-3416 -4052 0
-3413 -4193 0
-3414 -4194 0
-3415 -4195 0
-3416 -4196 0
-3417 -3421 0
-3418 -3422 0
-3419 -3423 0
-3420 -3424 0
-3417 -3541 0
-3418 -3542 0
-3419 -3543 0
-3420 -3544 0
-3417 -3657 0
-3418 -3658 0
-3419 -3659 0
-3420 -3660 0
-3417 -3737 0
-3418 -3738 0
-3419 -3739 0
-3420 -3740 0
-3417 -4029 0
-3418 -4030 0
-3419 -4031 0
-3420 -4032 0
-3417 -4189 0
-3418 -4190 0
-3419 -4191 0
-3420 -4192 0
-3421 -3425 0
-3422 -3426 0
-3423 -3427 0
-3424 -3428 0
-3421 -3429 0
-3422 -3430 0
-3423 -3431 0
-3424 -3432 0
-3421 -3525 0
-3422 -3526 0
-3423 -3527 0
-3424 -3528 0
-3421 -3597 0
-3422 -3598 0
-3423 -3599 0
-3424 -3600 0
-3421 -3665 0
-3422 -3666 0
-3423 -3667 0
-3424 -3668 0
-3421 -4105 0
-3422 -4106 0
-3423 -4107 0
-3424 -4108 0
-3421 -4193 0
-3422 -4194 0
-3423 -4195 0
-3424 -4196 0
-3425 -3669 0
-3426 -3670 0
-3427 -3671 0
-3428 -3672 0
-3425 -3753 0
-3426 -3754 0
-3427 -3755 0
-3428 -3756 0
-3429 -3549 0
-3430 -3550 0
-3431 -3551 0
-3432 -3552 0
-3429 -3885 0
-3430 -3886 0
-3431 -3887 0
-3432 -3888 0
-3437 -3441 0
-3438 -3442 0
-3439 -3443 0
-3440 -3444 0
-3437 -3449 0
-3438 -3450 0
-3439 -3451 0
-3440 -3452 0
-3437 -3953 0
-3438 -3954 0
-3439 -3955 0
-3440 -3956 0
-3441 -3901 0
-3442 -3902 0
-3443 -3903 0
-3444 -3904 0
-3441 -4221 0
-3442 -4222 0
-3443 -4223 0
-3444 -4224 0
-3449 -3461 0
-3450 -3462 0
-3451 -3463 0
-3452 -3464 0
-3449 -3553 0
-3450 -3554 0
-3451 -3555 0
-3452 -3556 0
-3449 -3561 0
-3450 -3562 0
-3451 -3563 0
-3452 -3564 0
-3449 -3973 0
-3450 -3974 0
-3451 -3975 0
-3452 -3976 0
-3461 -3569 0
-3462 -3570 0
-3463 -3571 0
-3464 -3572 0
-3461 -3577 0
-3462 -3578 0
-3463 -3579 0
-3464 -3580 0
-3461 -3997 0
-3462 -3998 0
-3463 -3999 0
-3464 -4000 0
-3465 -3505 0
-3466 -3506 0
-3467 -3507 0
-3468 -3508 0
-3477 -3565 0
-3478 -3566 0
-3479 -3567 0
-3480 -3568 0
-3477 -3569 0
-3478 -3570 0
-3479 -3571 0
-3480 -3572 0
-3477 -4069 0
-3478 -4070 0
-3479 -4071 0
-3480 -4072 0
-3477 -4189 0
-3478 -4190 0
-3479 -4191 0
-3480 -4192 0
-3485 -3489 0
-3486 -3490 0
-3487 -3491 0
-3488 -3492 0
-3485 -3501 0
-3486 -3502 0
-3487 -3503 0
-3488 -3504 0
-3485 -3513 0
-3486 -3514 0
-3487 -3515 0
-3488 -3516 0
-3489 -3505 0
-3490 -3506 0
-3491 -3507 0
-3492 -3508 0
-3489 -3513 0
-3490 -3514 0
-3491 -3515 0
-3492 -3516 0
-3489 -4221 0
-3490 -4222 0
-3491 -4223 0
-3492 -4224 0
-3493 -3497 0
-3494 -3498 0
-3495 -3499 0
-3496 -3500 0
-3493 -3501 0
-3494 -3502 0
-3495 -3503 0
-3496 -3504 0
-3493 -3533 0
-3494 -3534 0
-3495 -3535 0
-3496 -3536 0
-3493 -3793 0
-3494 -3794 0
-3495 -3795 0
-3496 -3796 0
-3493 -4189 0
-3494 -4190 0
-3495 -4191 0
-3496 -4192 0
-3497 -3505 0
-3498 -3506 0
-3499 -3507 0
-3500 -3508 0
-3497 -3537 0
-3498 -3538 0
-3499 -3539 0
-3500 -3540 0
-3497 -4029 0
-3498 -4030 0
-3499 -4031 0
-3500 -4032 0
-3501 -3505 0
-3502 -3506 0
-3503 -3507 0
-3504 -3508 0
-3501 -3517 0
-3502 -3518 0
-3503 -3519 0
-3504 -3520 0
-3501 -3533 0
-3502 -3534 0
-3503 -3535 0
-3504 -3536 0
-3501 -3605 0
-3502 -3606 0
-3503 -3607 0
-3504 -3608 0
-3501 -4089 0
-3502 -4090 0
-3503 -4091 0
-3504 -4092 0
-3501 -4193 0
-3502 -4194 0
-3503 -4195 0
-3504 -4196 0
-3505 -3517 0
-3506 -3518 0
-3507 -3519 0
-3508 -3520 0
-3505 -3537 0
-3506 -3538 0
-3507 -3539 0
-3508 -3540 0
-3505 -3833 0
-3506 -3834 0
-3507 -3835 0
-3508 -3836 0
-3505 -4093 0
-3506 -4094 0
-3507 -4095 0
-3508 -4096 0
-3505 -4221 0
-3506 -4222 0
-3507 -4223 0
-3508 -4224 0
-3505 -4229 0
-3506 -4230 0
-3507 -4231 0
-3508 -4232 0
-3513 -3517 0
-3514 -3518 0
-3515 -3519 0
-3516 -3520 0
-3517 -3521 0
-3518 -3522 0
-3519 -3523 0
-3520 -3524 0
-3517 -3565 0
-3518 -3566 0
-3519 -3567 0
-3520 -3568 0
-3517 -3617 0
-3518 -3618 0
-3519 -3619 0
-3520 -3620 0
-3517 -3841 0
-3518 -3842 0
-3519 -3843 0
-3520 -3844 0
-3517 -4137 0
-3518 -4138 0
-3519 -4139 0
-3520 -4140 0
-3521 -3569 0
-3522 -3570 0
-3523 -3571 0
-3524 -3572 0
-3521 -3721 0
-3522 -3722 0
-3523 -3723 0
-3524 -3724 0
-3521 -4141 0
-3522 -4142 0
-3523 -4143 0
-3524 -4144 0
-3525 -3549 0
-3526 -3550 0
-3527 -3551 0
-3528 -3552 0
-3525 -3581 0
-3526 -3582 0
-3527 -3583 0
-3528 -3584 0
-3525 -3729 0
-3526 -3730 0
-3527 -3731 0
-3528 -3732 0
-3529 -3549 0
-3530 -3550 0
-3531 -3551 0
-3532 -3552 0
-3529 -3561 0
-3530 -3562 0
-3531 -3563 0
-3532 -3564 0
-3529 -3949 0
-3530 -3950 0
-3531 -3951 0
-3532 -3952 0
-3533 -3537 0
-3534 -3538 0
-3535 -3539 0
-3536 -3540 0
-3533 -3541 0
-3534 -3542 0
-3535 -3543 0
-3536 -3544 0
-3533 -3545 0
-3534 -3546 0
-3535 -3547 0
-3536 -3548 0
-3533 -3565 0
-3534 -3566 0
-3535 -3567 0
-3536 -3568 0
-3533 -3597 0
-3534 -3598 0
-3535 -3599 0
-3536 -3600 0
-3533 -3633 0
-3534 -3634 0
-3535 -3635 0
-3536 -3636 0
-3533 -4153 0
-3534 -4154 0
-3535 -4155 0
-3536 -4156 0
-3533 -4201 0
-3534 -4202 0
-3535 -4203 0
-3536 -4204 0
-3537 -3565 0
-3538 -3566 0
-3539 -3567 0
-3540 -3568 0
-3537 -3857 0
-3538 -3858 0
-3539 -3859 0
-3540 -3860 0
-3541 -3549 0
-3542 -3550 0
-3543 -3551 0
-3544 -3552 0
-3541 -3569 0
-3542 -3570 0
-3543 -3571 0
-3544 -3572 0
-3541 -3957 0
-3542 -3958 0
-3543 -3959 0
-3544 -3960 0
-3541 -4157 0
-3542 -4158 0
-3543 -4159 0
-3544 -4160 0
-3545 -3549 0
-3546 -3550 0
-3547 -3551 0
-3548 -3552 0
-3545 -3593 0
-3546 -3594 0
-3547 -3595 0
-3548 -3596 0
-3545 -3597 0
-3546 -3598 0
-3547 -3599 0
-3548 -3600 0
-3545 -3749 0
-3546 -3750 0
-3547 -3751 0
-3548 -3752 0
-3545 -3801 0
-3546 -3802 0
-3547 -3803 0
-3548 -3804 0
-3545 -3961 0
-3546 -3962 0
-3547 -3963 0
-3548 -3964 0
-3545 -4121 0
-3546 -4122 0
-3547 -4123 0
-3548 -4124 0
-3549 -3573 0
-3550 -3574 0
-3551 -3575 0
-3552 -3576 0
-3549 -3577 0
-3550 -3578 0
-3551 -3579 0
-3552 -3580 0
-3549 -3593 0
-3550 -3594 0
-3551 -3595 0
-3552 -3596 0
-3549 -3753 0
-3550 -3754 0
-3551 -3755 0
-3552 -3756 0
-3549 -3773 0
-3550 -3774 0
-3551 -3775 0
-3552 -3776 0
-3549 -3973 0
-3550 -3974 0
-3551 -3975 0
-3552 -3976 0
-3553 -3561 0
-3554 -3562 0
-3555 -3563 0
-3556 -3564 0
-3553 -3569 0
-3554 -3570 0
-3555 -3571 0
-3556 -3572 0
-3553 -4049 0
-3554 -4050 0
-3555 -4051 0
-3556 -4052 0
-3561 -3577 0
-3562 -3578 0
-3563 -3579 0
-3564 -3580 0
-3561 -4117 0
-3562 -4118 0
-3563 -4119 0
-3564 -4120 0
-3565 -3569 0
-3566 -3570 0
-3567 -3571 0
-3568 -3572 0
-3565 -3661 0
-3566 -3662 0
-3567 -3663 0
-3568 -3664 0
-3565 -3881 0
-3566 -3882 0
-3567 -3883 0
-3568 -3884 0
-3565 -4205 0
-3566 -4206 0
-3567 -4207 0
-3568 -4208 0
-3569 -3577 0
-3570 -3578 0
-3571 -3579 0
-3572 -3580 0
-3569 -3829 0
-3570 -3830 0
-3571 -3831 0
-3572 -3832 0
-3569 -4093 0
-3570 -4094 0
-3571 -4095 0
-3572 -4096 0
-3569 -4209 0
-3570 -4210 0
-3571 -4211 0
-3572 -4212 0
-3573 -3577 0
-3574 -3578 0
-3575 -3579 0
-3576 -3580 0
-3573 -4005 0
-3574 -4006 0
-3575 -4007 0
-3576 -4008 0
-3573 -4097 0
-3574 -4098 0
-3575 -4099 0
-3576 -4100 0
-3577 -4125 0
-3578 -4126 0
-3579 -4127 0
-3580 -4128 0
-3581 -3593 0
-3582 -3594 0
-3583 -3595 0
-3584 -3596 0
-3581 -4029 0
-3582 -4030 0
-3583 -4031 0
-3584 -4032 0
-3581 -4221 0
-3582 -4222 0
-3583 -4223 0
-3584 -4224 0
-3593 -3837 0
-3594 -3838 0
-3595 -3839 0
-3596 -3840 0
-3593 -4037 0
-3594 -4038 0
-3595 -4039 0
-3596 -4040 0
-3597 -3729 0
-3598 -3730 0
-3599 -3731 0
-3600 -3732 0
-3605 -3613 0
-3606 -3614 0
-3607 -3615 0
-3608 -3616 0
-3605 -3617 0
-3606 -3618 0
-3607 -3619 0
-3608 -3620 0
-3605 -3633 0
-3606 -3634 0
-3607 -3635 0
-3608 -3636 0
-3605 -3637 0
-3606 -3638 0
-3607 -3639 0
-3608 -3640 0
-3605 -4133 0
-3606 -4134 0
-3607 -4135 0
-3608 -4136 0
-3613 -3629 0
-3614 -3630 0
-3615 -3631 0
-3616 -3632 0
-3613 -3833 0
-3614 -3834 0
-3615 -3835 0
-3616 -3836 0
-3613 -4057 0
-3614 -4058 0
-3615 -4059 0
-3616 -4060 0
-3613 -4149 0
-3614 -4150 0
-3615 -4151 0
-3616 -4152 0
-3617 -3629 0
-3618 -3630 0
-3619 -3631 0
-3620 -3632 0
-3617 -3661 0
-3618 -3662 0
-3619 -3663 0
-3620 -3664 0
-3617 -3669 0
-3618 -3670 0
-3619 -3671 0
-3620 -3672 0
-3617 -3929 0
-3618 -3930 0
-3619 -3931 0
-3620 -3932 0
-3617 -4137 0
-3618 -4138 0
-3619 -4139 0
-3620 -4140 0
-3621 -3625 0
-3622 -3626 0
-3623 -3627 0
-3624 -3628 0
-3621 -3901 0
-3622 -3902 0
-3623 -3903 0
-3624 -3904 0
-3625 -3629 0
-3626 -3630 0
-3627 -3631 0
-3628 -3632 0
-3625 -3721 0
-3626 -3722 0
-3627 -3723 0
-3628 -3724 0
-3625 -3905 0
-3626 -3906 0
-3627 -3907 0
-3628 -3908 0
-3625 -4089 0
-3626 -4090 0
-3627 -4091 0
-3628 -4092 0
-3629 -3685 0
-3630 -3686 0
-3631 -3687 0
-3632 -3688 0
-3629 -3721 0
-3630 -3722 0
-3631 -3723 0
-3632 -3724 0
-3629 -3845 0
-3630 -3846 0
-3631 -3847 0
-3632 -3848 0
-3629 -4097 0
-3630 -4098 0
-3631 -4099 0
-3632 -4100 0
-3629 -4153 0
-3630 -4154 0
-3631 -4155 0
-3632 -4156 0
-3629 -4177 0
-3630 -4178 0
-3631 -4179 0
-3632 -4180 0
-3633 -3637 0
-3634 -3638 0
-3635 -3639 0
-3636 -3640 0
-3633 -3641 0
-3634 -3642 0
-3635 -3643 0
-3636 -3644 0
-3633 -3657 0
-3634 -3658 0
-3635 -3659 0
-3636 -3660 0
-3633 -3661 0
-3634 -3662 0
-3635 -3663 0
-3636 -3664 0
-3633 -3689 0
-3634 -3690 0
-3635 -3691 0
-3636 -3692 0
-3633 -3729 0
-3634 -3730 0
-3635 -3731 0
-3636 -3732 0
-3633 -3849 0
-3634 -3850 0
-3635 -3851 0
-3636 -3852 0
-3633 -4177 0
-3634 -4178 0
-3635 -4179 0
-3636 -4180 0
-3637 -3665 0
-3638 -3666 0
-3639 -3667 0
-3640 -3668 0
-3637 -3669 0
-3638 -3670 0
-3639 -3671 0
-3640 -3672 0
-3637 -4181 0
-3638 -4182 0
-3639 -4183 0
-3640 -4184 0
-3641 -3693 0
-3642 -3694 0
-3643 -3695 0
-3644 -3696 0
-3641 -3737 0
-3642 -3738 0
-3643 -3739 0
-3644 -3740 0
-3649 -3669 0
-3650 -3670 0
-3651 -3671 0
-3652 -3672 0
-3649 -3949 0
-3650 -3950 0
-3651 -3951 0
-3652 -3952 0
-3657 -3661 0
-3658 -3662 0
-3659 -3663 0
-3660 -3664 0
-3657 -3665 0
-3658 -3666 0
-3659 -3667 0
-3660 -3668 0
-3657 -3701 0
-3658 -3702 0
-3659 -3703 0
-3660 -3704 0
-3657 -3921 0
-3658 -3922 0
-3659 -3923 0
-3660 -3924 0
-3661 -3669 0
-3662 -3670 0
-3663 -3671 0
-3664 -3672 0
-3661 -3769 0
-3662 -3770 0
-3663 -3771 0
-3664 -3772 0
-3665 -3669 0
-3666 -3670 0
-3667 -3671 0
-3668 -3672 0
-3669 -3673 0
-3670 -3674 0
-3671 -3675 0
-3672 -3676 0
-3669 -3685 0
-3670 -3686 0
-3671 -3687 0
-3672 -3688 0
-3669 -3973 0
-3670 -3974 0
-3671 -3975 0
-3672 -3976 0
-3669 -4069 0
-3670 -4070 0
-3671 -4071 0
-3672 -4072 0
-3669 -4221 0
-3670 -4222 0
-3671 -4223 0
-3672 -4224 0
-3673 -3817 0
-3674 -3818 0
-3675 -3819 0
-3676 -3820 0
-3673 -3985 0
-3674 -3986 0
-3675 -3987 0
-3676 -3988 0
-3685 -3777 0
-3686 -3778 0
-3687 -3779 0
-3688 -3780 0
-3685 -3889 0
-3686 -3890 0
-3687 -3891 0
-3688 -3892 0
-3685 -3917 0
-3686 -3918 0
-3687 -3919 0
-3688 -3920 0
-3685 -4001 0
-3686 -4002 0
-3687 -4003 0
-3688 -4004 0
-3685 -4073 0
-3686 -4074 0
-3687 -4075 0
-3688 -4076 0
-3689 -3693 0
-3690 -3694 0
-3691 -3695 0
-3692 -3696 0
-3689 -3701 0
-3690 -3702 0
-3691 -3703 0
-3692 -3704 0
-3689 -3745 0
-3690 -3746 0
-3691 -3747 0
-3692 -3748 0
-3689 -3941 0
-3690 -3942 0
-3691 -3943 0
-3692 -3944 0
-3693 -3705 0
-3694 -3706 0
-3695 -3707 0
-3696 -3708 0
-3693 -3753 0
-3694 -3754 0
-3695 -3755 0
-3696 -3756 0
-3693 -3857 0
-3694 -3858 0
-3695 -3859 0
-3696 -3860 0
-3701 -3705 0
-3702 -3706 0
-3703 -3707 0
-3704 -3708 0
-3701 -3973 0
-3702 -3974 0
-3703 -3975 0
-3704 -3976 0
-3705 -3881 0
-3706 -3882 0
-3707 -3883 0
-3708 -3884 0
-3705 -4165 0
-3706 -4166 0
-3707 -4167 0
-3708 -4168 0
-3717 -3721 0
-3718 -3722 0
-3719 -3723 0
-3720 -3724 0
-3717 -3901 0
-3718 -3902 0
-3719 -3903 0
-3720 -3904 0
-3721 -4189 0
-3722 -4190 0
-3723 -4191 0
-3724 -4192 0
-3729 -3737 0
-3730 -3738 0
-3731 -3739 0
-3732 -3740 0
-3729 -3745 0
-3730 -3746 0
-3731 -3747 0
-3732 -3748 0
-3737 -3749 0
-3738 -3750 0
-3739 -3751 0
-3740 -3752 0
-3737 -3753 0
-3738 -3754 0
-3739 -3755 0
-3740 -3756 0
-3737 -3921 0
-3738 -3922 0
-3739 -3923 0
-3740 -3924 0
-3745 -3753 0
-3746 -3754 0
-3747 -3755 0
-3748 -3756 0
-3745 -3953 0
-3746 -3954 0
-3747 -3955 0
-3748 -3956 0
-3749 -3753 0
-3750 -3754 0
-3751 -3755 0
-3752 -3756 0
-3749 -3861 0
-3750 -3862 0
-3751 -3863 0
-3752 -3864 0
-3749 -3961 0
-3750 -3962 0
-3751 -3963 0
-3752 -3964 0
-3749 -4033 0
-3750 -4034 0
-3751 -4035 0
-3752 -4036 0
-3753 -3973 0
-3754 -3974 0
-3755 -3975 0
-3756 -3976 0
-3769 -3777 0
-3770 -3778 0
-3771 -3779 0
-3772 -3780 0
-3769 -3817 0
-3770 -3818 0
-3771 -3819 0
-3772 -3820 0
-3773 -3777 0
-3774 -3778 0
-3775 -3779 0
-3776 -3780 0
-3773 -3813 0
-3774 -3814 0
-3775 -3815 0
-3776 -3816 0
-3773 -3973 0
-3774 -3974 0
-3775 -3975 0
-3776 -3976 0
-3777 -3817 0
-3778 -3818 0
-3779 -3819 0
-3780 -3820 0
-3777 -3977 0
-3778 -3978 0
-3779 -3979 0
-3780 -3980 0
-3793 -3801 0
-3794 -3802 0
-3795 -3803 0
-3796 -3804 0
-3793 -3833 0
-3794 -3834 0
-3795 -3835 0
-3796 -3836 0
-3793 -4189 0
-3794 -4190 0
-3795 -4191 0
-3796 -4192 0
-3797 -3801 0
-3798 -3802 0
-3799 -3803 0
-3800 -3804 0
-3797 -4029 0
-3798 -4030 0
-3799 -4031 0
-3800 -4032 0
-3801 -3837 0
-3802 -3838 0
-3803 -3839 0
-3804 -3840 0
-3801 -4033 0
-3802 -4034 0
-3803 -4035 0
-3804 -4036 0
-3801 -4137 0
-3802 -4138 0
-3803 -4139 0
-3804 -4140 0
-3813 -3817 0
-3814 -3818 0
-3815 -3819 0
-3816 -3820 0
-3813 -3825 0
-3814 -3826 0
-3815 -3827 0
-3816 -3828 0
-3813 -3873 0
-3814 -3874 0
-3815 -3875 0
-3816 -3876 0
-3813 -4049 0
-3814 -4050 0
-3815 -4051 0
-3816 -4052 0
-3813 -4121 0
-3814 -4122 0
-3815 -4123 0
-3816 -4124 0
-3817 -3829 0
-3818 -3830 0
-3819 -3831 0
-3820 -3832 0
-3817 -3877 0
-3818 -3878 0
-3819 -3879 0
-3820 -3880 0
-3817 -4201 0
-3818 -4202 0
-3819 -4203 0
-3820 -4204 0
-3825 -3829 0
-3826 -3830 0
-3827 -3831 0
-3828 -3832 0
-3825 -3885 0
-3826 -3886 0
-3827 -3887 0
-3828 -3888 0
-3825 -4125 0
-3826 -4126 0
-3827 -4127 0
-3828 -4128 0
-3825 -4193 0
-3826 -4194 0
-3827 -4195 0
-3828 -4196 0
-3829 -3889 0
-3830 -3890 0
-3831 -3891 0
-3832 -3892 0
-3833 -3837 0
-3834 -3838 0
-3835 -3839 0
-3836 -3840 0
-3833 -3841 0
-3834 -3842 0
-3835 -3843 0
-3836 -3844 0
-3833 -3845 0
-3834 -3846 0
-3835 -3847 0
-3836 -3848 0
-3833 -3857 0
-3834 -3858 0
-3835 -3859 0
-3836 -3860 0
-3833 -3861 0
-3834 -3862 0
-3835 -3863 0
-3836 -3864 0
-3833 -4057 0
-3834 -4058 0
-3835 -4059 0
-3836 -4060 0
-3833 -4209 0
-3834 -4210 0
-3835 -4211 0
-3836 -4212 0
-3837 -4037 0
-3838 -4038 0
-3839 -4039 0
-3840 -4040 0
-3837 -4061 0
-3838 -4062 0
-3839 -4063 0
-3840 -4064 0
-3837 -4165 0
-3838 -4166 0
-3839 -4167 0
-3840 -4168 0
-3841 -3845 0
-3842 -3846 0
-3843 -3847 0
-3844 -3848 0
-3841 -3881 0
-3842 -3882 0
-3843 -3883 0
-3844 -3884 0
-3841 -3885 0
-3842 -3886 0
-3843 -3887 0
-3844 -3888 0
-3841 -3929 0
-3842 -3930 0
-3843 -3931 0
-3844 -3932 0
-3845 -3889 0
-3846 -3890 0
-3847 -3891 0
-3848 -3892 0
-3845 -4173 0
-3846 -4174 0
-3847 -4175 0
-3848 -4176 0
-3849 -3857 0
-3850 -3858 0
-3851 -3859 0
-3852 -3860 0
-3849 -4257 0
-3850 -4258 0
-3851 -4259 0
-3852 -4260 0
-3857 -3861 0
-3858 -3862 0
-3859 -3863 0
-3860 -3864 0
-3857 -3881 0
-3858 -3882 0
-3859 -3883 0
-3860 -3884 0
-3861 -3885 0
-3862 -3886 0
-3863 -3887 0
-3864 -3888 0
-3861 -3889 0
-3862 -3890 0
-3863 -3891 0
-3864 -3892 0
-3861 -3941 0
-3862 -3942 0
-3863 -3943 0
-3864 -3944 0
-3873 -3877 0
-3874 -3878 0
-3875 -3879 0
-3876 -3880 0
-3873 -3885 0
-3874 -3886 0
-3875 -3887 0
-3876 -3888 0
-3873 -3953 0
-3874 -3954 0
-3875 -3955 0
-3876 -3956 0
-3873 -4089 0
-3874 -4090 0
-3875 -4091 0
-3876 -4092 0
-3877 -3889 0
-3878 -3890 0
-3879 -3891 0
-3880 -3892 0
-3877 -4093 0
-3878 -4094 0
-3879 -4095 0
-3880 -4096 0
-3881 -3885 0
-3882 -3886 0
-3883 -3887 0
-3884 -3888 0
-3881 -4117 0
-3882 -4118 0
-3883 -4119 0
-3884 -4120 0
-3881 -4205 0
-3882 -4206 0
-3883 -4207 0
-3884 -4208 0
-3885 -3889 0
-3886 -3890 0
-3887 -3891 0
-3888 -3892 0
-3885 -3973 0
-3886 -3974 0
-3887 -3975 0
-3888 -3976 0
-3889 -3977 0
-3890 -3978 0
-3891 -3979 0
-3892 -3980 0
-3897 -3973 0
-3898 -3974 0
-3899 -3975 0
-3900 -3976 0
-3897 -4177 0
-3898 -4178 0
-3899 -4179 0
-3900 -4180 0
-3901 -3905 0
-3902 -3906 0
-3903 -3907 0
-3904 -3908 0
-3901 -3909 0
-3902 -3910 0
-3903 -3911 0
-3904 -3912 0
-3905 -3917 0
-3906 -3918 0
-3907 -3919 0
-3908 -3920 0
-3905 -4193 0
-3906 -4194 0
-3907 -4195 0
-3908 -4196 0
-3909 -3917 0
-3910 -3918 0
-3911 -3919 0
-3912 -3920 0
-3909 -4093 0
-3910 -4094 0
-3911 -4095 0
-3912 -4096 0
-3909 -4149 0
-3910 -4150 0
-3911 -4151 0
-3912 -4152 0
-3917 -4073 0
-3918 -4074 0
-3919 -4075 0
-3920 -4076 0
-3917 -4157 0
-3918 -4158 0
-3919 -4159 0
-3920 -4160 0
-3921 -3961 0
-3922 -3962 0
-3923 -3963 0
-3924 -3964 0
-3921 -3973 0
-3922 -3974 0
-3923 -3975 0
-3924 -3976 0
-3929 -3933 0
-3930 -3934 0
-3931 -3935 0
-3932 -3936 0
-3929 -3973 0
-3930 -3974 0
-3931 -3975 0
-3932 -3976 0
-3933 -3973 0
-3934 -3974 0
-3935 -3975 0
-3936 -3976 0
-3933 -4081 0
-3934 -4082 0
-3935 -4083 0
-3936 -4084 0
-3941 -3973 0
-3942 -3974 0
-3943 -3975 0
-3944 -3976 0
-3941 -3977 0
-3942 -3978 0
-3943 -3979 0
-3944 -3980 0
-3949 -3973 0
-3950 -3974 0
-3951 -3975 0
-3952 -3976 0
-3953 -3973 0
-3954 -3974 0
-3955 -3975 0
-3956 -3976 0
-3953 -4133 0
-3954 -4134 0
-3955 -4135 0
-3956 -4136 0
-3957 -3973 0
-3958 -3974 0
-3959 -3975 0
-3960 -3976 0
-3957 -4049 0
-3958 -4050 0
-3959 -4051 0
-3960 -4052 0
-3961 -3973 0
-3962 -3974 0
-3963 -3975 0
-3964 -3976 0
-3961 -4137 0
-3962 -4138 0
-3963 -4139 0
-3964 -4140 0
-3973 -3977 0
-3974 -3978 0
-3975 -3979 0
-3976 -3980 0
-3973 -3985 0
-3974 -3986 0
-3975 -3987 0
-3976 -3988 0
-3973 -3997 0
-3974 -3998 0
-3975 -3999 0
-3976 -4000 0
-3973 -4001 0
-3974 -4002 0
-3975 -4003 0
-3976 -4004 0
-3973 -4005 0
-3974 -4006 0
-3975 -4007 0
-3976 -4008 0
-3973 -4017 0
-3974 -4018 0
-3975 -4019 0
-3976 -4020 0
-3973 -4049 0
-3974 -4050 0
-3975 -4051 0
-3976 -4052 0
-3973 -4109 0
-3974 -4110 0
-3975 -4111 0
-3976 -4112 0
-3973 -4141 0
-3974 -4142 0
-3975 -4143 0
-3976 -4144 0
-3973 -4189 0
-3974 -4190 0
-3975 -4191 0
-3976 -4192 0
-3973 -4221 0
-3974 -4222 0
-3975 -4223 0
-3976 -4224 0
-3973 -4257 0
-3974 -4258 0
-3975 -4259 0
-3976 -4260 0
-3997 -4121 0
-3998 -4122 0
-3999 -4123 0
-4000 -4124 0
-4001 -4157 0
-4002 -4158 0
-4003 -4159 0
-4004 -4160 0
-4017 -4201 0
-4018 -4202 0
-4019 -4203 0
-4020 -4204 0
-4029 -4033 0
-4030 -4034 0
-4031 -4035 0
-4032 -4036 0
-4029 -4037 0
-4030 -4038 0
-4031 -4039 0
-4032 -4040 0
-4029 -4257 0
-4030 -4258 0
-4031 -4259 0
-4032 -4260 0
-4033 -4045 0
-4034 -4046 0
-4035 -4047 0
-4036 -4048 0
-4033 -4137 0
-4034 -4138 0
-4035 -4139 0
-4036 -4140 0
-4033 -4257 0
-4034 -4258 0
-4035 -4259 0
-4036 -4260 0
-4037 -4045 0
-4038 -4046 0
-4039 -4047 0
-4040 -4048 0
-4037 -4205 0
-4038 -4206 0
-4039 -4207 0
-4040 -4208 0
-4045 -4153 0
-4046 -4154 0
-4047 -4155 0
-4048 -4156 0
-4057 -4061 0
-4058 -4062 0
-4059 -4063 0
-4060 -4064 0
-4057 -4081 0
-4058 -4082 0
-4059 -4083 0
-4060 -4084 0
-4061 -4089 0
-4062 -4090 0
-4063 -4091 0
-4064 -4092 0
-4061 -4097 0
-4062 -4098 0
-4063 -4099 0
-4064 -4100 0
-4061 -4165 0
-4062 -4166 0
-4063 -4167 0
-4064 -4168 0
-4061 -4181 0
-4062 -4182 0
-4063 -4183 0
-4064 -4184 0
-4069 -4073 0
-4070 -4074 0
-4071 -4075 0
-4072 -4076 0
-4069 -4093 0
-4070 -4094 0
-4071 -4095 0
-4072 -4096 0
-4069 -4189 0
-4070 -4190 0
-4071 -4191 0
-4072 -4192 0
-4081 -4097 0
-4082 -4098 0
-4083 -4099 0
-4084 -4100 0
-4081 -4109 0
-4082 -4110 0
-4083 -4111 0
-4084 -4112 0
-4089 -4093 0
-4090 -4094 0
-4091 -4095 0
-4092 -4096 0
-4089 -4097 0
-4090 -4098 0
-4091 -4099 0
-4092 -4100 0
-4089 -4133 0
-4090 -4134 0
-4091 -4135 0
-4092 -4136 0
-4089 -4193 0
-4090 -4194 0
-4091 -4195 0
-4092 -4196 0
-4093 -4209 0
-4094 -4210 0
-4095 -4211 0
-4096 -4212 0
-4097 -4105 0
-4098 -4106 0
-4099 -4107 0
-4100 -4108 0
-4097 -4121 0
-4098 -4122 0
-4099 -4123 0
-4100 -4124 0
-4097 -4173 0
-4098 -4174 0
-4099 -4175 0
-4100 -4176 0
-4105 -4125 0
-4106 -4126 0
-4107 -4127 0
-4108 -4128 0
-4109 -4117 0
-4110 -4118 0
-4111 -4119 0
-4112 -4120 0
-4109 -4121 0
-4110 -4122 0
-4111 -4123 0
-4112 -4124 0
-4109 -4189 0
-4110 -4190 0
-4111 -4191 0
-4112 -4192 0
-4117 -4125 0
-4118 -4126 0
-4119 -4127 0
-4120 -4128 0
-4121 -4125 0
-4122 -4126 0
-4123 -4127 0
-4124 -4128 0
-4133 -4141 0
-4134 -4142 0
-4135 -4143 0
-4136 -4144 0
-4133 -4149 0
-4134 -4150 0
-4135 -4151 0
-4136 -4152 0
-4137 -4141 0
-4138 -4142 0
-4139 -4143 0
-4140 -4144 0
-4137 -4153 0
-4138 -4154 0
-4139 -4155 0
-4140 -4156 0
-4137 -4165 0
-4138 -4166 0
-4139 -4167 0
-4140 -4168 0
-4141 -4157 0
-4142 -4158 0
-4143 -4159 0
-4144 -4160 0
-4141 -4165 0
-4142 -4166 0
-4143 -4167 0
-4144 -4168 0
-4141 -4189 0
-4142 -4190 0
-4143 -4191 0
-4144 -4192 0
-4149 -4157 0
-4150 -4158 0
-4151 -4159 0
-4152 -4160 0
-4149 -4209 0
-4150 -4210 0
-4151 -4211 0
-4152 -4212 0
-4153 -4157 0
-4154 -4158 0
-4155 -4159 0
-4156 -4160 0
-4153 -4177 0
-4154 -4178 0
-4155 -4179 0
-4156 -4180 0
-4165 -4173 0
-4166 -4174 0
-4167 -4175 0
-4168 -4176 0
-4165 -4205 0
-4166 -4206 0
-4167 -4207 0
-4168 -4208 0
-4165 -4229 0
-4166 -4230 0
-4167 -4231 0
-4168 -4232 0
-4173 -4257 0
-4174 -4258 0
-4175 -4259 0
-4176 -4260 0
-4177 -4181 0
-4178 -4182 0
-4179 -4183 0
-4180 -4184 0
-4177 -4189 0
-4178 -4190 0
-4179 -4191 0
-4180 -4192 0
-4181 -4193 0
-4182 -4194 0
-4183 -4195 0
-4184 -4196 0
-4181 -4229 0
-4182 -4230 0
-4183 -4231 0
-4184 -4232 0
-4189 -4193 0
-4190 -4194 0
-4191 -4195 0
-4192 -4196 0
-4189 -4201 0
-4190 -4202 0
-4191 -4203 0
-4192 -4204 0
-4189 -4205 0
-4190 -4206 0
-4191 -4207 0
-4192 -4208 0
-4189 -4209 0
-4190 -4210 0
-4191 -4211 0
-4192 -4212 0
-4193 -4201 0
-4194 -4202 0
-4195 -4203 0
-4196 -4204 0
-4205 -4209 0
-4206 -4210 0
-4207 -4211 0
-4208 -4212 0
-4221 -4229 0
-4222 -4230 0
-4223 -4231 0
-4224 -4232 0
685 0
42 0
663 0
-685 -3973 0
-686 -3974 0
-687 -3975 0
-688 -3976 0
