p cnf 2960 18582
1 2 3 4 0
5 6 7 8 0
9 10 11 12 0
13 14 15 16 0
17 18 19 20 0
21 22 23 24 0
25 26 27 28 0
29 30 31 32 0
33 34 35 36 0
37 38 39 40 0
41 42 43 44 0
45 46 47 48 0
49 50 51 52 0
53 54 55 56 0
57 58 59 60 0
61 62 63 64 0
65 66 67 68 0
69 70 71 72 0
73 74 75 76 0
77 78 79 80 0
81 82 83 84 0
85 86 87 88 0
93 94 95 96 0
97 98 99 100 0
101 102 103 104 0
105 106 107 108 0
109 110 111 112 0
113 114 115 116 0
117 118 119 120 0
121 122 123 124 0
125 126 127 128 0
129 130 131 132 0
133 134 135 136 0
137 138 139 140 0
141 142 143 144 0
145 146 147 148 0
149 150 151 152 0
153 154 155 156 0
157 158 159 160 0
161 162 163 164 0
165 166 167 168 0
169 170 171 172 0
173 174 175 176 0
177 178 179 180 0
181 182 183 184 0
185 186 187 188 0
189 190 191 192 0
193 194 195 196 0
197 198 199 200 0
201 202 203 204 0
205 206 207 208 0
209 210 211 212 0
217 218 219 220 0
221 222 223 224 0
225 226 227 228 0
229 230 231 232 0
233 234 235 236 0
237 238 239 240 0
241 242 243 244 0
245 246 247 248 0
249 250 251 252 0
253 254 255 256 0
257 258 259 260 0
261 262 263 264 0
265 266 267 268 0
269 270 271 272 0
273 274 275 276 0
277 278 279 280 0
281 282 283 284 0
289 290 291 292 0
293 294 295 296 0
297 298 299 300 0
301 302 303 304 0
305 306 307 308 0
309 310 311 312 0
313 314 315 316 0
317 318 319 320 0
321 322 323 324 0
325 326 327 328 0
329 330 331 332 0
333 334 335 336 0
337 338 339 340 0
341 342 343 344 0
345 346 347 348 0
349 350 351 352 0
353 354 355 356 0
357 358 359 360 0
361 362 363 364 0
365 366 367 368 0
369 370 371 372 0
373 374 375 376 0
377 378 379 380 0
381 382 383 384 0
385 386 387 388 0
389 390 391 392 0
393 394 395 396 0
397 398 399 400 0
401 402 403 404 0
405 406 407 408 0
409 410 411 412 0
413 414 415 416 0
417 418 419 420 0
421 422 423 424 0
425 426 427 428 0
429 430 431 432 0
433 434 435 436 0
437 438 439 440 0
441 442 443 444 0
445 446 447 448 0
449 450 451 452 0
453 454 455 456 0
461 462 463 464 0
465 466 467 468 0
469 470 471 472 0
473 474 475 476 0
477 478 479 480 0
485 486 487 488 0
489 490 491 492 0
493 494 495 496 0
497 498 499 500 0
501 502 503 504 0
505 506 507 508 0
509 510 511 512 0
513 514 515 516 0
517 518 519 520 0
521 522 523 524 0
525 526 527 528 0
529 530 531 532 0
533 534 535 536 0
537 538 539 540 0
541 542 543 544 0
545 546 547 548 0
549 550 551 552 0
553 554 555 556 0
557 558 559 560 0
565 566 567 568 0
569 570 571 572 0
581 582 583 584 0
585 586 587 588 0
589 590 591 592 0
593 594 595 596 0
601 602 603 604 0
605 606 607 608 0
609 610 611 612 0
613 614 615 616 0
617 618 619 620 0
621 622 623 624 0
625 626 627 628 0
629 630 631 632 0
633 634 635 636 0
637 638 639 640 0
641 642 643 644 0
645 646 647 648 0
649 650 651 652 0
653 654 655 656 0
657 658 659 660 0
661 662 663 664 0
665 666 667 668 0
669 670 671 672 0
673 674 675 676 0
677 678 679 680 0
681 682 683 684 0
685 686 687 688 0
689 690 691 692 0
693 694 695 696 0
697 698 699 700 0
701 702 703 704 0
705 706 707 708 0
709 710 711 712 0
713 714 715 716 0
717 718 719 720 0
721 722 723 724 0
725 726 727 728 0
729 730 731 732 0
733 734 735 736 0
737 738 739 740 0
741 742 743 744 0
745 746 747 748 0
749 750 751 752 0
753 754 755 756 0
757 758 759 760 0
761 762 763 764 0
769 770 771 772 0
773 774 775 776 0
781 782 783 784 0
785 786 787 788 0
789 790 791 792 0
793 794 795 796 0
797 798 799 800 0
801 802 803 804 0
805 806 807 808 0
809 810 811 812 0
813 814 815 816 0
817 818 819 820 0
821 822 823 824 0
825 826 827 828 0
829 830 831 832 0
833 834 835 836 0
837 838 839 840 0
841 842 843 844 0
845 846 847 848 0
849 850 851 852 0
853 854 855 856 0
857 858 859 860 0
861 862 863 864 0
865 866 867 868 0
869 870 871 872 0
873 874 875 876 0
877 878 879 880 0
885 886 887 888 0
889 890 891 892 0
893 894 895 896 0
897 898 899 900 0
901 902 903 904 0
905 906 907 908 0
909 910 911 912 0
913 914 915 916 0
917 918 919 920 0
921 922 923 924 0
925 926 927 928 0
929 930 931 932 0
933 934 935 936 0
937 938 939 940 0
941 942 943 944 0
949 950 951 952 0
953 954 955 956 0
957 958 959 960 0
961 962 963 964 0
965 966 967 968 0
969 970 971 972 0
973 974 975 976 0
977 978 979 980 0
981 982 983 984 0
985 986 987 988 0
989 990 991 992 0
993 994 995 996 0
997 998 999 1000 0
1001 1002 1003 1004 0
1005 1006 1007 1008 0
1009 1010 1011 1012 0
1013 1014 1015 1016 0
1017 1018 1019 1020 0
1021 1022 1023 1024 0
1025 1026 1027 1028 0
1029 1030 1031 1032 0
1033 1034 1035 1036 0
1037 1038 1039 1040 0
1041 1042 1043 1044 0
1045 1046 1047 1048 0
1053 1054 1055 1056 0
1057 1058 1059 1060 0
1061 1062 1063 1064 0
1065 1066 1067 1068 0
1069 1070 1071 1072 0
1073 1074 1075 1076 0
1077 1078 1079 1080 0
1081 1082 1083 1084 0
1089 1090 1091 1092 0
1093 1094 1095 1096 0
1097 1098 1099 1100 0
1101 1102 1103 1104 0
1105 1106 1107 1108 0
1109 1110 1111 1112 0
1113 1114 1115 1116 0
1117 1118 1119 1120 0
1121 1122 1123 1124 0
1125 1126 1127 1128 0
1129 1130 1131 1132 0
1133 1134 1135 1136 0
1137 1138 1139 1140 0
1141 1142 1143 1144 0
1145 1146 1147 1148 0
1149 1150 1151 1152 0
1153 1154 1155 1156 0
1157 1158 1159 1160 0
1161 1162 1163 1164 0
1165 1166 1167 1168 0
1169 1170 1171 1172 0
1173 1174 1175 1176 0
1177 1178 1179 1180 0
1181 1182 1183 1184 0
1185 1186 1187 1188 0
1189 1190 1191 1192 0
1193 1194 1195 1196 0
1197 1198 1199 1200 0
1201 1202 1203 1204 0
1205 1206 1207 1208 0
1213 1214 1215 1216 0
1217 1218 1219 1220 0
1221 1222 1223 1224 0
1225 1226 1227 1228 0
1229 1230 1231 1232 0
1233 1234 1235 1236 0
1237 1238 1239 1240 0
1241 1242 1243 1244 0
1245 1246 1247 1248 0
1253 1254 1255 1256 0
1261 1262 1263 1264 0
1265 1266 1267 1268 0
1269 1270 1271 1272 0
1277 1278 1279 1280 0
1281 1282 1283 1284 0
1285 1286 1287 1288 0
1289 1290 1291 1292 0
1297 1298 1299 1300 0
1301 1302 1303 1304 0
1305 1306 1307 1308 0
1309 1310 1311 1312 0
1313 1314 1315 1316 0
1317 1318 1319 1320 0
1321 1322 1323 1324 0
1325 1326 1327 1328 0
1329 1330 1331 1332 0
1333 1334 1335 1336 0
1337 1338 1339 1340 0
1341 1342 1343 1344 0
1345 1346 1347 1348 0
1349 1350 1351 1352 0
1353 1354 1355 1356 0
1357 1358 1359 1360 0
1361 1362 1363 1364 0
1365 1366 1367 1368 0
1369 1370 1371 1372 0
1373 1374 1375 1376 0
1377 1378 1379 1380 0
1381 1382 1383 1384 0
1385 1386 1387 1388 0
1389 1390 1391 1392 0
1393 1394 1395 1396 0
1397 1398 1399 1400 0
1401 1402 1403 1404 0
1405 1406 1407 1408 0
1409 1410 1411 1412 0
1421 1422 1423 1424 0
1425 1426 1427 1428 0
1429 1430 1431 1432 0
1433 1434 1435 1436 0
1437 1438 1439 1440 0
1441 1442 1443 1444 0
1449 1450 1451 1452 0
1453 1454 1455 1456 0
1457 1458 1459 1460 0
1461 1462 1463 1464 0
1465 1466 1467 1468 0
1469 1470 1471 1472 0
1473 1474 1475 1476 0
1485 1486 1487 1488 0
1493 1494 1495 1496 0
1497 1498 1499 1500 0
1501 1502 1503 1504 0
1505 1506 1507 1508 0
1509 1510 1511 1512 0
1513 1514 1515 1516 0
1517 1518 1519 1520 0
1521 1522 1523 1524 0
1525 1526 1527 1528 0
1529 1530 1531 1532 0
1533 1534 1535 1536 0
1541 1542 1543 1544 0
1545 1546 1547 1548 0
1549 1550 1551 1552 0
1553 1554 1555 1556 0
1557 1558 1559 1560 0
1561 1562 1563 1564 0
1565 1566 1567 1568 0
1569 1570 1571 1572 0
1577 1578 1579 1580 0
1581 1582 1583 1584 0
1593 1594 1595 1596 0
1597 1598 1599 1600 0
1601 1602 1603 1604 0
1605 1606 1607 1608 0
1609 1610 1611 1612 0
1613 1614 1615 1616 0
1617 1618 1619 1620 0
1621 1622 1623 1624 0
1625 1626 1627 1628 0
1629 1630 1631 1632 0
1633 1634 1635 1636 0
1637 1638 1639 1640 0
1641 1642 1643 1644 0
1645 1646 1647 1648 0
1649 1650 1651 1652 0
1653 1654 1655 1656 0
1657 1658 1659 1660 0
1661 1662 1663 1664 0
1669 1670 1671 1672 0
1673 1674 1675 1676 0
1677 1678 1679 1680 0
1681 1682 1683 1684 0
1689 1690 1691 1692 0
1693 1694 1695 1696 0
1697 1698 1699 1700 0
1705 1706 1707 1708 0
1709 1710 1711 1712 0
1713 1714 1715 1716 0
1717 1718 1719 1720 0
1721 1722 1723 1724 0
1725 1726 1727 1728 0
1729 1730 1731 1732 0
1737 1738 1739 1740 0
1741 1742 1743 1744 0
1745 1746 1747 1748 0
1749 1750 1751 1752 0
1757 1758 1759 1760 0
1761 1762 1763 1764 0
1765 1766 1767 1768 0
1769 1770 1771 1772 0
1773 1774 1775 1776 0
1777 1778 1779 1780 0
1781 1782 1783 1784 0
1785 1786 1787 1788 0
1789 1790 1791 1792 0
1793 1794 1795 1796 0
1797 1798 1799 1800 0
1801 1802 1803 1804 0
1805 1806 1807 1808 0
1809 1810 1811 1812 0
1813 1814 1815 1816 0
1817 1818 1819 1820 0
1821 1822 1823 1824 0
1829 1830 1831 1832 0
1833 1834 1835 1836 0
1837 1838 1839 1840 0
1841 1842 1843 1844 0
1845 1846 1847 1848 0
1853 1854 1855 1856 0
1857 1858 1859 1860 0
1861 1862 1863 1864 0
1865 1866 1867 1868 0
1869 1870 1871 1872 0
1877 1878 1879 1880 0
1881 1882 1883 1884 0
1885 1886 1887 1888 0
1889 1890 1891 1892 0
1893 1894 1895 1896 0
1897 1898 1899 1900 0
1901 1902 1903 1904 0
1905 1906 1907 1908 0
1913 1914 1915 1916 0
1917 1918 1919 1920 0
1921 1922 1923 1924 0
1925 1926 1927 1928 0
1929 1930 1931 1932 0
1933 1934 1935 1936 0
1937 1938 1939 1940 0
1941 1942 1943 1944 0
1945 1946 1947 1948 0
1949 1950 1951 1952 0
1953 1954 1955 1956 0
1957 1958 1959 1960 0
1961 1962 1963 1964 0
1965 1966 1967 1968 0
1969 1970 1971 1972 0
1973 1974 1975 1976 0
1981 1982 1983 1984 0
1985 1986 1987 1988 0
1989 1990 1991 1992 0
1993 1994 1995 1996 0
1997 1998 1999 2000 0
2001 2002 2003 2004 0
2005 2006 2007 2008 0
2009 2010 2011 2012 0
2017 2018 2019 2020 0
2021 2022 2023 2024 0
2025 2026 2027 2028 0
2029 2030 2031 2032 0
2033 2034 2035 2036 0
2037 2038 2039 2040 0
2041 2042 2043 2044 0
2045 2046 2047 2048 0
2049 2050 2051 2052 0
2053 2054 2055 2056 0
2057 2058 2059 2060 0
2061 2062 2063 2064 0
2065 2066 2067 2068 0
2077 2078 2079 2080 0
2081 2082 2083 2084 0
2085 2086 2087 2088 0
2089 2090 2091 2092 0
2093 2094 2095 2096 0
2097 2098 2099 2100 0
2101 2102 2103 2104 0
2105 2106 2107 2108 0
2109 2110 2111 2112 0
2117 2118 2119 2120 0
2125 2126 2127 2128 0
2129 2130 2131 2132 0
2133 2134 2135 2136 0
2137 2138 2139 2140 0
2141 2142 2143 2144 0
2145 2146 2147 2148 0
2149 2150 2151 2152 0
2153 2154 2155 2156 0
2157 2158 2159 2160 0
2161 2162 2163 2164 0
2165 2166 2167 2168 0
2169 2170 2171 2172 0
2173 2174 2175 2176 0
2177 2178 2179 2180 0
2185 2186 2187 2188 0
2189 2190 2191 2192 0
2197 2198 2199 2200 0
2201 2202 2203 2204 0
2205 2206 2207 2208 0
2209 2210 2211 2212 0
2217 2218 2219 2220 0
2221 2222 2223 2224 0
2225 2226 2227 2228 0
2229 2230 2231 2232 0
2233 2234 2235 2236 0
2237 2238 2239 2240 0
2241 2242 2243 2244 0
2245 2246 2247 2248 0
2253 2254 2255 2256 0
2257 2258 2259 2260 0
2261 2262 2263 2264 0
2265 2266 2267 2268 0
2269 2270 2271 2272 0
2273 2274 2275 2276 0
2277 2278 2279 2280 0
2281 2282 2283 2284 0
2285 2286 2287 2288 0
2289 2290 2291 2292 0
2293 2294 2295 2296 0
2297 2298 2299 2300 0
2301 2302 2303 2304 0
2305 2306 2307 2308 0
2309 2310 2311 2312 0
2317 2318 2319 2320 0
2321 2322 2323 2324 0
2325 2326 2327 2328 0
2329 2330 2331 2332 0
2337 2338 2339 2340 0
2341 2342 2343 2344 0
2345 2346 2347 2348 0
2349 2350 2351 2352 0
2353 2354 2355 2356 0
2357 2358 2359 2360 0
2365 2366 2367 2368 0
2369 2370 2371 2372 0
2373 2374 2375 2376 0
2377 2378 2379 2380 0
2389 2390 2391 2392 0
2393 2394 2395 2396 0
2401 2402 2403 2404 0
2405 2406 2407 2408 0
2409 2410 2411 2412 0
2413 2414 2415 2416 0
2421 2422 2423 2424 0
2429 2430 2431 2432 0
2433 2434 2435 2436 0
2445 2446 2447 2448 0
2449 2450 2451 2452 0
2453 2454 2455 2456 0
2465 2466 2467 2468 0
2469 2470 2471 2472 0
2473 2474 2475 2476 0
2477 2478 2479 2480 0
2481 2482 2483 2484 0
2485 2486 2487 2488 0
2489 2490 2491 2492 0
2493 2494 2495 2496 0
2497 2498 2499 2500 0
2501 2502 2503 2504 0
2505 2506 2507 2508 0
2509 2510 2511 2512 0
2513 2514 2515 2516 0
2517 2518 2519 2520 0
2521 2522 2523 2524 0
2525 2526 2527 2528 0
2529 2530 2531 2532 0
2533 2534 2535 2536 0
2537 2538 2539 2540 0
2541 2542 2543 2544 0
2545 2546 2547 2548 0
2549 2550 2551 2552 0
2553 2554 2555 2556 0
2557 2558 2559 2560 0
2561 2562 2563 2564 0
2573 2574 2575 2576 0
2577 2578 2579 2580 0
2581 2582 2583 2584 0
2585 2586 2587 2588 0
2589 2590 2591 2592 0
2593 2594 2595 2596 0
2597 2598 2599 2600 0
2601 2602 2603 2604 0
2605 2606 2607 2608 0
2609 2610 2611 2612 0
2613 2614 2615 2616 0
2621 2622 2623 2624 0
2625 2626 2627 2628 0
2629 2630 2631 2632 0
2633 2634 2635 2636 0
2641 2642 2643 2644 0
2645 2646 2647 2648 0
2649 2650 2651 2652 0
2653 2654 2655 2656 0
2657 2658 2659 2660 0
2661 2662 2663 2664 0
2665 2666 2667 2668 0
2669 2670 2671 2672 0
2677 2678 2679 2680 0
2685 2686 2687 2688 0
2689 2690 2691 2692 0
2693 2694 2695 2696 0
2697 2698 2699 2700 0
2701 2702 2703 2704 0
2705 2706 2707 2708 0
2709 2710 2711 2712 0
2713 2714 2715 2716 0
2717 2718 2719 2720 0
2721 2722 2723 2724 0
2725 2726 2727 2728 0
2729 2730 2731 2732 0
2733 2734 2735 2736 0
2737 2738 2739 2740 0
2741 2742 2743 2744 0
2745 2746 2747 2748 0
2749 2750 2751 2752 0
2753 2754 2755 2756 0
2761 2762 2763 2764 0
2769 2770 2771 2772 0
2773 2774 2775 2776 0
2777 2778 2779 2780 0
2781 2782 2783 2784 0
2785 2786 2787 2788 0
2789 2790 2791 2792 0
2793 2794 2795 2796 0
2797 2798 2799 2800 0
2801 2802 2803 2804 0
2805 2806 2807 2808 0
2809 2810 2811 2812 0
2813 2814 2815 2816 0
2817 2818 2819 2820 0
2821 2822 2823 2824 0
2825 2826 2827 2828 0
2829 2830 2831 2832 0
2841 2842 2843 2844 0
2845 2846 2847 2848 0
2849 2850 2851 2852 0
2853 2854 2855 2856 0
2857 2858 2859 2860 0
2861 2862 2863 2864 0
2865 2866 2867 2868 0
2869 2870 2871 2872 0
2873 2874 2875 2876 0
2877 2878 2879 2880 0
2881 2882 2883 2884 0
2885 2886 2887 2888 0
2889 2890 2891 2892 0
2893 2894 2895 2896 0
2897 2898 2899 2900 0
2905 2906 2907 2908 0
2909 2910 2911 2912 0
2913 2914 2915 2916 0
2917 2918 2919 2920 0
2921 2922 2923 2924 0
2929 2930 2931 2932 0
2933 2934 2935 2936 0
2937 2938 2939 2940 0
2945 2946 2947 2948 0
2949 2950 2951 2952 0
2953 2954 2955 2956 0
-1 -2 0
-1 -3 0
-1 -4 0
-2 -3 0
-2 -4 0
-3 -4 0
-5 -6 0
-5 -7 0
-5 -8 0
-6 -7 0
-6 -8 0
-7 -8 0
-9 -10 0
-9 -11 0
-9 -12 0
-10 -11 0
-10 -12 0
-11 -12 0
-13 -14 0
-13 -15 0
-13 -16 0
-14 -15 0
-14 -16 0
-15 -16 0
-17 -18 0
-17 -19 0
-17 -20 0
-18 -19 0
-18 -20 0
-19 -20 0
-21 -22 0
-21 -23 0
-21 -24 0
-22 -23 0
-22 -24 0
-23 -24 0
-25 -26 0
-25 -27 0
-25 -28 0
-26 -27 0
-26 -28 0
-27 -28 0
-29 -30 0
-29 -31 0
-29 -32 0
-30 -31 0
-30 -32 0
-31 -32 0
-33 -34 0
-33 -35 0
-33 -36 0
-34 -35 0
-34 -36 0
-35 -36 0
-37 -38 0
-37 -39 0
-37 -40 0
-38 -39 0
-38 -40 0
-39 -40 0
-41 -42 0
-41 -43 0
-41 -44 0
-42 -43 0
-42 -44 0
-43 -44 0
-45 -46 0
-45 -47 0
-45 -48 0
-46 -47 0
-46 -48 0
-47 -48 0
-49 -50 0
-49 -51 0
-49 -52 0
-50 -51 0
-50 -52 0
-51 -52 0
-53 -54 0
-53 -55 0
-53 -56 0
-54 -55 0
-54 -56 0
-55 -56 0
-57 -58 0
-57 -59 0
-57 -60 0
-58 -59 0
-58 -60 0
-59 -60 0
-61 -62 0
-61 -63 0
-61 -64 0
-62 -63 0
-62 -64 0
-63 -64 0
-65 -66 0
-65 -67 0
-65 -68 0
-66 -67 0
-66 -68 0
-67 -68 0
-69 -70 0
-69 -71 0
-69 -72 0
-70 -71 0
-70 -72 0
-71 -72 0
-73 -74 0
-73 -75 0
-73 -76 0
-74 -75 0
-74 -76 0
-75 -76 0
-77 -78 0
-77 -79 0
-77 -80 0
-78 -79 0
-78 -80 0
-79 -80 0
-81 -82 0
-81 -83 0
-81 -84 0
-82 -83 0
-82 -84 0
-83 -84 0
-85 -86 0
-85 -87 0
-85 -88 0
-86 -87 0
-86 -88 0
-87 -88 0
-93 -94 0
-93 -95 0
-93 -96 0
-94 -95 0
-94 -96 0
-95 -96 0
-97 -98 0
-97 -99 0
-97 -100 0
-98 -99 0
-98 -100 0
-99 -100 0
-101 -102 0
-101 -103 0
-101 -104 0
-102 -103 0
-102 -104 0
-103 -104 0
-105 -106 0
-105 -107 0
-105 -108 0
-106 -107 0
-106 -108 0
-107 -108 0
-109 -110 0
-109 -111 0
-109 -112 0
-110 -111 0
-110 -112 0
-111 -112 0
-113 -114 0
-113 -115 0
-113 -116 0
-114 -115 0
-114 -116 0
-115 -116 0
-117 -118 0
-117 -119 0
-117 -120 0
-118 -119 0
-118 -120 0
-119 -120 0
-121 -122 0
-121 -123 0
-121 -124 0
-122 -123 0
-122 -124 0
-123 -124 0
-125 -126 0
-125 -127 0
-125 -128 0
-126 -127 0
-126 -128 0
-127 -128 0
-129 -130 0
-129 -131 0
-129 -132 0
-130 -131 0
-130 -132 0
-131 -132 0
-133 -134 0
-133 -135 0
-133 -136 0
-134 -135 0
-134 -136 0
-135 -136 0
-137 -138 0
-137 -139 0
-137 -140 0
-138 -139 0
-138 -140 0
-139 -140 0
-141 -142 0
-141 -143 0
-141 -144 0
-142 -143 0
-142 -144 0
-143 -144 0
-145 -146 0
-145 -147 0
-145 -148 0
-146 -147 0
-146 -148 0
-147 -148 0
-149 -150 0
-149 -151 0
-149 -152 0
-150 -151 0
-150 -152 0
-151 -152 0
-153 -154 0
-153 -155 0
-153 -156 0
-154 -155 0
-154 -156 0
-155 -156 0
-157 -158 0
-157 -159 0
-157 -160 0
-158 -159 0
-158 -160 0
-159 -160 0
-161 -162 0
-161 -163 0
-161 -164 0
-162 -163 0
-162 -164 0
-163 -164 0
-165 -166 0
-165 -167 0
-165 -168 0
-166 -167 0
-166 -168 0
-167 -168 0
-169 -170 0
-169 -171 0
-169 -172 0
-170 -171 0
-170 -172 0
-171 -172 0
-173 -174 0
-173 -175 0
-173 -176 0
-174 -175 0
-174 -176 0
-175 -176 0
-177 -178 0
-177 -179 0
-177 -180 0
-178 -179 0
-178 -180 0
-179 -180 0
-181 -182 0
-181 -183 0
-181 -184 0
-182 -183 0
-182 -184 0
-183 -184 0
-185 -186 0
-185 -187 0
-185 -188 0
-186 -187 0
-186 -188 0
-187 -188 0
-189 -190 0
-189 -191 0
-189 -192 0
-190 -191 0
-190 -192 0
-191 -192 0
-193 -194 0
-193 -195 0
-193 -196 0
-194 -195 0
-194 -196 0
-195 -196 0
-197 -198 0
-197 -199 0
-197 -200 0
-198 -199 0
-198 -200 0
-199 -200 0
-201 -202 0
-201 -203 0
-201 -204 0
-202 -203 0
-202 -204 0
-203 -204 0
-205 -206 0
-205 -207 0
-205 -208 0
-206 -207 0
-206 -208 0
-207 -208 0
-209 -210 0
-209 -211 0
-209 -212 0
-210 -211 0
-210 -212 0
-211 -212 0
-217 -218 0
-217 -219 0
-217 -220 0
-218 -219 0
-218 -220 0
-219 -220 0
-221 -222 0
-221 -223 0
-221 -224 0
-222 -223 0
-222 -224 0
-223 -224 0
-225 -226 0
-225 -227 0
-225 -228 0
-226 -227 0
-226 -228 0
-227 -228 0
-229 -230 0
-229 -231 0
-229 -232 0
-230 -231 0
-230 -232 0
-231 -232 0
-233 -234 0
-233 -235 0
-233 -236 0
-234 -235 0
-234 -236 0
-235 -236 0
-237 -238 0
-237 -239 0
-237 -240 0
-238 -239 0
-238 -240 0
-239 -240 0
-241 -242 0
-241 -243 0
-241 -244 0
-242 -243 0
-242 -244 0
-243 -244 0
-245 -246 0
-245 -247 0
-245 -248 0
-246 -247 0
-246 -248 0
-247 -248 0
-249 -250 0
-249 -251 0
-249 -252 0
-250 -251 0
-250 -252 0
-251 -252 0
-253 -254 0
-253 -255 0
-253 -256 0
-254 -255 0
-254 -256 0
-255 -256 0
-257 -258 0
-257 -259 0
-257 -260 0
-258 -259 0
-258 -260 0
-259 -260 0
-261 -262 0
-261 -263 0
-261 -264 0
-262 -263 0
-262 -264 0
-263 -264 0
-265 -266 0
-265 -267 0
-265 -268 0
-266 -267 0
-266 -268 0
-267 -268 0
-269 -270 0
-269 -271 0
-269 -272 0
-270 -271 0
-270 -272 0
-271 -272 0
-273 -274 0
-273 -275 0
-273 -276 0
-274 -275 0
-274 -276 0
-275 -276 0
-277 -278 0
-277 -279 0
-277 -280 0
-278 -279 0
-278 -280 0
-279 -280 0
-281 -282 0
-281 -283 0
-281 -284 0
-282 -283 0
-282 -284 0
-283 -284 0
-289 -290 0
-289 -291 0
-289 -292 0
-290 -291 0
-290 -292 0
-291 -292 0
-293 -294 0
-293 -295 0
-293 -296 0
-294 -295 0
-294 -296 0
-295 -296 0
-297 -298 0
-297 -299 0
-297 -300 0
-298 -299 0
-298 -300 0
-299 -300 0
-301 -302 0
-301 -303 0
-301 -304 0
-302 -303 0
-302 -304 0
-303 -304 0
-305 -306 0
-305 -307 0
-305 -308 0
-306 -307 0
-306 -308 0
-307 -308 0
-309 -310 0
-309 -311 0
-309 -312 0
-310 -311 0
-310 -312 0
-311 -312 0
-313 -314 0
-313 -315 0
-313 -316 0
-314 -315 0
-314 -316 0
-315 -316 0
-317 -318 0
-317 -319 0
-317 -320 0
-318 -319 0
-318 -320 0
-319 -320 0
-321 -322 0
-321 -323 0
-321 -324 0
-322 -323 0
-322 -324 0
-323 -324 0
-325 -326 0
-325 -327 0
-325 -328 0
-326 -327 0
-326 -328 0
-327 -328 0
-329 -330 0
-329 -331 0
-329 -332 0
-330 -331 0
-330 -332 0
-331 -332 0
-333 -334 0
-333 -335 0
-333 -336 0
-334 -335 0
-334 -336 0
-335 -336 0
-337 -338 0
-337 -339 0
-337 -340 0
-338 -339 0
-338 -340 0
-339 -340 0
-341 -342 0
-341 -343 0
-341 -344 0
-342 -343 0
-342 -344 0
-343 -344 0
-345 -346 0
-345 -347 0
-345 -348 0
-346 -347 0
-346 -348 0
-347 -348 0
-349 -350 0
-349 -351 0
-349 -352 0
-350 -351 0
-350 -352 0
-351 -352 0
-353 -354 0
-353 -355 0
-353 -356 0
-354 -355 0
-354 -356 0
-355 -356 0
-357 -358 0
-357 -359 0
-357 -360 0
-358 -359 0
-358 -360 0
-359 -360 0
-361 -362 0
-361 -363 0
-361 -364 0
-362 -363 0
-362 -364 0
-363 -364 0
-365 -366 0
-365 -367 0
-365 -368 0
-366 -367 0
-366 -368 0
-367 -368 0
-369 -370 0
-369 -371 0
-369 -372 0
-370 -371 0
-370 -372 0
-371 -372 0
-373 -374 0
-373 -375 0
-373 -376 0
-374 -375 0
-374 -376 0
-375 -376 0
-377 -378 0
-377 -379 0
-377 -380 0
-378 -379 0
-378 -380 0
-379 -380 0
-381 -382 0
-381 -383 0
-381 -384 0
-382 -383 0
-382 -384 0
-383 -384 0
-385 -386 0
-385 -387 0
-385 -388 0
-386 -387 0
-386 -388 0
-387 -388 0
-389 -390 0
-389 -391 0
-389 -392 0
-390 -391 0
-390 -392 0
-391 -392 0
-393 -394 0
-393 -395 0
-393 -396 0
-394 -395 0
-394 -396 0
-395 -396 0
-397 -398 0
-397 -399 0
-397 -400 0
-398 -399 0
-398 -400 0
-399 -400 0
-401 -402 0
-401 -403 0
-401 -404 0
-402 -403 0
-402 -404 0
-403 -404 0
-405 -406 0
-405 -407 0
-405 -408 0
-406 -407 0
-406 -408 0
-407 -408 0
-409 -410 0
-409 -411 0
-409 -412 0
-410 -411 0
-410 -412 0
-411 -412 0
-413 -414 0
-413 -415 0
-413 -416 0
-414 -415 0
-414 -416 0
-415 -416 0
-417 -418 0
-417 -419 0
-417 -420 0
-418 -419 0
-418 -420 0
-419 -420 0
-421 -422 0
-421 -423 0
-421 -424 0
-422 -423 0
-422 -424 0
-423 -424 0
-425 -426 0
-425 -427 0
-425 -428 0
-426 -427 0
-426 -428 0
-427 -428 0
-429 -430 0
-429 -431 0
-429 -432 0
-430 -431 0
-430 -432 0
-431 -432 0
-433 -434 0
-433 -435 0
-433 -436 0
-434 -435 0
-434 -436 0
-435 -436 0
-437 -438 0
-437 -439 0
-437 -440 0
-438 -439 0
-438 -440 0
-439 -440 0
-441 -442 0
-441 -443 0
-441 -444 0
-442 -443 0
-442 -444 0
-443 -444 0
-445 -446 0
-445 -447 0
-445 -448 0
-446 -447 0
-446 -448 0
-447 -448 0
-449 -450 0
-449 -451 0
-449 -452 0
-450 -451 0
-450 -452 0
-451 -452 0
-453 -454 0
-453 -455 0
-453 -456 0
-454 -455 0
-454 -456 0
-455 -456 0
-461 -462 0
-461 -463 0
-461 -464 0
-462 -463 0
-462 -464 0
-463 -464 0
-465 -466 0
-465 -467 0
-465 -468 0
-466 -467 0
-466 -468 0
-467 -468 0
-469 -470 0
-469 -471 0
-469 -472 0
-470 -471 0
-470 -472 0
-471 -472 0
-473 -474 0
-473 -475 0
-473 -476 0
-474 -475 0
-474 -476 0
-475 -476 0
-477 -478 0
-477 -479 0
-477 -480 0
-478 -479 0
-478 -480 0
-479 -480 0
-485 -486 0
-485 -487 0
-485 -488 0
-486 -487 0
-486 -488 0
-487 -488 0
-489 -490 0
-489 -491 0
-489 -492 0
-490 -491 0
-490 -492 0
-491 -492 0
-493 -494 0
-493 -495 0
-493 -496 0
-494 -495 0
-494 -496 0
-495 -496 0
-497 -498 0
-497 -499 0
-497 -500 0
-498 -499 0
-498 -500 0
-499 -500 0
-501 -502 0
-501 -503 0
-501 -504 0
-502 -503 0
-502 -504 0
-503 -504 0
-505 -506 0
-505 -507 0
-505 -508 0
-506 -507 0
-506 -508 0
-507 -508 0
-509 -510 0
-509 -511 0
-509 -512 0
-510 -511 0
-510 -512 0
-511 -512 0
-513 -514 0
-513 -515 0
-513 -516 0
-514 -515 0
-514 -516 0
-515 -516 0
-517 -518 0
-517 -519 0
-517 -520 0
-518 -519 0
-518 -520 0
-519 -520 0
-521 -522 0
-521 -523 0
-521 -524 0
-522 -523 0
-522 -524 0
-523 -524 0
-525 -526 0
-525 -527 0
-525 -528 0
-526 -527 0
-526 -528 0
-527 -528 0
-529 -530 0
-529 -531 0
-529 -532 0
-530 -531 0
-530 -532 0
-531 -532 0
-533 -534 0
-533 -535 0
-533 -536 0
-534 -535 0
-534 -536 0
-535 -536 0
-537 -538 0
-537 -539 0
-537 -540 0
-538 -539 0
-538 -540 0
-539 -540 0
-541 -542 0
-541 -543 0
-541 -544 0
-542 -543 0
-542 -544 0
-543 -544 0
-545 -546 0
-545 -547 0
-545 -548 0
-546 -547 0
-546 -548 0
-547 -548 0
-549 -550 0
-549 -551 0
-549 -552 0
-550 -551 0
-550 -552 0
-551 -552 0
-553 -554 0
-553 -555 0
-553 -556 0
-554 -555 0
-554 -556 0
-555 -556 0
-557 -558 0
-557 -559 0
-557 -560 0
-558 -559 0
-558 -560 0
-559 -560 0
-565 -566 0
-565 -567 0
-565 -568 0
-566 -567 0
-566 -568 0
-567 -568 0
-569 -570 0
-569 -571 0
-569 -572 0
-570 -571 0
-570 -572 0
-571 -572 0
-581 -582 0
-581 -583 0
-581 -584 0
-582 -583 0
-582 -584 0
-583 -584 0
-585 -586 0
-585 -587 0
-585 -588 0
-586 -587 0
-586 -588 0
-587 -588 0
-589 -590 0
-589 -591 0
-589 -592 0
-590 -591 0
-590 -592 0
-591 -592 0
-593 -594 0
-593 -595 0
-593 -596 0
-594 -595 0
-594 -596 0
-595 -596 0
-601 -602 0
-601 -603 0
-601 -604 0
-602 -603 0
-602 -604 0
-603 -604 0
-605 -606 0
-605 -607 0
-605 -608 0
-606 -607 0
-606 -608 0
-607 -608 0
-609 -610 0
-609 -611 0
-609 -612 0
-610 -611 0
-610 -612 0
-611 -612 0
-613 -614 0
-613 -615 0
-613 -616 0
-614 -615 0
-614 -616 0
-615 -616 0
-617 -618 0
-617 -619 0
-617 -620 0
-618 -619 0
-618 -620 0
-619 -620 0
-621 -622 0
-621 -623 0
-621 -624 0
-622 -623 0
-622 -624 0
-623 -624 0
-625 -626 0
-625 -627 0
-625 -628 0
-626 -627 0
-626 -628 0
-627 -628 0
-629 -630 0
-629 -631 0
-629 -632 0
-630 -631 0
-630 -632 0
-631 -632 0
-633 -634 0
-633 -635 0
-633 -636 0
-634 -635 0
-634 -636 0
-635 -636 0
-637 -638 0
-637 -639 0
-637 -640 0
-638 -639 0
-638 -640 0
-639 -640 0
-641 -642 0
-641 -643 0
-641 -644 0
-642 -643 0
-642 -644 0
-643 -644 0
-645 -646 0
-645 -647 0
-645 -648 0
-646 -647 0
-646 -648 0
-647 -648 0
-649 -650 0
-649 -651 0
-649 -652 0
-650 -651 0
-650 -652 0
-651 -652 0
-653 -654 0
-653 -655 0
-653 -656 0
-654 -655 0
-654 -656 0
-655 -656 0
-657 -658 0
-657 -659 0
-657 -660 0
-658 -659 0
-658 -660 0
-659 -660 0
-661 -662 0
-661 -663 0
-661 -664 0
-662 -663 0
-662 -664 0
-663 -664 0
-665 -666 0
-665 -667 0
-665 -668 0
-666 -667 0
-666 -668 0
-667 -668 0
-669 -670 0
-669 -671 0
-669 -672 0
-670 -671 0
-670 -672 0
-671 -672 0
-673 -674 0
-673 -675 0
-673 -676 0
-674 -675 0
-674 -676 0
-675 -676 0
-677 -678 0
-677 -679 0
-677 -680 0
-678 -679 0
-678 -680 0
-679 -680 0
-681 -682 0
-681 -683 0
-681 -684 0
-682 -683 0
-682 -684 0
-683 -684 0
-685 -686 0
-685 -687 0
-685 -688 0
-686 -687 0
-686 -688 0
-687 -688 0
-689 -690 0
-689 -691 0
-689 -692 0
-690 -691 0
-690 -692 0
-691 -692 0
-693 -694 0
-693 -695 0
-693 -696 0
-694 -695 0
-694 -696 0
-695 -696 0
-697 -698 0
-697 -699 0
-697 -700 0
-698 -699 0
-698 -700 0
-699 -700 0
-701 -702 0
-701 -703 0
-701 -704 0
-702 -703 0
-702 -704 0
-703 -704 0
-705 -706 0
-705 -707 0
-705 -708 0
-706 -707 0
-706 -708 0
-707 -708 0
-709 -710 0
-709 -711 0
-709 -712 0
-710 -711 0
-710 -712 0
-711 -712 0
-713 -714 0
-713 -715 0
-713 -716 0
-714 -715 0
-714 -716 0
-715 -716 0
-717 -718 0
-717 -719 0
-717 -720 0
-718 -719 0
-718 -720 0
-719 -720 0
-725 -726 0
-725 -727 0
-725 -728 0
-726 -727 0
-726 -728 0
-727 -728 0
-729 -730 0
-729 -731 0
-729 -732 0
-730 -731 0
-730 -732 0
-731 -732 0
-733 -734 0
-733 -735 0
-733 -736 0
-734 -735 0
-734 -736 0
-735 -736 0
-737 -738 0
-737 -739 0
-737 -740 0
-738 -739 0
-738 -740 0
-739 -740 0
-741 -742 0
-741 -743 0
-741 -744 0
-742 -743 0
-742 -744 0
-743 -744 0
-745 -746 0
-745 -747 0
-745 -748 0
-746 -747 0
-746 -748 0
-747 -748 0
-749 -750 0
-749 -751 0
-749 -752 0
-750 -751 0
-750 -752 0
-751 -752 0
-753 -754 0
-753 -755 0
-753 -756 0
-754 -755 0
-754 -756 0
-755 -756 0
-757 -758 0
-757 -759 0
-757 -760 0
-758 -759 0
-758 -760 0
-759 -760 0
-761 -762 0
-761 -763 0
-761 -764 0
-762 -763 0
-762 -764 0
-763 -764 0
-769 -770 0
-769 -771 0
-769 -772 0
-770 -771 0
-770 -772 0
-771 -772 0
-773 -774 0
-773 -775 0
-773 -776 0
-774 -775 0
-774 -776 0
-775 -776 0
-781 -782 0
-781 -783 0
-781 -784 0
-782 -783 0
-782 -784 0
-783 -784 0
-785 -786 0
-785 -787 0
-785 -788 0
-786 -787 0
-786 -788 0
-787 -788 0
-789 -790 0
-789 -791 0
-789 -792 0
-790 -791 0
-790 -792 0
-791 -792 0
-793 -794 0
-793 -795 0
-793 -796 0
-794 -795 0
-794 -796 0
-795 -796 0
-797 -798 0
-797 -799 0
-797 -800 0
-798 -799 0
-798 -800 0
-799 -800 0
-801 -802 0
-801 -803 0
-801 -804 0
-802 -803 0
-802 -804 0
-803 -804 0
-805 -806 0
-805 -807 0
-805 -808 0
-806 -807 0
-806 -808 0
-807 -808 0
-809 -810 0
-809 -811 0
-809 -812 0
-810 -811 0
-810 -812 0
-811 -812 0
-813 -814 0
-813 -815 0
-813 -816 0
-814 -815 0
-814 -816 0
-815 -816 0
-817 -818 0
-817 -819 0
-817 -820 0
-818 -819 0
-818 -820 0
-819 -820 0
-821 -822 0
-821 -823 0
-821 -824 0
-822 -823 0
-822 -824 0
-823 -824 0
-825 -826 0
-825 -827 0
-825 -828 0
-826 -827 0
-826 -828 0
-827 -828 0
-829 -830 0
-829 -831 0
-829 -832 0
-830 -831 0
-830 -832 0
-831 -832 0
-833 -834 0
-833 -835 0
-833 -836 0
-834 -835 0
-834 -836 0
-835 -836 0
-837 -838 0
-837 -839 0
-837 -840 0
-838 -839 0
-838 -840 0
-839 -840 0
-841 -842 0
-841 -843 0
-841 -844 0
-842 -843 0
-842 -844 0
-843 -844 0
-845 -846 0
-845 -847 0
-845 -848 0
-846 -847 0
-846 -848 0
-847 -848 0
-849 -850 0
-849 -851 0
-849 -852 0
-850 -851 0
-850 -852 0
-851 -852 0
-853 -854 0
-853 -855 0
-853 -856 0
-854 -855 0
-854 -856 0
-855 -856 0
-857 -858 0
-857 -859 0
-857 -860 0
-858 -859 0
-858 -860 0
-859 -860 0
-861 -862 0
-861 -863 0
-861 -864 0
-862 -863 0
-862 -864 0
-863 -864 0
-865 -866 0
-865 -867 0
-865 -868 0
-866 -867 0
-866 -868 0
-867 -868 0
-869 -870 0
-869 -871 0
-869 -872 0
-870 -871 0
-870 -872 0
-871 -872 0
-873 -874 0
-873 -875 0
-873 -876 0
-874 -875 0
-874 -876 0
-875 -876 0
-877 -878 0
-877 -879 0
-877 -880 0
-878 -879 0
-878 -880 0
-879 -880 0
-885 -886 0
-885 -887 0
-885 -888 0
-886 -887 0
-886 -888 0
-887 -888 0
-889 -890 0
-889 -891 0
-889 -892 0
-890 -891 0
-890 -892 0
-891 -892 0
-893 -894 0
-893 -895 0
-893 -896 0
-894 -895 0
-894 -896 0
-895 -896 0
-897 -898 0
-897 -899 0
-897 -900 0
-898 -899 0
-898 -900 0
-899 -900 0
-901 -902 0
-901 -903 0
-901 -904 0
-902 -903 0
-902 -904 0
-903 -904 0
-905 -906 0
-905 -907 0
-905 -908 0
-906 -907 0
-906 -908 0
-907 -908 0
-909 -910 0
-909 -911 0
-909 -912 0
-910 -911 0
-910 -912 0
-911 -912 0
-913 -914 0
-913 -915 0
-913 -916 0
-914 -915 0
-914 -916 0
-915 -916 0
-917 -918 0
-917 -919 0
-917 -920 0
-918 -919 0
-918 -920 0
-919 -920 0
-921 -922 0
-921 -923 0
-921 -924 0
-922 -923 0
-922 -924 0
-923 -924 0
-925 -926 0
-925 -927 0
-925 -928 0
-926 -927 0
-926 -928 0
-927 -928 0
-929 -930 0
-929 -931 0
-929 -932 0
-930 -931 0
-930 -932 0
-931 -932 0
-933 -934 0
-933 -935 0
-933 -936 0
-934 -935 0
-934 -936 0
-935 -936 0
-937 -938 0
-937 -939 0
-937 -940 0
-938 -939 0
-938 -940 0
-939 -940 0
-941 -942 0
-941 -943 0
-941 -944 0
-942 -943 0
-942 -944 0
-943 -944 0
-949 -950 0
-949 -951 0
-949 -952 0
-950 -951 0
-950 -952 0
-951 -952 0
-953 -954 0
-953 -955 0
-953 -956 0
-954 -955 0
-954 -956 0
-955 -956 0
-957 -958 0
-957 -959 0
-957 -960 0
-958 -959 0
-958 -960 0
-959 -960 0
-961 -962 0
-961 -963 0
-961 -964 0
-962 -963 0
-962 -964 0
-963 -964 0
-965 -966 0
-965 -967 0
-965 -968 0
-966 -967 0
-966 -968 0
-967 -968 0
-969 -970 0
-969 -971 0
-969 -972 0
-970 -971 0
-970 -972 0
-971 -972 0
-973 -974 0
-973 -975 0
-973 -976 0
-974 -975 0
-974 -976 0
-975 -976 0
-977 -978 0
-977 -979 0
-977 -980 0
-978 -979 0
-978 -980 0
-979 -980 0
-981 -982 0
-981 -983 0
-981 -984 0
-982 -983 0
-982 -984 0
-983 -984 0
-985 -986 0
-985 -987 0
-985 -988 0
-986 -987 0
-986 -988 0
-987 -988 0
-989 -990 0
-989 -991 0
-989 -992 0
-990 -991 0
-990 -992 0
-991 -992 0
-993 -994 0
-993 -995 0
-993 -996 0
-994 -995 0
-994 -996 0
-995 -996 0
-997 -998 0
-997 -999 0
-997 -1000 0
-998 -999 0
-998 -1000 0
-999 -1000 0
-1001 -1002 0
-1001 -1003 0
-1001 -1004 0
-1002 -1003 0
-1002 -1004 0
-1003 -1004 0
-1005 -1006 0
-1005 -1007 0
-1005 -1008 0
-1006 -1007 0
-1006 -1008 0
-1007 -1008 0
-1009 -1010 0
-1009 -1011 0
-1009 -1012 0
-1010 -1011 0
-1010 -1012 0
-1011 -1012 0
-1013 -1014 0
-1013 -1015 0
-1013 -1016 0
-1014 -1015 0
-1014 -1016 0
-1015 -1016 0
-1017 -1018 0
-1017 -1019 0
-1017 -1020 0
-1018 -1019 0
-1018 -1020 0
-1019 -1020 0
-1021 -1022 0
-1021 -1023 0
-1021 -1024 0
-1022 -1023 0
-1022 -1024 0
-1023 -1024 0
-1025 -1026 0
-1025 -1027 0
-1025 -1028 0
-1026 -1027 0
-1026 -1028 0
-1027 -1028 0
-1029 -1030 0
-1029 -1031 0
-1029 -1032 0
-1030 -1031 0
-1030 -1032 0
-1031 -1032 0
-1033 -1034 0
-1033 -1035 0
-1033 -1036 0
-1034 -1035 0
-1034 -1036 0
-1035 -1036 0
-1037 -1038 0
-1037 -1039 0
-1037 -1040 0
-1038 -1039 0
-1038 -1040 0
-1039 -1040 0
-1041 -1042 0
-1041 -1043 0
-1041 -1044 0
-1042 -1043 0
-1042 -1044 0
-1043 -1044 0
-1045 -1046 0
-1045 -1047 0
-1045 -1048 0
-1046 -1047 0
-1046 -1048 0
-1047 -1048 0
-1053 -1054 0
-1053 -1055 0
-1053 -1056 0
-1054 -1055 0
-1054 -1056 0
-1055 -1056 0
-1057 -1058 0
-1057 -1059 0
-1057 -1060 0
-1058 -1059 0
-1058 -1060 0
-1059 -1060 0
-1061 -1062 0
-1061 -1063 0
-1061 -1064 0
-1062 -1063 0
-1062 -1064 0
-1063 -1064 0
-1065 -1066 0
-1065 -1067 0
-1065 -1068 0
-1066 -1067 0
-1066 -1068 0
-1067 -1068 0
-1069 -1070 0
-1069 -1071 0
-1069 -1072 0
-1070 -1071 0
-1070 -1072 0
-1071 -1072 0
-1073 -1074 0
-1073 -1075 0
-1073 -1076 0
-1074 -1075 0
-1074 -1076 0
-1075 -1076 0
-1077 -1078 0
-1077 -1079 0
-1077 -1080 0
-1078 -1079 0
-1078 -1080 0
-1079 -1080 0
-1081 -1082 0
-1081 -1083 0
-1081 -1084 0
-1082 -1083 0
-1082 -1084 0
-1083 -1084 0
-1089 -1090 0
-1089 -1091 0
-1089 -1092 0
-1090 -1091 0
-1090 -1092 0
-1091 -1092 0
-1093 -1094 0
-1093 -1095 0
-1093 -1096 0
-1094 -1095 0
-1094 -1096 0
-1095 -1096 0
-1097 -1098 0
-1097 -1099 0
-1097 -1100 0
-1098 -1099 0
-1098 -1100 0
-1099 -1100 0
-1101 -1102 0
-1101 -1103 0
-1101 -1104 0
-1102 -1103 0
-1102 -1104 0
-1103 -1104 0
-1105 -1106 0
-1105 -1107 0
-1105 -1108 0
-1106 -1107 0
-1106 -1108 0
-1107 -1108 0
-1109 -1110 0
-1109 -1111 0
-1109 -1112 0
-1110 -1111 0
-1110 -1112 0
-1111 -1112 0
-1113 -1114 0
-1113 -1115 0
-1113 -1116 0
-1114 -1115 0
-1114 -1116 0
-1115 -1116 0
-1117 -1118 0
-1117 -1119 0
-1117 -1120 0
-1118 -1119 0
-1118 -1120 0
-1119 -1120 0
-1121 -1122 0
-1121 -1123 0
-1121 -1124 0
-1122 -1123 0
-1122 -1124 0
-1123 -1124 0
-1125 -1126 0
-1125 -1127 0
-1125 -1128 0
-1126 -1127 0
-1126 -1128 0
-1127 -1128 0
-1129 -1130 0
-1129 -1131 0
-1129 -1132 0
-1130 -1131 0
-1130 -1132 0
-1131 -1132 0
-1133 -1134 0
-1133 -1135 0
-1133 -1136 0
-1134 -1135 0
-1134 -1136 0
-1135 -1136 0
-1137 -1138 0
-1137 -1139 0
-1137 -1140 0
-1138 -1139 0
-1138 -1140 0
-1139 -1140 0
-1141 -1142 0
-1141 -1143 0
-1141 -1144 0
-1142 -1143 0
-1142 -1144 0
-1143 -1144 0
-1145 -1146 0
-1145 -1147 0
-1145 -1148 0
-1146 -1147 0
-1146 -1148 0
-1147 -1148 0
-1149 -1150 0
-1149 -1151 0
-1149 -1152 0
-1150 -1151 0
-1150 -1152 0
-1151 -1152 0
-1153 -1154 0
-1153 -1155 0
-1153 -1156 0
-1154 -1155 0
-1154 -1156 0
-1155 -1156 0
-1157 -1158 0
-1157 -1159 0
-1157 -1160 0
-1158 -1159 0
-1158 -1160 0
-1159 -1160 0
-1161 -1162 0
-1161 -1163 0
-1161 -1164 0
-1162 -1163 0
-1162 -1164 0
-1163 -1164 0
-1165 -1166 0
-1165 -1167 0
-1165 -1168 0
-1166 -1167 0
-1166 -1168 0
-1167 -1168 0
-1169 -1170 0
-1169 -1171 0
-1169 -1172 0
-1170 -1171 0
-1170 -1172 0
-1171 -1172 0
-1173 -1174 0
-1173 -1175 0
-1173 -1176 0
-1174 -1175 0
-1174 -1176 0
-1175 -1176 0
-1177 -1178 0
-1177 -1179 0
-1177 -1180 0
-1178 -1179 0
-1178 -1180 0
-1179 -1180 0
-1181 -1182 0
-1181 -1183 0
-1181 -1184 0
-1182 -1183 0
-1182 -1184 0
-1183 -1184 0
-1185 -1186 0
-1185 -1187 0
-1185 -1188 0
-1186 -1187 0
-1186 -1188 0
-1187 -1188 0
-1189 -1190 0
-1189 -1191 0
-1189 -1192 0
-1190 -1191 0
-1190 -1192 0
-1191 -1192 0
-1193 -1194 0
-1193 -1195 0
-1193 -1196 0
-1194 -1195 0
-1194 -1196 0
-1195 -1196 0
-1197 -1198 0
-1197 -1199 0
-1197 -1200 0
-1198 -1199 0
-1198 -1200 0
-1199 -1200 0
-1201 -1202 0
-1201 -1203 0
-1201 -1204 0
-1202 -1203 0
-1202 -1204 0
-1203 -1204 0
-1205 -1206 0
-1205 -1207 0
-1205 -1208 0
-1206 -1207 0
-1206 -1208 0
-1207 -1208 0
-1213 -1214 0
-1213 -1215 0
-1213 -1216 0
-1214 -1215 0
-1214 -1216 0
-1215 -1216 0
-1217 -1218 0
-1217 -1219 0
-1217 -1220 0
-1218 -1219 0
-1218 -1220 0
-1219 -1220 0
-1221 -1222 0
-1221 -1223 0
-1221 -1224 0
-1222 -1223 0
-1222 -1224 0
-1223 -1224 0
-1225 -1226 0
-1225 -1227 0
-1225 -1228 0
-1226 -1227 0
-1226 -1228 0
-1227 -1228 0
-1229 -1230 0
-1229 -1231 0
-1229 -1232 0
-1230 -1231 0
-1230 -1232 0
-1231 -1232 0
-1233 -1234 0
-1233 -1235 0
-1233 -1236 0
-1234 -1235 0
-1234 -1236 0
-1235 -1236 0
-1237 -1238 0
-1237 -1239 0
-1237 -1240 0
-1238 -1239 0
-1238 -1240 0
-1239 -1240 0
-1241 -1242 0
-1241 -1243 0
-1241 -1244 0
-1242 -1243 0
-1242 -1244 0
-1243 -1244 0
-1245 -1246 0
-1245 -1247 0
-1245 -1248 0
-1246 -1247 0
-1246 -1248 0
-1247 -1248 0
-1253 -1254 0
-1253 -1255 0
-1253 -1256 0
-1254 -1255 0
-1254 -1256 0
-1255 -1256 0
-1261 -1262 0
-1261 -1263 0
-1261 -1264 0
-1262 -1263 0
-1262 -1264 0
-1263 -1264 0
-1265 -1266 0
-1265 -1267 0
-1265 -1268 0
-1266 -1267 0
-1266 -1268 0
-1267 -1268 0
-1269 -1270 0
-1269 -1271 0
-1269 -1272 0
-1270 -1271 0
-1270 -1272 0
-1271 -1272 0
-1277 -1278 0
-1277 -1279 0
-1277 -1280 0
-1278 -1279 0
-1278 -1280 0
-1279 -1280 0
-1281 -1282 0
-1281 -1283 0
-1281 -1284 0
-1282 -1283 0
-1282 -1284 0
-1283 -1284 0
-1285 -1286 0
-1285 -1287 0
-1285 -1288 0
-1286 -1287 0
-1286 -1288 0
-1287 -1288 0
-1289 -1290 0
-1289 -1291 0
-1289 -1292 0
-1290 -1291 0
-1290 -1292 0
-1291 -1292 0
-1297 -1298 0
-1297 -1299 0
-1297 -1300 0
-1298 -1299 0
-1298 -1300 0
-1299 -1300 0
-1301 -1302 0
-1301 -1303 0
-1301 -1304 0
-1302 -1303 0
-1302 -1304 0
-1303 -1304 0
-1305 -1306 0
-1305 -1307 0
-1305 -1308 0
-1306 -1307 0
-1306 -1308 0
-1307 -1308 0
-1309 -1310 0
-1309 -1311 0
-1309 -1312 0
-1310 -1311 0
-1310 -1312 0
-1311 -1312 0
-1313 -1314 0
-1313 -1315 0
-1313 -1316 0
-1314 -1315 0
-1314 -1316 0
-1315 -1316 0
-1317 -1318 0
-1317 -1319 0
-1317 -1320 0
-1318 -1319 0
-1318 -1320 0
-1319 -1320 0
-1321 -1322 0
-1321 -1323 0
-1321 -1324 0
-1322 -1323 0
-1322 -1324 0
-1323 -1324 0
-1325 -1326 0
-1325 -1327 0
-1325 -1328 0
-1326 -1327 0
-1326 -1328 0
-1327 -1328 0
-1329 -1330 0
-1329 -1331 0
-1329 -1332 0
-1330 -1331 0
-1330 -1332 0
-1331 -1332 0
-1333 -1334 0
-1333 -1335 0
-1333 -1336 0
-1334 -1335 0
-1334 -1336 0
-1335 -1336 0
-1337 -1338 0
-1337 -1339 0
-1337 -1340 0
-1338 -1339 0
-1338 -1340 0
-1339 -1340 0
-1341 -1342 0
-1341 -1343 0
-1341 -1344 0
-1342 -1343 0
-1342 -1344 0
-1343 -1344 0
-1345 -1346 0
-1345 -1347 0
-1345 -1348 0
-1346 -1347 0
-1346 -1348 0
-1347 -1348 0
-1349 -1350 0
-1349 -1351 0
-1349 -1352 0
-1350 -1351 0
-1350 -1352 0
-1351 -1352 0
-1353 -1354 0
-1353 -1355 0
-1353 -1356 0
-1354 -1355 0
-1354 -1356 0
-1355 -1356 0
-1357 -1358 0
-1357 -1359 0
-1357 -1360 0
-1358 -1359 0
-1358 -1360 0
-1359 -1360 0
-1361 -1362 0
-1361 -1363 0
-1361 -1364 0
-1362 -1363 0
-1362 -1364 0
-1363 -1364 0
-1365 -1366 0
-1365 -1367 0
-1365 -1368 0
-1366 -1367 0
-1366 -1368 0
-1367 -1368 0
-1369 -1370 0
-1369 -1371 0
-1369 -1372 0
-1370 -1371 0
-1370 -1372 0
-1371 -1372 0
-1373 -1374 0
-1373 -1375 0
-1373 -1376 0
-1374 -1375 0
-1374 -1376 0
-1375 -1376 0
-1377 -1378 0
-1377 -1379 0
-1377 -1380 0
-1378 -1379 0
-1378 -1380 0
-1379 -1380 0
-1381 -1382 0
-1381 -1383 0
-1381 -1384 0
-1382 -1383 0
-1382 -1384 0
-1383 -1384 0
-1385 -1386 0
-1385 -1387 0
-1385 -1388 0
-1386 -1387 0
-1386 -1388 0
-1387 -1388 0
-1389 -1390 0
-1389 -1391 0
-1389 -1392 0
-1390 -1391 0
-1390 -1392 0
-1391 -1392 0
-1393 -1394 0
-1393 -1395 0
-1393 -1396 0
-1394 -1395 0
-1394 -1396 0
-1395 -1396 0
-1397 -1398 0
-1397 -1399 0
-1397 -1400 0
-1398 -1399 0
-1398 -1400 0
-1399 -1400 0
-1401 -1402 0
-1401 -1403 0
-1401 -1404 0
-1402 -1403 0
-1402 -1404 0
-1403 -1404 0
-1405 -1406 0
-1405 -1407 0
-1405 -1408 0
-1406 -1407 0
-1406 -1408 0
-1407 -1408 0
-1409 -1410 0
-1409 -1411 0
-1409 -1412 0
-1410 -1411 0
-1410 -1412 0
-1411 -1412 0
-1421 -1422 0
-1421 -1423 0
-1421 -1424 0
-1422 -1423 0
-1422 -1424 0
-1423 -1424 0
-1425 -1426 0
-1425 -1427 0
-1425 -1428 0
-1426 -1427 0
-1426 -1428 0
-1427 -1428 0
-1429 -1430 0
-1429 -1431 0
-1429 -1432 0
-1430 -1431 0
-1430 -1432 0
-1431 -1432 0
-1433 -1434 0
-1433 -1435 0
-1433 -1436 0
-1434 -1435 0
-1434 -1436 0
-1435 -1436 0
-1437 -1438 0
-1437 -1439 0
-1437 -1440 0
-1438 -1439 0
-1438 -1440 0
-1439 -1440 0
-1441 -1442 0
-1441 -1443 0
-1441 -1444 0
-1442 -1443 0
-1442 -1444 0
-1443 -1444 0
-1449 -1450 0
-1449 -1451 0
-1449 -1452 0
-1450 -1451 0
-1450 -1452 0
-1451 -1452 0
-1453 -1454 0
-1453 -1455 0
-1453 -1456 0
-1454 -1455 0
-1454 -1456 0
-1455 -1456 0
-1457 -1458 0
-1457 -1459 0
-1457 -1460 0
-1458 -1459 0
-1458 -1460 0
-1459 -1460 0
-1461 -1462 0
-1461 -1463 0
-1461 -1464 0
-1462 -1463 0
-1462 -1464 0
-1463 -1464 0
-1465 -1466 0
-1465 -1467 0
-1465 -1468 0
-1466 -1467 0
-1466 -1468 0
-1467 -1468 0
-1469 -1470 0
-1469 -1471 0
-1469 -1472 0
-1470 -1471 0
-1470 -1472 0
-1471 -1472 0
-1473 -1474 0
-1473 -1475 0
-1473 -1476 0
-1474 -1475 0
-1474 -1476 0
-1475 -1476 0
-1485 -1486 0
-1485 -1487 0
-1485 -1488 0
-1486 -1487 0
-1486 -1488 0
-1487 -1488 0
-1493 -1494 0
-1493 -1495 0
-1493 -1496 0
-1494 -1495 0
-1494 -1496 0
-1495 -1496 0
-1497 -1498 0
-1497 -1499 0
-1497 -1500 0
-1498 -1499 0
-1498 -1500 0
-1499 -1500 0
-1501 -1502 0
-1501 -1503 0
-1501 -1504 0
-1502 -1503 0
-1502 -1504 0
-1503 -1504 0
-1505 -1506 0
-1505 -1507 0
-1505 -1508 0
-1506 -1507 0
-1506 -1508 0
-1507 -1508 0
-1509 -1510 0
-1509 -1511 0
-1509 -1512 0
-1510 -1511 0
-1510 -1512 0
-1511 -1512 0
-1513 -1514 0
-1513 -1515 0
-1513 -1516 0
-1514 -1515 0
-1514 -1516 0
-1515 -1516 0
-1517 -1518 0
-1517 -1519 0
-1517 -1520 0
-1518 -1519 0
-1518 -1520 0
-1519 -1520 0
-1521 -1522 0
-1521 -1523 0
-1521 -1524 0
-1522 -1523 0
-1522 -1524 0
-1523 -1524 0
-1525 -1526 0
-1525 -1527 0
-1525 -1528 0
-1526 -1527 0
-1526 -1528 0
-1527 -1528 0
-1529 -1530 0
-1529 -1531 0
-1529 -1532 0
-1530 -1531 0
-1530 -1532 0
-1531 -1532 0
-1533 -1534 0
-1533 -1535 0
-1533 -1536 0
-1534 -1535 0
-1534 -1536 0
-1535 -1536 0
-1541 -1542 0
-1541 -1543 0
-1541 -1544 0
-1542 -1543 0
-1542 -1544 0
-1543 -1544 0
-1545 -1546 0
-1545 -1547 0
-1545 -1548 0
-1546 -1547 0
-1546 -1548 0
-1547 -1548 0
-1549 -1550 0
-1549 -1551 0
-1549 -1552 0
-1550 -1551 0
-1550 -1552 0
-1551 -1552 0
-1553 -1554 0
-1553 -1555 0
-1553 -1556 0
-1554 -1555 0
-1554 -1556 0
-1555 -1556 0
-1557 -1558 0
-1557 -1559 0
-1557 -1560 0
-1558 -1559 0
-1558 -1560 0
-1559 -1560 0
-1561 -1562 0
-1561 -1563 0
-1561 -1564 0
-1562 -1563 0
-1562 -1564 0
-1563 -1564 0
-1565 -1566 0
-1565 -1567 0
-1565 -1568 0
-1566 -1567 0
-1566 -1568 0
-1567 -1568 0
-1569 -1570 0
-1569 -1571 0
-1569 -1572 0
-1570 -1571 0
-1570 -1572 0
-1571 -1572 0
-1577 -1578 0
-1577 -1579 0
-1577 -1580 0
-1578 -1579 0
-1578 -1580 0
-1579 -1580 0
-1581 -1582 0
-1581 -1583 0
-1581 -1584 0
-1582 -1583 0
-1582 -1584 0
-1583 -1584 0
-1593 -1594 0
-1593 -1595 0
-1593 -1596 0
-1594 -1595 0
-1594 -1596 0
-1595 -1596 0
-1597 -1598 0
-1597 -1599 0
-1597 -1600 0
-1598 -1599 0
-1598 -1600 0
-1599 -1600 0
-1601 -1602 0
-1601 -1603 0
-1601 -1604 0
-1602 -1603 0
-1602 -1604 0
-1603 -1604 0
-1605 -1606 0
-1605 -1607 0
-1605 -1608 0
-1606 -1607 0
-1606 -1608 0
-1607 -1608 0
-1609 -1610 0
-1609 -1611 0
-1609 -1612 0
-1610 -1611 0
-1610 -1612 0
-1611 -1612 0
-1613 -1614 0
-1613 -1615 0
-1613 -1616 0
-1614 -1615 0
-1614 -1616 0
-1615 -1616 0
-1617 -1618 0
-1617 -1619 0
-1617 -1620 0
-1618 -1619 0
-1618 -1620 0
-1619 -1620 0
-1621 -1622 0
-1621 -1623 0
-1621 -1624 0
-1622 -1623 0
-1622 -1624 0
-1623 -1624 0
-1625 -1626 0
-1625 -1627 0
-1625 -1628 0
-1626 -1627 0
-1626 -1628 0
-1627 -1628 0
-1629 -1630 0
-1629 -1631 0
-1629 -1632 0
-1630 -1631 0
-1630 -1632 0
-1631 -1632 0
-1633 -1634 0
-1633 -1635 0
-1633 -1636 0
-1634 -1635 0
-1634 -1636 0
-1635 -1636 0
-1637 -1638 0
-1637 -1639 0
-1637 -1640 0
-1638 -1639 0
-1638 -1640 0
-1639 -1640 0
-1641 -1642 0
-1641 -1643 0
-1641 -1644 0
-1642 -1643 0
-1642 -1644 0
-1643 -1644 0
-1645 -1646 0
-1645 -1647 0
-1645 -1648 0
-1646 -1647 0
-1646 -1648 0
-1647 -1648 0
-1649 -1650 0
-1649 -1651 0
-1649 -1652 0
-1650 -1651 0
-1650 -1652 0
-1651 -1652 0
-1653 -1654 0
-1653 -1655 0
-1653 -1656 0
-1654 -1655 0
-1654 -1656 0
-1655 -1656 0
-1657 -1658 0
-1657 -1659 0
-1657 -1660 0
-1658 -1659 0
-1658 -1660 0
-1659 -1660 0
-1661 -1662 0
-1661 -1663 0
-1661 -1664 0
-1662 -1663 0
-1662 -1664 0
-1663 -1664 0
-1669 -1670 0
-1669 -1671 0
-1669 -1672 0
-1670 -1671 0
-1670 -1672 0
-1671 -1672 0
-1673 -1674 0
-1673 -1675 0
-1673 -1676 0
-1674 -1675 0
-1674 -1676 0
-1675 -1676 0
-1677 -1678 0
-1677 -1679 0
-1677 -1680 0
-1678 -1679 0
-1678 -1680 0
-1679 -1680 0
-1681 -1682 0
-1681 -1683 0
-1681 -1684 0
-1682 -1683 0
-1682 -1684 0
-1683 -1684 0
-1689 -1690 0
-1689 -1691 0
-1689 -1692 0
-1690 -1691 0
-1690 -1692 0
-1691 -1692 0
-1693 -1694 0
-1693 -1695 0
-1693 -1696 0
-1694 -1695 0
-1694 -1696 0
-1695 -1696 0
-1697 -1698 0
-1697 -1699 0
-1697 -1700 0
-1698 -1699 0
-1698 -1700 0
-1699 -1700 0
-1705 -1706 0
-1705 -1707 0
-1705 -1708 0
-1706 -1707 0
-1706 -1708 0
-1707 -1708 0
-1709 -1710 0
-1709 -1711 0
-1709 -1712 0
-1710 -1711 0
-1710 -1712 0
-1711 -1712 0
-1713 -1714 0
-1713 -1715 0
-1713 -1716 0
-1714 -1715 0
-1714 -1716 0
-1715 -1716 0
-1717 -1718 0
-1717 -1719 0
-1717 -1720 0
-1718 -1719 0
-1718 -1720 0
-1719 -1720 0
-1721 -1722 0
-1721 -1723 0
-1721 -1724 0
-1722 -1723 0
-1722 -1724 0
-1723 -1724 0
-1725 -1726 0
-1725 -1727 0
-1725 -1728 0
-1726 -1727 0
-1726 -1728 0
-1727 -1728 0
-1729 -1730 0
-1729 -1731 0
-1729 -1732 0
-1730 -1731 0
-1730 -1732 0
-1731 -1732 0
-1737 -1738 0
-1737 -1739 0
-1737 -1740 0
-1738 -1739 0
-1738 -1740 0
-1739 -1740 0
-1741 -1742 0
-1741 -1743 0
-1741 -1744 0
-1742 -1743 0
-1742 -1744 0
-1743 -1744 0
-1745 -1746 0
-1745 -1747 0
-1745 -1748 0
-1746 -1747 0
-1746 -1748 0
-1747 -1748 0
-1749 -1750 0
-1749 -1751 0
-1749 -1752 0
-1750 -1751 0
-1750 -1752 0
-1751 -1752 0
-1757 -1758 0
-1757 -1759 0
-1757 -1760 0
-1758 -1759 0
-1758 -1760 0
-1759 -1760 0
-1761 -1762 0
-1761 -1763 0
-1761 -1764 0
-1762 -1763 0
-1762 -1764 0
-1763 -1764 0
-1765 -1766 0
-1765 -1767 0
-1765 -1768 0
-1766 -1767 0
-1766 -1768 0
-1767 -1768 0
-1769 -1770 0
-1769 -1771 0
-1769 -1772 0
-1770 -1771 0
-1770 -1772 0
-1771 -1772 0
-1773 -1774 0
-1773 -1775 0
-1773 -1776 0
-1774 -1775 0
-1774 -1776 0
-1775 -1776 0
-1777 -1778 0
-1777 -1779 0
-1777 -1780 0
-1778 -1779 0
-1778 -1780 0
-1779 -1780 0
-1781 -1782 0
-1781 -1783 0
-1781 -1784 0
-1782 -1783 0
-1782 -1784 0
-1783 -1784 0
-1785 -1786 0
-1785 -1787 0
-1785 -1788 0
-1786 -1787 0
-1786 -1788 0
-1787 -1788 0
-1789 -1790 0
-1789 -1791 0
-1789 -1792 0
-1790 -1791 0
-1790 -1792 0
-1791 -1792 0
-1793 -1794 0
-1793 -1795 0
-1793 -1796 0
-1794 -1795 0
-1794 -1796 0
-1795 -1796 0
-1797 -1798 0
-1797 -1799 0
-1797 -1800 0
-1798 -1799 0
-1798 -1800 0
-1799 -1800 0
-1801 -1802 0
-1801 -1803 0
-1801 -1804 0
-1802 -1803 0
-1802 -1804 0
-1803 -1804 0
-1805 -1806 0
-1805 -1807 0
-1805 -1808 0
-1806 -1807 0
-1806 -1808 0
-1807 -1808 0
-1809 -1810 0
-1809 -1811 0
-1809 -1812 0
-1810 -1811 0
-1810 -1812 0
-1811 -1812 0
-1813 -1814 0
-1813 -1815 0
-1813 -1816 0
-1814 -1815 0
-1814 -1816 0
-1815 -1816 0
-1817 -1818 0
-1817 -1819 0
-1817 -1820 0
-1818 -1819 0
-1818 -1820 0
-1819 -1820 0
-1821 -1822 0
-1821 -1823 0
-1821 -1824 0
-1822 -1823 0
-1822 -1824 0
-1823 -1824 0
-1829 -1830 0
-1829 -1831 0
-1829 -1832 0
-1830 -1831 0
-1830 -1832 0
-1831 -1832 0
-1833 -1834 0
-1833 -1835 0
-1833 -1836 0
-1834 -1835 0
-1834 -1836 0
-1835 -1836 0
-1837 -1838 0
-1837 -1839 0
-1837 -1840 0
-1838 -1839 0
-1838 -1840 0
-1839 -1840 0
-1841 -1842 0
-1841 -1843 0
-1841 -1844 0
-1842 -1843 0
-1842 -1844 0
-1843 -1844 0
-1845 -1846 0
-1845 -1847 0
-1845 -1848 0
-1846 -1847 0
-1846 -1848 0
-1847 -1848 0
-1853 -1854 0
-1853 -1855 0
-1853 -1856 0
-1854 -1855 0
-1854 -1856 0
-1855 -1856 0
-1857 -1858 0
-1857 -1859 0
-1857 -1860 0
-1858 -1859 0
-1858 -1860 0
-1859 -1860 0
-1861 -1862 0
-1861 -1863 0
-1861 -1864 0
-1862 -1863 0
-1862 -1864 0
-1863 -1864 0
-1865 -1866 0
-1865 -1867 0
-1865 -1868 0
-1866 -1867 0
-1866 -1868 0
-1867 -1868 0
-1869 -1870 0
-1869 -1871 0
-1869 -1872 0
-1870 -1871 0
-1870 -1872 0
-1871 -1872 0
-1877 -1878 0
-1877 -1879 0
-1877 -1880 0
-1878 -1879 0
-1878 -1880 0
-1879 -1880 0
-1881 -1882 0
-1881 -1883 0
-1881 -1884 0
-1882 -1883 0
-1882 -1884 0
-1883 -1884 0
-1885 -1886 0
-1885 -1887 0
-1885 -1888 0
-1886 -1887 0
-1886 -1888 0
-1887 -1888 0
-1889 -1890 0
-1889 -1891 0
-1889 -1892 0
-1890 -1891 0
-1890 -1892 0
-1891 -1892 0
-1893 -1894 0
-1893 -1895 0
-1893 -1896 0
-1894 -1895 0
-1894 -1896 0
-1895 -1896 0
-1897 -1898 0
-1897 -1899 0
-1897 -1900 0
-1898 -1899 0
-1898 -1900 0
-1899 -1900 0
-1901 -1902 0
-1901 -1903 0
-1901 -1904 0
-1902 -1903 0
-1902 -1904 0
-1903 -1904 0
-1905 -1906 0
-1905 -1907 0
-1905 -1908 0
-1906 -1907 0
-1906 -1908 0
-1907 -1908 0
-1913 -1914 0
-1913 -1915 0
-1913 -1916 0
-1914 -1915 0
-1914 -1916 0
-1915 -1916 0
-1917 -1918 0
-1917 -1919 0
-1917 -1920 0
-1918 -1919 0
-1918 -1920 0
-1919 -1920 0
-1921 -1922 0
-1921 -1923 0
-1921 -1924 0
-1922 -1923 0
-1922 -1924 0
-1923 -1924 0
-1925 -1926 0
-1925 -1927 0
-1925 -1928 0
-1926 -1927 0
-1926 -1928 0
-1927 -1928 0
-1929 -1930 0
-1929 -1931 0
-1929 -1932 0
-1930 -1931 0
-1930 -1932 0
-1931 -1932 0
-1933 -1934 0
-1933 -1935 0
-1933 -1936 0
-1934 -1935 0
-1934 -1936 0
-1935 -1936 0
-1937 -1938 0
-1937 -1939 0
-1937 -1940 0
-1938 -1939 0
-1938 -1940 0
-1939 -1940 0
-1941 -1942 0
-1941 -1943 0
-1941 -1944 0
-1942 -1943 0
-1942 -1944 0
-1943 -1944 0
-1945 -1946 0
-1945 -1947 0
-1945 -1948 0
-1946 -1947 0
-1946 -1948 0
-1947 -1948 0
-1949 -1950 0
-1949 -1951 0
-1949 -1952 0
-1950 -1951 0
-1950 -1952 0
-1951 -1952 0
-1953 -1954 0
-1953 -1955 0
-1953 -1956 0
-1954 -1955 0
-1954 -1956 0
-1955 -1956 0
-1957 -1958 0
-1957 -1959 0
-1957 -1960 0
-1958 -1959 0
-1958 -1960 0
-1959 -1960 0
-1961 -1962 0
-1961 -1963 0
-1961 -1964 0
-1962 -1963 0
-1962 -1964 0
-1963 -1964 0
-1965 -1966 0
-1965 -1967 0
-1965 -1968 0
-1966 -1967 0
-1966 -1968 0
-1967 -1968 0
-1969 -1970 0
-1969 -1971 0
-1969 -1972 0
-1970 -1971 0
-1970 -1972 0
-1971 -1972 0
-1973 -1974 0
-1973 -1975 0
-1973 -1976 0
-1974 -1975 0
-1974 -1976 0
-1975 -1976 0
-1981 -1982 0
-1981 -1983 0
-1981 -1984 0
-1982 -1983 0
-1982 -1984 0
-1983 -1984 0
-1985 -1986 0
-1985 -1987 0
-1985 -1988 0
-1986 -1987 0
-1986 -1988 0
-1987 -1988 0
-1989 -1990 0
-1989 -1991 0
-1989 -1992 0
-1990 -1991 0
-1990 -1992 0
-1991 -1992 0
-1993 -1994 0
-1993 -1995 0
-1993 -1996 0
-1994 -1995 0
-1994 -1996 0
-1995 -1996 0
-1997 -1998 0
-1997 -1999 0
-1997 -2000 0
-1998 -1999 0
-1998 -2000 0
-1999 -2000 0
-2001 -2002 0
-2001 -2003 0
-2001 -2004 0
-2002 -2003 0
-2002 -2004 0
-2003 -2004 0
-2005 -2006 0
-2005 -2007 0
-2005 -2008 0
-2006 -2007 0
-2006 -2008 0
-2007 -2008 0
-2009 -2010 0
-2009 -2011 0
-2009 -2012 0
-2010 -2011 0
-2010 -2012 0
-2011 -2012 0
-2017 -2018 0
-2017 -2019 0
-2017 -2020 0
-2018 -2019 0
-2018 -2020 0
-2019 -2020 0
-2021 -2022 0
-2021 -2023 0
-2021 -2024 0
-2022 -2023 0
-2022 -2024 0
-2023 -2024 0
-2025 -2026 0
-2025 -2027 0
-2025 -2028 0
-2026 -2027 0
-2026 -2028 0
-2027 -2028 0
-2029 -2030 0
-2029 -2031 0
-2029 -2032 0
-2030 -2031 0
-2030 -2032 0
-2031 -2032 0
-2033 -2034 0
-2033 -2035 0
-2033 -2036 0
-2034 -2035 0
-2034 -2036 0
-2035 -2036 0
-2037 -2038 0
-2037 -2039 0
-2037 -2040 0
-2038 -2039 0
-2038 -2040 0
-2039 -2040 0
-2041 -2042 0
-2041 -2043 0
-2041 -2044 0
-2042 -2043 0
-2042 -2044 0
-2043 -2044 0
-2045 -2046 0
-2045 -2047 0
-2045 -2048 0
-2046 -2047 0
-2046 -2048 0
-2047 -2048 0
-2049 -2050 0
-2049 -2051 0
-2049 -2052 0
-2050 -2051 0
-2050 -2052 0
-2051 -2052 0
-2053 -2054 0
-2053 -2055 0
-2053 -2056 0
-2054 -2055 0
-2054 -2056 0
-2055 -2056 0
-2057 -2058 0
-2057 -2059 0
-2057 -2060 0
-2058 -2059 0
-2058 -2060 0
-2059 -2060 0
-2061 -2062 0
-2061 -2063 0
-2061 -2064 0
-2062 -2063 0
-2062 -2064 0
-2063 -2064 0
-2065 -2066 0
-2065 -2067 0
-2065 -2068 0
-2066 -2067 0
-2066 -2068 0
-2067 -2068 0
-2077 -2078 0
-2077 -2079 0
-2077 -2080 0
-2078 -2079 0
-2078 -2080 0
-2079 -2080 0
-2081 -2082 0
-2081 -2083 0
-2081 -2084 0
-2082 -2083 0
-2082 -2084 0
-2083 -2084 0
-2085 -2086 0
-2085 -2087 0
-2085 -2088 0
-2086 -2087 0
-2086 -2088 0
-2087 -2088 0
-2089 -2090 0
-2089 -2091 0
-2089 -2092 0
-2090 -2091 0
-2090 -2092 0
-2091 -2092 0
-2093 -2094 0
-2093 -2095 0
-2093 -2096 0
-2094 -2095 0
-2094 -2096 0
-2095 -2096 0
-2097 -2098 0
-2097 -2099 0
-2097 -2100 0
-2098 -2099 0
-2098 -2100 0
-2099 -2100 0
-2101 -2102 0
-2101 -2103 0
-2101 -2104 0
-2102 -2103 0
-2102 -2104 0
-2103 -2104 0
-2105 -2106 0
-2105 -2107 0
-2105 -2108 0
-2106 -2107 0
-2106 -2108 0
-2107 -2108 0
-2109 -2110 0
-2109 -2111 0
-2109 -2112 0
-2110 -2111 0
-2110 -2112 0
-2111 -2112 0
-2117 -2118 0
-2117 -2119 0
-2117 -2120 0
-2118 -2119 0
-2118 -2120 0
-2119 -2120 0
-2125 -2126 0
-2125 -2127 0
-2125 -2128 0
-2126 -2127 0
-2126 -2128 0
-2127 -2128 0
-2129 -2130 0
-2129 -2131 0
-2129 -2132 0
-2130 -2131 0
-2130 -2132 0
-2131 -2132 0
-2133 -2134 0
-2133 -2135 0
-2133 -2136 0
-2134 -2135 0
-2134 -2136 0
-2135 -2136 0
-2137 -2138 0
-2137 -2139 0
-2137 -2140 0
-2138 -2139 0
-2138 -2140 0
-2139 -2140 0
-2141 -2142 0
-2141 -2143 0
-2141 -2144 0
-2142 -2143 0
-2142 -2144 0
-2143 -2144 0
-2145 -2146 0
-2145 -2147 0
-2145 -2148 0
-2146 -2147 0
-2146 -2148 0
-2147 -2148 0
-2149 -2150 0
-2149 -2151 0
-2149 -2152 0
-2150 -2151 0
-2150 -2152 0
-2151 -2152 0
-2153 -2154 0
-2153 -2155 0
-2153 -2156 0
-2154 -2155 0
-2154 -2156 0
-2155 -2156 0
-2157 -2158 0
-2157 -2159 0
-2157 -2160 0
-2158 -2159 0
-2158 -2160 0
-2159 -2160 0
-2161 -2162 0
-2161 -2163 0
-2161 -2164 0
-2162 -2163 0
-2162 -2164 0
-2163 -2164 0
-2165 -2166 0
-2165 -2167 0
-2165 -2168 0
-2166 -2167 0
-2166 -2168 0
-2167 -2168 0
-2169 -2170 0
-2169 -2171 0
-2169 -2172 0
-2170 -2171 0
-2170 -2172 0
-2171 -2172 0
-2173 -2174 0
-2173 -2175 0
-2173 -2176 0
-2174 -2175 0
-2174 -2176 0
-2175 -2176 0
-2177 -2178 0
-2177 -2179 0
-2177 -2180 0
-2178 -2179 0
-2178 -2180 0
-2179 -2180 0
-2185 -2186 0
-2185 -2187 0
-2185 -2188 0
-2186 -2187 0
-2186 -2188 0
-2187 -2188 0
-2189 -2190 0
-2189 -2191 0
-2189 -2192 0
-2190 -2191 0
-2190 -2192 0
-2191 -2192 0
-2197 -2198 0
-2197 -2199 0
-2197 -2200 0
-2198 -2199 0
-2198 -2200 0
-2199 -2200 0
-2201 -2202 0
-2201 -2203 0
-2201 -2204 0
-2202 -2203 0
-2202 -2204 0
-2203 -2204 0
-2205 -2206 0
-2205 -2207 0
-2205 -2208 0
-2206 -2207 0
-2206 -2208 0
-2207 -2208 0
-2209 -2210 0
-2209 -2211 0
-2209 -2212 0
-2210 -2211 0
-2210 -2212 0
-2211 -2212 0
-2217 -2218 0
-2217 -2219 0
-2217 -2220 0
-2218 -2219 0
-2218 -2220 0
-2219 -2220 0
-2221 -2222 0
-2221 -2223 0
-2221 -2224 0
-2222 -2223 0
-2222 -2224 0
-2223 -2224 0
-2225 -2226 0
-2225 -2227 0
-2225 -2228 0
-2226 -2227 0
-2226 -2228 0
-2227 -2228 0
-2229 -2230 0
-2229 -2231 0
-2229 -2232 0
-2230 -2231 0
-2230 -2232 0
-2231 -2232 0
-2233 -2234 0
-2233 -2235 0
-2233 -2236 0
-2234 -2235 0
-2234 -2236 0
-2235 -2236 0
-2241 -2242 0
-2241 -2243 0
-2241 -2244 0
-2242 -2243 0
-2242 -2244 0
-2243 -2244 0
-2245 -2246 0
-2245 -2247 0
-2245 -2248 0
-2246 -2247 0
-2246 -2248 0
-2247 -2248 0
-2253 -2254 0
-2253 -2255 0
-2253 -2256 0
-2254 -2255 0
-2254 -2256 0
-2255 -2256 0
-2257 -2258 0
-2257 -2259 0
-2257 -2260 0
-2258 -2259 0
-2258 -2260 0
-2259 -2260 0
-2261 -2262 0
-2261 -2263 0
-2261 -2264 0
-2262 -2263 0
-2262 -2264 0
-2263 -2264 0
-2265 -2266 0
-2265 -2267 0
-2265 -2268 0
-2266 -2267 0
-2266 -2268 0
-2267 -2268 0
-2269 -2270 0
-2269 -2271 0
-2269 -2272 0
-2270 -2271 0
-2270 -2272 0
-2271 -2272 0
-2273 -2274 0
-2273 -2275 0
-2273 -2276 0
-2274 -2275 0
-2274 -2276 0
-2275 -2276 0
-2277 -2278 0
-2277 -2279 0
-2277 -2280 0
-2278 -2279 0
-2278 -2280 0
-2279 -2280 0
-2281 -2282 0
-2281 -2283 0
-2281 -2284 0
-2282 -2283 0
-2282 -2284 0
-2283 -2284 0
-2285 -2286 0
-2285 -2287 0
-2285 -2288 0
-2286 -2287 0
-2286 -2288 0
-2287 -2288 0
-2289 -2290 0
-2289 -2291 0
-2289 -2292 0
-2290 -2291 0
-2290 -2292 0
-2291 -2292 0
-2293 -2294 0
-2293 -2295 0
-2293 -2296 0
-2294 -2295 0
-2294 -2296 0
-2295 -2296 0
-2297 -2298 0
-2297 -2299 0
-2297 -2300 0
-2298 -2299 0
-2298 -2300 0
-2299 -2300 0
-2301 -2302 0
-2301 -2303 0
-2301 -2304 0
-2302 -2303 0
-2302 -2304 0
-2303 -2304 0
-2305 -2306 0
-2305 -2307 0
-2305 -2308 0
-2306 -2307 0
-2306 -2308 0
-2307 -2308 0
-2309 -2310 0
-2309 -2311 0
-2309 -2312 0
-2310 -2311 0
-2310 -2312 0
-2311 -2312 0
-2317 -2318 0
-2317 -2319 0
-2317 -2320 0
-2318 -2319 0
-2318 -2320 0
-2319 -2320 0
-2321 -2322 0
-2321 -2323 0
-2321 -2324 0
-2322 -2323 0
-2322 -2324 0
-2323 -2324 0
-2325 -2326 0
-2325 -2327 0
-2325 -2328 0
-2326 -2327 0
-2326 -2328 0
-2327 -2328 0
-2329 -2330 0
-2329 -2331 0
-2329 -2332 0
-2330 -2331 0
-2330 -2332 0
-2331 -2332 0
-2337 -2338 0
-2337 -2339 0
-2337 -2340 0
-2338 -2339 0
-2338 -2340 0
-2339 -2340 0
-2341 -2342 0
-2341 -2343 0
-2341 -2344 0
-2342 -2343 0
-2342 -2344 0
-2343 -2344 0
-2345 -2346 0
-2345 -2347 0
-2345 -2348 0
-2346 -2347 0
-2346 -2348 0
-2347 -2348 0
-2349 -2350 0
-2349 -2351 0
-2349 -2352 0
-2350 -2351 0
-2350 -2352 0
-2351 -2352 0
-2353 -2354 0
-2353 -2355 0
-2353 -2356 0
-2354 -2355 0
-2354 -2356 0
-2355 -2356 0
-2357 -2358 0
-2357 -2359 0
-2357 -2360 0
-2358 -2359 0
-2358 -2360 0
-2359 -2360 0
-2365 -2366 0
-2365 -2367 0
-2365 -2368 0
-2366 -2367 0
-2366 -2368 0
-2367 -2368 0
-2369 -2370 0
-2369 -2371 0
-2369 -2372 0
-2370 -2371 0
-2370 -2372 0
-2371 -2372 0
-2373 -2374 0
-2373 -2375 0
-2373 -2376 0
-2374 -2375 0
-2374 -2376 0
-2375 -2376 0
-2377 -2378 0
-2377 -2379 0
-2377 -2380 0
-2378 -2379 0
-2378 -2380 0
-2379 -2380 0
-2389 -2390 0
-2389 -2391 0
-2389 -2392 0
-2390 -2391 0
-2390 -2392 0
-2391 -2392 0
-2393 -2394 0
-2393 -2395 0
-2393 -2396 0
-2394 -2395 0
-2394 -2396 0
-2395 -2396 0
-2401 -2402 0
-2401 -2403 0
-2401 -2404 0
-2402 -2403 0
-2402 -2404 0
-2403 -2404 0
-2405 -2406 0
-2405 -2407 0
-2405 -2408 0
-2406 -2407 0
-2406 -2408 0
-2407 -2408 0
-2409 -2410 0
-2409 -2411 0
-2409 -2412 0
-2410 -2411 0
-2410 -2412 0
-2411 -2412 0
-2413 -2414 0
-2413 -2415 0
-2413 -2416 0
-2414 -2415 0
-2414 -2416 0
-2415 -2416 0
-2421 -2422 0
-2421 -2423 0
-2421 -2424 0
-2422 -2423 0
-2422 -2424 0
-2423 -2424 0
-2429 -2430 0
-2429 -2431 0
-2429 -2432 0
-2430 -2431 0
-2430 -2432 0
-2431 -2432 0
-2433 -2434 0
-2433 -2435 0
-2433 -2436 0
-2434 -2435 0
-2434 -2436 0
-2435 -2436 0
-2445 -2446 0
-2445 -2447 0
-2445 -2448 0
-2446 -2447 0
-2446 -2448 0
-2447 -2448 0
-2449 -2450 0
-2449 -2451 0
-2449 -2452 0
-2450 -2451 0
-2450 -2452 0
-2451 -2452 0
-2453 -2454 0
-2453 -2455 0
-2453 -2456 0
-2454 -2455 0
-2454 -2456 0
-2455 -2456 0
-2465 -2466 0
-2465 -2467 0
-2465 -2468 0
-2466 -2467 0
-2466 -2468 0
-2467 -2468 0
-2469 -2470 0
-2469 -2471 0
-2469 -2472 0
-2470 -2471 0
-2470 -2472 0
-2471 -2472 0
-2473 -2474 0
-2473 -2475 0
-2473 -2476 0
-2474 -2475 0
-2474 -2476 0
-2475 -2476 0
-2477 -2478 0
-2477 -2479 0
-2477 -2480 0
-2478 -2479 0
-2478 -2480 0
-2479 -2480 0
-2481 -2482 0
-2481 -2483 0
-2481 -2484 0
-2482 -2483 0
-2482 -2484 0
-2483 -2484 0
-2485 -2486 0
-2485 -2487 0
-2485 -2488 0
-2486 -2487 0
-2486 -2488 0
-2487 -2488 0
-2489 -2490 0
-2489 -2491 0
-2489 -2492 0
-2490 -2491 0
-2490 -2492 0
-2491 -2492 0
-2493 -2494 0
-2493 -2495 0
-2493 -2496 0
-2494 -2495 0
-2494 -2496 0
-2495 -2496 0
-2497 -2498 0
-2497 -2499 0
-2497 -2500 0
-2498 -2499 0
-2498 -2500 0
-2499 -2500 0
-2501 -2502 0
-2501 -2503 0
-2501 -2504 0
-2502 -2503 0
-2502 -2504 0
-2503 -2504 0
-2505 -2506 0
-2505 -2507 0
-2505 -2508 0
-2506 -2507 0
-2506 -2508 0
-2507 -2508 0
-2509 -2510 0
-2509 -2511 0
-2509 -2512 0
-2510 -2511 0
-2510 -2512 0
-2511 -2512 0
-2513 -2514 0
-2513 -2515 0
-2513 -2516 0
-2514 -2515 0
-2514 -2516 0
-2515 -2516 0
-2517 -2518 0
-2517 -2519 0
-2517 -2520 0
-2518 -2519 0
-2518 -2520 0
-2519 -2520 0
-2521 -2522 0
-2521 -2523 0
-2521 -2524 0
-2522 -2523 0
-2522 -2524 0
-2523 -2524 0
-2525 -2526 0
-2525 -2527 0
-2525 -2528 0
-2526 -2527 0
-2526 -2528 0
-2527 -2528 0
-2529 -2530 0
-2529 -2531 0
-2529 -2532 0
-2530 -2531 0
-2530 -2532 0
-2531 -2532 0
-2533 -2534 0
-2533 -2535 0
-2533 -2536 0
-2534 -2535 0
-2534 -2536 0
-2535 -2536 0
-2537 -2538 0
-2537 -2539 0
-2537 -2540 0
-2538 -2539 0
-2538 -2540 0
-2539 -2540 0
-2541 -2542 0
-2541 -2543 0
-2541 -2544 0
-2542 -2543 0
-2542 -2544 0
-2543 -2544 0
-2545 -2546 0
-2545 -2547 0
-2545 -2548 0
-2546 -2547 0
-2546 -2548 0
-2547 -2548 0
-2549 -2550 0
-2549 -2551 0
-2549 -2552 0
-2550 -2551 0
-2550 -2552 0
-2551 -2552 0
-2553 -2554 0
-2553 -2555 0
-2553 -2556 0
-2554 -2555 0
-2554 -2556 0
-2555 -2556 0
-2557 -2558 0
-2557 -2559 0
-2557 -2560 0
-2558 -2559 0
-2558 -2560 0
-2559 -2560 0
-2561 -2562 0
-2561 -2563 0
-2561 -2564 0
-2562 -2563 0
-2562 -2564 0
-2563 -2564 0
-2573 -2574 0
-2573 -2575 0
-2573 -2576 0
-2574 -2575 0
-2574 -2576 0
-2575 -2576 0
-2577 -2578 0
-2577 -2579 0
-2577 -2580 0
-2578 -2579 0
-2578 -2580 0
-2579 -2580 0
-2581 -2582 0
-2581 -2583 0
-2581 -2584 0
-2582 -2583 0
-2582 -2584 0
-2583 -2584 0
-2585 -2586 0
-2585 -2587 0
-2585 -2588 0
-2586 -2587 0
-2586 -2588 0
-2587 -2588 0
-2589 -2590 0
-2589 -2591 0
-2589 -2592 0
-2590 -2591 0
-2590 -2592 0
-2591 -2592 0
-2593 -2594 0
-2593 -2595 0
-2593 -2596 0
-2594 -2595 0
-2594 -2596 0
-2595 -2596 0
-2597 -2598 0
-2597 -2599 0
-2597 -2600 0
-2598 -2599 0
-2598 -2600 0
-2599 -2600 0
-2601 -2602 0
-2601 -2603 0
-2601 -2604 0
-2602 -2603 0
-2602 -2604 0
-2603 -2604 0
-2605 -2606 0
-2605 -2607 0
-2605 -2608 0
-2606 -2607 0
-2606 -2608 0
-2607 -2608 0
-2609 -2610 0
-2609 -2611 0
-2609 -2612 0
-2610 -2611 0
-2610 -2612 0
-2611 -2612 0
-2613 -2614 0
-2613 -2615 0
-2613 -2616 0
-2614 -2615 0
-2614 -2616 0
-2615 -2616 0
-2621 -2622 0
-2621 -2623 0
-2621 -2624 0
-2622 -2623 0
-2622 -2624 0
-2623 -2624 0
-2625 -2626 0
-2625 -2627 0
-2625 -2628 0
-2626 -2627 0
-2626 -2628 0
-2627 -2628 0
-2629 -2630 0
-2629 -2631 0
-2629 -2632 0
-2630 -2631 0
-2630 -2632 0
-2631 -2632 0
-2633 -2634 0
-2633 -2635 0
-2633 -2636 0
-2634 -2635 0
-2634 -2636 0
-2635 -2636 0
-2641 -2642 0
-2641 -2643 0
-2641 -2644 0
-2642 -2643 0
-2642 -2644 0
-2643 -2644 0
-2645 -2646 0
-2645 -2647 0
-2645 -2648 0
-2646 -2647 0
-2646 -2648 0
-2647 -2648 0
-2649 -2650 0
-2649 -2651 0
-2649 -2652 0
-2650 -2651 0
-2650 -2652 0
-2651 -2652 0
-2653 -2654 0
-2653 -2655 0
-2653 -2656 0
-2654 -2655 0
-2654 -2656 0
-2655 -2656 0
-2657 -2658 0
-2657 -2659 0
-2657 -2660 0
-2658 -2659 0
-2658 -2660 0
-2659 -2660 0
-2661 -2662 0
-2661 -2663 0
-2661 -2664 0
-2662 -2663 0
-2662 -2664 0
-2663 -2664 0
-2665 -2666 0
-2665 -2667 0
-2665 -2668 0
-2666 -2667 0
-2666 -2668 0
-2667 -2668 0
-2669 -2670 0
-2669 -2671 0
-2669 -2672 0
-2670 -2671 0
-2670 -2672 0
-2671 -2672 0
-2677 -2678 0
-2677 -2679 0
-2677 -2680 0
-2678 -2679 0
-2678 -2680 0
-2679 -2680 0
-2685 -2686 0
-2685 -2687 0
-2685 -2688 0
-2686 -2687 0
-2686 -2688 0
-2687 -2688 0
-2689 -2690 0
-2689 -2691 0
-2689 -2692 0
-2690 -2691 0
-2690 -2692 0
-2691 -2692 0
-2693 -2694 0
-2693 -2695 0
-2693 -2696 0
-2694 -2695 0
-2694 -2696 0
-2695 -2696 0
-2697 -2698 0
-2697 -2699 0
-2697 -2700 0
-2698 -2699 0
-2698 -2700 0
-2699 -2700 0
-2701 -2702 0
-2701 -2703 0
-2701 -2704 0
-2702 -2703 0
-2702 -2704 0
-2703 -2704 0
-2705 -2706 0
-2705 -2707 0
-2705 -2708 0
-2706 -2707 0
-2706 -2708 0
-2707 -2708 0
-2709 -2710 0
-2709 -2711 0
-2709 -2712 0
-2710 -2711 0
-2710 -2712 0
-2711 -2712 0
-2713 -2714 0
-2713 -2715 0
-2713 -2716 0
-2714 -2715 0
-2714 -2716 0
-2715 -2716 0
-2717 -2718 0
-2717 -2719 0
-2717 -2720 0
-2718 -2719 0
-2718 -2720 0
-2719 -2720 0
-2721 -2722 0
-2721 -2723 0
-2721 -2724 0
-2722 -2723 0
-2722 -2724 0
-2723 -2724 0
-2725 -2726 0
-2725 -2727 0
-2725 -2728 0
-2726 -2727 0
-2726 -2728 0
-2727 -2728 0
-2729 -2730 0
-2729 -2731 0
-2729 -2732 0
-2730 -2731 0
-2730 -2732 0
-2731 -2732 0
-2733 -2734 0
-2733 -2735 0
-2733 -2736 0
-2734 -2735 0
-2734 -2736 0
-2735 -2736 0
-2737 -2738 0
-2737 -2739 0
-2737 -2740 0
-2738 -2739 0
-2738 -2740 0
-2739 -2740 0
-2741 -2742 0
-2741 -2743 0
-2741 -2744 0
-2742 -2743 0
-2742 -2744 0
-2743 -2744 0
-2745 -2746 0
-2745 -2747 0
-2745 -2748 0
-2746 -2747 0
-2746 -2748 0
-2747 -2748 0
-2749 -2750 0
-2749 -2751 0
-2749 -2752 0
-2750 -2751 0
-2750 -2752 0
-2751 -2752 0
-2753 -2754 0
-2753 -2755 0
-2753 -2756 0
-2754 -2755 0
-2754 -2756 0
-2755 -2756 0
-2761 -2762 0
-2761 -2763 0
-2761 -2764 0
-2762 -2763 0
-2762 -2764 0
-2763 -2764 0
-2769 -2770 0
-2769 -2771 0
-2769 -2772 0
-2770 -2771 0
-2770 -2772 0
-2771 -2772 0
-2773 -2774 0
-2773 -2775 0
-2773 -2776 0
-2774 -2775 0
-2774 -2776 0
-2775 -2776 0
-2777 -2778 0
-2777 -2779 0
-2777 -2780 0
-2778 -2779 0
-2778 -2780 0
-2779 -2780 0
-2781 -2782 0
-2781 -2783 0
-2781 -2784 0
-2782 -2783 0
-2782 -2784 0
-2783 -2784 0
-2785 -2786 0
-2785 -2787 0
-2785 -2788 0
-2786 -2787 0
-2786 -2788 0
-2787 -2788 0
-2789 -2790 0
-2789 -2791 0
-2789 -2792 0
-2790 -2791 0
-2790 -2792 0
-2791 -2792 0
-2793 -2794 0
-2793 -2795 0
-2793 -2796 0
-2794 -2795 0
-2794 -2796 0
-2795 -2796 0
-2797 -2798 0
-2797 -2799 0
-2797 -2800 0
-2798 -2799 0
-2798 -2800 0
-2799 -2800 0
-2801 -2802 0
-2801 -2803 0
-2801 -2804 0
-2802 -2803 0
-2802 -2804 0
-2803 -2804 0
-2805 -2806 0
-2805 -2807 0
-2805 -2808 0
-2806 -2807 0
-2806 -2808 0
-2807 -2808 0
-2809 -2810 0
-2809 -2811 0
-2809 -2812 0
-2810 -2811 0
-2810 -2812 0
-2811 -2812 0
-2813 -2814 0
-2813 -2815 0
-2813 -2816 0
-2814 -2815 0
-2814 -2816 0
-2815 -2816 0
-2817 -2818 0
-2817 -2819 0
-2817 -2820 0
-2818 -2819 0
-2818 -2820 0
-2819 -2820 0
-2821 -2822 0
-2821 -2823 0
-2821 -2824 0
-2822 -2823 0
-2822 -2824 0
-2823 -2824 0
-2825 -2826 0
-2825 -2827 0
-2825 -2828 0
-2826 -2827 0
-2826 -2828 0
-2827 -2828 0
-2829 -2830 0
-2829 -2831 0
-2829 -2832 0
-2830 -2831 0
-2830 -2832 0
-2831 -2832 0
-2841 -2842 0
-2841 -2843 0
-2841 -2844 0
-2842 -2843 0
-2842 -2844 0
-2843 -2844 0
-2845 -2846 0
-2845 -2847 0
-2845 -2848 0
-2846 -2847 0
-2846 -2848 0
-2847 -2848 0
-2849 -2850 0
-2849 -2851 0
-2849 -2852 0
-2850 -2851 0
-2850 -2852 0
-2851 -2852 0
-2853 -2854 0
-2853 -2855 0
-2853 -2856 0
-2854 -2855 0
-2854 -2856 0
-2855 -2856 0
-2857 -2858 0
-2857 -2859 0
-2857 -2860 0
-2858 -2859 0
-2858 -2860 0
-2859 -2860 0
-2861 -2862 0
-2861 -2863 0
-2861 -2864 0
-2862 -2863 0
-2862 -2864 0
-2863 -2864 0
-2865 -2866 0
-2865 -2867 0
-2865 -2868 0
-2866 -2867 0
-2866 -2868 0
-2867 -2868 0
-2869 -2870 0
-2869 -2871 0
-2869 -2872 0
-2870 -2871 0
-2870 -2872 0
-2871 -2872 0
-2873 -2874 0
-2873 -2875 0
-2873 -2876 0
-2874 -2875 0
-2874 -2876 0
-2875 -2876 0
-2877 -2878 0
-2877 -2879 0
-2877 -2880 0
-2878 -2879 0
-2878 -2880 0
-2879 -2880 0
-2881 -2882 0
-2881 -2883 0
-2881 -2884 0
-2882 -2883 0
-2882 -2884 0
-2883 -2884 0
-2885 -2886 0
-2885 -2887 0
-2885 -2888 0
-2886 -2887 0
-2886 -2888 0
-2887 -2888 0
-2889 -2890 0
-2889 -2891 0
-2889 -2892 0
-2890 -2891 0
-2890 -2892 0
-2891 -2892 0
-2893 -2894 0
-2893 -2895 0
-2893 -2896 0
-2894 -2895 0
-2894 -2896 0
-2895 -2896 0
-2897 -2898 0
-2897 -2899 0
-2897 -2900 0
-2898 -2899 0
-2898 -2900 0
-2899 -2900 0
-2905 -2906 0
-2905 -2907 0
-2905 -2908 0
-2906 -2907 0
-2906 -2908 0
-2907 -2908 0
-2909 -2910 0
-2909 -2911 0
-2909 -2912 0
-2910 -2911 0
-2910 -2912 0
-2911 -2912 0
-2913 -2914 0
-2913 -2915 0
-2913 -2916 0
-2914 -2915 0
-2914 -2916 0
-2915 -2916 0
-2917 -2918 0
-2917 -2919 0
-2917 -2920 0
-2918 -2919 0
-2918 -2920 0
-2919 -2920 0
-2921 -2922 0
-2921 -2923 0
-2921 -2924 0
-2922 -2923 0
-2922 -2924 0
-2923 -2924 0
-2929 -2930 0
-2929 -2931 0
-2929 -2932 0
-2930 -2931 0
-2930 -2932 0
-2931 -2932 0
-2933 -2934 0
-2933 -2935 0
-2933 -2936 0
-2934 -2935 0
-2934 -2936 0
-2935 -2936 0
-2937 -2938 0
-2937 -2939 0
-2937 -2940 0
-2938 -2939 0
-2938 -2940 0
-2939 -2940 0
-2945 -2946 0
-2945 -2947 0
-2945 -2948 0
-2946 -2947 0
-2946 -2948 0
-2947 -2948 0
-2949 -2950 0
-2949 -2951 0
-2949 -2952 0
-2950 -2951 0
-2950 -2952 0
-2951 -2952 0
-2953 -2954 0
-2953 -2955 0
-2953 -2956 0
-2954 -2955 0
-2954 -2956 0
-2955 -2956 0
-1 -5 0
-2 -6 0
-3 -7 0
-4 -8 0
-1 -49 0
-2 -50 0
-3 -51 0
-4 -52 0
-1 -181 0
-2 -182 0
-3 -183 0
-4 -184 0
-1 -205 0
-2 -206 0
-3 -207 0
-4 -208 0
-1 -237 0
-2 -238 0
-3 -239 0
-4 -240 0
-1 -245 0
-2 -246 0
-3 -247 0
-4 -248 0
-1 -345 0
-2 -346 0
-3 -347 0
-4 -348 0
-5 -37 0
-6 -38 0
-7 -39 0
-8 -40 0
-5 -81 0
-6 -82 0
-7 -83 0
-8 -84 0
-5 -189 0
-6 -190 0
-7 -191 0
-8 -192 0
-5 -193 0
-6 -194 0
-7 -195 0
-8 -196 0
-5 -209 0
-6 -210 0
-7 -211 0
-8 -212 0
-5 -241 0
-6 -242 0
-7 -243 0
-8 -244 0
-5 -249 0
-6 -250 0
-7 -251 0
-8 -252 0
-5 -265 0
-6 -266 0
-7 -267 0
-8 -268 0
-9 -13 0
-10 -14 0
-11 -15 0
-12 -16 0
-9 -21 0
-10 -22 0
-11 -23 0
-12 -24 0
-9 -109 0
-10 -110 0
-11 -111 0
-12 -112 0
-9 -161 0
-10 -162 0
-11 -163 0
-12 -164 0
-9 -353 0
-10 -354 0
-11 -355 0
-12 -356 0
-9 -361 0
-10 -362 0
-11 -363 0
-12 -364 0
-9 -397 0
-10 -398 0
-11 -399 0
-12 -400 0
-9 -505 0
-10 -506 0
-11 -507 0
-12 -508 0
-13 -29 0
-14 -30 0
-15 -31 0
-16 -32 0
-13 -77 0
-14 -78 0
-15 -79 0
-16 -80 0
-13 -117 0
-14 -118 0
-15 -119 0
-16 -120 0
-13 -165 0
-14 -166 0
-15 -167 0
-16 -168 0
-13 -373 0
-14 -374 0
-15 -375 0
-16 -376 0
-13 -385 0
-14 -386 0
-15 -387 0
-16 -388 0
-13 -397 0
-14 -398 0
-15 -399 0
-16 -400 0
-17 -45 0
-18 -46 0
-19 -47 0
-20 -48 0
-17 -129 0
-18 -130 0
-19 -131 0
-20 -132 0
-17 -177 0
-18 -178 0
-19 -179 0
-20 -180 0
-17 -301 0
-18 -302 0
-19 -303 0
-20 -304 0
-17 -409 0
-18 -410 0
-19 -411 0
-20 -412 0
-17 -469 0
-18 -470 0
-19 -471 0
-20 -472 0
-17 -497 0
-18 -498 0
-19 -499 0
-20 -500 0
-21 -25 0
-22 -26 0
-23 -27 0
-24 -28 0
-21 -29 0
-22 -30 0
-23 -31 0
-24 -32 0
-21 -85 0
-22 -86 0
-23 -87 0
-24 -88 0
-21 -217 0
-22 -218 0
-23 -219 0
-24 -220 0
-21 -281 0
-22 -282 0
-23 -283 0
-24 -284 0
-21 -417 0
-22 -418 0
-23 -419 0
-24 -420 0
-21 -581 0
-22 -582 0
-23 -583 0
-24 -584 0
-21 -585 0
-22 -586 0
-23 -587 0
-24 -588 0
-21 -649 0
-22 -650 0
-23 -651 0
-24 -652 0
-21 -685 0
-22 -686 0
-23 -687 0
-24 -688 0
-21 -901 0
-22 -902 0
-23 -903 0
-24 -904 0
-25 -33 0
-26 -34 0
-27 -35 0
-28 -36 0
-25 -69 0
-26 -70 0
-27 -71 0
-28 -72 0
-25 -97 0
-26 -98 0
-27 -99 0
-28 -100 0
-25 -421 0
-26 -422 0
-27 -423 0
-28 -424 0
-25 -585 0
-26 -586 0
-27 -587 0
-28 -588 0
-25 -653 0
-26 -654 0
-27 -655 0
-28 -656 0
-25 -721 0
-26 -722 0
-27 -723 0
-28 -724 0
-25 -909 0
-26 -910 0
-27 -911 0
-28 -912 0
-29 -33 0
-30 -34 0
-31 -35 0
-32 -36 0
-29 -77 0
-30 -78 0
-31 -79 0
-32 -80 0
-29 -173 0
-30 -174 0
-31 -175 0
-32 -176 0
-29 -589 0
-30 -590 0
-31 -591 0
-32 -592 0
-29 -593 0
-30 -594 0
-31 -595 0
-32 -596 0
-29 -685 0
-30 -686 0
-31 -687 0
-32 -688 0
-29 -749 0
-30 -750 0
-31 -751 0
-32 -752 0
-33 -185 0
-34 -186 0
-35 -187 0
-36 -188 0
-33 -209 0
-34 -210 0
-35 -211 0
-36 -212 0
-33 -593 0
-34 -594 0
-35 -595 0
-36 -596 0
-33 -721 0
-34 -722 0
-35 -723 0
-36 -724 0
-33 -753 0
-34 -754 0
-35 -755 0
-36 -756 0
-37 -105 0
-38 -106 0
-39 -107 0
-40 -108 0
-37 -145 0
-38 -146 0
-39 -147 0
-40 -148 0
-37 -289 0
-38 -290 0
-39 -291 0
-40 -292 0
-37 -489 0
-38 -490 0
-39 -491 0
-40 -492 0
-37 -685 0
-38 -686 0
-39 -687 0
-40 -688 0
-37 -721 0
-38 -722 0
-39 -723 0
-40 -724 0
-37 -989 0
-38 -990 0
-39 -991 0
-40 -992 0
-41 -45 0
-42 -46 0
-43 -47 0
-44 -48 0
-41 -49 0
-42 -50 0
-43 -51 0
-44 -52 0
-41 -101 0
-42 -102 0
-43 -103 0
-44 -104 0
-41 -269 0
-42 -270 0
-43 -271 0
-44 -272 0
-41 -325 0
-42 -326 0
-43 -327 0
-44 -328 0
-41 -529 0
-42 -530 0
-43 -531 0
-44 -532 0
-41 -657 0
-42 -658 0
-43 -659 0
-44 -660 0
-41 -685 0
-42 -686 0
-43 -687 0
-44 -688 0
-41 -813 0
-42 -814 0
-43 -815 0
-44 -816 0
-41 -817 0
-42 -818 0
-43 -819 0
-44 -820 0
-41 -1041 0
-42 -1042 0
-43 -1043 0
-44 -1044 0
-45 -53 0
-46 -54 0
-47 -55 0
-48 -56 0
-45 -273 0
-46 -274 0
-47 -275 0
-48 -276 0
-45 -533 0
-46 -534 0
-47 -535 0
-48 -536 0
-45 -661 0
-46 -662 0
-47 -663 0
-48 -664 0
-45 -721 0
-46 -722 0
-47 -723 0
-48 -724 0
-45 -817 0
-46 -818 0
-47 -819 0
-48 -820 0
-49 -53 0
-50 -54 0
-51 -55 0
-52 -56 0
-49 -113 0
-50 -114 0
-51 -115 0
-52 -116 0
-49 -345 0
-50 -346 0
-51 -347 0
-52 -348 0
-49 -537 0
-50 -538 0
-51 -539 0
-52 -540 0
-49 -545 0
-50 -546 0
-51 -547 0
-52 -548 0
-49 -685 0
-50 -686 0
-51 -687 0
-52 -688 0
-49 -741 0
-50 -742 0
-51 -743 0
-52 -744 0
-49 -821 0
-50 -822 0
-51 -823 0
-52 -824 0
-49 -825 0
-50 -826 0
-51 -827 0
-52 -828 0
-53 -93 0
-54 -94 0
-55 -95 0
-56 -96 0
-53 -265 0
-54 -266 0
-55 -267 0
-56 -268 0
-53 -541 0
-54 -542 0
-55 -543 0
-56 -544 0
-53 -549 0
-54 -550 0
-55 -551 0
-56 -552 0
-53 -721 0
-54 -722 0
-55 -723 0
-56 -724 0
-53 -745 0
-54 -746 0
-55 -747 0
-56 -748 0
-53 -825 0
-54 -826 0
-55 -827 0
-56 -828 0
-57 -73 0
-58 -74 0
-59 -75 0
-60 -76 0
-57 -157 0
-58 -158 0
-59 -159 0
-60 -160 0
-57 -405 0
-58 -406 0
-59 -407 0
-60 -408 0
-57 -621 0
-58 -622 0
-59 -623 0
-60 -624 0
-57 -901 0
-58 -902 0
-59 -903 0
-60 -904 0
-57 -909 0
-58 -910 0
-59 -911 0
-60 -912 0
-57 -989 0
-58 -990 0
-59 -991 0
-60 -992 0
-61 -65 0
-62 -66 0
-63 -67 0
-64 -68 0
-61 -73 0
-62 -74 0
-63 -75 0
-64 -76 0
-61 -109 0
-62 -110 0
-63 -111 0
-64 -112 0
-61 -217 0
-62 -218 0
-63 -219 0
-64 -220 0
-61 -409 0
-62 -410 0
-63 -411 0
-64 -412 0
-61 -633 0
-62 -634 0
-63 -635 0
-64 -636 0
-61 -913 0
-62 -914 0
-63 -915 0
-64 -916 0
-61 -921 0
-62 -922 0
-63 -923 0
-64 -924 0
-65 -73 0
-66 -74 0
-67 -75 0
-68 -76 0
-65 -165 0
-66 -166 0
-67 -167 0
-68 -168 0
-65 -413 0
-66 -414 0
-67 -415 0
-68 -416 0
-65 -637 0
-66 -638 0
-67 -639 0
-68 -640 0
-65 -917 0
-66 -918 0
-67 -919 0
-68 -920 0
-65 -925 0
-66 -926 0
-67 -927 0
-68 -928 0
-65 -1141 0
-66 -1142 0
-67 -1143 0
-68 -1144 0
-69 -73 0
-70 -74 0
-71 -75 0
-72 -76 0
-69 -77 0
-70 -78 0
-71 -79 0
-72 -80 0
-69 -261 0
-70 -262 0
-71 -263 0
-72 -264 0
-69 -657 0
-70 -658 0
-71 -659 0
-72 -660 0
-69 -845 0
-70 -846 0
-71 -847 0
-72 -848 0
-69 -929 0
-70 -930 0
-71 -931 0
-72 -932 0
-69 -933 0
-70 -934 0
-71 -935 0
-72 -936 0
-69 -1001 0
-70 -1002 0
-71 -1003 0
-72 -1004 0
-69 -1009 0
-70 -1010 0
-71 -1011 0
-72 -1012 0
-69 -1149 0
-70 -1150 0
-71 -1151 0
-72 -1152 0
-73 -121 0
-74 -122 0
-75 -123 0
-76 -124 0
-73 -177 0
-74 -178 0
-75 -179 0
-76 -180 0
-73 -685 0
-74 -686 0
-75 -687 0
-76 -688 0
-73 -845 0
-74 -846 0
-75 -847 0
-76 -848 0
-73 -937 0
-74 -938 0
-75 -939 0
-76 -940 0
-73 -941 0
-74 -942 0
-75 -943 0
-76 -944 0
-73 -1017 0
-74 -1018 0
-75 -1019 0
-76 -1020 0
-77 -149 0
-78 -150 0
-79 -151 0
-80 -152 0
-77 -253 0
-78 -254 0
-79 -255 0
-80 -256 0
-77 -377 0
-78 -378 0
-79 -379 0
-80 -380 0
-77 -461 0
-78 -462 0
-79 -463 0
-80 -464 0
-77 -973 0
-78 -974 0
-79 -975 0
-80 -976 0
-77 -1037 0
-78 -1038 0
-79 -1039 0
-80 -1040 0
-77 -1045 0
-78 -1046 0
-79 -1047 0
-80 -1048 0
-77 -1221 0
-78 -1222 0
-79 -1223 0
-80 -1224 0
-81 -93 0
-82 -94 0
-83 -95 0
-84 -96 0
-81 -97 0
-82 -98 0
-83 -99 0
-84 -100 0
-81 -109 0
-82 -110 0
-83 -111 0
-84 -112 0
-81 -113 0
-82 -114 0
-83 -115 0
-84 -116 0
-81 -289 0
-82 -290 0
-83 -291 0
-84 -292 0
-81 -477 0
-82 -478 0
-83 -479 0
-84 -480 0
-81 -569 0
-82 -570 0
-83 -571 0
-84 -572 0
-81 -925 0
-82 -926 0
-83 -927 0
-84 -928 0
-81 -1057 0
-82 -1058 0
-83 -1059 0
-84 -1060 0
-81 -1097 0
-82 -1098 0
-83 -1099 0
-84 -1100 0
-81 -1325 0
-82 -1326 0
-83 -1327 0
-84 -1328 0
-85 -237 0
-86 -238 0
-87 -239 0
-88 -240 0
-85 -417 0
-86 -418 0
-87 -419 0
-88 -420 0
-85 -1069 0
-86 -1070 0
-87 -1071 0
-88 -1072 0
-85 -1161 0
-86 -1162 0
-87 -1163 0
-88 -1164 0
-85 -1185 0
-86 -1186 0
-87 -1187 0
-88 -1188 0
-85 -1341 0
-86 -1342 0
-87 -1343 0
-88 -1344 0
-93 -97 0
-94 -98 0
-95 -99 0
-96 -100 0
-93 -229 0
-94 -230 0
-95 -231 0
-96 -232 0
-93 -293 0
-94 -294 0
-95 -295 0
-96 -296 0
-93 -429 0
-94 -430 0
-95 -431 0
-96 -432 0
-93 -941 0
-94 -942 0
-95 -943 0
-96 -944 0
-93 -957 0
-94 -958 0
-95 -959 0
-96 -960 0
-93 -1073 0
-94 -1074 0
-95 -1075 0
-96 -1076 0
-97 -121 0
-98 -122 0
-99 -123 0
-100 -124 0
-97 -245 0
-98 -246 0
-99 -247 0
-100 -248 0
-97 -961 0
-98 -962 0
-99 -963 0
-100 -964 0
-97 -1077 0
-98 -1078 0
-99 -1079 0
-100 -1080 0
-101 -105 0
-102 -106 0
-103 -107 0
-104 -108 0
-101 -109 0
-102 -110 0
-103 -111 0
-104 -112 0
-101 -305 0
-102 -306 0
-103 -307 0
-104 -308 0
-101 -625 0
-102 -626 0
-103 -627 0
-104 -628 0
-101 -1005 0
-102 -1006 0
-103 -1007 0
-104 -1008 0
-101 -1105 0
-102 -1106 0
-103 -1107 0
-104 -1108 0
-101 -1161 0
-102 -1162 0
-103 -1163 0
-104 -1164 0
-101 -1165 0
-102 -1166 0
-103 -1167 0
-104 -1168 0
-105 -117 0
-106 -118 0
-107 -119 0
-108 -120 0
-105 -317 0
-106 -318 0
-107 -319 0
-108 -320 0
-105 -393 0
-106 -394 0
-107 -395 0
-108 -396 0
-105 -1013 0
-106 -1014 0
-107 -1015 0
-108 -1016 0
-105 -1109 0
-106 -1110 0
-107 -1111 0
-108 -1112 0
-105 -1185 0
-106 -1186 0
-107 -1187 0
-108 -1188 0
-105 -1201 0
-106 -1202 0
-107 -1203 0
-108 -1204 0
-109 -113 0
-110 -114 0
-111 -115 0
-112 -116 0
-109 -117 0
-110 -118 0
-111 -119 0
-112 -120 0
-109 -121 0
-110 -122 0
-111 -123 0
-112 -124 0
-109 -217 0
-110 -218 0
-111 -219 0
-112 -220 0
-109 -721 0
-110 -722 0
-111 -723 0
-112 -724 0
-109 -1021 0
-110 -1022 0
-111 -1023 0
-112 -1024 0
-109 -1121 0
-110 -1122 0
-111 -1123 0
-112 -1124 0
-109 -1137 0
-110 -1138 0
-111 -1139 0
-112 -1140 0
-109 -1229 0
-110 -1230 0
-111 -1231 0
-112 -1232 0
-109 -1237 0
-110 -1238 0
-111 -1239 0
-112 -1240 0
-109 -1453 0
-110 -1454 0
-111 -1455 0
-112 -1456 0
-113 -221 0
-114 -222 0
-115 -223 0
-116 -224 0
-113 -357 0
-114 -358 0
-115 -359 0
-116 -360 0
-113 -389 0
-114 -390 0
-115 -391 0
-116 -392 0
-113 -537 0
-114 -538 0
-115 -539 0
-116 -540 0
-113 -737 0
-114 -738 0
-115 -739 0
-116 -740 0
-113 -1025 0
-114 -1026 0
-115 -1027 0
-116 -1028 0
-113 -1129 0
-114 -1130 0
-115 -1131 0
-116 -1132 0
-113 -1141 0
-114 -1142 0
-115 -1143 0
-116 -1144 0
-113 -1233 0
-114 -1234 0
-115 -1235 0
-116 -1236 0
-117 -165 0
-118 -166 0
-119 -167 0
-120 -168 0
-117 -377 0
-118 -378 0
-119 -379 0
-120 -380 0
-117 -753 0
-118 -754 0
-119 -755 0
-120 -756 0
-117 -1241 0
-118 -1242 0
-119 -1243 0
-120 -1244 0
-117 -1465 0
-118 -1466 0
-119 -1467 0
-120 -1468 0
-121 -273 0
-122 -274 0
-123 -275 0
-124 -276 0
-121 -773 0
-122 -774 0
-123 -775 0
-124 -776 0
-121 -1037 0
-122 -1038 0
-123 -1039 0
-124 -1040 0
-121 -1245 0
-122 -1246 0
-123 -1247 0
-124 -1248 0
-125 -129 0
-126 -130 0
-127 -131 0
-128 -132 0
-125 -145 0
-126 -146 0
-127 -147 0
-128 -148 0
-125 -669 0
-126 -670 0
-127 -671 0
-128 -672 0
-125 -1121 0
-126 -1122 0
-127 -1123 0
-128 -1124 0
-125 -1285 0
-126 -1286 0
-127 -1287 0
-128 -1288 0
-125 -1301 0
-126 -1302 0
-127 -1303 0
-128 -1304 0
-125 -1565 0
-126 -1566 0
-127 -1567 0
-128 -1568 0
-129 -133 0
-130 -134 0
-131 -135 0
-132 -136 0
-129 -137 0
-130 -138 0
-131 -139 0
-132 -140 0
-129 -153 0
-130 -154 0
-131 -155 0
-132 -156 0
-129 -193 0
-130 -194 0
-131 -195 0
-132 -196 0
-129 -685 0
-130 -686 0
-131 -687 0
-132 -688 0
-129 -1129 0
-130 -1130 0
-131 -1131 0
-132 -1132 0
-129 -1265 0
-130 -1266 0
-131 -1267 0
-132 -1268 0
-129 -1289 0
-130 -1290 0
-131 -1291 0
-132 -1292 0
-129 -1305 0
-130 -1306 0
-131 -1307 0
-132 -1308 0
-133 -157 0
-134 -158 0
-135 -159 0
-136 -160 0
-133 -161 0
-134 -162 0
-135 -163 0
-136 -164 0
-133 -165 0
-134 -166 0
-135 -167 0
-136 -168 0
-133 -193 0
-134 -194 0
-135 -195 0
-136 -196 0
-133 -277 0
-134 -278 0
-135 -279 0
-136 -280 0
-133 -421 0
-134 -422 0
-135 -423 0
-136 -424 0
-133 -641 0
-134 -642 0
-135 -643 0
-136 -644 0
-133 -697 0
-134 -698 0
-135 -699 0
-136 -700 0
-133 -1297 0
-134 -1298 0
-135 -1299 0
-136 -1300 0
-133 -1309 0
-134 -1310 0
-135 -1311 0
-136 -1312 0
-137 -265 0
-138 -266 0
-139 -267 0
-140 -268 0
-137 -429 0
-138 -430 0
-139 -431 0
-140 -432 0
-137 -741 0
-138 -742 0
-139 -743 0
-140 -744 0
-137 -1141 0
-138 -1142 0
-139 -1143 0
-140 -1144 0
-137 -1265 0
-138 -1266 0
-139 -1267 0
-140 -1268 0
-137 -1317 0
-138 -1318 0
-139 -1319 0
-140 -1320 0
-137 -1325 0
-138 -1326 0
-139 -1327 0
-140 -1328 0
-141 -157 0
-142 -158 0
-143 -159 0
-144 -160 0
-141 -169 0
-142 -170 0
-143 -171 0
-144 -172 0
-141 -173 0
-142 -174 0
-143 -175 0
-144 -176 0
-141 -333 0
-142 -334 0
-143 -335 0
-144 -336 0
-141 -441 0
-142 -442 0
-143 -443 0
-144 -444 0
-141 -681 0
-142 -682 0
-143 -683 0
-144 -684 0
-141 -853 0
-142 -854 0
-143 -855 0
-144 -856 0
-141 -1341 0
-142 -1342 0
-143 -1343 0
-144 -1344 0
-145 -149 0
-146 -150 0
-147 -151 0
-148 -152 0
-145 -153 0
-146 -154 0
-147 -155 0
-148 -156 0
-145 -201 0
-146 -202 0
-147 -203 0
-148 -204 0
-145 -317 0
-146 -318 0
-147 -319 0
-148 -320 0
-145 -1329 0
-146 -1330 0
-147 -1331 0
-148 -1332 0
-145 -1349 0
-146 -1350 0
-147 -1351 0
-148 -1352 0
-145 -1577 0
-146 -1578 0
-147 -1579 0
-148 -1580 0
-149 -161 0
-150 -162 0
-151 -163 0
-152 -164 0
-149 -253 0
-150 -254 0
-151 -255 0
-152 -256 0
-149 -705 0
-150 -706 0
-151 -707 0
-152 -708 0
-149 -865 0
-150 -866 0
-151 -867 0
-152 -868 0
-149 -1333 0
-150 -1334 0
-151 -1335 0
-152 -1336 0
-149 -1581 0
-150 -1582 0
-151 -1583 0
-152 -1584 0
-153 -161 0
-154 -162 0
-155 -163 0
-156 -164 0
-153 -209 0
-154 -210 0
-155 -211 0
-156 -212 0
-153 -325 0
-154 -326 0
-155 -327 0
-156 -328 0
-153 -709 0
-154 -710 0
-155 -711 0
-156 -712 0
-153 -761 0
-154 -762 0
-155 -763 0
-156 -764 0
-153 -1337 0
-154 -1338 0
-155 -1339 0
-156 -1340 0
-153 -1353 0
-154 -1354 0
-155 -1355 0
-156 -1356 0
-157 -161 0
-158 -162 0
-159 -163 0
-160 -164 0
-157 -177 0
-158 -178 0
-159 -179 0
-160 -180 0
-157 -185 0
-158 -186 0
-159 -187 0
-160 -188 0
-157 -345 0
-158 -346 0
-159 -347 0
-160 -348 0
-157 -449 0
-158 -450 0
-159 -451 0
-160 -452 0
-157 -621 0
-158 -622 0
-159 -623 0
-160 -624 0
-157 -717 0
-158 -718 0
-159 -719 0
-160 -720 0
-157 -869 0
-158 -870 0
-159 -871 0
-160 -872 0
-157 -1153 0
-158 -1154 0
-159 -1155 0
-160 -1156 0
-157 -1341 0
-158 -1342 0
-159 -1343 0
-160 -1344 0
-157 -1357 0
-158 -1358 0
-159 -1359 0
-160 -1360 0
-161 -181 0
-162 -182 0
-163 -183 0
-164 -184 0
-161 -189 0
-162 -190 0
-163 -191 0
-164 -192 0
-161 -257 0
-162 -258 0
-163 -259 0
-164 -260 0
-161 -281 0
-162 -282 0
-163 -283 0
-164 -284 0
-161 -505 0
-162 -506 0
-163 -507 0
-164 -508 0
-161 -721 0
-162 -722 0
-163 -723 0
-164 -724 0
-161 -873 0
-162 -874 0
-163 -875 0
-164 -876 0
-161 -1345 0
-162 -1346 0
-163 -1347 0
-164 -1348 0
-161 -1361 0
-162 -1362 0
-163 -1363 0
-164 -1364 0
-161 -1421 0
-162 -1422 0
-163 -1423 0
-164 -1424 0
-165 -177 0
-166 -178 0
-167 -179 0
-168 -180 0
-165 -181 0
-166 -182 0
-167 -183 0
-168 -184 0
-165 -461 0
-166 -462 0
-167 -463 0
-168 -464 0
-165 -637 0
-166 -638 0
-167 -639 0
-168 -640 0
-165 -893 0
-166 -894 0
-167 -895 0
-168 -896 0
-165 -1381 0
-166 -1382 0
-167 -1383 0
-168 -1384 0
-165 -1629 0
-166 -1630 0
-167 -1631 0
-168 -1632 0
-169 -173 0
-170 -174 0
-171 -175 0
-172 -176 0
-169 -177 0
-170 -178 0
-171 -179 0
-172 -180 0
-169 -269 0
-170 -270 0
-171 -271 0
-172 -272 0
-169 -297 0
-170 -298 0
-171 -299 0
-172 -300 0
-169 -665 0
-170 -666 0
-171 -667 0
-172 -668 0
-169 -1389 0
-170 -1390 0
-171 -1391 0
-172 -1392 0
-169 -1437 0
-170 -1438 0
-171 -1439 0
-172 -1440 0
-173 -185 0
-174 -186 0
-175 -187 0
-176 -188 0
-173 -913 0
-174 -914 0
-175 -915 0
-176 -916 0
-173 -1397 0
-174 -1398 0
-175 -1399 0
-176 -1400 0
-173 -1441 0
-174 -1442 0
-175 -1443 0
-176 -1444 0
-173 -1461 0
-174 -1462 0
-175 -1463 0
-176 -1464 0
-177 -181 0
-178 -182 0
-179 -183 0
-180 -184 0
-177 -185 0
-178 -186 0
-179 -187 0
-180 -188 0
-177 -197 0
-178 -198 0
-179 -199 0
-180 -200 0
-177 -273 0
-178 -274 0
-179 -275 0
-180 -276 0
-177 -301 0
-178 -302 0
-179 -303 0
-180 -304 0
-177 -685 0
-178 -686 0
-179 -687 0
-180 -688 0
-177 -1185 0
-178 -1186 0
-179 -1187 0
-180 -1188 0
-177 -1277 0
-178 -1278 0
-179 -1279 0
-180 -1280 0
-177 -1281 0
-178 -1282 0
-179 -1283 0
-180 -1284 0
-177 -1389 0
-178 -1390 0
-179 -1391 0
-180 -1392 0
-177 -1449 0
-178 -1450 0
-179 -1451 0
-180 -1452 0
-181 -189 0
-182 -190 0
-183 -191 0
-184 -192 0
-181 -537 0
-182 -538 0
-183 -539 0
-184 -540 0
-181 -689 0
-182 -690 0
-183 -691 0
-184 -692 0
-181 -789 0
-182 -790 0
-183 -791 0
-184 -792 0
-181 -1189 0
-182 -1190 0
-183 -1191 0
-184 -1192 0
-181 -1393 0
-182 -1394 0
-183 -1395 0
-184 -1396 0
-181 -1673 0
-182 -1674 0
-183 -1675 0
-184 -1676 0
-185 -189 0
-186 -190 0
-187 -191 0
-188 -192 0
-185 -225 0
-186 -226 0
-187 -227 0
-188 -228 0
-185 -485 0
-186 -486 0
-187 -487 0
-188 -488 0
-185 -693 0
-186 -694 0
-187 -695 0
-188 -696 0
-185 -921 0
-186 -922 0
-187 -923 0
-188 -924 0
-185 -1193 0
-186 -1194 0
-187 -1195 0
-188 -1196 0
-185 -1397 0
-186 -1398 0
-187 -1399 0
-188 -1400 0
-185 -1453 0
-186 -1454 0
-187 -1455 0
-188 -1456 0
-185 -1465 0
-186 -1466 0
-187 -1467 0
-188 -1468 0
-189 -385 0
-190 -386 0
-191 -387 0
-192 -388 0
-189 -489 0
-190 -490 0
-191 -491 0
-192 -492 0
-189 -793 0
-190 -794 0
-191 -795 0
-192 -796 0
-189 -925 0
-190 -926 0
-191 -927 0
-192 -928 0
-189 -1197 0
-190 -1198 0
-191 -1199 0
-192 -1200 0
-189 -1401 0
-190 -1402 0
-191 -1403 0
-192 -1404 0
-189 -1457 0
-190 -1458 0
-191 -1459 0
-192 -1460 0
-189 -1469 0
-190 -1470 0
-191 -1471 0
-192 -1472 0
-193 -801 0
-194 -802 0
-195 -803 0
-196 -804 0
-193 -1197 0
-194 -1198 0
-195 -1199 0
-196 -1200 0
-193 -1405 0
-194 -1406 0
-195 -1407 0
-196 -1408 0
-193 -1409 0
-194 -1410 0
-195 -1411 0
-196 -1412 0
-197 -237 0
-198 -238 0
-199 -239 0
-200 -240 0
-197 -337 0
-198 -338 0
-199 -339 0
-200 -340 0
-197 -381 0
-198 -382 0
-199 -383 0
-200 -384 0
-197 -509 0
-198 -510 0
-199 -511 0
-200 -512 0
-197 -797 0
-198 -798 0
-199 -799 0
-200 -800 0
-197 -1253 0
-198 -1254 0
-199 -1255 0
-200 -1256 0
-197 -1365 0
-198 -1366 0
-199 -1367 0
-200 -1368 0
-197 -1373 0
-198 -1374 0
-199 -1375 0
-200 -1376 0
-201 -205 0
-202 -206 0
-203 -207 0
-204 -208 0
-201 -649 0
-202 -650 0
-203 -651 0
-204 -652 0
-201 -1493 0
-202 -1494 0
-203 -1495 0
-204 -1496 0
-201 -1497 0
-202 -1498 0
-203 -1499 0
-204 -1500 0
-201 -1561 0
-202 -1562 0
-203 -1563 0
-204 -1564 0
-201 -1717 0
-202 -1718 0
-203 -1719 0
-204 -1720 0
-205 -209 0
-206 -210 0
-207 -211 0
-208 -212 0
-205 -253 0
-206 -254 0
-207 -255 0
-208 -256 0
-205 -257 0
-206 -258 0
-207 -259 0
-208 -260 0
-205 -685 0
-206 -686 0
-207 -687 0
-208 -688 0
-205 -885 0
-206 -886 0
-207 -887 0
-208 -888 0
-205 -1505 0
-206 -1506 0
-207 -1507 0
-208 -1508 0
-205 -1517 0
-206 -1518 0
-207 -1519 0
-208 -1520 0
-205 -1561 0
-206 -1562 0
-207 -1563 0
-208 -1564 0
-205 -1729 0
-206 -1730 0
-207 -1731 0
-208 -1732 0
-209 -693 0
-210 -694 0
-211 -695 0
-212 -696 0
-209 -1057 0
-210 -1058 0
-211 -1059 0
-212 -1060 0
-209 -1509 0
-210 -1510 0
-211 -1511 0
-212 -1512 0
-209 -1521 0
-210 -1522 0
-211 -1523 0
-212 -1524 0
-209 -1569 0
-210 -1570 0
-211 -1571 0
-212 -1572 0
-217 -221 0
-218 -222 0
-219 -223 0
-220 -224 0
-217 -261 0
-218 -262 0
-219 -263 0
-220 -264 0
-217 -1073 0
-218 -1074 0
-219 -1075 0
-220 -1076 0
-217 -1285 0
-218 -1286 0
-219 -1287 0
-220 -1288 0
-217 -1613 0
-218 -1614 0
-219 -1615 0
-220 -1616 0
-217 -1769 0
-218 -1770 0
-219 -1771 0
-220 -1772 0
-221 -225 0
-222 -226 0
-223 -227 0
-224 -228 0
-221 -229 0
-222 -230 0
-223 -231 0
-224 -232 0
-221 -241 0
-222 -242 0
-223 -243 0
-224 -244 0
-221 -261 0
-222 -262 0
-223 -263 0
-224 -264 0
-221 -357 0
-222 -358 0
-223 -359 0
-224 -360 0
-221 -405 0
-222 -406 0
-223 -407 0
-224 -408 0
-221 -469 0
-222 -470 0
-223 -471 0
-224 -472 0
-221 -601 0
-222 -602 0
-223 -603 0
-224 -604 0
-221 -937 0
-222 -938 0
-223 -939 0
-224 -940 0
-221 -1289 0
-222 -1290 0
-223 -1291 0
-224 -1292 0
-221 -1625 0
-222 -1626 0
-223 -1627 0
-224 -1628 0
-225 -233 0
-226 -234 0
-227 -235 0
-228 -236 0
-225 -241 0
-226 -242 0
-227 -243 0
-228 -244 0
-225 -297 0
-226 -298 0
-227 -299 0
-228 -300 0
-225 -361 0
-226 -362 0
-227 -363 0
-228 -364 0
-225 -585 0
-226 -586 0
-227 -587 0
-228 -588 0
-225 -605 0
-226 -606 0
-227 -607 0
-228 -608 0
-225 -861 0
-226 -862 0
-227 -863 0
-228 -864 0
-225 -921 0
-226 -922 0
-227 -923 0
-228 -924 0
-225 -1297 0
-226 -1298 0
-227 -1299 0
-228 -1300 0
-225 -1593 0
-226 -1594 0
-227 -1595 0
-228 -1596 0
-225 -1629 0
-226 -1630 0
-227 -1631 0
-228 -1632 0
-229 -233 0
-230 -234 0
-231 -235 0
-232 -236 0
-229 -249 0
-230 -250 0
-231 -251 0
-232 -252 0
-229 -609 0
-230 -610 0
-231 -611 0
-232 -612 0
-229 -941 0
-230 -942 0
-231 -943 0
-232 -944 0
-229 -1305 0
-230 -1306 0
-231 -1307 0
-232 -1308 0
-233 -249 0
-234 -250 0
-235 -251 0
-236 -252 0
-233 -301 0
-234 -302 0
-235 -303 0
-236 -304 0
-233 -613 0
-234 -614 0
-235 -615 0
-236 -616 0
-233 -877 0
-234 -878 0
-235 -879 0
-236 -880 0
-233 -1309 0
-234 -1310 0
-235 -1311 0
-236 -1312 0
-237 -241 0
-238 -242 0
-239 -243 0
-240 -244 0
-237 -245 0
-238 -246 0
-239 -247 0
-240 -248 0
-237 -269 0
-238 -270 0
-239 -271 0
-240 -272 0
-237 -433 0
-238 -434 0
-239 -435 0
-240 -436 0
-237 -473 0
-238 -474 0
-239 -475 0
-240 -476 0
-237 -677 0
-238 -678 0
-239 -679 0
-240 -680 0
-237 -821 0
-238 -822 0
-239 -823 0
-240 -824 0
-237 -953 0
-238 -954 0
-239 -955 0
-240 -956 0
-237 -1393 0
-238 -1394 0
-239 -1395 0
-240 -1396 0
-237 -1505 0
-238 -1506 0
-239 -1507 0
-240 -1508 0
-237 -1525 0
-238 -1526 0
-239 -1527 0
-240 -1528 0
-237 -1837 0
-238 -1838 0
-239 -1839 0
-240 -1840 0
-241 -249 0
-242 -250 0
-243 -251 0
-244 -252 0
-241 -369 0
-242 -370 0
-243 -371 0
-244 -372 0
-241 -437 0
-242 -438 0
-243 -439 0
-244 -440 0
-241 -685 0
-242 -686 0
-243 -687 0
-244 -688 0
-241 -977 0
-242 -978 0
-243 -979 0
-244 -980 0
-241 -1097 0
-242 -1098 0
-243 -1099 0
-244 -1100 0
-241 -1401 0
-242 -1402 0
-243 -1403 0
-244 -1404 0
-241 -1405 0
-242 -1406 0
-243 -1407 0
-244 -1408 0
-241 -1509 0
-242 -1510 0
-243 -1511 0
-244 -1512 0
-241 -1529 0
-242 -1530 0
-243 -1531 0
-244 -1532 0
-241 -1681 0
-242 -1682 0
-243 -1683 0
-244 -1684 0
-241 -1689 0
-242 -1690 0
-243 -1691 0
-244 -1692 0
-245 -249 0
-246 -250 0
-247 -251 0
-248 -252 0
-245 -273 0
-246 -274 0
-247 -275 0
-248 -276 0
-245 -713 0
-246 -714 0
-247 -715 0
-248 -716 0
-245 -825 0
-246 -826 0
-247 -827 0
-248 -828 0
-245 -961 0
-246 -962 0
-247 -963 0
-248 -964 0
-245 -1517 0
-246 -1518 0
-247 -1519 0
-248 -1520 0
-245 -1533 0
-246 -1534 0
-247 -1535 0
-248 -1536 0
-245 -1845 0
-246 -1846 0
-247 -1847 0
-248 -1848 0
-249 -381 0
-250 -382 0
-251 -383 0
-252 -384 0
-249 -721 0
-250 -722 0
-251 -723 0
-252 -724 0
-249 -981 0
-250 -982 0
-251 -983 0
-252 -984 0
-249 -1409 0
-250 -1410 0
-251 -1411 0
-252 -1412 0
-249 -1521 0
-250 -1522 0
-251 -1523 0
-252 -1524 0
-253 -257 0
-254 -258 0
-255 -259 0
-256 -260 0
-253 -829 0
-254 -830 0
-255 -831 0
-256 -832 0
-253 -1633 0
-254 -1634 0
-255 -1635 0
-256 -1636 0
-253 -1641 0
-254 -1642 0
-255 -1643 0
-256 -1644 0
-253 -1861 0
-254 -1862 0
-255 -1863 0
-256 -1864 0
-257 -833 0
-258 -834 0
-259 -835 0
-260 -836 0
-257 -1009 0
-258 -1010 0
-259 -1011 0
-260 -1012 0
-257 -1125 0
-258 -1126 0
-259 -1127 0
-260 -1128 0
-257 -1637 0
-258 -1638 0
-259 -1639 0
-260 -1640 0
-257 -1645 0
-258 -1646 0
-259 -1647 0
-260 -1648 0
-261 -785 0
-262 -786 0
-263 -787 0
-264 -788 0
-261 -1149 0
-262 -1150 0
-263 -1151 0
-264 -1152 0
-261 -1425 0
-262 -1426 0
-263 -1427 0
-264 -1428 0
-261 -1697 0
-262 -1698 0
-263 -1699 0
-264 -1700 0
-265 -429 0
-266 -430 0
-267 -431 0
-268 -432 0
-265 -549 0
-266 -550 0
-267 -551 0
-268 -552 0
-265 -1457 0
-266 -1458 0
-267 -1459 0
-268 -1460 0
-265 -1569 0
-266 -1570 0
-267 -1571 0
-268 -1572 0
-265 -1681 0
-266 -1682 0
-267 -1683 0
-268 -1684 0
-269 -273 0
-270 -274 0
-271 -275 0
-272 -276 0
-269 -529 0
-270 -530 0
-271 -531 0
-272 -532 0
-269 -1029 0
-270 -1030 0
-271 -1031 0
-272 -1032 0
-269 -1217 0
-270 -1218 0
-271 -1219 0
-272 -1220 0
-269 -1633 0
-270 -1634 0
-271 -1635 0
-272 -1636 0
-269 -1653 0
-270 -1654 0
-271 -1655 0
-272 -1656 0
-269 -1693 0
-270 -1694 0
-271 -1695 0
-272 -1696 0
-269 -1901 0
-270 -1902 0
-271 -1903 0
-272 -1904 0
-273 -533 0
-274 -534 0
-275 -535 0
-276 -536 0
-273 -1037 0
-274 -1038 0
-275 -1039 0
-276 -1040 0
-273 -1225 0
-274 -1226 0
-275 -1227 0
-276 -1228 0
-273 -1641 0
-274 -1642 0
-275 -1643 0
-276 -1644 0
-273 -1669 0
-274 -1670 0
-275 -1671 0
-276 -1672 0
-273 -1693 0
-274 -1694 0
-275 -1695 0
-276 -1696 0
-273 -1905 0
-274 -1906 0
-275 -1907 0
-276 -1908 0
-277 -281 0
-278 -282 0
-279 -283 0
-280 -284 0
-277 -421 0
-278 -422 0
-279 -423 0
-280 -424 0
-277 -557 0
-278 -558 0
-279 -559 0
-280 -560 0
-277 -1069 0
-278 -1070 0
-279 -1071 0
-280 -1072 0
-277 -1705 0
-278 -1706 0
-279 -1707 0
-280 -1708 0
-277 -1713 0
-278 -1714 0
-279 -1715 0
-280 -1716 0
-281 -901 0
-282 -902 0
-283 -903 0
-284 -904 0
-281 -1073 0
-282 -1074 0
-283 -1075 0
-284 -1076 0
-281 -1717 0
-282 -1718 0
-283 -1719 0
-284 -1720 0
-281 -1729 0
-282 -1730 0
-283 -1731 0
-284 -1732 0
-289 -293 0
-290 -294 0
-291 -295 0
-292 -296 0
-289 -305 0
-290 -306 0
-291 -307 0
-292 -308 0
-289 -389 0
-290 -390 0
-291 -391 0
-292 -392 0
-289 -1133 0
-290 -1134 0
-291 -1135 0
-292 -1136 0
-289 -1737 0
-290 -1738 0
-291 -1739 0
-292 -1740 0
-289 -1745 0
-290 -1746 0
-291 -1747 0
-292 -1748 0
-289 -1985 0
-290 -1986 0
-291 -1987 0
-292 -1988 0
-293 -337 0
-294 -338 0
-295 -339 0
-296 -340 0
-293 -609 0
-294 -610 0
-295 -611 0
-296 -612 0
-293 -1101 0
-294 -1102 0
-295 -1103 0
-296 -1104 0
-293 -1553 0
-294 -1554 0
-295 -1555 0
-296 -1556 0
-293 -1557 0
-294 -1558 0
-295 -1559 0
-296 -1560 0
-293 -1761 0
-294 -1762 0
-295 -1763 0
-296 -1764 0
-297 -301 0
-298 -302 0
-299 -303 0
-300 -304 0
-297 -369 0
-298 -370 0
-299 -371 0
-300 -372 0
-297 -373 0
-298 -374 0
-299 -375 0
-300 -376 0
-297 -529 0
-298 -530 0
-299 -531 0
-300 -532 0
-297 -605 0
-298 -606 0
-299 -607 0
-300 -608 0
-297 -929 0
-298 -930 0
-299 -931 0
-300 -932 0
-297 -1117 0
-298 -1118 0
-299 -1119 0
-300 -1120 0
-297 -1801 0
-298 -1802 0
-299 -1803 0
-300 -1804 0
-297 -1865 0
-298 -1866 0
-299 -1867 0
-300 -1868 0
-301 -381 0
-302 -382 0
-303 -383 0
-304 -384 0
-301 -385 0
-302 -386 0
-303 -387 0
-304 -388 0
-301 -533 0
-302 -534 0
-303 -535 0
-304 -536 0
-301 -613 0
-302 -614 0
-303 -615 0
-304 -616 0
-301 -933 0
-302 -934 0
-303 -935 0
-304 -936 0
-301 -1129 0
-302 -1130 0
-303 -1131 0
-304 -1132 0
-301 -1801 0
-302 -1802 0
-303 -1803 0
-304 -1804 0
-301 -1869 0
-302 -1870 0
-303 -1871 0
-304 -1872 0
-305 -337 0
-306 -338 0
-307 -339 0
-308 -340 0
-305 -397 0
-306 -398 0
-307 -399 0
-308 -400 0
-305 -553 0
-306 -554 0
-307 -555 0
-308 -556 0
-305 -645 0
-306 -646 0
-307 -647 0
-308 -648 0
-305 -1809 0
-306 -1810 0
-307 -1811 0
-308 -1812 0
-305 -1813 0
-306 -1814 0
-307 -1815 0
-308 -1816 0
-305 -2029 0
-306 -2030 0
-307 -2031 0
-308 -2032 0
-309 -313 0
-310 -314 0
-311 -315 0
-312 -316 0
-309 -325 0
-310 -326 0
-311 -327 0
-312 -328 0
-309 -333 0
-310 -334 0
-311 -335 0
-312 -336 0
-309 -369 0
-310 -370 0
-311 -371 0
-312 -372 0
-309 -617 0
-310 -618 0
-311 -619 0
-312 -620 0
-309 -1637 0
-310 -1638 0
-311 -1639 0
-312 -1640 0
-309 -1721 0
-310 -1722 0
-311 -1723 0
-312 -1724 0
-309 -1821 0
-310 -1822 0
-311 -1823 0
-312 -1824 0
-313 -329 0
-314 -330 0
-315 -331 0
-316 -332 0
-313 -369 0
-314 -370 0
-315 -371 0
-316 -372 0
-313 -621 0
-314 -622 0
-315 -623 0
-316 -624 0
-313 -1177 0
-314 -1178 0
-315 -1179 0
-316 -1180 0
-313 -1213 0
-314 -1214 0
-315 -1215 0
-316 -1216 0
-313 -1289 0
-314 -1290 0
-315 -1291 0
-316 -1292 0
-317 -321 0
-318 -322 0
-319 -323 0
-320 -324 0
-317 -325 0
-318 -326 0
-319 -327 0
-320 -328 0
-317 -337 0
-318 -338 0
-319 -339 0
-320 -340 0
-317 -377 0
-318 -378 0
-319 -379 0
-320 -380 0
-317 -661 0
-318 -662 0
-319 -663 0
-320 -664 0
-317 -1033 0
-318 -1034 0
-319 -1035 0
-320 -1036 0
-317 -1641 0
-318 -1642 0
-319 -1643 0
-320 -1644 0
-317 -1725 0
-318 -1726 0
-319 -1727 0
-320 -1728 0
-317 -1817 0
-318 -1818 0
-319 -1819 0
-320 -1820 0
-317 -2041 0
-318 -2042 0
-319 -2043 0
-320 -2044 0
-321 -329 0
-322 -330 0
-323 -331 0
-324 -332 0
-321 -341 0
-322 -342 0
-323 -343 0
-324 -344 0
-321 -377 0
-322 -378 0
-323 -379 0
-324 -380 0
-321 -421 0
-322 -422 0
-323 -423 0
-324 -424 0
-321 -805 0
-322 -806 0
-323 -807 0
-324 -808 0
-321 -1301 0
-322 -1302 0
-323 -1303 0
-324 -1304 0
-325 -329 0
-326 -330 0
-327 -331 0
-328 -332 0
-325 -345 0
-326 -346 0
-327 -347 0
-328 -348 0
-325 -381 0
-326 -382 0
-327 -383 0
-328 -384 0
-325 -625 0
-326 -626 0
-327 -627 0
-328 -628 0
-325 -1041 0
-326 -1042 0
-327 -1043 0
-328 -1044 0
-325 -1217 0
-326 -1218 0
-327 -1219 0
-328 -1220 0
-325 -1645 0
-326 -1646 0
-327 -1647 0
-328 -1648 0
-325 -1729 0
-326 -1730 0
-327 -1731 0
-328 -1732 0
-325 -1821 0
-326 -1822 0
-327 -1823 0
-328 -1824 0
-329 -381 0
-330 -382 0
-331 -383 0
-332 -384 0
-329 -629 0
-330 -630 0
-331 -631 0
-332 -632 0
-329 -985 0
-330 -986 0
-331 -987 0
-332 -988 0
-329 -1221 0
-330 -1222 0
-331 -1223 0
-332 -1224 0
-329 -1305 0
-330 -1306 0
-331 -1307 0
-332 -1308 0
-333 -345 0
-334 -346 0
-335 -347 0
-336 -348 0
-333 -441 0
-334 -442 0
-335 -443 0
-336 -444 0
-333 -701 0
-334 -702 0
-335 -703 0
-336 -704 0
-333 -1657 0
-334 -1658 0
-335 -1659 0
-336 -1660 0
-333 -1721 0
-334 -1722 0
-335 -1723 0
-336 -1724 0
-333 -1837 0
-334 -1838 0
-335 -1839 0
-336 -1840 0
-337 -341 0
-338 -342 0
-339 -343 0
-340 -344 0
-337 -345 0
-338 -346 0
-339 -347 0
-340 -348 0
-337 -401 0
-338 -402 0
-339 -403 0
-340 -404 0
-337 -433 0
-338 -434 0
-339 -435 0
-340 -436 0
-337 -509 0
-338 -510 0
-339 -511 0
-340 -512 0
-337 -721 0
-338 -722 0
-339 -723 0
-340 -724 0
-337 -1157 0
-338 -1158 0
-339 -1159 0
-340 -1160 0
-337 -1669 0
-338 -1670 0
-339 -1671 0
-340 -1672 0
-337 -1725 0
-338 -1726 0
-339 -1727 0
-340 -1728 0
-337 -1829 0
-338 -1830 0
-339 -1831 0
-340 -1832 0
-337 -1841 0
-338 -1842 0
-339 -1843 0
-340 -1844 0
-341 -437 0
-342 -438 0
-343 -439 0
-344 -440 0
-341 -513 0
-342 -514 0
-343 -515 0
-344 -516 0
-341 -729 0
-342 -730 0
-343 -731 0
-344 -732 0
-341 -1321 0
-342 -1322 0
-343 -1323 0
-344 -1324 0
-341 -1833 0
-342 -1834 0
-343 -1835 0
-344 -1836 0
-345 -401 0
-346 -402 0
-347 -403 0
-348 -404 0
-345 -449 0
-346 -450 0
-347 -451 0
-348 -452 0
-345 -737 0
-346 -738 0
-347 -739 0
-348 -740 0
-345 -969 0
-346 -970 0
-347 -971 0
-348 -972 0
-345 -1673 0
-346 -1674 0
-347 -1675 0
-348 -1676 0
-345 -1729 0
-346 -1730 0
-347 -1731 0
-348 -1732 0
-345 -1837 0
-346 -1838 0
-347 -1839 0
-348 -1840 0
-345 -1845 0
-346 -1846 0
-347 -1847 0
-348 -1848 0
-349 -353 0
-350 -354 0
-351 -355 0
-352 -356 0
-349 -357 0
-350 -358 0
-351 -359 0
-352 -360 0
-349 -369 0
-350 -370 0
-351 -371 0
-352 -372 0
-349 -649 0
-350 -650 0
-351 -651 0
-352 -652 0
-349 -813 0
-350 -814 0
-351 -815 0
-352 -816 0
-349 -993 0
-350 -994 0
-351 -995 0
-352 -996 0
-349 -1337 0
-350 -1338 0
-351 -1339 0
-352 -1340 0
-349 -1757 0
-350 -1758 0
-351 -1759 0
-352 -1760 0
-349 -1877 0
-350 -1878 0
-351 -1879 0
-352 -1880 0
-353 -361 0
-354 -362 0
-355 -363 0
-356 -364 0
-353 -373 0
-354 -374 0
-355 -375 0
-356 -376 0
-353 -525 0
-354 -526 0
-355 -527 0
-356 -528 0
-353 -581 0
-354 -582 0
-355 -583 0
-356 -584 0
-353 -997 0
-354 -998 0
-355 -999 0
-356 -1000 0
-353 -1229 0
-354 -1230 0
-355 -1231 0
-356 -1232 0
-353 -1345 0
-354 -1346 0
-355 -1347 0
-356 -1348 0
-353 -1885 0
-354 -1886 0
-355 -1887 0
-356 -1888 0
-357 -361 0
-358 -362 0
-359 -363 0
-360 -364 0
-357 -381 0
-358 -382 0
-359 -383 0
-360 -384 0
-357 -465 0
-358 -466 0
-359 -467 0
-360 -468 0
-357 -653 0
-358 -654 0
-359 -655 0
-360 -656 0
-357 -817 0
-358 -818 0
-359 -819 0
-360 -820 0
-357 -1001 0
-358 -1002 0
-359 -1003 0
-360 -1004 0
-357 -1245 0
-358 -1246 0
-359 -1247 0
-360 -1248 0
-357 -1353 0
-358 -1354 0
-359 -1355 0
-360 -1356 0
-357 -1677 0
-358 -1678 0
-359 -1679 0
-360 -1680 0
-357 -1773 0
-358 -1774 0
-359 -1775 0
-360 -1776 0
-357 -1889 0
-358 -1890 0
-359 -1891 0
-360 -1892 0
-361 -385 0
-362 -386 0
-363 -387 0
-364 -388 0
-361 -529 0
-362 -530 0
-363 -531 0
-364 -532 0
-361 -585 0
-362 -586 0
-363 -587 0
-364 -588 0
-361 -1005 0
-362 -1006 0
-363 -1007 0
-364 -1008 0
-361 -1237 0
-362 -1238 0
-363 -1239 0
-364 -1240 0
-361 -1361 0
-362 -1362 0
-363 -1363 0
-364 -1364 0
-361 -1897 0
-362 -1898 0
-363 -1899 0
-364 -1900 0
-365 -369 0
-366 -370 0
-367 -371 0
-368 -372 0
-365 -377 0
-366 -378 0
-367 -379 0
-368 -380 0
-365 -453 0
-366 -454 0
-367 -455 0
-368 -456 0
-365 -669 0
-366 -670 0
-367 -671 0
-368 -672 0
-365 -1365 0
-366 -1366 0
-367 -1367 0
-368 -1368 0
-365 -2085 0
-366 -2086 0
-367 -2087 0
-368 -2088 0
-369 -373 0
-370 -374 0
-371 -375 0
-372 -376 0
-369 -381 0
-370 -382 0
-371 -383 0
-372 -384 0
-369 -685 0
-370 -686 0
-371 -687 0
-372 -688 0
-369 -1377 0
-370 -1378 0
-371 -1379 0
-372 -1380 0
-369 -1793 0
-370 -1794 0
-371 -1795 0
-372 -1796 0
-369 -1853 0
-370 -1854 0
-371 -1855 0
-372 -1856 0
-369 -1877 0
-370 -1878 0
-371 -1879 0
-372 -1880 0
-369 -2093 0
-370 -2094 0
-371 -2095 0
-372 -2096 0
-373 -385 0
-374 -386 0
-375 -387 0
-376 -388 0
-373 -589 0
-374 -590 0
-375 -591 0
-376 -592 0
-373 -697 0
-374 -698 0
-375 -699 0
-376 -700 0
-373 -973 0
-374 -974 0
-375 -975 0
-376 -976 0
-373 -1241 0
-374 -1242 0
-375 -1243 0
-376 -1244 0
-373 -1381 0
-374 -1382 0
-375 -1383 0
-376 -1384 0
-373 -1857 0
-374 -1858 0
-375 -1859 0
-376 -1860 0
-373 -1885 0
-374 -1886 0
-375 -1887 0
-376 -1888 0
-377 -381 0
-378 -382 0
-379 -383 0
-380 -384 0
-377 -461 0
-378 -462 0
-379 -463 0
-380 -464 0
-377 -705 0
-378 -706 0
-379 -707 0
-380 -708 0
-377 -1369 0
-378 -1370 0
-379 -1371 0
-380 -1372 0
-377 -2101 0
-378 -2102 0
-379 -2103 0
-380 -2104 0
-381 -385 0
-382 -386 0
-383 -387 0
-384 -388 0
-381 -473 0
-382 -474 0
-383 -475 0
-384 -476 0
-381 -721 0
-382 -722 0
-383 -723 0
-384 -724 0
-381 -1009 0
-382 -1010 0
-383 -1011 0
-384 -1012 0
-381 -1181 0
-382 -1182 0
-383 -1183 0
-384 -1184 0
-381 -1253 0
-382 -1254 0
-383 -1255 0
-384 -1256 0
-381 -1385 0
-382 -1386 0
-383 -1387 0
-384 -1388 0
-381 -1789 0
-382 -1790 0
-383 -1791 0
-384 -1792 0
-381 -1797 0
-382 -1798 0
-383 -1799 0
-384 -1800 0
-381 -1853 0
-382 -1854 0
-383 -1855 0
-384 -1856 0
-381 -1889 0
-382 -1890 0
-383 -1891 0
-384 -1892 0
-381 -2109 0
-382 -2110 0
-383 -2111 0
-384 -2112 0
-385 -593 0
-386 -594 0
-387 -595 0
-388 -596 0
-385 -733 0
-386 -734 0
-387 -735 0
-388 -736 0
-385 -1013 0
-386 -1014 0
-387 -1015 0
-388 -1016 0
-385 -1197 0
-386 -1198 0
-387 -1199 0
-388 -1200 0
-385 -1857 0
-386 -1858 0
-387 -1859 0
-388 -1860 0
-385 -1897 0
-386 -1898 0
-387 -1899 0
-388 -1900 0
-389 -397 0
-390 -398 0
-391 -399 0
-392 -400 0
-389 -601 0
-390 -602 0
-391 -603 0
-392 -604 0
-389 -1001 0
-390 -1002 0
-391 -1003 0
-392 -1004 0
-389 -1865 0
-390 -1866 0
-391 -1867 0
-392 -1868 0
-389 -1869 0
-390 -1870 0
-391 -1871 0
-392 -1872 0
-393 -397 0
-394 -398 0
-395 -399 0
-396 -400 0
-393 -401 0
-394 -402 0
-395 -403 0
-396 -404 0
-393 -681 0
-394 -682 0
-395 -683 0
-396 -684 0
-393 -1033 0
-394 -1034 0
-395 -1035 0
-396 -1036 0
-393 -1881 0
-394 -1882 0
-395 -1883 0
-396 -1884 0
-393 -1893 0
-394 -1894 0
-395 -1895 0
-396 -1896 0
-397 -401 0
-398 -402 0
-399 -403 0
-400 -404 0
-397 -685 0
-398 -686 0
-399 -687 0
-400 -688 0
-397 -1037 0
-398 -1038 0
-399 -1039 0
-400 -1040 0
-397 -1421 0
-398 -1422 0
-399 -1423 0
-400 -1424 0
-397 -1885 0
-398 -1886 0
-399 -1887 0
-400 -1888 0
-397 -1897 0
-398 -1898 0
-399 -1899 0
-400 -1900 0
-401 -501 0
-402 -502 0
-403 -503 0
-404 -504 0
-401 -757 0
-402 -758 0
-403 -759 0
-404 -760 0
-401 -841 0
-402 -842 0
-403 -843 0
-404 -844 0
-401 -1449 0
-402 -1450 0
-403 -1451 0
-404 -1452 0
-401 -1861 0
-402 -1862 0
-403 -1863 0
-404 -1864 0
-401 -1901 0
-402 -1902 0
-403 -1903 0
-404 -1904 0
-401 -1905 0
-402 -1906 0
-403 -1907 0
-404 -1908 0
-405 -409 0
-406 -410 0
-407 -411 0
-408 -412 0
-405 -429 0
-406 -430 0
-407 -431 0
-408 -432 0
-405 -437 0
-406 -438 0
-407 -439 0
-408 -440 0
-405 -601 0
-406 -602 0
-407 -603 0
-408 -604 0
-405 -653 0
-406 -654 0
-407 -655 0
-408 -656 0
-405 -869 0
-406 -870 0
-407 -871 0
-408 -872 0
-405 -1705 0
-406 -1706 0
-407 -1707 0
-408 -1708 0
-405 -1913 0
-406 -1914 0
-407 -1915 0
-408 -1916 0
-405 -1985 0
-406 -1986 0
-407 -1987 0
-408 -1988 0
-409 -413 0
-410 -414 0
-411 -415 0
-412 -416 0
-409 -445 0
-410 -446 0
-411 -447 0
-412 -448 0
-409 -449 0
-410 -450 0
-411 -451 0
-412 -452 0
-409 -485 0
-410 -486 0
-411 -487 0
-412 -488 0
-409 -721 0
-410 -722 0
-411 -723 0
-412 -724 0
-409 -1073 0
-410 -1074 0
-411 -1075 0
-412 -1076 0
-409 -1265 0
-410 -1266 0
-411 -1267 0
-412 -1268 0
-409 -1281 0
-410 -1282 0
-411 -1283 0
-412 -1284 0
-409 -1713 0
-410 -1714 0
-411 -1715 0
-412 -1716 0
-409 -1921 0
-410 -1922 0
-411 -1923 0
-412 -1924 0
-409 -1929 0
-410 -1930 0
-411 -1931 0
-412 -1932 0
-409 -1985 0
-410 -1986 0
-411 -1987 0
-412 -1988 0
-413 -489 0
-414 -490 0
-415 -491 0
-416 -492 0
-413 -725 0
-414 -726 0
-415 -727 0
-416 -728 0
-413 -893 0
-414 -894 0
-415 -895 0
-416 -896 0
-413 -1077 0
-414 -1078 0
-415 -1079 0
-416 -1080 0
-413 -1141 0
-414 -1142 0
-415 -1143 0
-416 -1144 0
-413 -1925 0
-414 -1926 0
-415 -1927 0
-416 -1928 0
-417 -421 0
-418 -422 0
-419 -423 0
-420 -424 0
-417 -425 0
-418 -426 0
-419 -427 0
-420 -428 0
-417 -453 0
-418 -454 0
-419 -455 0
-420 -456 0
-417 -953 0
-418 -954 0
-419 -955 0
-420 -956 0
-417 -1285 0
-418 -1286 0
-419 -1287 0
-420 -1288 0
-417 -1941 0
-418 -1942 0
-419 -1943 0
-420 -1944 0
-417 -2017 0
-418 -2018 0
-419 -2019 0
-420 -2020 0
-417 -2169 0
-418 -2170 0
-419 -2171 0
-420 -2172 0
-421 -437 0
-422 -438 0
-423 -439 0
-424 -440 0
-421 -461 0
-422 -462 0
-423 -463 0
-424 -464 0
-421 -465 0
-422 -466 0
-423 -467 0
-424 -468 0
-421 -657 0
-422 -658 0
-423 -659 0
-424 -660 0
-421 -961 0
-422 -962 0
-423 -963 0
-424 -964 0
-421 -1301 0
-422 -1302 0
-423 -1303 0
-424 -1304 0
-421 -1333 0
-422 -1334 0
-423 -1335 0
-424 -1336 0
-421 -1941 0
-422 -1942 0
-423 -1943 0
-424 -1944 0
-421 -2021 0
-422 -2022 0
-423 -2023 0
-424 -2024 0
-421 -2177 0
-422 -2178 0
-423 -2179 0
-424 -2180 0
-425 -437 0
-426 -438 0
-427 -439 0
-428 -440 0
-425 -441 0
-426 -442 0
-427 -443 0
-428 -444 0
-425 -665 0
-426 -666 0
-427 -667 0
-428 -668 0
-425 -861 0
-426 -862 0
-427 -863 0
-428 -864 0
-425 -1313 0
-426 -1314 0
-427 -1315 0
-428 -1316 0
-425 -1949 0
-426 -1950 0
-427 -1951 0
-428 -1952 0
-425 -2025 0
-426 -2026 0
-427 -2027 0
-428 -2028 0
-429 -437 0
-430 -438 0
-431 -439 0
-432 -440 0
-429 -445 0
-430 -446 0
-431 -447 0
-432 -448 0
-429 -673 0
-430 -674 0
-431 -675 0
-432 -676 0
-429 -957 0
-430 -958 0
-431 -959 0
-432 -960 0
-429 -1101 0
-430 -1102 0
-431 -1103 0
-432 -1104 0
-429 -1773 0
-430 -1774 0
-431 -1775 0
-432 -1776 0
-429 -1945 0
-430 -1946 0
-431 -1947 0
-432 -1948 0
-433 -437 0
-434 -438 0
-435 -439 0
-436 -440 0
-433 -477 0
-434 -478 0
-435 -479 0
-436 -480 0
-433 -501 0
-434 -502 0
-435 -503 0
-436 -504 0
-433 -677 0
-434 -678 0
-435 -679 0
-436 -680 0
-433 -873 0
-434 -874 0
-435 -875 0
-436 -876 0
-433 -1169 0
-434 -1170 0
-435 -1171 0
-436 -1172 0
-433 -1781 0
-434 -1782 0
-435 -1783 0
-436 -1784 0
-437 -449 0
-438 -450 0
-439 -451 0
-440 -452 0
-437 -477 0
-438 -478 0
-439 -479 0
-440 -480 0
-437 -505 0
-438 -506 0
-439 -507 0
-440 -508 0
-437 -685 0
-438 -686 0
-439 -687 0
-440 -688 0
-437 -877 0
-438 -878 0
-439 -879 0
-440 -880 0
-437 -1105 0
-438 -1106 0
-439 -1107 0
-440 -1108 0
-437 -1321 0
-438 -1322 0
-439 -1323 0
-440 -1324 0
-437 -1949 0
-438 -1950 0
-439 -1951 0
-440 -1952 0
-437 -2029 0
-438 -2030 0
-439 -2031 0
-440 -2032 0
-441 -449 0
-442 -450 0
-443 -451 0
-444 -452 0
-441 -801 0
-442 -802 0
-443 -803 0
-444 -804 0
-441 -1089 0
-442 -1090 0
-443 -1091 0
-444 -1092 0
-441 -1957 0
-442 -1958 0
-443 -1959 0
-444 -1960 0
-441 -2025 0
-442 -2026 0
-443 -2027 0
-444 -2028 0
-445 -449 0
-446 -450 0
-447 -451 0
-448 -452 0
-445 -513 0
-446 -514 0
-447 -515 0
-448 -516 0
-445 -521 0
-446 -522 0
-447 -523 0
-448 -524 0
-445 -557 0
-446 -558 0
-447 -559 0
-448 -560 0
-445 -805 0
-446 -806 0
-447 -807 0
-448 -808 0
-445 -1373 0
-446 -1374 0
-447 -1375 0
-448 -1376 0
-445 -1797 0
-446 -1798 0
-447 -1799 0
-448 -1800 0
-445 -1953 0
-446 -1954 0
-447 -1955 0
-448 -1956 0
-445 -1961 0
-446 -1962 0
-447 -1963 0
-448 -1964 0
-449 -749 0
-450 -750 0
-451 -751 0
-452 -752 0
-449 -809 0
-450 -810 0
-451 -811 0
-452 -812 0
-449 -1093 0
-450 -1094 0
-451 -1095 0
-452 -1096 0
-449 -1109 0
-450 -1110 0
-451 -1111 0
-452 -1112 0
-449 -1485 0
-450 -1486 0
-451 -1487 0
-452 -1488 0
-449 -1957 0
-450 -1958 0
-451 -1959 0
-452 -1960 0
-449 -1965 0
-450 -1966 0
-451 -1967 0
-452 -1968 0
-449 -2029 0
-450 -2030 0
-451 -2031 0
-452 -2032 0
-453 -461 0
-454 -462 0
-455 -463 0
-456 -464 0
-453 -525 0
-454 -526 0
-455 -527 0
-456 -528 0
-453 -849 0
-454 -850 0
-455 -851 0
-456 -852 0
-453 -1505 0
-454 -1506 0
-455 -1507 0
-456 -1508 0
-453 -1969 0
-454 -1970 0
-455 -1971 0
-456 -1972 0
-453 -2049 0
-454 -2050 0
-455 -2051 0
-456 -2052 0
-453 -2237 0
-454 -2238 0
-455 -2239 0
-456 -2240 0
-461 -465 0
-462 -466 0
-463 -467 0
-464 -468 0
-461 -473 0
-462 -474 0
-463 -475 0
-464 -476 0
-461 -477 0
-462 -478 0
-463 -479 0
-464 -480 0
-461 -529 0
-462 -530 0
-463 -531 0
-464 -532 0
-461 -865 0
-462 -866 0
-463 -867 0
-464 -868 0
-461 -1229 0
-462 -1230 0
-463 -1231 0
-464 -1232 0
-461 -1517 0
-462 -1518 0
-463 -1519 0
-464 -1520 0
-461 -1917 0
-462 -1918 0
-463 -1919 0
-464 -1920 0
-461 -1969 0
-462 -1970 0
-463 -1971 0
-464 -1972 0
-461 -2057 0
-462 -2058 0
-463 -2059 0
-464 -2060 0
-461 -2273 0
-462 -2274 0
-463 -2275 0
-464 -2276 0
-465 -1121 0
-466 -1122 0
-467 -1123 0
-468 -1124 0
-465 -1521 0
-466 -1522 0
-467 -1523 0
-468 -1524 0
-465 -2061 0
-466 -2062 0
-467 -2063 0
-468 -2064 0
-465 -2281 0
-466 -2282 0
-467 -2283 0
-468 -2284 0
-469 -473 0
-470 -474 0
-471 -475 0
-472 -476 0
-469 -817 0
-470 -818 0
-471 -819 0
-472 -820 0
-469 -869 0
-470 -870 0
-471 -871 0
-472 -872 0
-469 -1289 0
-470 -1290 0
-471 -1291 0
-472 -1292 0
-469 -1389 0
-470 -1390 0
-471 -1391 0
-472 -1392 0
-469 -1801 0
-470 -1802 0
-471 -1803 0
-472 -1804 0
-469 -1921 0
-470 -1922 0
-471 -1923 0
-472 -1924 0
-473 -529 0
-474 -530 0
-475 -531 0
-476 -532 0
-473 -873 0
-474 -874 0
-475 -875 0
-476 -876 0
-473 -1125 0
-474 -1126 0
-475 -1127 0
-476 -1128 0
-473 -1233 0
-474 -1234 0
-475 -1235 0
-476 -1236 0
-473 -1385 0
-474 -1386 0
-475 -1387 0
-476 -1388 0
-473 -1393 0
-474 -1394 0
-475 -1395 0
-476 -1396 0
-473 -1925 0
-474 -1926 0
-475 -1927 0
-476 -1928 0
-473 -2289 0
-474 -2290 0
-475 -2291 0
-476 -2292 0
-477 -537 0
-478 -538 0
-479 -539 0
-480 -540 0
-477 -781 0
-478 -782 0
-479 -783 0
-480 -784 0
-477 -925 0
-478 -926 0
-479 -927 0
-480 -928 0
-477 -1133 0
-478 -1134 0
-479 -1135 0
-480 -1136 0
-477 -1533 0
-478 -1534 0
-479 -1535 0
-480 -1536 0
-477 -1809 0
-478 -1810 0
-479 -1811 0
-480 -1812 0
-477 -1917 0
-478 -1918 0
-479 -1919 0
-480 -1920 0
-477 -1973 0
-478 -1974 0
-479 -1975 0
-480 -1976 0
-477 -2301 0
-478 -2302 0
-479 -2303 0
-480 -2304 0
-485 -489 0
-486 -490 0
-487 -491 0
-488 -492 0
-485 -513 0
-486 -514 0
-487 -515 0
-488 -516 0
-485 -605 0
-486 -606 0
-487 -607 0
-488 -608 0
-485 -837 0
-486 -838 0
-487 -839 0
-488 -840 0
-485 -1017 0
-486 -1018 0
-487 -1019 0
-488 -1020 0
-485 -1997 0
-486 -1998 0
-487 -1999 0
-488 -2000 0
-485 -2005 0
-486 -2006 0
-487 -2007 0
-488 -2008 0
-489 -517 0
-490 -518 0
-491 -519 0
-492 -520 0
-489 -845 0
-490 -846 0
-491 -847 0
-492 -848 0
-489 -1013 0
-490 -1014 0
-491 -1015 0
-492 -1016 0
-489 -2001 0
-490 -2002 0
-491 -2003 0
-492 -2004 0
-489 -2009 0
-490 -2010 0
-491 -2011 0
-492 -2012 0
-493 -509 0
-494 -510 0
-495 -511 0
-496 -512 0
-493 -513 0
-494 -514 0
-495 -515 0
-496 -516 0
-493 -617 0
-494 -618 0
-495 -619 0
-496 -620 0
-493 -985 0
-494 -986 0
-495 -987 0
-496 -988 0
-493 -1557 0
-494 -1558 0
-495 -1559 0
-496 -1560 0
-493 -1861 0
-494 -1862 0
-495 -1863 0
-496 -1864 0
-493 -2033 0
-494 -2034 0
-495 -2035 0
-496 -2036 0
-493 -2041 0
-494 -2042 0
-495 -2043 0
-496 -2044 0
-497 -549 0
-498 -550 0
-499 -551 0
-500 -552 0
-497 -641 0
-498 -642 0
-499 -643 0
-500 -644 0
-497 -1449 0
-498 -1450 0
-499 -1451 0
-500 -1452 0
-497 -1869 0
-498 -1870 0
-499 -1871 0
-500 -1872 0
-497 -1981 0
-498 -1982 0
-499 -1983 0
-500 -1984 0
-497 -1985 0
-498 -1986 0
-499 -1987 0
-500 -1988 0
-501 -505 0
-502 -506 0
-503 -507 0
-504 -508 0
-501 -537 0
-502 -538 0
-503 -539 0
-504 -540 0
-501 -697 0
-502 -698 0
-503 -699 0
-504 -700 0
-501 -897 0
-502 -898 0
-503 -899 0
-504 -900 0
-501 -1449 0
-502 -1450 0
-503 -1451 0
-504 -1452 0
-505 -537 0
-506 -538 0
-507 -539 0
-508 -540 0
-505 -833 0
-506 -834 0
-507 -835 0
-508 -836 0
-505 -901 0
-506 -902 0
-507 -903 0
-508 -904 0
-505 -1453 0
-506 -1454 0
-507 -1455 0
-508 -1456 0
-505 -1593 0
-506 -1594 0
-507 -1595 0
-508 -1596 0
-509 -513 0
-510 -514 0
-511 -515 0
-512 -516 0
-509 -677 0
-510 -678 0
-511 -679 0
-512 -680 0
-509 -1009 0
-510 -1010 0
-511 -1011 0
-512 -1012 0
-509 -2081 0
-510 -2082 0
-511 -2083 0
-512 -2084 0
-509 -2097 0
-510 -2098 0
-511 -2099 0
-512 -2100 0
-513 -517 0
-514 -518 0
-515 -519 0
-516 -520 0
-513 -521 0
-514 -522 0
-515 -523 0
-516 -524 0
-513 -685 0
-514 -686 0
-515 -687 0
-516 -688 0
-513 -1613 0
-514 -1614 0
-515 -1615 0
-516 -1616 0
-513 -2085 0
-514 -2086 0
-515 -2087 0
-516 -2088 0
-513 -2101 0
-514 -2102 0
-515 -2103 0
-516 -2104 0
-517 -689 0
-518 -690 0
-519 -691 0
-520 -692 0
-517 -1045 0
-518 -1046 0
-519 -1047 0
-520 -1048 0
-517 -1617 0
-518 -1618 0
-519 -1619 0
-520 -1620 0
-517 -2089 0
-518 -2090 0
-519 -2091 0
-520 -2092 0
-517 -2105 0
-518 -2106 0
-519 -2107 0
-520 -2108 0
-521 -701 0
-522 -702 0
-523 -703 0
-524 -704 0
-521 -989 0
-522 -990 0
-523 -991 0
-524 -992 0
-521 -1625 0
-522 -1626 0
-523 -1627 0
-524 -1628 0
-521 -2093 0
-522 -2094 0
-523 -2095 0
-524 -2096 0
-521 -2109 0
-522 -2110 0
-523 -2111 0
-524 -2112 0
-525 -529 0
-526 -530 0
-527 -531 0
-528 -532 0
-525 -997 0
-526 -998 0
-527 -999 0
-528 -1000 0
-525 -1637 0
-526 -1638 0
-527 -1639 0
-528 -1640 0
-525 -2393 0
-526 -2394 0
-527 -2395 0
-528 -2396 0
-529 -533 0
-530 -534 0
-531 -535 0
-532 -536 0
-529 -537 0
-530 -538 0
-531 -539 0
-532 -540 0
-529 -929 0
-530 -930 0
-531 -931 0
-532 -932 0
-529 -1005 0
-530 -1006 0
-531 -1007 0
-532 -1008 0
-529 -1645 0
-530 -1646 0
-531 -1647 0
-532 -1648 0
-529 -2001 0
-530 -2002 0
-531 -2003 0
-532 -2004 0
-529 -2405 0
-530 -2406 0
-531 -2407 0
-532 -2408 0
-533 -541 0
-534 -542 0
-535 -543 0
-536 -544 0
-533 -933 0
-534 -934 0
-535 -935 0
-536 -936 0
-533 -2009 0
-534 -2010 0
-535 -2011 0
-536 -2012 0
-537 -541 0
-538 -542 0
-539 -543 0
-540 -544 0
-537 -937 0
-538 -938 0
-539 -939 0
-540 -940 0
-537 -1245 0
-538 -1246 0
-539 -1247 0
-540 -1248 0
-537 -1673 0
-538 -1674 0
-539 -1675 0
-540 -1676 0
-537 -1885 0
-538 -1886 0
-539 -1887 0
-540 -1888 0
-537 -2001 0
-538 -2002 0
-539 -2003 0
-540 -2004 0
-541 -941 0
-542 -942 0
-543 -943 0
-544 -944 0
-541 -1457 0
-542 -1458 0
-543 -1459 0
-544 -1460 0
-541 -1897 0
-542 -1898 0
-543 -1899 0
-544 -1900 0
-541 -2009 0
-542 -2010 0
-543 -2011 0
-544 -2012 0
-545 -549 0
-546 -550 0
-547 -551 0
-548 -552 0
-545 -949 0
-546 -950 0
-547 -951 0
-548 -952 0
-545 -1025 0
-546 -1026 0
-547 -1027 0
-548 -1028 0
-545 -1885 0
-546 -1886 0
-547 -1887 0
-548 -1888 0
-545 -2017 0
-546 -2018 0
-547 -2019 0
-548 -2020 0
-545 -2025 0
-546 -2026 0
-547 -2027 0
-548 -2028 0
-549 -957 0
-550 -958 0
-551 -959 0
-552 -960 0
-549 -1897 0
-550 -1898 0
-551 -1899 0
-552 -1900 0
-549 -2021 0
-550 -2022 0
-551 -2023 0
-552 -2024 0
-549 -2029 0
-550 -2030 0
-551 -2031 0
-552 -2032 0
-553 -557 0
-554 -558 0
-555 -559 0
-556 -560 0
-553 -565 0
-554 -566 0
-555 -567 0
-556 -568 0
-553 -669 0
-554 -670 0
-555 -671 0
-556 -672 0
-553 -685 0
-554 -686 0
-555 -687 0
-556 -688 0
-553 -1057 0
-554 -1058 0
-555 -1059 0
-556 -1060 0
-553 -1313 0
-554 -1314 0
-555 -1315 0
-556 -1316 0
-553 -1917 0
-554 -1918 0
-555 -1919 0
-556 -1920 0
-553 -2117 0
-554 -2118 0
-555 -2119 0
-556 -2120 0
-553 -2125 0
-554 -2126 0
-555 -2127 0
-556 -2128 0
-553 -2429 0
-554 -2430 0
-555 -2431 0
-556 -2432 0
-557 -569 0
-558 -570 0
-559 -571 0
-560 -572 0
-557 -685 0
-558 -686 0
-559 -687 0
-560 -688 0
-557 -701 0
-558 -702 0
-559 -703 0
-560 -704 0
-557 -961 0
-558 -962 0
-559 -963 0
-560 -964 0
-557 -1317 0
-558 -1318 0
-559 -1319 0
-560 -1320 0
-557 -1525 0
-558 -1526 0
-559 -1527 0
-560 -1528 0
-557 -1925 0
-558 -1926 0
-559 -1927 0
-560 -1928 0
-557 -2129 0
-558 -2130 0
-559 -2131 0
-560 -2132 0
-565 -569 0
-566 -570 0
-567 -571 0
-568 -572 0
-565 -705 0
-566 -706 0
-567 -707 0
-568 -708 0
-565 -721 0
-566 -722 0
-567 -723 0
-568 -724 0
-565 -885 0
-566 -886 0
-567 -887 0
-568 -888 0
-565 -1321 0
-566 -1322 0
-567 -1323 0
-568 -1324 0
-565 -2125 0
-566 -2126 0
-567 -2127 0
-568 -2128 0
-565 -2433 0
-566 -2434 0
-567 -2435 0
-568 -2436 0
-569 -721 0
-570 -722 0
-571 -723 0
-572 -724 0
-569 -737 0
-570 -738 0
-571 -739 0
-572 -740 0
-569 -1325 0
-570 -1326 0
-571 -1327 0
-572 -1328 0
-569 -1533 0
-570 -1534 0
-571 -1535 0
-572 -1536 0
-569 -2129 0
-570 -2130 0
-571 -2131 0
-572 -2132 0
-581 -585 0
-582 -586 0
-583 -587 0
-584 -588 0
-581 -589 0
-582 -590 0
-583 -591 0
-584 -592 0
-581 -2205 0
-582 -2206 0
-583 -2207 0
-584 -2208 0
-581 -2237 0
-582 -2238 0
-583 -2239 0
-584 -2240 0
-585 -593 0
-586 -594 0
-587 -595 0
-588 -596 0
-585 -929 0
-586 -930 0
-587 -931 0
-588 -932 0
-585 -1269 0
-586 -1270 0
-587 -1271 0
-588 -1272 0
-585 -1941 0
-586 -1942 0
-587 -1943 0
-588 -1944 0
-585 -2209 0
-586 -2210 0
-587 -2211 0
-588 -2212 0
-585 -2273 0
-586 -2274 0
-587 -2275 0
-588 -2276 0
-589 -593 0
-590 -594 0
-591 -595 0
-592 -596 0
-589 -973 0
-590 -974 0
-591 -975 0
-592 -976 0
-589 -1069 0
-590 -1070 0
-591 -1071 0
-592 -1072 0
-589 -2237 0
-590 -2238 0
-591 -2239 0
-592 -2240 0
-589 -2305 0
-590 -2306 0
-591 -2307 0
-592 -2308 0
-593 -1081 0
-594 -1082 0
-595 -1083 0
-596 -1084 0
-593 -1277 0
-594 -1278 0
-595 -1279 0
-596 -1280 0
-593 -1397 0
-594 -1398 0
-595 -1399 0
-596 -1400 0
-593 -1509 0
-594 -1510 0
-595 -1511 0
-596 -1512 0
-593 -2273 0
-594 -2274 0
-595 -2275 0
-596 -2276 0
-593 -2309 0
-594 -2310 0
-595 -2311 0
-596 -2312 0
-601 -605 0
-602 -606 0
-603 -607 0
-604 -608 0
-601 -609 0
-602 -610 0
-603 -611 0
-604 -612 0
-601 -673 0
-602 -674 0
-603 -675 0
-604 -676 0
-601 -685 0
-602 -686 0
-603 -687 0
-604 -688 0
-601 -1001 0
-602 -1002 0
-603 -1003 0
-604 -1004 0
-601 -1549 0
-602 -1550 0
-603 -1551 0
-604 -1552 0
-601 -2149 0
-602 -2150 0
-603 -2151 0
-604 -2152 0
-601 -2157 0
-602 -2158 0
-603 -2159 0
-604 -2160 0
-605 -613 0
-606 -614 0
-607 -615 0
-608 -616 0
-605 -685 0
-606 -686 0
-607 -687 0
-608 -688 0
-605 -697 0
-606 -698 0
-607 -699 0
-608 -700 0
-605 -1005 0
-606 -1006 0
-607 -1007 0
-608 -1008 0
-605 -1269 0
-606 -1270 0
-607 -1271 0
-608 -1272 0
-605 -2153 0
-606 -2154 0
-607 -2155 0
-608 -2156 0
-605 -2161 0
-606 -2162 0
-607 -2163 0
-608 -2164 0
-609 -613 0
-610 -614 0
-611 -615 0
-612 -616 0
-609 -709 0
-610 -710 0
-611 -711 0
-612 -712 0
-609 -721 0
-610 -722 0
-611 -723 0
-612 -724 0
-609 -1553 0
-610 -1554 0
-611 -1555 0
-612 -1556 0
-609 -1981 0
-610 -1982 0
-611 -1983 0
-612 -1984 0
-609 -2157 0
-610 -2158 0
-611 -2159 0
-612 -2160 0
-613 -721 0
-614 -722 0
-615 -723 0
-616 -724 0
-613 -733 0
-614 -734 0
-615 -735 0
-616 -736 0
-613 -1541 0
-614 -1542 0
-615 -1543 0
-616 -1544 0
-613 -2161 0
-614 -2162 0
-615 -2163 0
-616 -2164 0
-617 -621 0
-618 -622 0
-619 -623 0
-620 -624 0
-617 -625 0
-618 -626 0
-619 -627 0
-620 -628 0
-617 -677 0
-618 -678 0
-619 -679 0
-620 -680 0
-617 -685 0
-618 -686 0
-619 -687 0
-620 -688 0
-617 -1557 0
-618 -1558 0
-619 -1559 0
-620 -1560 0
-617 -2165 0
-618 -2166 0
-619 -2167 0
-620 -2168 0
-617 -2173 0
-618 -2174 0
-619 -2175 0
-620 -2176 0
-621 -629 0
-622 -630 0
-623 -631 0
-624 -632 0
-621 -685 0
-622 -686 0
-623 -687 0
-624 -688 0
-621 -693 0
-622 -694 0
-623 -695 0
-624 -696 0
-621 -1565 0
-622 -1566 0
-623 -1567 0
-624 -1568 0
-621 -1705 0
-622 -1706 0
-623 -1707 0
-624 -1708 0
-621 -2169 0
-622 -2170 0
-623 -2171 0
-624 -2172 0
-621 -2177 0
-622 -2178 0
-623 -2179 0
-624 -2180 0
-625 -629 0
-626 -630 0
-627 -631 0
-628 -632 0
-625 -713 0
-626 -714 0
-627 -715 0
-628 -716 0
-625 -721 0
-626 -722 0
-627 -723 0
-628 -724 0
-625 -2173 0
-626 -2174 0
-627 -2175 0
-628 -2176 0
-629 -721 0
-630 -722 0
-631 -723 0
-632 -724 0
-629 -729 0
-630 -730 0
-631 -731 0
-632 -732 0
-629 -985 0
-630 -986 0
-631 -987 0
-632 -988 0
-629 -1581 0
-630 -1582 0
-631 -1583 0
-632 -1584 0
-629 -1709 0
-630 -1710 0
-631 -1711 0
-632 -1712 0
-629 -2177 0
-630 -2178 0
-631 -2179 0
-632 -2180 0
-633 -637 0
-634 -638 0
-635 -639 0
-636 -640 0
-633 -641 0
-634 -642 0
-635 -643 0
-636 -644 0
-633 -681 0
-634 -682 0
-635 -683 0
-636 -684 0
-633 -685 0
-634 -686 0
-635 -687 0
-636 -688 0
-633 -1021 0
-634 -1022 0
-635 -1023 0
-636 -1024 0
-633 -1285 0
-634 -1286 0
-635 -1287 0
-636 -1288 0
-633 -1605 0
-634 -1606 0
-635 -1607 0
-636 -1608 0
-633 -1713 0
-634 -1714 0
-635 -1715 0
-636 -1716 0
-633 -1989 0
-634 -1990 0
-635 -1991 0
-636 -1992 0
-633 -2185 0
-634 -2186 0
-635 -2187 0
-636 -2188 0
-633 -2197 0
-634 -2198 0
-635 -2199 0
-636 -2200 0
-637 -645 0
-638 -646 0
-639 -647 0
-640 -648 0
-637 -685 0
-638 -686 0
-639 -687 0
-640 -688 0
-637 -689 0
-638 -690 0
-639 -691 0
-640 -692 0
-637 -1053 0
-638 -1054 0
-639 -1055 0
-640 -1056 0
-637 -2189 0
-638 -2190 0
-639 -2191 0
-640 -2192 0
-637 -2201 0
-638 -2202 0
-639 -2203 0
-640 -2204 0
-641 -645 0
-642 -646 0
-643 -647 0
-644 -648 0
-641 -717 0
-642 -718 0
-643 -719 0
-644 -720 0
-641 -721 0
-642 -722 0
-643 -723 0
-644 -724 0
-641 -1301 0
-642 -1302 0
-643 -1303 0
-644 -1304 0
-641 -1621 0
-642 -1622 0
-643 -1623 0
-644 -1624 0
-641 -2197 0
-642 -2198 0
-643 -2199 0
-644 -2200 0
-645 -721 0
-646 -722 0
-647 -723 0
-648 -724 0
-645 -725 0
-646 -726 0
-647 -727 0
-648 -728 0
-645 -1057 0
-646 -1058 0
-647 -1059 0
-648 -1060 0
-645 -2201 0
-646 -2202 0
-647 -2203 0
-648 -2204 0
-649 -653 0
-650 -654 0
-651 -655 0
-652 -656 0
-649 -685 0
-650 -686 0
-651 -687 0
-652 -688 0
-649 -993 0
-650 -994 0
-651 -995 0
-652 -996 0
-649 -1161 0
-650 -1162 0
-651 -1163 0
-652 -1164 0
-649 -1717 0
-650 -1718 0
-651 -1719 0
-652 -1720 0
-649 -2205 0
-650 -2206 0
-651 -2207 0
-652 -2208 0
-649 -2209 0
-650 -2210 0
-651 -2211 0
-652 -2212 0
-649 -2365 0
-650 -2366 0
-651 -2367 0
-652 -2368 0
-653 -721 0
-654 -722 0
-655 -723 0
-656 -724 0
-653 -1001 0
-654 -1002 0
-655 -1003 0
-656 -1004 0
-653 -1165 0
-654 -1166 0
-655 -1167 0
-656 -1168 0
-653 -2209 0
-654 -2210 0
-655 -2211 0
-656 -2212 0
-653 -2369 0
-654 -2370 0
-655 -2371 0
-656 -2372 0
-657 -661 0
-658 -662 0
-659 -663 0
-660 -664 0
-657 -685 0
-658 -686 0
-659 -687 0
-660 -688 0
-657 -1173 0
-658 -1174 0
-659 -1175 0
-660 -1176 0
-657 -1425 0
-658 -1426 0
-659 -1427 0
-660 -1428 0
-657 -1633 0
-658 -1634 0
-659 -1635 0
-660 -1636 0
-657 -2133 0
-658 -2134 0
-659 -2135 0
-660 -2136 0
-657 -2217 0
-658 -2218 0
-659 -2219 0
-660 -2220 0
-657 -2481 0
-658 -2482 0
-659 -2483 0
-660 -2484 0
-661 -721 0
-662 -722 0
-663 -723 0
-664 -724 0
-661 -1433 0
-662 -1434 0
-663 -1435 0
-664 -1436 0
-661 -1641 0
-662 -1642 0
-663 -1643 0
-664 -1644 0
-661 -2137 0
-662 -2138 0
-663 -2139 0
-664 -2140 0
-661 -2217 0
-662 -2218 0
-663 -2219 0
-664 -2220 0
-665 -685 0
-666 -686 0
-667 -687 0
-668 -688 0
-665 -1029 0
-666 -1030 0
-667 -1031 0
-668 -1032 0
-665 -1117 0
-666 -1118 0
-667 -1119 0
-668 -1120 0
-665 -1597 0
-666 -1598 0
-667 -1599 0
-668 -1600 0
-665 -1721 0
-666 -1722 0
-667 -1723 0
-668 -1724 0
-665 -2237 0
-666 -2238 0
-667 -2239 0
-668 -2240 0
-669 -685 0
-670 -686 0
-671 -687 0
-672 -688 0
-669 -705 0
-670 -706 0
-671 -707 0
-672 -708 0
-669 -829 0
-670 -830 0
-671 -831 0
-672 -832 0
-669 -849 0
-670 -850 0
-671 -851 0
-672 -852 0
-669 -1121 0
-670 -1122 0
-671 -1123 0
-672 -1124 0
-669 -1725 0
-670 -1726 0
-671 -1727 0
-672 -1728 0
-669 -2221 0
-670 -2222 0
-671 -2223 0
-672 -2224 0
-669 -2257 0
-670 -2258 0
-671 -2259 0
-672 -2260 0
-669 -2485 0
-670 -2486 0
-671 -2487 0
-672 -2488 0
-673 -685 0
-674 -686 0
-675 -687 0
-676 -688 0
-673 -709 0
-674 -710 0
-675 -711 0
-676 -712 0
-673 -797 0
-674 -798 0
-675 -799 0
-676 -800 0
-673 -1101 0
-674 -1102 0
-675 -1103 0
-676 -1104 0
-673 -1649 0
-674 -1650 0
-675 -1651 0
-676 -1652 0
-673 -2225 0
-674 -2226 0
-675 -2227 0
-676 -2228 0
-673 -2261 0
-674 -2262 0
-675 -2263 0
-676 -2264 0
-677 -685 0
-678 -686 0
-679 -687 0
-680 -688 0
-677 -713 0
-678 -714 0
-679 -715 0
-680 -716 0
-677 -781 0
-678 -782 0
-679 -783 0
-680 -784 0
-677 -1125 0
-678 -1126 0
-679 -1127 0
-680 -1128 0
-677 -1437 0
-678 -1438 0
-679 -1439 0
-680 -1440 0
-677 -2229 0
-678 -2230 0
-679 -2231 0
-680 -2232 0
-677 -2265 0
-678 -2266 0
-679 -2267 0
-680 -2268 0
-677 -2493 0
-678 -2494 0
-679 -2495 0
-680 -2496 0
-681 -685 0
-682 -686 0
-683 -687 0
-684 -688 0
-681 -717 0
-682 -718 0
-683 -719 0
-684 -720 0
-681 -757 0
-682 -758 0
-683 -759 0
-684 -760 0
-681 -853 0
-682 -854 0
-683 -855 0
-684 -856 0
-681 -1033 0
-682 -1034 0
-683 -1035 0
-684 -1036 0
-681 -1997 0
-682 -1998 0
-683 -1999 0
-684 -2000 0
-681 -2233 0
-682 -2234 0
-683 -2235 0
-684 -2236 0
-681 -2269 0
-682 -2270 0
-683 -2271 0
-684 -2272 0
-685 -689 0
-686 -690 0
-687 -691 0
-688 -692 0
-685 -693 0
-686 -694 0
-687 -695 0
-688 -696 0
-685 -697 0
-686 -698 0
-687 -699 0
-688 -700 0
-685 -701 0
-686 -702 0
-687 -703 0
-688 -704 0
-685 -721 0
-686 -722 0
-687 -723 0
-688 -724 0
-685 -741 0
-686 -742 0
-687 -743 0
-688 -744 0
-685 -749 0
-686 -750 0
-687 -751 0
-688 -752 0
-685 -757 0
-686 -758 0
-687 -759 0
-688 -760 0
-685 -761 0
-686 -762 0
-687 -763 0
-688 -764 0
-685 -781 0
-686 -782 0
-687 -783 0
-688 -784 0
-685 -785 0
-686 -786 0
-687 -787 0
-688 -788 0
-685 -797 0
-686 -798 0
-687 -799 0
-688 -800 0
-685 -801 0
-686 -802 0
-687 -803 0
-688 -804 0
-685 -829 0
-686 -830 0
-687 -831 0
-688 -832 0
-685 -833 0
-686 -834 0
-687 -835 0
-688 -836 0
-685 -857 0
-686 -858 0
-687 -859 0
-688 -860 0
-685 -1037 0
-686 -1038 0
-687 -1039 0
-688 -1040 0
-685 -1061 0
-686 -1062 0
-687 -1063 0
-688 -1064 0
-685 -1105 0
-686 -1106 0
-687 -1107 0
-688 -1108 0
-685 -1129 0
-686 -1130 0
-687 -1131 0
-688 -1132 0
-685 -1185 0
-686 -1186 0
-687 -1187 0
-688 -1188 0
-685 -1329 0
-686 -1330 0
-687 -1331 0
-688 -1332 0
-685 -1441 0
-686 -1442 0
-687 -1443 0
-688 -1444 0
-685 -1613 0
-686 -1614 0
-687 -1615 0
-688 -1616 0
-685 -1653 0
-686 -1654 0
-687 -1655 0
-688 -1656 0
-685 -1729 0
-686 -1730 0
-687 -1731 0
-688 -1732 0
-685 -1737 0
-686 -1738 0
-687 -1739 0
-688 -1740 0
-685 -2001 0
-686 -2002 0
-687 -2003 0
-688 -2004 0
-685 -2017 0
-686 -2018 0
-687 -2019 0
-688 -2020 0
-685 -2133 0
-686 -2134 0
-687 -2135 0
-688 -2136 0
-685 -2141 0
-686 -2142 0
-687 -2143 0
-688 -2144 0
-685 -2237 0
-686 -2238 0
-687 -2239 0
-688 -2240 0
-685 -2273 0
-686 -2274 0
-687 -2275 0
-688 -2276 0
-685 -2365 0
-686 -2366 0
-687 -2367 0
-688 -2368 0
-685 -2373 0
-686 -2374 0
-687 -2375 0
-688 -2376 0
-685 -2497 0
-686 -2498 0
-687 -2499 0
-688 -2500 0
-689 -725 0
-690 -726 0
-691 -727 0
-692 -728 0
-689 -761 0
-690 -762 0
-691 -763 0
-692 -764 0
-689 -1065 0
-690 -1066 0
-691 -1067 0
-692 -1068 0
-689 -1189 0
-690 -1190 0
-691 -1191 0
-692 -1192 0
-689 -1617 0
-690 -1618 0
-691 -1619 0
-692 -1620 0
-689 -2241 0
-690 -2242 0
-691 -2243 0
-692 -2244 0
-689 -2277 0
-690 -2278 0
-691 -2279 0
-692 -2280 0
-693 -729 0
-694 -730 0
-695 -731 0
-696 -732 0
-693 -785 0
-694 -786 0
-695 -787 0
-696 -788 0
-693 -861 0
-694 -862 0
-695 -863 0
-696 -864 0
-693 -1193 0
-694 -1194 0
-695 -1195 0
-696 -1196 0
-693 -1741 0
-694 -1742 0
-695 -1743 0
-696 -1744 0
-693 -2245 0
-694 -2246 0
-695 -2247 0
-696 -2248 0
-693 -2281 0
-694 -2282 0
-695 -2283 0
-696 -2284 0
-697 -733 0
-698 -734 0
-699 -735 0
-700 -736 0
-697 -801 0
-698 -802 0
-699 -803 0
-700 -804 0
-697 -1069 0
-698 -1070 0
-699 -1071 0
-700 -1072 0
-697 -1333 0
-698 -1334 0
-699 -1335 0
-700 -1336 0
-697 -1621 0
-698 -1622 0
-699 -1623 0
-700 -1624 0
-697 -2285 0
-698 -2286 0
-699 -2287 0
-700 -2288 0
-701 -737 0
-702 -738 0
-703 -739 0
-704 -740 0
-701 -833 0
-702 -834 0
-703 -835 0
-704 -836 0
-701 -1337 0
-702 -1338 0
-703 -1339 0
-704 -1340 0
-701 -1625 0
-702 -1626 0
-703 -1627 0
-704 -1628 0
-701 -1657 0
-702 -1658 0
-703 -1659 0
-704 -1660 0
-701 -2253 0
-702 -2254 0
-703 -2255 0
-704 -2256 0
-701 -2289 0
-702 -2290 0
-703 -2291 0
-704 -2292 0
-705 -721 0
-706 -722 0
-707 -723 0
-708 -724 0
-705 -837 0
-706 -838 0
-707 -839 0
-708 -840 0
-705 -865 0
-706 -866 0
-707 -867 0
-708 -868 0
-705 -2257 0
-706 -2258 0
-707 -2259 0
-708 -2260 0
-705 -2501 0
-706 -2502 0
-707 -2503 0
-708 -2504 0
-709 -721 0
-710 -722 0
-711 -723 0
-712 -724 0
-709 -805 0
-710 -806 0
-711 -807 0
-712 -808 0
-709 -1661 0
-710 -1662 0
-711 -1663 0
-712 -1664 0
-709 -2261 0
-710 -2262 0
-711 -2263 0
-712 -2264 0
-713 -721 0
-714 -722 0
-715 -723 0
-716 -724 0
-713 -789 0
-714 -790 0
-715 -791 0
-716 -792 0
-713 -889 0
-714 -890 0
-715 -891 0
-716 -892 0
-713 -1449 0
-714 -1450 0
-715 -1451 0
-716 -1452 0
-713 -1561 0
-714 -1562 0
-715 -1563 0
-716 -1564 0
-713 -2265 0
-714 -2266 0
-715 -2267 0
-716 -2268 0
-717 -721 0
-718 -722 0
-719 -723 0
-720 -724 0
-717 -769 0
-718 -770 0
-719 -771 0
-720 -772 0
-717 -869 0
-718 -870 0
-719 -871 0
-720 -872 0
-717 -1565 0
-718 -1566 0
-719 -1567 0
-720 -1568 0
-717 -2005 0
-718 -2006 0
-719 -2007 0
-720 -2008 0
-717 -2269 0
-718 -2270 0
-719 -2271 0
-720 -2272 0
-721 -725 0
-722 -726 0
-723 -727 0
-724 -728 0
-721 -729 0
-722 -730 0
-723 -731 0
-724 -732 0
-721 -733 0
-722 -734 0
-723 -735 0
-724 -736 0
-721 -737 0
-722 -738 0
-723 -739 0
-724 -740 0
-721 -745 0
-722 -746 0
-723 -747 0
-724 -748 0
-721 -753 0
-722 -754 0
-723 -755 0
-724 -756 0
-721 -769 0
-722 -770 0
-723 -771 0
-724 -772 0
-721 -773 0
-722 -774 0
-723 -775 0
-724 -776 0
-721 -789 0
-722 -790 0
-723 -791 0
-724 -792 0
-721 -793 0
-722 -794 0
-723 -795 0
-724 -796 0
-721 -805 0
-722 -806 0
-723 -807 0
-724 -808 0
-721 -809 0
-722 -810 0
-723 -811 0
-724 -812 0
-721 -837 0
-722 -838 0
-723 -839 0
-724 -840 0
-721 -841 0
-722 -842 0
-723 -843 0
-724 -844 0
-721 -873 0
-722 -874 0
-723 -875 0
-724 -876 0
-721 -1009 0
-722 -1010 0
-723 -1011 0
-724 -1012 0
-721 -1073 0
-722 -1074 0
-723 -1075 0
-724 -1076 0
-721 -1201 0
-722 -1202 0
-723 -1203 0
-724 -1204 0
-721 -1349 0
-722 -1350 0
-723 -1351 0
-724 -1352 0
-721 -1453 0
-722 -1454 0
-723 -1455 0
-724 -1456 0
-721 -1569 0
-722 -1570 0
-723 -1571 0
-724 -1572 0
-721 -1669 0
-722 -1670 0
-723 -1671 0
-724 -1672 0
-721 -1745 0
-722 -1746 0
-723 -1747 0
-724 -1748 0
-721 -2009 0
-722 -2010 0
-723 -2011 0
-724 -2012 0
-721 -2021 0
-722 -2022 0
-723 -2023 0
-724 -2024 0
-721 -2137 0
-722 -2138 0
-723 -2139 0
-724 -2140 0
-721 -2145 0
-722 -2146 0
-723 -2147 0
-724 -2148 0
-721 -2273 0
-722 -2274 0
-723 -2275 0
-724 -2276 0
-721 -2293 0
-722 -2294 0
-723 -2295 0
-724 -2296 0
-721 -2369 0
-722 -2370 0
-723 -2371 0
-724 -2372 0
-721 -2377 0
-722 -2378 0
-723 -2379 0
-724 -2380 0
-721 -2505 0
-722 -2506 0
-723 -2507 0
-724 -2508 0
-725 -773 0
-726 -774 0
-727 -775 0
-728 -776 0
-725 -1077 0
-726 -1078 0
-727 -1079 0
-728 -1080 0
-725 -1205 0
-726 -1206 0
-727 -1207 0
-728 -1208 0
-725 -1457 0
-726 -1458 0
-727 -1459 0
-728 -1460 0
-725 -2277 0
-726 -2278 0
-727 -2279 0
-728 -2280 0
-729 -793 0
-730 -794 0
-731 -795 0
-732 -796 0
-729 -877 0
-730 -878 0
-731 -879 0
-732 -880 0
-729 -1749 0
-730 -1750 0
-731 -1751 0
-732 -1752 0
-729 -2281 0
-730 -2282 0
-731 -2283 0
-732 -2284 0
-733 -809 0
-734 -810 0
-735 -811 0
-736 -812 0
-733 -1013 0
-734 -1014 0
-735 -1015 0
-736 -1016 0
-733 -1081 0
-734 -1082 0
-735 -1083 0
-736 -1084 0
-733 -2285 0
-734 -2286 0
-735 -2287 0
-736 -2288 0
-737 -841 0
-738 -842 0
-739 -843 0
-740 -844 0
-737 -1353 0
-738 -1354 0
-739 -1355 0
-740 -1356 0
-737 -1673 0
-738 -1674 0
-739 -1675 0
-740 -1676 0
-737 -2289 0
-738 -2290 0
-739 -2291 0
-740 -2292 0
-741 -745 0
-742 -746 0
-743 -747 0
-744 -748 0
-741 -1141 0
-742 -1142 0
-743 -1143 0
-744 -1144 0
-741 -2025 0
-742 -2026 0
-743 -2027 0
-744 -2028 0
-741 -2141 0
-742 -2142 0
-743 -2143 0
-744 -2144 0
-741 -2297 0
-742 -2298 0
-743 -2299 0
-744 -2300 0
-741 -2301 0
-742 -2302 0
-743 -2303 0
-744 -2304 0
-745 -1017 0
-746 -1018 0
-747 -1019 0
-748 -1020 0
-745 -2029 0
-746 -2030 0
-747 -2031 0
-748 -2032 0
-745 -2145 0
-746 -2146 0
-747 -2147 0
-748 -2148 0
-745 -2301 0
-746 -2302 0
-747 -2303 0
-748 -2304 0
-749 -753 0
-750 -754 0
-751 -755 0
-752 -756 0
-749 -1045 0
-750 -1046 0
-751 -1047 0
-752 -1048 0
-749 -1109 0
-750 -1110 0
-751 -1111 0
-752 -1112 0
-749 -1365 0
-750 -1366 0
-751 -1367 0
-752 -1368 0
-749 -1461 0
-750 -1462 0
-751 -1463 0
-752 -1464 0
-749 -2305 0
-750 -2306 0
-751 -2307 0
-752 -2308 0
-749 -2309 0
-750 -2310 0
-751 -2311 0
-752 -2312 0
-749 -2373 0
-750 -2374 0
-751 -2375 0
-752 -2376 0
-753 -893 0
-754 -894 0
-755 -895 0
-756 -896 0
-753 -1369 0
-754 -1370 0
-755 -1371 0
-756 -1372 0
-753 -1465 0
-754 -1466 0
-755 -1467 0
-756 -1468 0
-753 -2309 0
-754 -2310 0
-755 -2311 0
-756 -2312 0
-753 -2377 0
-754 -2378 0
-755 -2379 0
-756 -2380 0
-757 -761 0
-758 -762 0
-759 -763 0
-760 -764 0
-757 -769 0
-758 -770 0
-759 -771 0
-760 -772 0
-757 -897 0
-758 -898 0
-759 -899 0
-760 -900 0
-757 -1149 0
-758 -1150 0
-759 -1151 0
-760 -1152 0
-757 -1373 0
-758 -1374 0
-759 -1375 0
-760 -1376 0
-757 -1761 0
-758 -1762 0
-759 -1763 0
-760 -1764 0
-757 -2033 0
-758 -2034 0
-759 -2035 0
-760 -2036 0
-757 -2321 0
-758 -2322 0
-759 -2323 0
-760 -2324 0
-761 -773 0
-762 -774 0
-763 -775 0
-764 -776 0
-761 -1217 0
-762 -1218 0
-763 -1219 0
-764 -1220 0
-761 -1661 0
-762 -1662 0
-763 -1663 0
-764 -1664 0
-761 -1765 0
-762 -1766 0
-763 -1767 0
-764 -1768 0
-761 -2037 0
-762 -2038 0
-763 -2039 0
-764 -2040 0
-761 -2317 0
-762 -2318 0
-763 -2319 0
-764 -2320 0
-761 -2325 0
-762 -2326 0
-763 -2327 0
-764 -2328 0
-769 -773 0
-770 -774 0
-771 -775 0
-772 -776 0
-769 -905 0
-770 -906 0
-771 -907 0
-772 -908 0
-769 -1577 0
-770 -1578 0
-771 -1579 0
-772 -1580 0
-769 -2041 0
-770 -2042 0
-771 -2043 0
-772 -2044 0
-769 -2321 0
-770 -2322 0
-771 -2323 0
-772 -2324 0
-773 -1225 0
-774 -1226 0
-775 -1227 0
-776 -1228 0
-773 -2045 0
-774 -2046 0
-775 -2047 0
-776 -2048 0
-773 -2325 0
-774 -2326 0
-775 -2327 0
-776 -2328 0
-781 -785 0
-782 -786 0
-783 -787 0
-784 -788 0
-781 -789 0
-782 -790 0
-783 -791 0
-784 -792 0
-781 -1133 0
-782 -1134 0
-783 -1135 0
-784 -1136 0
-781 -1601 0
-782 -1602 0
-783 -1603 0
-784 -1604 0
-781 -2049 0
-782 -2050 0
-783 -2051 0
-784 -2052 0
-781 -2329 0
-782 -2330 0
-783 -2331 0
-784 -2332 0
-781 -2337 0
-782 -2338 0
-783 -2339 0
-784 -2340 0
-781 -2537 0
-782 -2538 0
-783 -2539 0
-784 -2540 0
-785 -793 0
-786 -794 0
-787 -795 0
-788 -796 0
-785 -917 0
-786 -918 0
-787 -919 0
-788 -920 0
-785 -1137 0
-786 -1138 0
-787 -1139 0
-788 -1140 0
-785 -1241 0
-786 -1242 0
-787 -1243 0
-788 -1244 0
-785 -1797 0
-786 -1798 0
-787 -1799 0
-788 -1800 0
-785 -2053 0
-786 -2054 0
-787 -2055 0
-788 -2056 0
-785 -2341 0
-786 -2342 0
-787 -2343 0
-788 -2344 0
-789 -793 0
-790 -794 0
-791 -795 0
-792 -796 0
-789 -1617 0
-790 -1618 0
-791 -1619 0
-792 -1620 0
-789 -2057 0
-790 -2058 0
-791 -2059 0
-792 -2060 0
-789 -2337 0
-790 -2338 0
-791 -2339 0
-792 -2340 0
-789 -2541 0
-790 -2542 0
-791 -2543 0
-792 -2544 0
-793 -925 0
-794 -926 0
-795 -927 0
-796 -928 0
-793 -2061 0
-794 -2062 0
-795 -2063 0
-796 -2064 0
-793 -2341 0
-794 -2342 0
-795 -2343 0
-796 -2344 0
-797 -801 0
-798 -802 0
-799 -803 0
-800 -804 0
-797 -805 0
-798 -806 0
-799 -807 0
-800 -808 0
-797 -953 0
-798 -954 0
-799 -955 0
-800 -956 0
-797 -1157 0
-798 -1158 0
-799 -1159 0
-800 -1160 0
-797 -1181 0
-798 -1182 0
-799 -1183 0
-800 -1184 0
-797 -1805 0
-798 -1806 0
-799 -1807 0
-800 -1808 0
-797 -2089 0
-798 -2090 0
-799 -2091 0
-800 -2092 0
-797 -2345 0
-798 -2346 0
-799 -2347 0
-800 -2348 0
-797 -2353 0
-798 -2354 0
-799 -2355 0
-800 -2356 0
-801 -809 0
-802 -810 0
-803 -811 0
-804 -812 0
-801 -1089 0
-802 -1090 0
-803 -1091 0
-804 -1092 0
-801 -1197 0
-802 -1198 0
-803 -1199 0
-804 -1200 0
-801 -1809 0
-802 -1810 0
-803 -1811 0
-804 -1812 0
-801 -2349 0
-802 -2350 0
-803 -2351 0
-804 -2352 0
-801 -2357 0
-802 -2358 0
-803 -2359 0
-804 -2360 0
-805 -809 0
-806 -810 0
-807 -811 0
-808 -812 0
-805 -961 0
-806 -962 0
-807 -963 0
-808 -964 0
-805 -2105 0
-806 -2106 0
-807 -2107 0
-808 -2108 0
-805 -2353 0
-806 -2354 0
-807 -2355 0
-808 -2356 0
-809 -965 0
-810 -966 0
-811 -967 0
-812 -968 0
-809 -1045 0
-810 -1046 0
-811 -1047 0
-812 -1048 0
-809 -1093 0
-810 -1094 0
-811 -1095 0
-812 -1096 0
-809 -1813 0
-810 -1814 0
-811 -1815 0
-812 -1816 0
-809 -2357 0
-810 -2358 0
-811 -2359 0
-812 -2360 0
-813 -817 0
-814 -818 0
-815 -819 0
-816 -820 0
-813 -821 0
-814 -822 0
-815 -823 0
-816 -824 0
-813 -1161 0
-814 -1162 0
-815 -1163 0
-816 -1164 0
-813 -1821 0
-814 -1822 0
-815 -1823 0
-816 -1824 0
-813 -2237 0
-814 -2238 0
-815 -2239 0
-816 -2240 0
-817 -825 0
-818 -826 0
-819 -827 0
-820 -828 0
-817 -1165 0
-818 -1166 0
-819 -1167 0
-820 -1168 0
-817 -1429 0
-818 -1430 0
-819 -1431 0
-820 -1432 0
-817 -1677 0
-818 -1678 0
-819 -1679 0
-820 -1680 0
-817 -1693 0
-818 -1694 0
-819 -1695 0
-820 -1696 0
-817 -2217 0
-818 -2218 0
-819 -2219 0
-820 -2220 0
-817 -2273 0
-818 -2274 0
-819 -2275 0
-820 -2276 0
-821 -825 0
-822 -826 0
-823 -827 0
-824 -828 0
-821 -1169 0
-822 -1170 0
-823 -1171 0
-824 -1172 0
-821 -1233 0
-822 -1234 0
-823 -1235 0
-824 -1236 0
-821 -1437 0
-822 -1438 0
-823 -1439 0
-824 -1440 0
-821 -1837 0
-822 -1838 0
-823 -1839 0
-824 -1840 0
-821 -2237 0
-822 -2238 0
-823 -2239 0
-824 -2240 0
-821 -2297 0
-822 -2298 0
-823 -2299 0
-824 -2300 0
-825 -1449 0
-826 -1450 0
-827 -1451 0
-828 -1452 0
-825 -1681 0
-826 -1682 0
-827 -1683 0
-828 -1684 0
-825 -1845 0
-826 -1846 0
-827 -1847 0
-828 -1848 0
-825 -2273 0
-826 -2274 0
-827 -2275 0
-828 -2276 0
-825 -2301 0
-826 -2302 0
-827 -2303 0
-828 -2304 0
-829 -833 0
-830 -834 0
-831 -835 0
-832 -836 0
-829 -837 0
-830 -838 0
-831 -839 0
-832 -840 0
-829 -997 0
-830 -998 0
-831 -999 0
-832 -1000 0
-829 -1861 0
-830 -1862 0
-831 -1863 0
-832 -1864 0
-829 -2389 0
-830 -2390 0
-831 -2391 0
-832 -2392 0
-829 -2401 0
-830 -2402 0
-831 -2403 0
-832 -2404 0
-833 -841 0
-834 -842 0
-835 -843 0
-836 -844 0
-833 -1145 0
-834 -1146 0
-835 -1147 0
-836 -1148 0
-833 -1473 0
-834 -1474 0
-835 -1475 0
-836 -1476 0
-833 -1697 0
-834 -1698 0
-835 -1699 0
-836 -1700 0
-833 -1865 0
-834 -1866 0
-835 -1867 0
-836 -1868 0
-833 -2393 0
-834 -2394 0
-835 -2395 0
-836 -2396 0
-833 -2405 0
-834 -2406 0
-835 -2407 0
-836 -2408 0
-837 -841 0
-838 -842 0
-839 -843 0
-840 -844 0
-837 -1005 0
-838 -1006 0
-839 -1007 0
-840 -1008 0
-837 -2401 0
-838 -2402 0
-839 -2403 0
-840 -2404 0
-841 -1149 0
-842 -1150 0
-843 -1151 0
-844 -1152 0
-841 -1469 0
-842 -1470 0
-843 -1471 0
-844 -1472 0
-841 -1869 0
-842 -1870 0
-843 -1871 0
-844 -1872 0
-841 -2405 0
-842 -2406 0
-843 -2407 0
-844 -2408 0
-845 -1277 0
-846 -1278 0
-847 -1279 0
-848 -1280 0
-845 -2133 0
-846 -2134 0
-847 -2135 0
-848 -2136 0
-845 -2409 0
-846 -2410 0
-847 -2411 0
-848 -2412 0
-845 -2413 0
-846 -2414 0
-847 -2415 0
-848 -2416 0
-849 -857 0
-850 -858 0
-851 -859 0
-852 -860 0
-849 -865 0
-850 -866 0
-851 -867 0
-852 -868 0
-849 -997 0
-850 -998 0
-851 -999 0
-852 -1000 0
-849 -2577 0
-850 -2578 0
-851 -2579 0
-852 -2580 0
-853 -857 0
-854 -858 0
-855 -859 0
-856 -860 0
-853 -869 0
-854 -870 0
-855 -871 0
-856 -872 0
-853 -897 0
-854 -898 0
-855 -899 0
-856 -900 0
-853 -913 0
-854 -914 0
-855 -915 0
-856 -916 0
-853 -949 0
-854 -950 0
-855 -951 0
-856 -952 0
-853 -1161 0
-854 -1162 0
-855 -1163 0
-856 -1164 0
-853 -2153 0
-854 -2154 0
-855 -2155 0
-856 -2156 0
-857 -861 0
-858 -862 0
-859 -863 0
-860 -864 0
-857 -873 0
-858 -874 0
-859 -875 0
-860 -876 0
-857 -897 0
-858 -898 0
-859 -899 0
-860 -900 0
-857 -917 0
-858 -918 0
-859 -919 0
-860 -920 0
-857 -953 0
-858 -954 0
-859 -955 0
-860 -956 0
-857 -997 0
-858 -998 0
-859 -999 0
-860 -1000 0
-857 -1493 0
-858 -1494 0
-859 -1495 0
-860 -1496 0
-857 -1737 0
-858 -1738 0
-859 -1739 0
-860 -1740 0
-857 -2445 0
-858 -2446 0
-859 -2447 0
-860 -2448 0
-857 -2581 0
-858 -2582 0
-859 -2583 0
-860 -2584 0
-861 -877 0
-862 -878 0
-863 -879 0
-864 -880 0
-861 -901 0
-862 -902 0
-863 -903 0
-864 -904 0
-861 -917 0
-862 -918 0
-863 -919 0
-864 -920 0
-861 -1117 0
-862 -1118 0
-863 -1119 0
-864 -1120 0
-861 -1297 0
-862 -1298 0
-863 -1299 0
-864 -1300 0
-861 -1741 0
-862 -1742 0
-863 -1743 0
-864 -1744 0
-861 -2449 0
-862 -2450 0
-863 -2451 0
-864 -2452 0
-865 -873 0
-866 -874 0
-867 -875 0
-868 -876 0
-865 -889 0
-866 -890 0
-867 -891 0
-868 -892 0
-865 -1005 0
-866 -1006 0
-867 -1007 0
-868 -1008 0
-865 -2589 0
-866 -2590 0
-867 -2591 0
-868 -2592 0
-869 -873 0
-870 -874 0
-871 -875 0
-872 -876 0
-869 -905 0
-870 -906 0
-871 -907 0
-872 -908 0
-869 -921 0
-870 -922 0
-871 -923 0
-872 -924 0
-869 -957 0
-870 -958 0
-871 -959 0
-872 -960 0
-869 -1165 0
-870 -1166 0
-871 -1167 0
-872 -1168 0
-869 -1485 0
-870 -1486 0
-871 -1487 0
-872 -1488 0
-869 -1705 0
-870 -1706 0
-871 -1707 0
-872 -1708 0
-869 -1777 0
-870 -1778 0
-871 -1779 0
-872 -1780 0
-869 -2161 0
-870 -2162 0
-871 -2163 0
-872 -2164 0
-873 -877 0
-874 -878 0
-875 -879 0
-876 -880 0
-873 -893 0
-874 -894 0
-875 -895 0
-876 -896 0
-873 -905 0
-874 -906 0
-875 -907 0
-876 -908 0
-873 -925 0
-874 -926 0
-875 -927 0
-876 -928 0
-873 -961 0
-874 -962 0
-875 -963 0
-876 -964 0
-873 -965 0
-874 -966 0
-875 -967 0
-876 -968 0
-873 -1005 0
-874 -1006 0
-875 -1007 0
-876 -1008 0
-873 -1125 0
-874 -1126 0
-875 -1127 0
-876 -1128 0
-873 -1497 0
-874 -1498 0
-875 -1499 0
-876 -1500 0
-873 -1593 0
-874 -1594 0
-875 -1595 0
-876 -1596 0
-873 -1745 0
-874 -1746 0
-875 -1747 0
-876 -1748 0
-873 -1781 0
-874 -1782 0
-875 -1783 0
-876 -1784 0
-873 -2445 0
-874 -2446 0
-875 -2447 0
-876 -2448 0
-873 -2593 0
-874 -2594 0
-875 -2595 0
-876 -2596 0
-877 -909 0
-878 -910 0
-879 -911 0
-880 -912 0
-877 -925 0
-878 -926 0
-879 -927 0
-880 -928 0
-877 -1129 0
-878 -1130 0
-879 -1131 0
-880 -1132 0
-877 -1309 0
-878 -1310 0
-879 -1311 0
-880 -1312 0
-877 -1541 0
-878 -1542 0
-879 -1543 0
-880 -1544 0
-877 -1749 0
-878 -1750 0
-879 -1751 0
-880 -1752 0
-877 -2449 0
-878 -2450 0
-879 -2451 0
-880 -2452 0
-885 -889 0
-886 -890 0
-887 -891 0
-888 -892 0
-885 -1009 0
-886 -1010 0
-887 -1011 0
-888 -1012 0
-885 -1613 0
-886 -1614 0
-887 -1615 0
-888 -1616 0
-885 -2453 0
-886 -2454 0
-887 -2455 0
-888 -2456 0
-885 -2605 0
-886 -2606 0
-887 -2607 0
-888 -2608 0
-889 -893 0
-890 -894 0
-891 -895 0
-892 -896 0
-889 -1013 0
-890 -1014 0
-891 -1015 0
-892 -1016 0
-889 -1621 0
-890 -1622 0
-891 -1623 0
-892 -1624 0
-889 -2609 0
-890 -2610 0
-891 -2611 0
-892 -2612 0
-893 -1013 0
-894 -1014 0
-895 -1015 0
-896 -1016 0
-893 -1205 0
-894 -1206 0
-895 -1207 0
-896 -1208 0
-893 -1517 0
-894 -1518 0
-895 -1519 0
-896 -1520 0
-893 -1629 0
-894 -1630 0
-895 -1631 0
-896 -1632 0
-897 -901 0
-898 -902 0
-899 -903 0
-900 -904 0
-897 -905 0
-898 -906 0
-899 -907 0
-900 -908 0
-897 -937 0
-898 -938 0
-899 -939 0
-900 -940 0
-897 -1069 0
-898 -1070 0
-899 -1071 0
-900 -1072 0
-897 -1525 0
-898 -1526 0
-899 -1527 0
-900 -1528 0
-897 -1761 0
-898 -1762 0
-899 -1763 0
-900 -1764 0
-897 -2165 0
-898 -2166 0
-899 -2167 0
-900 -2168 0
-897 -2493 0
-898 -2494 0
-899 -2495 0
-900 -2496 0
-901 -909 0
-902 -910 0
-903 -911 0
-904 -912 0
-901 -937 0
-902 -938 0
-903 -939 0
-904 -940 0
-901 -1145 0
-902 -1146 0
-903 -1147 0
-904 -1148 0
-901 -1341 0
-902 -1342 0
-903 -1343 0
-904 -1344 0
-901 -1529 0
-902 -1530 0
-903 -1531 0
-904 -1532 0
-901 -1769 0
-902 -1770 0
-903 -1771 0
-904 -1772 0
-901 -1913 0
-902 -1914 0
-903 -1915 0
-904 -1916 0
-901 -2169 0
-902 -2170 0
-903 -2171 0
-904 -2172 0
-901 -2497 0
-902 -2498 0
-903 -2499 0
-904 -2500 0
-905 -909 0
-906 -910 0
-907 -911 0
-908 -912 0
-905 -941 0
-906 -942 0
-907 -943 0
-908 -944 0
-905 -969 0
-906 -970 0
-907 -971 0
-908 -972 0
-905 -1081 0
-906 -1082 0
-907 -1083 0
-908 -1084 0
-905 -1533 0
-906 -1534 0
-907 -1535 0
-908 -1536 0
-905 -1717 0
-906 -1718 0
-907 -1719 0
-908 -1720 0
-905 -2173 0
-906 -2174 0
-907 -2175 0
-908 -2176 0
-909 -941 0
-910 -942 0
-911 -943 0
-912 -944 0
-909 -1149 0
-910 -1150 0
-911 -1151 0
-912 -1152 0
-909 -1357 0
-910 -1358 0
-911 -1359 0
-912 -1360 0
-909 -1545 0
-910 -1546 0
-911 -1547 0
-912 -1548 0
-909 -2177 0
-910 -2178 0
-911 -2179 0
-912 -2180 0
-909 -2505 0
-910 -2506 0
-911 -2507 0
-912 -2508 0
-913 -917 0
-914 -918 0
-915 -919 0
-916 -920 0
-913 -921 0
-914 -922 0
-915 -923 0
-916 -924 0
-913 -937 0
-914 -938 0
-915 -939 0
-916 -940 0
-913 -1229 0
-914 -1230 0
-915 -1231 0
-916 -1232 0
-913 -1921 0
-914 -1922 0
-915 -1923 0
-916 -1924 0
-913 -2185 0
-914 -2186 0
-915 -2187 0
-916 -2188 0
-917 -925 0
-918 -926 0
-919 -927 0
-920 -928 0
-917 -937 0
-918 -938 0
-919 -939 0
-920 -940 0
-917 -1381 0
-918 -1382 0
-919 -1383 0
-920 -1384 0
-917 -1925 0
-918 -1926 0
-919 -1927 0
-920 -1928 0
-917 -2189 0
-918 -2190 0
-919 -2191 0
-920 -2192 0
-917 -2465 0
-918 -2466 0
-919 -2467 0
-920 -2468 0
-917 -2641 0
-918 -2642 0
-919 -2643 0
-920 -2644 0
-921 -925 0
-922 -926 0
-923 -927 0
-924 -928 0
-921 -941 0
-922 -942 0
-923 -943 0
-924 -944 0
-921 -1237 0
-922 -1238 0
-923 -1239 0
-924 -1240 0
-921 -1741 0
-922 -1742 0
-923 -1743 0
-924 -1744 0
-921 -1929 0
-922 -1930 0
-923 -1931 0
-924 -1932 0
-921 -2197 0
-922 -2198 0
-923 -2199 0
-924 -2200 0
-925 -941 0
-926 -942 0
-927 -943 0
-928 -944 0
-925 -2201 0
-926 -2202 0
-927 -2203 0
-928 -2204 0
-925 -2465 0
-926 -2466 0
-927 -2467 0
-928 -2468 0
-929 -933 0
-930 -934 0
-931 -935 0
-932 -936 0
-929 -937 0
-930 -938 0
-931 -939 0
-932 -940 0
-929 -973 0
-930 -974 0
-931 -975 0
-932 -976 0
-929 -1269 0
-930 -1270 0
-931 -1271 0
-932 -1272 0
-929 -2409 0
-930 -2410 0
-931 -2411 0
-932 -2412 0
-929 -2509 0
-930 -2510 0
-931 -2511 0
-932 -2512 0
-929 -2521 0
-930 -2522 0
-931 -2523 0
-932 -2524 0
-929 -2653 0
-930 -2654 0
-931 -2655 0
-932 -2656 0
-933 -941 0
-934 -942 0
-935 -943 0
-936 -944 0
-933 -2217 0
-934 -2218 0
-935 -2219 0
-936 -2220 0
-933 -2413 0
-934 -2414 0
-935 -2415 0
-936 -2416 0
-933 -2517 0
-934 -2518 0
-935 -2519 0
-936 -2520 0
-933 -2533 0
-934 -2534 0
-935 -2535 0
-936 -2536 0
-937 -941 0
-938 -942 0
-939 -943 0
-940 -944 0
-937 -977 0
-938 -978 0
-939 -979 0
-940 -980 0
-937 -1245 0
-938 -1246 0
-939 -1247 0
-940 -1248 0
-937 -1389 0
-938 -1390 0
-939 -1391 0
-940 -1392 0
-937 -1549 0
-938 -1550 0
-939 -1551 0
-940 -1552 0
-937 -1757 0
-938 -1758 0
-939 -1759 0
-940 -1760 0
-937 -1937 0
-938 -1938 0
-939 -1939 0
-940 -1940 0
-937 -2237 0
-938 -2238 0
-939 -2239 0
-940 -2240 0
-937 -2409 0
-938 -2410 0
-939 -2411 0
-940 -2412 0
-937 -2537 0
-938 -2538 0
-939 -2539 0
-940 -2540 0
-941 -981 0
-942 -982 0
-943 -983 0
-944 -984 0
-941 -1553 0
-942 -1554 0
-943 -1555 0
-944 -1556 0
-941 -1773 0
-942 -1774 0
-943 -1775 0
-944 -1776 0
-941 -2273 0
-942 -2274 0
-943 -2275 0
-944 -2276 0
-941 -2413 0
-942 -2414 0
-943 -2415 0
-944 -2416 0
-941 -2541 0
-942 -2542 0
-943 -2543 0
-944 -2544 0
-949 -953 0
-950 -954 0
-951 -955 0
-952 -956 0
-949 -957 0
-950 -958 0
-951 -959 0
-952 -960 0
-949 -1289 0
-950 -1290 0
-951 -1291 0
-952 -1292 0
-949 -2237 0
-950 -2238 0
-951 -2239 0
-952 -2240 0
-949 -2469 0
-950 -2470 0
-951 -2471 0
-952 -2472 0
-953 -961 0
-954 -962 0
-955 -963 0
-956 -964 0
-953 -1029 0
-954 -1030 0
-955 -1031 0
-956 -1032 0
-953 -1805 0
-954 -1806 0
-955 -1807 0
-956 -1808 0
-953 -2241 0
-954 -2242 0
-955 -2243 0
-956 -2244 0
-953 -2473 0
-954 -2474 0
-955 -2475 0
-956 -2476 0
-957 -961 0
-958 -962 0
-959 -963 0
-960 -964 0
-957 -969 0
-958 -970 0
-959 -971 0
-960 -972 0
-957 -1033 0
-958 -1034 0
-959 -1035 0
-960 -1036 0
-957 -1041 0
-958 -1042 0
-959 -1043 0
-960 -1044 0
-957 -1305 0
-958 -1306 0
-959 -1307 0
-960 -1308 0
-957 -1557 0
-958 -1558 0
-959 -1559 0
-960 -1560 0
-957 -1829 0
-958 -1830 0
-959 -1831 0
-960 -1832 0
-957 -2273 0
-958 -2274 0
-959 -2275 0
-960 -2276 0
-957 -2421 0
-958 -2422 0
-959 -2423 0
-960 -2424 0
-957 -2429 0
-958 -2430 0
-959 -2431 0
-960 -2432 0
-957 -2469 0
-958 -2470 0
-959 -2471 0
-960 -2472 0
-961 -965 0
-962 -966 0
-963 -967 0
-964 -968 0
-961 -969 0
-962 -970 0
-963 -971 0
-964 -972 0
-961 -1037 0
-962 -1038 0
-963 -1039 0
-964 -1040 0
-961 -1173 0
-962 -1174 0
-963 -1175 0
-964 -1176 0
-961 -1561 0
-962 -1562 0
-963 -1563 0
-964 -1564 0
-961 -1681 0
-962 -1682 0
-963 -1683 0
-964 -1684 0
-961 -2277 0
-962 -2278 0
-963 -2279 0
-964 -2280 0
-961 -2473 0
-962 -2474 0
-963 -2475 0
-964 -2476 0
-965 -1189 0
-966 -1190 0
-967 -1191 0
-968 -1192 0
-965 -1261 0
-966 -1262 0
-967 -1263 0
-968 -1264 0
-965 -1813 0
-966 -1814 0
-967 -1815 0
-968 -1816 0
-969 -1093 0
-970 -1094 0
-971 -1095 0
-972 -1096 0
-969 -1353 0
-970 -1354 0
-971 -1355 0
-972 -1356 0
-969 -2325 0
-970 -2326 0
-971 -2327 0
-972 -2328 0
-973 -977 0
-974 -978 0
-975 -979 0
-976 -980 0
-973 -1333 0
-974 -1334 0
-975 -1335 0
-976 -1336 0
-973 -1633 0
-974 -1634 0
-975 -1635 0
-976 -1636 0
-973 -1969 0
-974 -1970 0
-975 -1971 0
-976 -1972 0
-973 -2549 0
-974 -2550 0
-975 -2551 0
-976 -2552 0
-973 -2553 0
-974 -2554 0
-975 -2555 0
-976 -2556 0
-973 -2669 0
-974 -2670 0
-975 -2671 0
-976 -2672 0
-977 -981 0
-978 -982 0
-979 -983 0
-980 -984 0
-977 -1401 0
-978 -1402 0
-979 -1403 0
-980 -1404 0
-977 -1653 0
-978 -1654 0
-979 -1655 0
-980 -1656 0
-977 -1973 0
-978 -1974 0
-979 -1975 0
-980 -1976 0
-977 -2349 0
-978 -2350 0
-979 -2351 0
-980 -2352 0
-981 -1253 0
-982 -1254 0
-983 -1255 0
-984 -1256 0
-981 -1669 0
-982 -1670 0
-983 -1671 0
-984 -1672 0
-981 -2357 0
-982 -2358 0
-983 -2359 0
-984 -2360 0
-985 -989 0
-986 -990 0
-987 -991 0
-988 -992 0
-985 -1009 0
-986 -1010 0
-987 -1011 0
-988 -1012 0
-985 -1861 0
-986 -1862 0
-987 -1863 0
-988 -1864 0
-985 -1981 0
-986 -1982 0
-987 -1983 0
-988 -1984 0
-985 -2481 0
-986 -2482 0
-987 -2483 0
-988 -2484 0
-989 -1017 0
-990 -1018 0
-991 -1019 0
-992 -1020 0
-989 -1577 0
-990 -1578 0
-991 -1579 0
-992 -1580 0
-989 -1985 0
-990 -1986 0
-991 -1987 0
-992 -1988 0
-989 -2497 0
-990 -2498 0
-991 -2499 0
-992 -2500 0
-989 -2505 0
-990 -2506 0
-991 -2507 0
-992 -2508 0
-993 -997 0
-994 -998 0
-995 -999 0
-996 -1000 0
-993 -1001 0
-994 -1002 0
-995 -1003 0
-996 -1004 0
-993 -1029 0
-994 -1030 0
-995 -1031 0
-996 -1032 0
-993 -1113 0
-994 -1114 0
-995 -1115 0
-996 -1116 0
-993 -1601 0
-994 -1602 0
-995 -1603 0
-996 -1604 0
-993 -2509 0
-994 -2510 0
-995 -2511 0
-996 -2512 0
-997 -1005 0
-998 -1006 0
-999 -1007 0
-1000 -1008 0
-997 -1029 0
-998 -1030 0
-999 -1031 0
-1000 -1032 0
-997 -2513 0
-998 -2514 0
-999 -2515 0
-1000 -2516 0
-1001 -1005 0
-1002 -1006 0
-1003 -1007 0
-1004 -1008 0
-1001 -1009 0
-1002 -1010 0
-1003 -1011 0
-1004 -1012 0
-1001 -1037 0
-1002 -1038 0
-1003 -1039 0
-1004 -1040 0
-1001 -1121 0
-1002 -1122 0
-1003 -1123 0
-1004 -1124 0
-1001 -1429 0
-1002 -1430 0
-1003 -1431 0
-1004 -1432 0
-1001 -1617 0
-1002 -1618 0
-1003 -1619 0
-1004 -1620 0
-1001 -2509 0
-1002 -2510 0
-1003 -2511 0
-1004 -2512 0
-1001 -2517 0
-1002 -2518 0
-1003 -2519 0
-1004 -2520 0
-1005 -1013 0
-1006 -1014 0
-1007 -1015 0
-1008 -1016 0
-1005 -1037 0
-1006 -1038 0
-1007 -1039 0
-1008 -1040 0
-1005 -1269 0
-1006 -1270 0
-1007 -1271 0
-1008 -1272 0
-1005 -2513 0
-1006 -2514 0
-1007 -2515 0
-1008 -2516 0
-1009 -1013 0
-1010 -1014 0
-1011 -1015 0
-1012 -1016 0
-1009 -1017 0
-1010 -1018 0
-1011 -1019 0
-1012 -1020 0
-1009 -1045 0
-1010 -1046 0
-1011 -1047 0
-1012 -1048 0
-1009 -1125 0
-1010 -1126 0
-1011 -1127 0
-1012 -1128 0
-1009 -1697 0
-1010 -1698 0
-1011 -1699 0
-1012 -1700 0
-1009 -2521 0
-1010 -2522 0
-1011 -2523 0
-1012 -2524 0
-1009 -2533 0
-1010 -2534 0
-1011 -2535 0
-1012 -2536 0
-1013 -1045 0
-1014 -1046 0
-1015 -1047 0
-1016 -1048 0
-1013 -1277 0
-1014 -1278 0
-1015 -1279 0
-1016 -1280 0
-1013 -1641 0
-1014 -1642 0
-1015 -1643 0
-1016 -1644 0
-1013 -2529 0
-1014 -2530 0
-1015 -2531 0
-1016 -2532 0
-1017 -1661 0
-1018 -1662 0
-1019 -1663 0
-1020 -1664 0
-1017 -2373 0
-1018 -2374 0
-1019 -2375 0
-1020 -2376 0
-1017 -2537 0
-1018 -2538 0
-1019 -2539 0
-1020 -2540 0
-1017 -2541 0
-1018 -2542 0
-1019 -2543 0
-1020 -2544 0
-1021 -1025 0
-1022 -1026 0
-1023 -1027 0
-1024 -1028 0
-1021 -1033 0
-1022 -1034 0
-1023 -1035 0
-1024 -1036 0
-1021 -1037 0
-1022 -1038 0
-1023 -1039 0
-1024 -1040 0
-1021 -1285 0
-1022 -1286 0
-1023 -1287 0
-1024 -1288 0
-1021 -2021 0
-1022 -2022 0
-1023 -2023 0
-1024 -2024 0
-1021 -2477 0
-1022 -2478 0
-1023 -2479 0
-1024 -2480 0
-1025 -1041 0
-1026 -1042 0
-1027 -1043 0
-1028 -1044 0
-1025 -1289 0
-1026 -1290 0
-1027 -1291 0
-1028 -1292 0
-1025 -1677 0
-1026 -1678 0
-1027 -1679 0
-1028 -1680 0
-1025 -1885 0
-1026 -1886 0
-1027 -1887 0
-1028 -1888 0
-1029 -1037 0
-1030 -1038 0
-1031 -1039 0
-1032 -1040 0
-1029 -2037 0
-1030 -2038 0
-1031 -2039 0
-1032 -2040 0
-1029 -2549 0
-1030 -2550 0
-1031 -2551 0
-1032 -2552 0
-1033 -1037 0
-1034 -1038 0
-1035 -1039 0
-1036 -1040 0
-1033 -1041 0
-1034 -1042 0
-1035 -1043 0
-1036 -1044 0
-1033 -1161 0
-1034 -1162 0
-1035 -1163 0
-1036 -1164 0
-1033 -1433 0
-1034 -1434 0
-1035 -1435 0
-1036 -1436 0
-1033 -2041 0
-1034 -2042 0
-1035 -2043 0
-1036 -2044 0
-1033 -2401 0
-1034 -2402 0
-1035 -2403 0
-1036 -2404 0
-1033 -2485 0
-1034 -2486 0
-1035 -2487 0
-1036 -2488 0
-1033 -2545 0
-1034 -2546 0
-1035 -2547 0
-1036 -2548 0
-1037 -1045 0
-1038 -1046 0
-1039 -1047 0
-1040 -1048 0
-1037 -1329 0
-1038 -1330 0
-1039 -1331 0
-1040 -1332 0
-1037 -2045 0
-1038 -2046 0
-1039 -2047 0
-1040 -2048 0
-1037 -2489 0
-1038 -2490 0
-1039 -2491 0
-1040 -2492 0
-1037 -2549 0
-1038 -2550 0
-1039 -2551 0
-1040 -2552 0
-1041 -1193 0
-1042 -1194 0
-1043 -1195 0
-1044 -1196 0
-1041 -1689 0
-1042 -1690 0
-1043 -1691 0
-1044 -1692 0
-1041 -1901 0
-1042 -1902 0
-1043 -1903 0
-1044 -1904 0
-1041 -2405 0
-1042 -2406 0
-1043 -2407 0
-1044 -2408 0
-1041 -2481 0
-1042 -2482 0
-1043 -2483 0
-1044 -2484 0
-1041 -2497 0
-1042 -2498 0
-1043 -2499 0
-1044 -2500 0
-1045 -1189 0
-1046 -1190 0
-1047 -1191 0
-1048 -1192 0
-1045 -1365 0
-1046 -1366 0
-1047 -1367 0
-1048 -1368 0
-1045 -2057 0
-1046 -2058 0
-1047 -2059 0
-1048 -2060 0
-1045 -2553 0
-1046 -2554 0
-1047 -2555 0
-1048 -2556 0
-1053 -1057 0
-1054 -1058 0
-1055 -1059 0
-1056 -1060 0
-1053 -1061 0
-1054 -1062 0
-1055 -1063 0
-1056 -1064 0
-1053 -1065 0
-1054 -1066 0
-1055 -1067 0
-1056 -1068 0
-1053 -1113 0
-1054 -1114 0
-1055 -1115 0
-1056 -1116 0
-1053 -1117 0
-1054 -1118 0
-1055 -1119 0
-1056 -1120 0
-1053 -2557 0
-1054 -2558 0
-1055 -2559 0
-1056 -2560 0
-1053 -2685 0
-1054 -2686 0
-1055 -2687 0
-1056 -2688 0
-1057 -1073 0
-1058 -1074 0
-1059 -1075 0
-1060 -1076 0
-1057 -1077 0
-1058 -1078 0
-1059 -1079 0
-1060 -1080 0
-1057 -1121 0
-1058 -1122 0
-1059 -1123 0
-1060 -1124 0
-1057 -1129 0
-1058 -1130 0
-1059 -1131 0
-1060 -1132 0
-1057 -1741 0
-1058 -1742 0
-1059 -1743 0
-1060 -1744 0
-1057 -1917 0
-1058 -1918 0
-1059 -1919 0
-1060 -1920 0
-1057 -2557 0
-1058 -2558 0
-1059 -2559 0
-1060 -2560 0
-1057 -2689 0
-1058 -2690 0
-1059 -2691 0
-1060 -2692 0
-1061 -1065 0
-1062 -1066 0
-1063 -1067 0
-1064 -1068 0
-1061 -1069 0
-1062 -1070 0
-1063 -1071 0
-1064 -1072 0
-1061 -1073 0
-1062 -1074 0
-1063 -1075 0
-1064 -1076 0
-1061 -1089 0
-1062 -1090 0
-1063 -1091 0
-1064 -1092 0
-1061 -1145 0
-1062 -1146 0
-1063 -1147 0
-1064 -1148 0
-1061 -1329 0
-1062 -1330 0
-1063 -1331 0
-1064 -1332 0
-1061 -1501 0
-1062 -1502 0
-1063 -1503 0
-1064 -1504 0
-1061 -2409 0
-1062 -2410 0
-1063 -2411 0
-1064 -2412 0
-1061 -2561 0
-1062 -2562 0
-1063 -2563 0
-1064 -2564 0
-1061 -2573 0
-1062 -2574 0
-1063 -2575 0
-1064 -2576 0
-1061 -2597 0
-1062 -2598 0
-1063 -2599 0
-1064 -2600 0
-1065 -1077 0
-1066 -1078 0
-1067 -1079 0
-1068 -1080 0
-1065 -1505 0
-1066 -1506 0
-1067 -1507 0
-1068 -1508 0
-1065 -1757 0
-1066 -1758 0
-1067 -1759 0
-1068 -1760 0
-1069 -1081 0
-1070 -1082 0
-1071 -1083 0
-1072 -1084 0
-1069 -1089 0
-1070 -1090 0
-1071 -1091 0
-1072 -1092 0
-1069 -1333 0
-1070 -1334 0
-1071 -1335 0
-1072 -1336 0
-1069 -1525 0
-1070 -1526 0
-1071 -1527 0
-1072 -1528 0
-1069 -2577 0
-1070 -2578 0
-1071 -2579 0
-1072 -2580 0
-1069 -2601 0
-1070 -2602 0
-1071 -2603 0
-1072 -2604 0
-1073 -1077 0
-1074 -1078 0
-1075 -1079 0
-1076 -1080 0
-1073 -1081 0
-1074 -1082 0
-1075 -1083 0
-1076 -1084 0
-1073 -1093 0
-1074 -1094 0
-1075 -1095 0
-1076 -1096 0
-1073 -1149 0
-1074 -1150 0
-1075 -1151 0
-1076 -1152 0
-1073 -1349 0
-1074 -1350 0
-1075 -1351 0
-1076 -1352 0
-1073 -1513 0
-1074 -1514 0
-1075 -1515 0
-1076 -1516 0
-1073 -1769 0
-1074 -1770 0
-1075 -1771 0
-1076 -1772 0
-1073 -1933 0
-1074 -1934 0
-1075 -1935 0
-1076 -1936 0
-1073 -2413 0
-1074 -2414 0
-1075 -2415 0
-1076 -2416 0
-1073 -2421 0
-1074 -2422 0
-1075 -2423 0
-1076 -2424 0
-1073 -2561 0
-1074 -2562 0
-1075 -2563 0
-1076 -2564 0
-1073 -2585 0
-1074 -2586 0
-1075 -2587 0
-1076 -2588 0
-1073 -2605 0
-1074 -2606 0
-1075 -2607 0
-1076 -2608 0
-1077 -1517 0
-1078 -1518 0
-1079 -1519 0
-1080 -1520 0
-1077 -1773 0
-1078 -1774 0
-1079 -1775 0
-1080 -1776 0
-1081 -1093 0
-1082 -1094 0
-1083 -1095 0
-1084 -1096 0
-1081 -1153 0
-1082 -1154 0
-1083 -1155 0
-1084 -1156 0
-1081 -1277 0
-1082 -1278 0
-1083 -1279 0
-1084 -1280 0
-1081 -1533 0
-1082 -1534 0
-1083 -1535 0
-1084 -1536 0
-1081 -1785 0
-1082 -1786 0
-1083 -1787 0
-1084 -1788 0
-1081 -2589 0
-1082 -2590 0
-1083 -2591 0
-1084 -2592 0
-1081 -2609 0
-1082 -2610 0
-1083 -2611 0
-1084 -2612 0
-1089 -1093 0
-1090 -1094 0
-1091 -1095 0
-1092 -1096 0
-1089 -1213 0
-1090 -1214 0
-1091 -1215 0
-1092 -1216 0
-1089 -1509 0
-1090 -1510 0
-1091 -1511 0
-1092 -1512 0
-1089 -2117 0
-1090 -2118 0
-1091 -2119 0
-1092 -2120 0
-1089 -2657 0
-1090 -2658 0
-1091 -2659 0
-1092 -2660 0
-1093 -1221 0
-1094 -1222 0
-1095 -1223 0
-1096 -1224 0
-1093 -1261 0
-1094 -1262 0
-1095 -1263 0
-1096 -1264 0
-1093 -1365 0
-1094 -1366 0
-1095 -1367 0
-1096 -1368 0
-1093 -1521 0
-1094 -1522 0
-1095 -1523 0
-1096 -1524 0
-1093 -1725 0
-1094 -1726 0
-1095 -1727 0
-1096 -1728 0
-1093 -1833 0
-1094 -1834 0
-1095 -1835 0
-1096 -1836 0
-1093 -2125 0
-1094 -2126 0
-1095 -2127 0
-1096 -2128 0
-1093 -2661 0
-1094 -2662 0
-1095 -2663 0
-1096 -2664 0
-1097 -1229 0
-1098 -1230 0
-1099 -1231 0
-1100 -1232 0
-1097 -1233 0
-1098 -1234 0
-1099 -1235 0
-1100 -1236 0
-1097 -1377 0
-1098 -1378 0
-1099 -1379 0
-1100 -1380 0
-1097 -1737 0
-1098 -1738 0
-1099 -1739 0
-1100 -1740 0
-1097 -1973 0
-1098 -1974 0
-1099 -1975 0
-1100 -1976 0
-1097 -2129 0
-1098 -2130 0
-1099 -2131 0
-1100 -2132 0
-1097 -2465 0
-1098 -2466 0
-1099 -2467 0
-1100 -2468 0
-1097 -2557 0
-1098 -2558 0
-1099 -2559 0
-1100 -2560 0
-1097 -2705 0
-1098 -2706 0
-1099 -2707 0
-1100 -2708 0
-1101 -1105 0
-1102 -1106 0
-1103 -1107 0
-1104 -1108 0
-1101 -1157 0
-1102 -1158 0
-1103 -1159 0
-1104 -1160 0
-1101 -1557 0
-1102 -1558 0
-1103 -1559 0
-1104 -1560 0
-1101 -2573 0
-1102 -2574 0
-1103 -2575 0
-1104 -2576 0
-1101 -2585 0
-1102 -2586 0
-1103 -2587 0
-1104 -2588 0
-1105 -1109 0
-1106 -1110 0
-1107 -1111 0
-1108 -1112 0
-1105 -1133 0
-1106 -1134 0
-1107 -1135 0
-1108 -1136 0
-1105 -1137 0
-1106 -1138 0
-1107 -1139 0
-1108 -1140 0
-1105 -1157 0
-1106 -1158 0
-1107 -1159 0
-1108 -1160 0
-1105 -1541 0
-1106 -1542 0
-1107 -1543 0
-1108 -1544 0
-1105 -2577 0
-1106 -2578 0
-1107 -2579 0
-1108 -2580 0
-1105 -2589 0
-1106 -2590 0
-1107 -2591 0
-1108 -2592 0
-1109 -1725 0
-1110 -1726 0
-1111 -1727 0
-1112 -1728 0
-1109 -2601 0
-1110 -2602 0
-1111 -2603 0
-1112 -2604 0
-1109 -2609 0
-1110 -2610 0
-1111 -2611 0
-1112 -2612 0
-1113 -1117 0
-1114 -1118 0
-1115 -1119 0
-1116 -1120 0
-1113 -1121 0
-1114 -1122 0
-1115 -1123 0
-1116 -1124 0
-1113 -1601 0
-1114 -1602 0
-1115 -1603 0
-1116 -1604 0
-1113 -2133 0
-1114 -2134 0
-1115 -2135 0
-1116 -2136 0
-1113 -2613 0
-1114 -2614 0
-1115 -2615 0
-1116 -2616 0
-1113 -2713 0
-1114 -2714 0
-1115 -2715 0
-1116 -2716 0
-1117 -1129 0
-1118 -1130 0
-1119 -1131 0
-1120 -1132 0
-1117 -1145 0
-1118 -1146 0
-1119 -1147 0
-1120 -1148 0
-1117 -2621 0
-1118 -2622 0
-1119 -2623 0
-1120 -2624 0
-1121 -1129 0
-1122 -1130 0
-1123 -1131 0
-1124 -1132 0
-1121 -1137 0
-1122 -1138 0
-1123 -1139 0
-1124 -1140 0
-1121 -1617 0
-1122 -1618 0
-1123 -1619 0
-1124 -1620 0
-1121 -2137 0
-1122 -2138 0
-1123 -2139 0
-1124 -2140 0
-1121 -2613 0
-1122 -2614 0
-1123 -2615 0
-1124 -2616 0
-1121 -2625 0
-1122 -2626 0
-1123 -2627 0
-1124 -2628 0
-1121 -2721 0
-1122 -2722 0
-1123 -2723 0
-1124 -2724 0
-1125 -1129 0
-1126 -1130 0
-1127 -1131 0
-1128 -1132 0
-1125 -1173 0
-1126 -1174 0
-1127 -1175 0
-1128 -1176 0
-1125 -1189 0
-1126 -1190 0
-1127 -1191 0
-1128 -1192 0
-1125 -1865 0
-1126 -1866 0
-1127 -1867 0
-1128 -1868 0
-1129 -1141 0
-1130 -1142 0
-1131 -1143 0
-1132 -1144 0
-1129 -1149 0
-1130 -1150 0
-1131 -1151 0
-1132 -1152 0
-1129 -1181 0
-1130 -1182 0
-1131 -1183 0
-1132 -1184 0
-1129 -1197 0
-1130 -1198 0
-1131 -1199 0
-1132 -1200 0
-1129 -1541 0
-1130 -1542 0
-1131 -1543 0
-1132 -1544 0
-1129 -2001 0
-1130 -2002 0
-1131 -2003 0
-1132 -2004 0
-1129 -2621 0
-1130 -2622 0
-1131 -2623 0
-1132 -2624 0
-1133 -1137 0
-1134 -1138 0
-1135 -1139 0
-1136 -1140 0
-1133 -2629 0
-1134 -2630 0
-1135 -2631 0
-1136 -2632 0
-1133 -2645 0
-1134 -2646 0
-1135 -2647 0
-1136 -2648 0
-1137 -1141 0
-1138 -1142 0
-1139 -1143 0
-1140 -1144 0
-1137 -1621 0
-1138 -1622 0
-1139 -1623 0
-1140 -1624 0
-1137 -2145 0
-1138 -2146 0
-1139 -2147 0
-1140 -2148 0
-1137 -2477 0
-1138 -2478 0
-1139 -2479 0
-1140 -2480 0
-1137 -2633 0
-1138 -2634 0
-1139 -2635 0
-1140 -2636 0
-1137 -2649 0
-1138 -2650 0
-1139 -2651 0
-1140 -2652 0
-1141 -1457 0
-1142 -1458 0
-1143 -1459 0
-1144 -1460 0
-1141 -1629 0
-1142 -1630 0
-1143 -1631 0
-1144 -1632 0
-1141 -1773 0
-1142 -1774 0
-1143 -1775 0
-1144 -1776 0
-1141 -2641 0
-1142 -2642 0
-1143 -2643 0
-1144 -2644 0
-1145 -1149 0
-1146 -1150 0
-1147 -1151 0
-1148 -1152 0
-1145 -1213 0
-1146 -1214 0
-1147 -1215 0
-1148 -1216 0
-1145 -1473 0
-1146 -1474 0
-1147 -1475 0
-1148 -1476 0
-1145 -1793 0
-1146 -1794 0
-1147 -1795 0
-1148 -1796 0
-1145 -1993 0
-1146 -1994 0
-1147 -1995 0
-1148 -1996 0
-1145 -2149 0
-1146 -2150 0
-1147 -2151 0
-1148 -2152 0
-1145 -2653 0
-1146 -2654 0
-1147 -2655 0
-1148 -2656 0
-1149 -1153 0
-1150 -1154 0
-1151 -1155 0
-1152 -1156 0
-1149 -1221 0
-1150 -1222 0
-1151 -1223 0
-1152 -1224 0
-1149 -1545 0
-1150 -1546 0
-1151 -1547 0
-1152 -1548 0
-1149 -1797 0
-1150 -1798 0
-1151 -1799 0
-1152 -1800 0
-1149 -2157 0
-1150 -2158 0
-1151 -2159 0
-1152 -2160 0
-1149 -2481 0
-1150 -2482 0
-1151 -2483 0
-1152 -2484 0
-1149 -2653 0
-1150 -2654 0
-1151 -2655 0
-1152 -2656 0
-1153 -1221 0
-1154 -1222 0
-1155 -1223 0
-1156 -1224 0
-1153 -1673 0
-1154 -1674 0
-1155 -1675 0
-1156 -1676 0
-1153 -2005 0
-1154 -2006 0
-1155 -2007 0
-1156 -2008 0
-1153 -2161 0
-1154 -2162 0
-1155 -2163 0
-1156 -2164 0
-1157 -1569 0
-1158 -1570 0
-1159 -1571 0
-1160 -1572 0
-1157 -2489 0
-1158 -2490 0
-1159 -2491 0
-1160 -2492 0
-1157 -2657 0
-1158 -2658 0
-1159 -2659 0
-1160 -2660 0
-1157 -2661 0
-1158 -2662 0
-1159 -2663 0
-1160 -2664 0
-1161 -1165 0
-1162 -1166 0
-1163 -1167 0
-1164 -1168 0
-1161 -1169 0
-1162 -1170 0
-1163 -1171 0
-1164 -1172 0
-1161 -1185 0
-1162 -1186 0
-1163 -1187 0
-1164 -1188 0
-1161 -1229 0
-1162 -1230 0
-1163 -1231 0
-1164 -1232 0
-1161 -1809 0
-1162 -1810 0
-1163 -1811 0
-1164 -1812 0
-1161 -2173 0
-1162 -2174 0
-1163 -2175 0
-1164 -2176 0
-1161 -2513 0
-1162 -2514 0
-1163 -2515 0
-1164 -2516 0
-1161 -2577 0
-1162 -2578 0
-1163 -2579 0
-1164 -2580 0
-1165 -1201 0
-1166 -1202 0
-1167 -1203 0
-1168 -1204 0
-1165 -1237 0
-1166 -1238 0
-1167 -1239 0
-1168 -1240 0
-1165 -1429 0
-1166 -1430 0
-1167 -1431 0
-1168 -1432 0
-1165 -1813 0
-1166 -1814 0
-1167 -1815 0
-1168 -1816 0
-1165 -2589 0
-1166 -2590 0
-1167 -2591 0
-1168 -2592 0
-1169 -1437 0
-1170 -1438 0
-1171 -1439 0
-1172 -1440 0
-1169 -1593 0
-1170 -1594 0
-1171 -1595 0
-1172 -1596 0
-1169 -2577 0
-1170 -2578 0
-1171 -2579 0
-1172 -2580 0
-1173 -1181 0
-1174 -1182 0
-1175 -1183 0
-1176 -1184 0
-1173 -1189 0
-1174 -1190 0
-1175 -1191 0
-1176 -1192 0
-1173 -1561 0
-1174 -1562 0
-1175 -1563 0
-1176 -1564 0
-1173 -1877 0
-1174 -1878 0
-1175 -1879 0
-1176 -1880 0
-1177 -1181 0
-1178 -1182 0
-1179 -1183 0
-1180 -1184 0
-1177 -1193 0
-1178 -1194 0
-1179 -1195 0
-1180 -1196 0
-1177 -1289 0
-1178 -1290 0
-1179 -1291 0
-1180 -1292 0
-1177 -1565 0
-1178 -1566 0
-1179 -1567 0
-1180 -1568 0
-1177 -2085 0
-1178 -2086 0
-1179 -2087 0
-1180 -2088 0
-1177 -2525 0
-1178 -2526 0
-1179 -2527 0
-1180 -2528 0
-1181 -1197 0
-1182 -1198 0
-1183 -1199 0
-1184 -1200 0
-1181 -1569 0
-1182 -1570 0
-1183 -1571 0
-1184 -1572 0
-1181 -2089 0
-1182 -2090 0
-1183 -2091 0
-1184 -2092 0
-1185 -1189 0
-1186 -1190 0
-1187 -1191 0
-1188 -1192 0
-1185 -1193 0
-1186 -1194 0
-1187 -1195 0
-1188 -1196 0
-1185 -1201 0
-1186 -1202 0
-1187 -1203 0
-1188 -1204 0
-1185 -1217 0
-1186 -1218 0
-1187 -1219 0
-1188 -1220 0
-1185 -1241 0
-1186 -1242 0
-1187 -1243 0
-1188 -1244 0
-1185 -1501 0
-1186 -1502 0
-1187 -1503 0
-1188 -1504 0
-1185 -1817 0
-1186 -1818 0
-1187 -1819 0
-1188 -1820 0
-1185 -1881 0
-1186 -1882 0
-1187 -1883 0
-1188 -1884 0
-1185 -2017 0
-1186 -2018 0
-1187 -2019 0
-1188 -2020 0
-1185 -2529 0
-1186 -2530 0
-1187 -2531 0
-1188 -2532 0
-1185 -2601 0
-1186 -2602 0
-1187 -2603 0
-1188 -2604 0
-1189 -1197 0
-1190 -1198 0
-1191 -1199 0
-1192 -1200 0
-1189 -1205 0
-1190 -1206 0
-1191 -1207 0
-1192 -1208 0
-1189 -1217 0
-1190 -1218 0
-1191 -1219 0
-1192 -1220 0
-1189 -1505 0
-1190 -1506 0
-1191 -1507 0
-1192 -1508 0
-1189 -1885 0
-1190 -1886 0
-1191 -1887 0
-1192 -1888 0
-1189 -2057 0
-1190 -2058 0
-1191 -2059 0
-1192 -2060 0
-1189 -2741 0
-1190 -2742 0
-1191 -2743 0
-1192 -2744 0
-1193 -1197 0
-1194 -1198 0
-1195 -1199 0
-1196 -1200 0
-1193 -1221 0
-1194 -1222 0
-1195 -1223 0
-1196 -1224 0
-1193 -1241 0
-1194 -1242 0
-1195 -1243 0
-1196 -1244 0
-1193 -1297 0
-1194 -1298 0
-1195 -1299 0
-1196 -1300 0
-1193 -1689 0
-1194 -1690 0
-1195 -1691 0
-1196 -1692 0
-1193 -2197 0
-1194 -2198 0
-1195 -2199 0
-1196 -2200 0
-1197 -1221 0
-1198 -1222 0
-1199 -1223 0
-1200 -1224 0
-1197 -1509 0
-1198 -1510 0
-1199 -1511 0
-1200 -1512 0
-1197 -2061 0
-1198 -2062 0
-1199 -2063 0
-1200 -2064 0
-1197 -2201 0
-1198 -2202 0
-1199 -2203 0
-1200 -2204 0
-1197 -2665 0
-1198 -2666 0
-1199 -2667 0
-1200 -2668 0
-1201 -1205 0
-1202 -1206 0
-1203 -1207 0
-1204 -1208 0
-1201 -1225 0
-1202 -1226 0
-1203 -1227 0
-1204 -1228 0
-1201 -1513 0
-1202 -1514 0
-1203 -1515 0
-1204 -1516 0
-1201 -1893 0
-1202 -1894 0
-1203 -1895 0
-1204 -1896 0
-1201 -2021 0
-1202 -2022 0
-1203 -2023 0
-1204 -2024 0
-1201 -2609 0
-1202 -2610 0
-1203 -2611 0
-1204 -2612 0
-1205 -1225 0
-1206 -1226 0
-1207 -1227 0
-1208 -1228 0
-1205 -1517 0
-1206 -1518 0
-1207 -1519 0
-1208 -1520 0
-1205 -1897 0
-1206 -1898 0
-1207 -1899 0
-1208 -1900 0
-1213 -1221 0
-1214 -1222 0
-1215 -1223 0
-1216 -1224 0
-1213 -2085 0
-1214 -2086 0
-1215 -2087 0
-1216 -2088 0
-1213 -2237 0
-1214 -2238 0
-1215 -2239 0
-1216 -2240 0
-1213 -2669 0
-1214 -2670 0
-1215 -2671 0
-1216 -2672 0
-1217 -1221 0
-1218 -1222 0
-1219 -1223 0
-1220 -1224 0
-1217 -1225 0
-1218 -1226 0
-1219 -1227 0
-1220 -1228 0
-1217 -1253 0
-1218 -1254 0
-1219 -1255 0
-1220 -1256 0
-1217 -1645 0
-1218 -1646 0
-1219 -1647 0
-1220 -1648 0
-1217 -1901 0
-1218 -1902 0
-1219 -1903 0
-1220 -1904 0
-1217 -2037 0
-1218 -2038 0
-1219 -2039 0
-1220 -2040 0
-1217 -2097 0
-1218 -2098 0
-1219 -2099 0
-1220 -2100 0
-1217 -2265 0
-1218 -2266 0
-1219 -2267 0
-1220 -2268 0
-1221 -1253 0
-1222 -1254 0
-1223 -1255 0
-1224 -1256 0
-1221 -1345 0
-1222 -1346 0
-1223 -1347 0
-1224 -1348 0
-1221 -1581 0
-1222 -1582 0
-1223 -1583 0
-1224 -1584 0
-1221 -1861 0
-1222 -1862 0
-1223 -1863 0
-1224 -1864 0
-1221 -2101 0
-1222 -2102 0
-1223 -2103 0
-1224 -2104 0
-1221 -2273 0
-1222 -2274 0
-1223 -2275 0
-1224 -2276 0
-1221 -2669 0
-1222 -2670 0
-1223 -2671 0
-1224 -2672 0
-1225 -1905 0
-1226 -1906 0
-1227 -1907 0
-1228 -1908 0
-1225 -2045 0
-1226 -2046 0
-1227 -2047 0
-1228 -2048 0
-1229 -1233 0
-1230 -1234 0
-1231 -1235 0
-1232 -1236 0
-1229 -1237 0
-1230 -1238 0
-1231 -1239 0
-1232 -1240 0
-1229 -1241 0
-1230 -1242 0
-1231 -1243 0
-1232 -1244 0
-1229 -1245 0
-1230 -1246 0
-1231 -1247 0
-1232 -1248 0
-1229 -2273 0
-1230 -2274 0
-1231 -2275 0
-1232 -2276 0
-1229 -2613 0
-1230 -2614 0
-1231 -2615 0
-1232 -2616 0
-1229 -2633 0
-1230 -2634 0
-1231 -2635 0
-1232 -2636 0
-1229 -2677 0
-1230 -2678 0
-1231 -2679 0
-1232 -2680 0
-1229 -2753 0
-1230 -2754 0
-1231 -2755 0
-1232 -2756 0
-1233 -1593 0
-1234 -1594 0
-1235 -1595 0
-1236 -1596 0
-1233 -1865 0
-1234 -1866 0
-1235 -1867 0
-1236 -1868 0
-1233 -2289 0
-1234 -2290 0
-1235 -2291 0
-1236 -2292 0
-1233 -2621 0
-1234 -2622 0
-1235 -2623 0
-1236 -2624 0
-1233 -2641 0
-1234 -2642 0
-1235 -2643 0
-1236 -2644 0
-1237 -2293 0
-1238 -2294 0
-1239 -2295 0
-1240 -2296 0
-1237 -2625 0
-1238 -2626 0
-1239 -2627 0
-1240 -2628 0
-1237 -2649 0
-1238 -2650 0
-1239 -2651 0
-1240 -2652 0
-1241 -1253 0
-1242 -1254 0
-1243 -1255 0
-1244 -1256 0
-1241 -1381 0
-1242 -1382 0
-1243 -1383 0
-1244 -1384 0
-1241 -1621 0
-1242 -1622 0
-1243 -1623 0
-1244 -1624 0
-1241 -2053 0
-1242 -2054 0
-1243 -2055 0
-1244 -2056 0
-1241 -2309 0
-1242 -2310 0
-1243 -2311 0
-1244 -2312 0
-1241 -2677 0
-1242 -2678 0
-1243 -2679 0
-1244 -2680 0
-1245 -1253 0
-1246 -1254 0
-1247 -1255 0
-1248 -1256 0
-1245 -1693 0
-1246 -1694 0
-1247 -1695 0
-1248 -1696 0
-1245 -2325 0
-1246 -2326 0
-1247 -2327 0
-1248 -2328 0
-1245 -2549 0
-1246 -2550 0
-1247 -2551 0
-1248 -2552 0
-1253 -1393 0
-1254 -1394 0
-1255 -1395 0
-1256 -1396 0
-1253 -1669 0
-1254 -1670 0
-1255 -1671 0
-1256 -1672 0
-1253 -2089 0
-1254 -2090 0
-1255 -2091 0
-1256 -2092 0
-1253 -2337 0
-1254 -2338 0
-1255 -2339 0
-1256 -2340 0
-1253 -2553 0
-1254 -2554 0
-1255 -2555 0
-1256 -2556 0
-1261 -1333 0
-1262 -1334 0
-1263 -1335 0
-1264 -1336 0
-1261 -1345 0
-1262 -1346 0
-1263 -1347 0
-1264 -1348 0
-1261 -1505 0
-1262 -1506 0
-1263 -1507 0
-1264 -1508 0
-1261 -1949 0
-1262 -1950 0
-1263 -1951 0
-1264 -1952 0
-1261 -2125 0
-1262 -2126 0
-1263 -2127 0
-1264 -2128 0
-1261 -2697 0
-1262 -2698 0
-1263 -2699 0
-1264 -2700 0
-1265 -1569 0
-1266 -1570 0
-1267 -1571 0
-1268 -1572 0
-1265 -1713 0
-1266 -1714 0
-1267 -1715 0
-1268 -1716 0
-1265 -2141 0
-1266 -2142 0
-1267 -2143 0
-1268 -2144 0
-1265 -2685 0
-1266 -2686 0
-1267 -2687 0
-1268 -2688 0
-1265 -2689 0
-1266 -2690 0
-1267 -2691 0
-1268 -2692 0
-1269 -1277 0
-1270 -1278 0
-1271 -1279 0
-1272 -1280 0
-1269 -1329 0
-1270 -1330 0
-1271 -1331 0
-1272 -1332 0
-1269 -1333 0
-1270 -1334 0
-1271 -1335 0
-1272 -1336 0
-1269 -1765 0
-1270 -1766 0
-1271 -1767 0
-1272 -1768 0
-1269 -1917 0
-1270 -1918 0
-1271 -1919 0
-1272 -1920 0
-1269 -2717 0
-1270 -2718 0
-1271 -2719 0
-1272 -2720 0
-1277 -1281 0
-1278 -1282 0
-1279 -1283 0
-1280 -1284 0
-1277 -1365 0
-1278 -1366 0
-1279 -1367 0
-1280 -1368 0
-1277 -1641 0
-1278 -1642 0
-1279 -1643 0
-1280 -1644 0
-1277 -1997 0
-1278 -1998 0
-1279 -1999 0
-1280 -2000 0
-1277 -2133 0
-1278 -2134 0
-1279 -2135 0
-1280 -2136 0
-1277 -2693 0
-1278 -2694 0
-1279 -2695 0
-1280 -2696 0
-1277 -2717 0
-1278 -2718 0
-1279 -2719 0
-1280 -2720 0
-1281 -1373 0
-1282 -1374 0
-1283 -1375 0
-1284 -1376 0
-1281 -1669 0
-1282 -1670 0
-1283 -1671 0
-1284 -1672 0
-1281 -1933 0
-1282 -1934 0
-1283 -1935 0
-1284 -1936 0
-1281 -2141 0
-1282 -2142 0
-1283 -2143 0
-1284 -2144 0
-1281 -2601 0
-1282 -2602 0
-1283 -2603 0
-1284 -2604 0
-1285 -1289 0
-1286 -1290 0
-1287 -1291 0
-1288 -1292 0
-1285 -1301 0
-1286 -1302 0
-1287 -1303 0
-1288 -1304 0
-1285 -1313 0
-1286 -1314 0
-1287 -1315 0
-1288 -1316 0
-1285 -1329 0
-1286 -1330 0
-1287 -1331 0
-1288 -1332 0
-1285 -1425 0
-1286 -1426 0
-1287 -1427 0
-1288 -1428 0
-1285 -1805 0
-1286 -1806 0
-1287 -1807 0
-1288 -1808 0
-1285 -2221 0
-1286 -2222 0
-1287 -2223 0
-1288 -2224 0
-1285 -2421 0
-1286 -2422 0
-1287 -2423 0
-1288 -2424 0
-1285 -2613 0
-1286 -2614 0
-1287 -2615 0
-1288 -2616 0
-1285 -2777 0
-1286 -2778 0
-1287 -2779 0
-1288 -2780 0
-1289 -1297 0
-1290 -1298 0
-1291 -1299 0
-1292 -1300 0
-1289 -1305 0
-1290 -1306 0
-1291 -1307 0
-1292 -1308 0
-1289 -1317 0
-1290 -1318 0
-1291 -1319 0
-1292 -1320 0
-1289 -1337 0
-1290 -1338 0
-1291 -1339 0
-1292 -1340 0
-1289 -1377 0
-1290 -1378 0
-1291 -1379 0
-1292 -1380 0
-1289 -1405 0
-1290 -1406 0
-1291 -1407 0
-1292 -1408 0
-1289 -1425 0
-1290 -1426 0
-1291 -1427 0
-1292 -1428 0
-1289 -1677 0
-1290 -1678 0
-1291 -1679 0
-1292 -1680 0
-1289 -1705 0
-1290 -1706 0
-1291 -1707 0
-1292 -1708 0
-1289 -2237 0
-1290 -2238 0
-1291 -2239 0
-1292 -2240 0
-1289 -2621 0
-1290 -2622 0
-1291 -2623 0
-1292 -2624 0
-1289 -2685 0
-1290 -2686 0
-1291 -2687 0
-1292 -2688 0
-1297 -1309 0
-1298 -1310 0
-1299 -1311 0
-1300 -1312 0
-1297 -1341 0
-1298 -1342 0
-1299 -1343 0
-1300 -1344 0
-1297 -1345 0
-1298 -1346 0
-1299 -1347 0
-1300 -1348 0
-1297 -1381 0
-1298 -1382 0
-1299 -1383 0
-1300 -1384 0
-1297 -1405 0
-1298 -1406 0
-1299 -1407 0
-1300 -1408 0
-1297 -1941 0
-1298 -1942 0
-1299 -1943 0
-1300 -1944 0
-1297 -2197 0
-1298 -2198 0
-1299 -2199 0
-1300 -2200 0
-1301 -1305 0
-1302 -1306 0
-1303 -1307 0
-1304 -1308 0
-1301 -1321 0
-1302 -1322 0
-1303 -1323 0
-1304 -1324 0
-1301 -1349 0
-1302 -1350 0
-1303 -1351 0
-1304 -1352 0
-1301 -1433 0
-1302 -1434 0
-1303 -1435 0
-1304 -1436 0
-1301 -2257 0
-1302 -2258 0
-1303 -2259 0
-1304 -2260 0
-1301 -2625 0
-1302 -2626 0
-1303 -2627 0
-1304 -2628 0
-1305 -1309 0
-1306 -1310 0
-1307 -1311 0
-1308 -1312 0
-1305 -1325 0
-1306 -1326 0
-1307 -1327 0
-1308 -1328 0
-1305 -1353 0
-1306 -1354 0
-1307 -1355 0
-1308 -1356 0
-1305 -1385 0
-1306 -1386 0
-1307 -1387 0
-1308 -1388 0
-1305 -1409 0
-1306 -1410 0
-1307 -1411 0
-1308 -1412 0
-1305 -1433 0
-1306 -1434 0
-1307 -1435 0
-1308 -1436 0
-1305 -1709 0
-1306 -1710 0
-1307 -1711 0
-1308 -1712 0
-1305 -1981 0
-1306 -1982 0
-1307 -1983 0
-1308 -1984 0
-1305 -2273 0
-1306 -2274 0
-1307 -2275 0
-1308 -2276 0
-1305 -2689 0
-1306 -2690 0
-1307 -2691 0
-1308 -2692 0
-1309 -1357 0
-1310 -1358 0
-1311 -1359 0
-1312 -1360 0
-1309 -1361 0
-1310 -1362 0
-1311 -1363 0
-1312 -1364 0
-1309 -1409 0
-1310 -1410 0
-1311 -1411 0
-1312 -1412 0
-1309 -2285 0
-1310 -2286 0
-1311 -2287 0
-1312 -2288 0
-1313 -1317 0
-1314 -1318 0
-1315 -1319 0
-1316 -1320 0
-1313 -1321 0
-1314 -1322 0
-1315 -1323 0
-1316 -1324 0
-1313 -1441 0
-1314 -1442 0
-1315 -1443 0
-1316 -1444 0
-1313 -1597 0
-1314 -1598 0
-1315 -1599 0
-1316 -1600 0
-1313 -1741 0
-1314 -1742 0
-1315 -1743 0
-1316 -1744 0
-1313 -2429 0
-1314 -2430 0
-1315 -2431 0
-1316 -2432 0
-1313 -2633 0
-1314 -2634 0
-1315 -2635 0
-1316 -2636 0
-1313 -2701 0
-1314 -2702 0
-1315 -2703 0
-1316 -2704 0
-1317 -1325 0
-1318 -1326 0
-1319 -1327 0
-1320 -1328 0
-1317 -1441 0
-1318 -1442 0
-1319 -1443 0
-1320 -1444 0
-1317 -1681 0
-1318 -1682 0
-1319 -1683 0
-1320 -1684 0
-1317 -1945 0
-1318 -1946 0
-1319 -1947 0
-1320 -1948 0
-1317 -2297 0
-1318 -2298 0
-1319 -2299 0
-1320 -2300 0
-1317 -2641 0
-1318 -2642 0
-1319 -2643 0
-1320 -2644 0
-1317 -2685 0
-1318 -2686 0
-1319 -2687 0
-1320 -2688 0
-1317 -2705 0
-1318 -2706 0
-1319 -2707 0
-1320 -2708 0
-1321 -1325 0
-1322 -1326 0
-1323 -1327 0
-1324 -1328 0
-1321 -1453 0
-1322 -1454 0
-1323 -1455 0
-1324 -1456 0
-1321 -1613 0
-1322 -1614 0
-1323 -1615 0
-1324 -1616 0
-1321 -1749 0
-1322 -1750 0
-1323 -1751 0
-1324 -1752 0
-1321 -2433 0
-1322 -2434 0
-1323 -2435 0
-1324 -2436 0
-1321 -2649 0
-1322 -2650 0
-1323 -2651 0
-1324 -2652 0
-1321 -2701 0
-1322 -2702 0
-1323 -2703 0
-1324 -2704 0
-1325 -1453 0
-1326 -1454 0
-1327 -1455 0
-1328 -1456 0
-1325 -1625 0
-1326 -1626 0
-1327 -1627 0
-1328 -1628 0
-1325 -1985 0
-1326 -1986 0
-1327 -1987 0
-1328 -1988 0
-1325 -2301 0
-1326 -2302 0
-1327 -2303 0
-1328 -2304 0
-1325 -2689 0
-1326 -2690 0
-1327 -2691 0
-1328 -2692 0
-1325 -2705 0
-1326 -2706 0
-1327 -2707 0
-1328 -2708 0
-1329 -1333 0
-1330 -1334 0
-1331 -1335 0
-1332 -1336 0
-1329 -1337 0
-1330 -1338 0
-1331 -1339 0
-1332 -1340 0
-1329 -1349 0
-1330 -1350 0
-1331 -1351 0
-1332 -1352 0
-1329 -1365 0
-1330 -1366 0
-1331 -1367 0
-1332 -1368 0
-1329 -1473 0
-1330 -1474 0
-1331 -1475 0
-1332 -1476 0
-1329 -1493 0
-1330 -1494 0
-1331 -1495 0
-1332 -1496 0
-1329 -1817 0
-1330 -1818 0
-1331 -1819 0
-1332 -1820 0
-1329 -2065 0
-1330 -2066 0
-1331 -2067 0
-1332 -2068 0
-1329 -2733 0
-1330 -2734 0
-1331 -2735 0
-1332 -2736 0
-1329 -2793 0
-1330 -2794 0
-1331 -2795 0
-1332 -2796 0
-1333 -1345 0
-1334 -1346 0
-1335 -1347 0
-1336 -1348 0
-1333 -1633 0
-1334 -1634 0
-1335 -1635 0
-1336 -1636 0
-1333 -2257 0
-1334 -2258 0
-1335 -2259 0
-1336 -2260 0
-1333 -2737 0
-1334 -2738 0
-1335 -2739 0
-1336 -2740 0
-1337 -1345 0
-1338 -1346 0
-1339 -1347 0
-1340 -1348 0
-1337 -1353 0
-1338 -1354 0
-1339 -1355 0
-1340 -1356 0
-1337 -1473 0
-1338 -1474 0
-1339 -1475 0
-1340 -1476 0
-1337 -1509 0
-1338 -1510 0
-1339 -1511 0
-1340 -1512 0
-1337 -1717 0
-1338 -1718 0
-1339 -1719 0
-1340 -1720 0
-1337 -1821 0
-1338 -1822 0
-1339 -1823 0
-1340 -1824 0
-1337 -2261 0
-1338 -2262 0
-1339 -2263 0
-1340 -2264 0
-1337 -2317 0
-1338 -2318 0
-1339 -2319 0
-1340 -2320 0
-1341 -1345 0
-1342 -1346 0
-1343 -1347 0
-1344 -1348 0
-1341 -1357 0
-1342 -1358 0
-1343 -1359 0
-1344 -1360 0
-1341 -1389 0
-1342 -1390 0
-1343 -1391 0
-1344 -1392 0
-1341 -1397 0
-1342 -1398 0
-1343 -1399 0
-1344 -1400 0
-1341 -1837 0
-1342 -1838 0
-1343 -1839 0
-1344 -1840 0
-1341 -1957 0
-1342 -1958 0
-1343 -1959 0
-1344 -1960 0
-1341 -2169 0
-1342 -2170 0
-1343 -2171 0
-1344 -2172 0
-1341 -2269 0
-1342 -2270 0
-1343 -2271 0
-1344 -2272 0
-1345 -1361 0
-1346 -1362 0
-1347 -1363 0
-1348 -1364 0
-1345 -1393 0
-1346 -1394 0
-1347 -1395 0
-1348 -1396 0
-1345 -1401 0
-1346 -1402 0
-1347 -1403 0
-1348 -1404 0
-1345 -1637 0
-1346 -1638 0
-1347 -1639 0
-1348 -1640 0
-1345 -2273 0
-1346 -2274 0
-1347 -2275 0
-1348 -2276 0
-1345 -2445 0
-1346 -2446 0
-1347 -2447 0
-1348 -2448 0
-1345 -2741 0
-1346 -2742 0
-1347 -2743 0
-1348 -2744 0
-1349 -1353 0
-1350 -1354 0
-1351 -1355 0
-1352 -1356 0
-1349 -1369 0
-1350 -1370 0
-1351 -1371 0
-1352 -1372 0
-1349 -1497 0
-1350 -1498 0
-1351 -1499 0
-1352 -1500 0
-1349 -2077 0
-1350 -2078 0
-1351 -2079 0
-1352 -2080 0
-1349 -2745 0
-1350 -2746 0
-1351 -2747 0
-1352 -2748 0
-1353 -1361 0
-1354 -1362 0
-1355 -1363 0
-1356 -1364 0
-1353 -1521 0
-1354 -1522 0
-1355 -1523 0
-1356 -1524 0
-1353 -2325 0
-1354 -2326 0
-1355 -2327 0
-1356 -2328 0
-1357 -1361 0
-1358 -1362 0
-1359 -1363 0
-1360 -1364 0
-1357 -1845 0
-1358 -1846 0
-1359 -1847 0
-1360 -1848 0
-1357 -1965 0
-1358 -1966 0
-1359 -1967 0
-1360 -1968 0
-1357 -2177 0
-1358 -2178 0
-1359 -2179 0
-1360 -2180 0
-1361 -1645 0
-1362 -1646 0
-1363 -1647 0
-1364 -1648 0
-1361 -2293 0
-1362 -2294 0
-1363 -2295 0
-1364 -2296 0
-1365 -1369 0
-1366 -1370 0
-1367 -1371 0
-1368 -1372 0
-1365 -1373 0
-1366 -1374 0
-1367 -1375 0
-1368 -1376 0
-1365 -1505 0
-1366 -1506 0
-1367 -1507 0
-1368 -1508 0
-1365 -1725 0
-1366 -1726 0
-1367 -1727 0
-1368 -1728 0
-1365 -1789 0
-1366 -1790 0
-1367 -1791 0
-1368 -1792 0
-1365 -2085 0
-1366 -2086 0
-1367 -2087 0
-1368 -2088 0
-1365 -2453 0
-1366 -2454 0
-1367 -2455 0
-1368 -2456 0
-1365 -2733 0
-1366 -2734 0
-1367 -2735 0
-1368 -2736 0
-1369 -1517 0
-1370 -1518 0
-1371 -1519 0
-1372 -1520 0
-1369 -2101 0
-1370 -2102 0
-1371 -2103 0
-1372 -2104 0
-1369 -2745 0
-1370 -2746 0
-1371 -2747 0
-1372 -2748 0
-1373 -1525 0
-1374 -1526 0
-1375 -1527 0
-1376 -1528 0
-1373 -1797 0
-1374 -1798 0
-1375 -1799 0
-1376 -1800 0
-1377 -1381 0
-1378 -1382 0
-1379 -1383 0
-1380 -1384 0
-1377 -1385 0
-1378 -1386 0
-1379 -1387 0
-1380 -1388 0
-1377 -1737 0
-1378 -1738 0
-1379 -1739 0
-1380 -1740 0
-1377 -2329 0
-1378 -2330 0
-1379 -2331 0
-1380 -2332 0
-1377 -2809 0
-1378 -2810 0
-1379 -2811 0
-1380 -2812 0
-1381 -1389 0
-1382 -1390 0
-1383 -1391 0
-1384 -1392 0
-1381 -1393 0
-1382 -1394 0
-1383 -1395 0
-1384 -1396 0
-1381 -1969 0
-1382 -1970 0
-1383 -1971 0
-1384 -1972 0
-1381 -2189 0
-1382 -2190 0
-1383 -2191 0
-1384 -2192 0
-1381 -2813 0
-1382 -2814 0
-1383 -2815 0
-1384 -2816 0
-1385 -1745 0
-1386 -1746 0
-1387 -1747 0
-1388 -1748 0
-1385 -2337 0
-1386 -2338 0
-1387 -2339 0
-1388 -2340 0
-1389 -1393 0
-1390 -1394 0
-1391 -1395 0
-1392 -1396 0
-1389 -1397 0
-1390 -1398 0
-1391 -1399 0
-1392 -1400 0
-1389 -1693 0
-1390 -1694 0
-1391 -1695 0
-1392 -1696 0
-1389 -1777 0
-1390 -1778 0
-1391 -1779 0
-1392 -1780 0
-1389 -1801 0
-1390 -1802 0
-1391 -1803 0
-1392 -1804 0
-1389 -2237 0
-1390 -2238 0
-1391 -2239 0
-1392 -2240 0
-1389 -2693 0
-1390 -2694 0
-1391 -2695 0
-1392 -2696 0
-1389 -2749 0
-1390 -2750 0
-1391 -2751 0
-1392 -2752 0
-1393 -1401 0
-1394 -1402 0
-1395 -1403 0
-1396 -1404 0
-1393 -1781 0
-1394 -1782 0
-1395 -1783 0
-1396 -1784 0
-1393 -2241 0
-1394 -2242 0
-1395 -2243 0
-1396 -2244 0
-1393 -2337 0
-1394 -2338 0
-1395 -2339 0
-1396 -2340 0
-1397 -1401 0
-1398 -1402 0
-1399 -1403 0
-1400 -1404 0
-1397 -1785 0
-1398 -1786 0
-1399 -1787 0
-1400 -1788 0
-1397 -1997 0
-1398 -1998 0
-1399 -1999 0
-1400 -2000 0
-1397 -2245 0
-1398 -2246 0
-1399 -2247 0
-1400 -2248 0
-1397 -2753 0
-1398 -2754 0
-1399 -2755 0
-1400 -2756 0
-1401 -1857 0
-1402 -1858 0
-1403 -1859 0
-1404 -1860 0
-1401 -2001 0
-1402 -2002 0
-1403 -2003 0
-1404 -2004 0
-1401 -2341 0
-1402 -2342 0
-1403 -2343 0
-1404 -2344 0
-1401 -2465 0
-1402 -2466 0
-1403 -2467 0
-1404 -2468 0
-1401 -2665 0
-1402 -2666 0
-1403 -2667 0
-1404 -2668 0
-1405 -1409 0
-1406 -1410 0
-1407 -1411 0
-1408 -1412 0
-1405 -2017 0
-1406 -2018 0
-1407 -2019 0
-1408 -2020 0
-1405 -2349 0
-1406 -2350 0
-1407 -2351 0
-1408 -2352 0
-1405 -2665 0
-1406 -2666 0
-1407 -2667 0
-1408 -2668 0
-1409 -2021 0
-1410 -2022 0
-1411 -2023 0
-1412 -2024 0
-1409 -2357 0
-1410 -2358 0
-1411 -2359 0
-1412 -2360 0
-1421 -1469 0
-1422 -1470 0
-1423 -1471 0
-1424 -1472 0
-1421 -1729 0
-1422 -1730 0
-1423 -1731 0
-1424 -1732 0
-1421 -2045 0
-1422 -2046 0
-1423 -2047 0
-1424 -2048 0
-1421 -2377 0
-1422 -2378 0
-1423 -2379 0
-1424 -2380 0
-1421 -2741 0
-1422 -2742 0
-1423 -2743 0
-1424 -2744 0
-1425 -1433 0
-1426 -1434 0
-1427 -1435 0
-1428 -1436 0
-1425 -1441 0
-1426 -1442 0
-1427 -1443 0
-1428 -1444 0
-1425 -1473 0
-1426 -1474 0
-1427 -1475 0
-1428 -1476 0
-1425 -1877 0
-1426 -1878 0
-1427 -1879 0
-1428 -1880 0
-1425 -2053 0
-1426 -2054 0
-1427 -2055 0
-1428 -2056 0
-1425 -2389 0
-1426 -2390 0
-1427 -2391 0
-1428 -2392 0
-1425 -2481 0
-1426 -2482 0
-1427 -2483 0
-1428 -2484 0
-1425 -2713 0
-1426 -2714 0
-1427 -2715 0
-1428 -2716 0
-1429 -1433 0
-1430 -1434 0
-1431 -1435 0
-1432 -1436 0
-1429 -1449 0
-1430 -1450 0
-1431 -1451 0
-1432 -1452 0
-1429 -2057 0
-1430 -2058 0
-1431 -2059 0
-1432 -2060 0
-1429 -2717 0
-1430 -2718 0
-1431 -2719 0
-1432 -2720 0
-1433 -1453 0
-1434 -1454 0
-1435 -1455 0
-1436 -1456 0
-1433 -1889 0
-1434 -1890 0
-1435 -1891 0
-1436 -1892 0
-1433 -2061 0
-1434 -2062 0
-1435 -2063 0
-1436 -2064 0
-1433 -2401 0
-1434 -2402 0
-1435 -2403 0
-1436 -2404 0
-1433 -2721 0
-1434 -2722 0
-1435 -2723 0
-1436 -2724 0
-1437 -1441 0
-1438 -1442 0
-1439 -1443 0
-1440 -1444 0
-1437 -1449 0
-1438 -1450 0
-1439 -1451 0
-1440 -1452 0
-1437 -1605 0
-1438 -1606 0
-1439 -1607 0
-1440 -1608 0
-1437 -1865 0
-1438 -1866 0
-1439 -1867 0
-1440 -1868 0
-1437 -2493 0
-1438 -2494 0
-1439 -2495 0
-1440 -2496 0
-1437 -2709 0
-1438 -2710 0
-1439 -2711 0
-1440 -2712 0
-1437 -2749 0
-1438 -2750 0
-1439 -2751 0
-1440 -2752 0
-1441 -1453 0
-1442 -1454 0
-1443 -1455 0
-1444 -1456 0
-1441 -1461 0
-1442 -1462 0
-1443 -1463 0
-1444 -1464 0
-1441 -1881 0
-1442 -1882 0
-1443 -1883 0
-1444 -1884 0
-1441 -2065 0
-1442 -2066 0
-1443 -2067 0
-1444 -2068 0
-1441 -2497 0
-1442 -2498 0
-1443 -2499 0
-1444 -2500 0
-1441 -2713 0
-1442 -2714 0
-1443 -2715 0
-1444 -2716 0
-1441 -2753 0
-1442 -2754 0
-1443 -2755 0
-1444 -2756 0
-1449 -1453 0
-1450 -1454 0
-1451 -1455 0
-1452 -1456 0
-1449 -1621 0
-1450 -1622 0
-1451 -1623 0
-1452 -1624 0
-1449 -1761 0
-1450 -1762 0
-1451 -1763 0
-1452 -1764 0
-1449 -1869 0
-1450 -1870 0
-1451 -1871 0
-1452 -1872 0
-1449 -2365 0
-1450 -2366 0
-1451 -2367 0
-1452 -2368 0
-1449 -2717 0
-1450 -2718 0
-1451 -2719 0
-1452 -2720 0
-1449 -2749 0
-1450 -2750 0
-1451 -2751 0
-1452 -2752 0
-1453 -1457 0
-1454 -1458 0
-1455 -1459 0
-1456 -1460 0
-1453 -1465 0
-1454 -1466 0
-1455 -1467 0
-1456 -1468 0
-1453 -1593 0
-1454 -1594 0
-1455 -1595 0
-1456 -1596 0
-1453 -1697 0
-1454 -1698 0
-1455 -1699 0
-1456 -1700 0
-1453 -1769 0
-1454 -1770 0
-1455 -1771 0
-1456 -1772 0
-1453 -1893 0
-1454 -1894 0
-1455 -1895 0
-1456 -1896 0
-1453 -2077 0
-1454 -2078 0
-1455 -2079 0
-1456 -2080 0
-1453 -2505 0
-1454 -2506 0
-1455 -2507 0
-1456 -2508 0
-1453 -2721 0
-1454 -2722 0
-1455 -2723 0
-1456 -2724 0
-1453 -2753 0
-1454 -2754 0
-1455 -2755 0
-1456 -2756 0
-1457 -1469 0
-1458 -1470 0
-1459 -1471 0
-1460 -1472 0
-1457 -1773 0
-1458 -1774 0
-1459 -1775 0
-1460 -1776 0
-1457 -1897 0
-1458 -1898 0
-1459 -1899 0
-1460 -1900 0
-1461 -1465 0
-1462 -1466 0
-1463 -1467 0
-1464 -1468 0
-1461 -1609 0
-1462 -1610 0
-1463 -1611 0
-1464 -1612 0
-1461 -2085 0
-1462 -2086 0
-1463 -2087 0
-1464 -2088 0
-1465 -1469 0
-1466 -1470 0
-1467 -1471 0
-1468 -1472 0
-1465 -1629 0
-1466 -1630 0
-1467 -1631 0
-1468 -1632 0
-1465 -2101 0
-1466 -2102 0
-1467 -2103 0
-1468 -2104 0
-1469 -1797 0
-1470 -1798 0
-1471 -1799 0
-1472 -1800 0
-1469 -2105 0
-1470 -2106 0
-1471 -2107 0
-1472 -2108 0
-1473 -2089 0
-1474 -2090 0
-1475 -2091 0
-1476 -2092 0
-1473 -2509 0
-1474 -2510 0
-1475 -2511 0
-1476 -2512 0
-1485 -1533 0
-1486 -1534 0
-1487 -1535 0
-1488 -1536 0
-1485 -1621 0
-1486 -1622 0
-1487 -1623 0
-1488 -1624 0
-1485 -1629 0
-1486 -1630 0
-1487 -1631 0
-1488 -1632 0
-1485 -1813 0
-1486 -1814 0
-1487 -1815 0
-1488 -1816 0
-1485 -2125 0
-1486 -2126 0
-1487 -2127 0
-1488 -2128 0
-1493 -1497 0
-1494 -1498 0
-1495 -1499 0
-1496 -1500 0
-1493 -1505 0
-1494 -1506 0
-1495 -1507 0
-1496 -1508 0
-1493 -2205 0
-1494 -2206 0
-1495 -2207 0
-1496 -2208 0
-1493 -2773 0
-1494 -2774 0
-1495 -2775 0
-1496 -2776 0
-1493 -2841 0
-1494 -2842 0
-1495 -2843 0
-1496 -2844 0
-1497 -1517 0
-1498 -1518 0
-1499 -1519 0
-1500 -1520 0
-1497 -2209 0
-1498 -2210 0
-1499 -2211 0
-1500 -2212 0
-1497 -2785 0
-1498 -2786 0
-1499 -2787 0
-1500 -2788 0
-1501 -1505 0
-1502 -1506 0
-1503 -1507 0
-1504 -1508 0
-1501 -1513 0
-1502 -1514 0
-1503 -1515 0
-1504 -1516 0
-1501 -1817 0
-1502 -1818 0
-1503 -1819 0
-1504 -1820 0
-1501 -2233 0
-1502 -2234 0
-1503 -2235 0
-1504 -2236 0
-1501 -2693 0
-1502 -2694 0
-1503 -2695 0
-1504 -2696 0
-1501 -2769 0
-1502 -2770 0
-1503 -2771 0
-1504 -2772 0
-1505 -1509 0
-1506 -1510 0
-1507 -1511 0
-1508 -1512 0
-1505 -1517 0
-1506 -1518 0
-1507 -1519 0
-1508 -1520 0
-1505 -1525 0
-1506 -1526 0
-1507 -1527 0
-1508 -1528 0
-1505 -1633 0
-1506 -1634 0
-1507 -1635 0
-1508 -1636 0
-1505 -1637 0
-1506 -1638 0
-1507 -1639 0
-1508 -1640 0
-1505 -2237 0
-1506 -2238 0
-1507 -2239 0
-1508 -2240 0
-1505 -2453 0
-1506 -2454 0
-1507 -2455 0
-1508 -2456 0
-1505 -2773 0
-1506 -2774 0
-1507 -2775 0
-1508 -2776 0
-1505 -2849 0
-1506 -2850 0
-1507 -2851 0
-1508 -2852 0
-1509 -1521 0
-1510 -1522 0
-1511 -1523 0
-1512 -1524 0
-1509 -1529 0
-1510 -1530 0
-1511 -1531 0
-1512 -1532 0
-1509 -2133 0
-1510 -2134 0
-1511 -2135 0
-1512 -2136 0
-1509 -2245 0
-1510 -2246 0
-1511 -2247 0
-1512 -2248 0
-1509 -2557 0
-1510 -2558 0
-1511 -2559 0
-1512 -2560 0
-1509 -2781 0
-1510 -2782 0
-1511 -2783 0
-1512 -2784 0
-1513 -1517 0
-1514 -1518 0
-1515 -1519 0
-1516 -1520 0
-1513 -2269 0
-1514 -2270 0
-1515 -2271 0
-1516 -2272 0
-1513 -2421 0
-1514 -2422 0
-1515 -2423 0
-1516 -2424 0
-1517 -1521 0
-1518 -1522 0
-1519 -1523 0
-1520 -1524 0
-1517 -1533 0
-1518 -1534 0
-1519 -1535 0
-1520 -1536 0
-1517 -1641 0
-1518 -1642 0
-1519 -1643 0
-1520 -1644 0
-1517 -1645 0
-1518 -1646 0
-1519 -1647 0
-1520 -1648 0
-1517 -2273 0
-1518 -2274 0
-1519 -2275 0
-1520 -2276 0
-1517 -2785 0
-1518 -2786 0
-1519 -2787 0
-1520 -2788 0
-1521 -1789 0
-1522 -1790 0
-1523 -1791 0
-1524 -1792 0
-1521 -2137 0
-1522 -2138 0
-1523 -2139 0
-1524 -2140 0
-1521 -2281 0
-1522 -2282 0
-1523 -2283 0
-1524 -2284 0
-1521 -2789 0
-1522 -2790 0
-1523 -2791 0
-1524 -2792 0
-1525 -1529 0
-1526 -1530 0
-1527 -1531 0
-1528 -1532 0
-1525 -1533 0
-1526 -1534 0
-1527 -1535 0
-1528 -1536 0
-1525 -1653 0
-1526 -1654 0
-1527 -1655 0
-1528 -1656 0
-1525 -1657 0
-1526 -1658 0
-1527 -1659 0
-1528 -1660 0
-1525 -1925 0
-1526 -1926 0
-1527 -1927 0
-1528 -1928 0
-1525 -2297 0
-1526 -2298 0
-1527 -2299 0
-1528 -2300 0
-1529 -1793 0
-1530 -1794 0
-1531 -1795 0
-1532 -1796 0
-1529 -1957 0
-1530 -1958 0
-1531 -1959 0
-1532 -1960 0
-1529 -2141 0
-1530 -2142 0
-1531 -2143 0
-1532 -2144 0
-1533 -1669 0
-1534 -1670 0
-1535 -1671 0
-1536 -1672 0
-1533 -1673 0
-1534 -1674 0
-1535 -1675 0
-1536 -1676 0
-1533 -2301 0
-1534 -2302 0
-1535 -2303 0
-1536 -2304 0
-1533 -2697 0
-1534 -2698 0
-1535 -2699 0
-1536 -2700 0
-1541 -1545 0
-1542 -1546 0
-1543 -1547 0
-1544 -1548 0
-1541 -1569 0
-1542 -1570 0
-1543 -1571 0
-1544 -1572 0
-1541 -2761 0
-1542 -2762 0
-1543 -2763 0
-1544 -2764 0
-1545 -1553 0
-1546 -1554 0
-1547 -1555 0
-1548 -1556 0
-1545 -1577 0
-1546 -1578 0
-1547 -1579 0
-1548 -1580 0
-1545 -1581 0
-1546 -1582 0
-1547 -1583 0
-1548 -1584 0
-1545 -2145 0
-1546 -2146 0
-1547 -2147 0
-1548 -2148 0
-1549 -1553 0
-1550 -1554 0
-1551 -1555 0
-1552 -1556 0
-1549 -1649 0
-1550 -1650 0
-1551 -1651 0
-1552 -1652 0
-1549 -1653 0
-1550 -1654 0
-1551 -1655 0
-1552 -1656 0
-1549 -2709 0
-1550 -2710 0
-1551 -2711 0
-1552 -2712 0
-1553 -1661 0
-1554 -1662 0
-1555 -1663 0
-1556 -1664 0
-1553 -1669 0
-1554 -1670 0
-1555 -1671 0
-1556 -1672 0
-1553 -2717 0
-1554 -2718 0
-1555 -2719 0
-1556 -2720 0
-1557 -1561 0
-1558 -1562 0
-1559 -1563 0
-1560 -1564 0
-1557 -1565 0
-1558 -1566 0
-1559 -1567 0
-1560 -1568 0
-1557 -1613 0
-1558 -1614 0
-1559 -1615 0
-1560 -1616 0
-1557 -1981 0
-1558 -1982 0
-1559 -1983 0
-1560 -1984 0
-1557 -2717 0
-1558 -2718 0
-1559 -2719 0
-1560 -2720 0
-1557 -2769 0
-1558 -2770 0
-1559 -2771 0
-1560 -2772 0
-1561 -1569 0
-1562 -1570 0
-1563 -1571 0
-1564 -1572 0
-1561 -1617 0
-1562 -1618 0
-1563 -1619 0
-1564 -1620 0
-1561 -2365 0
-1562 -2366 0
-1563 -2367 0
-1564 -2368 0
-1561 -2773 0
-1562 -2774 0
-1563 -2775 0
-1564 -2776 0
-1561 -2785 0
-1562 -2786 0
-1563 -2787 0
-1564 -2788 0
-1565 -1569 0
-1566 -1570 0
-1567 -1571 0
-1568 -1572 0
-1565 -1577 0
-1566 -1578 0
-1567 -1579 0
-1568 -1580 0
-1565 -1613 0
-1566 -1614 0
-1567 -1615 0
-1568 -1616 0
-1565 -1705 0
-1566 -1706 0
-1567 -1707 0
-1568 -1708 0
-1565 -2485 0
-1566 -2486 0
-1567 -2487 0
-1568 -2488 0
-1565 -2721 0
-1566 -2722 0
-1567 -2723 0
-1568 -2724 0
-1565 -2777 0
-1566 -2778 0
-1567 -2779 0
-1568 -2780 0
-1569 -1577 0
-1570 -1578 0
-1571 -1579 0
-1572 -1580 0
-1569 -1617 0
-1570 -1618 0
-1571 -1619 0
-1572 -1620 0
-1569 -2021 0
-1570 -2022 0
-1571 -2023 0
-1572 -2024 0
-1569 -2489 0
-1570 -2490 0
-1571 -2491 0
-1572 -2492 0
-1569 -2781 0
-1570 -2782 0
-1571 -2783 0
-1572 -2784 0
-1569 -2789 0
-1570 -2790 0
-1571 -2791 0
-1572 -2792 0
-1577 -1581 0
-1578 -1582 0
-1579 -1583 0
-1580 -1584 0
-1577 -1661 0
-1578 -1662 0
-1579 -1663 0
-1580 -1664 0
-1577 -1717 0
-1578 -1718 0
-1579 -1719 0
-1580 -1720 0
-1577 -2041 0
-1578 -2042 0
-1579 -2043 0
-1580 -2044 0
-1577 -2585 0
-1578 -2586 0
-1579 -2587 0
-1580 -2588 0
-1577 -2793 0
-1578 -2794 0
-1579 -2795 0
-1580 -2796 0
-1581 -1669 0
-1582 -1670 0
-1583 -1671 0
-1584 -1672 0
-1581 -1861 0
-1582 -1862 0
-1583 -1863 0
-1584 -1864 0
-1581 -2501 0
-1582 -2502 0
-1583 -2503 0
-1584 -2504 0
-1581 -2589 0
-1582 -2590 0
-1583 -2591 0
-1584 -2592 0
-1593 -1629 0
-1594 -1630 0
-1595 -1631 0
-1596 -1632 0
-1593 -1681 0
-1594 -1682 0
-1595 -1683 0
-1596 -1684 0
-1593 -1865 0
-1594 -1866 0
-1595 -1867 0
-1596 -1868 0
-1593 -1913 0
-1594 -1914 0
-1595 -1915 0
-1596 -1916 0
-1593 -2209 0
-1594 -2210 0
-1595 -2211 0
-1596 -2212 0
-1593 -2593 0
-1594 -2594 0
-1595 -2595 0
-1596 -2596 0
-1593 -2761 0
-1594 -2762 0
-1595 -2763 0
-1596 -2764 0
-1597 -1601 0
-1598 -1602 0
-1599 -1603 0
-1600 -1604 0
-1597 -1605 0
-1598 -1606 0
-1599 -1607 0
-1600 -1608 0
-1597 -1613 0
-1598 -1614 0
-1599 -1615 0
-1600 -1616 0
-1597 -1649 0
-1598 -1650 0
-1599 -1651 0
-1600 -1652 0
-1597 -2597 0
-1598 -2598 0
-1599 -2599 0
-1600 -2600 0
-1597 -2797 0
-1598 -2798 0
-1599 -2799 0
-1600 -2800 0
-1601 -1617 0
-1602 -1618 0
-1603 -1619 0
-1604 -1620 0
-1601 -1649 0
-1602 -1650 0
-1603 -1651 0
-1604 -1652 0
-1601 -2049 0
-1602 -2050 0
-1603 -2051 0
-1604 -2052 0
-1601 -2801 0
-1602 -2802 0
-1603 -2803 0
-1604 -2804 0
-1605 -1609 0
-1606 -1610 0
-1607 -1611 0
-1608 -1612 0
-1605 -1621 0
-1606 -1622 0
-1607 -1623 0
-1608 -1624 0
-1605 -1653 0
-1606 -1654 0
-1607 -1655 0
-1608 -1656 0
-1605 -1989 0
-1606 -1990 0
-1607 -1991 0
-1608 -1992 0
-1605 -2221 0
-1606 -2222 0
-1607 -2223 0
-1608 -2224 0
-1605 -2601 0
-1606 -2602 0
-1607 -2603 0
-1608 -2604 0
-1605 -2805 0
-1606 -2806 0
-1607 -2807 0
-1608 -2808 0
-1609 -1629 0
-1610 -1630 0
-1611 -1631 0
-1612 -1632 0
-1609 -1657 0
-1610 -1658 0
-1611 -1659 0
-1612 -1660 0
-1609 -1885 0
-1610 -1886 0
-1611 -1887 0
-1612 -1888 0
-1609 -2237 0
-1610 -2238 0
-1611 -2239 0
-1612 -2240 0
-1609 -2813 0
-1610 -2814 0
-1611 -2815 0
-1612 -2816 0
-1613 -1617 0
-1614 -1618 0
-1615 -1619 0
-1616 -1620 0
-1613 -1621 0
-1614 -1622 0
-1615 -1623 0
-1616 -1624 0
-1613 -1625 0
-1614 -1626 0
-1615 -1627 0
-1616 -1628 0
-1613 -1661 0
-1614 -1662 0
-1615 -1663 0
-1616 -1664 0
-1613 -1697 0
-1614 -1698 0
-1615 -1699 0
-1616 -1700 0
-1613 -1737 0
-1614 -1738 0
-1615 -1739 0
-1616 -1740 0
-1613 -2605 0
-1614 -2606 0
-1615 -2607 0
-1616 -2608 0
-1613 -2797 0
-1614 -2798 0
-1615 -2799 0
-1616 -2800 0
-1617 -1661 0
-1618 -1662 0
-1619 -1663 0
-1620 -1664 0
-1617 -2057 0
-1618 -2058 0
-1619 -2059 0
-1620 -2060 0
-1617 -2801 0
-1618 -2802 0
-1619 -2803 0
-1620 -2804 0
-1617 -2817 0
-1618 -2818 0
-1619 -2819 0
-1620 -2820 0
-1617 -2873 0
-1618 -2874 0
-1619 -2875 0
-1620 -2876 0
-1621 -1629 0
-1622 -1630 0
-1623 -1631 0
-1624 -1632 0
-1621 -1669 0
-1622 -1670 0
-1623 -1671 0
-1624 -1672 0
-1621 -2257 0
-1622 -2258 0
-1623 -2259 0
-1624 -2260 0
-1621 -2477 0
-1622 -2478 0
-1623 -2479 0
-1624 -2480 0
-1621 -2609 0
-1622 -2610 0
-1623 -2611 0
-1624 -2612 0
-1621 -2805 0
-1622 -2806 0
-1623 -2807 0
-1624 -2808 0
-1625 -1629 0
-1626 -1630 0
-1627 -1631 0
-1628 -1632 0
-1625 -1689 0
-1626 -1690 0
-1627 -1691 0
-1628 -1692 0
-1625 -1697 0
-1626 -1698 0
-1627 -1699 0
-1628 -1700 0
-1625 -1889 0
-1626 -1890 0
-1627 -1891 0
-1628 -1892 0
-1625 -1985 0
-1626 -1986 0
-1627 -1987 0
-1628 -1988 0
-1625 -2261 0
-1626 -2262 0
-1627 -2263 0
-1628 -2264 0
-1625 -2537 0
-1626 -2538 0
-1627 -2539 0
-1628 -2540 0
-1625 -2809 0
-1626 -2810 0
-1627 -2811 0
-1628 -2812 0
-1629 -1673 0
-1630 -1674 0
-1631 -1675 0
-1632 -1676 0
-1629 -1689 0
-1630 -1690 0
-1631 -1691 0
-1632 -1692 0
-1629 -1897 0
-1630 -1898 0
-1631 -1899 0
-1632 -1900 0
-1629 -1921 0
-1630 -1922 0
-1631 -1923 0
-1632 -1924 0
-1629 -2273 0
-1630 -2274 0
-1631 -2275 0
-1632 -2276 0
-1629 -2813 0
-1630 -2814 0
-1631 -2815 0
-1632 -2816 0
-1633 -1637 0
-1634 -1638 0
-1635 -1639 0
-1636 -1640 0
-1633 -1641 0
-1634 -1642 0
-1635 -1643 0
-1636 -1644 0
-1633 -1653 0
-1634 -1654 0
-1635 -1655 0
-1636 -1656 0
-1633 -2389 0
-1634 -2390 0
-1635 -2391 0
-1636 -2392 0
-1633 -2821 0
-1634 -2822 0
-1635 -2823 0
-1636 -2824 0
-1633 -2877 0
-1634 -2878 0
-1635 -2879 0
-1636 -2880 0
-1637 -1645 0
-1638 -1646 0
-1639 -1647 0
-1640 -1648 0
-1637 -1657 0
-1638 -1658 0
-1639 -1659 0
-1640 -1660 0
-1637 -2393 0
-1638 -2394 0
-1639 -2395 0
-1640 -2396 0
-1637 -2521 0
-1638 -2522 0
-1639 -2523 0
-1640 -2524 0
-1641 -1645 0
-1642 -1646 0
-1643 -1647 0
-1644 -1648 0
-1641 -1669 0
-1642 -1670 0
-1643 -1671 0
-1644 -1672 0
-1641 -2401 0
-1642 -2402 0
-1643 -2403 0
-1644 -2404 0
-1641 -2821 0
-1642 -2822 0
-1643 -2823 0
-1644 -2824 0
-1645 -1673 0
-1646 -1674 0
-1647 -1675 0
-1648 -1676 0
-1645 -2405 0
-1646 -2406 0
-1647 -2407 0
-1648 -2408 0
-1645 -2533 0
-1646 -2534 0
-1647 -2535 0
-1648 -2536 0
-1649 -1653 0
-1650 -1654 0
-1651 -1655 0
-1652 -1656 0
-1649 -1661 0
-1650 -1662 0
-1651 -1663 0
-1652 -1664 0
-1649 -2081 0
-1650 -2082 0
-1651 -2083 0
-1652 -2084 0
-1649 -2725 0
-1650 -2726 0
-1651 -2727 0
-1652 -2728 0
-1649 -2825 0
-1650 -2826 0
-1651 -2827 0
-1652 -2828 0
-1653 -1657 0
-1654 -1658 0
-1655 -1659 0
-1656 -1660 0
-1653 -1669 0
-1654 -1670 0
-1655 -1671 0
-1656 -1672 0
-1653 -2001 0
-1654 -2002 0
-1655 -2003 0
-1656 -2004 0
-1653 -2629 0
-1654 -2630 0
-1655 -2631 0
-1656 -2632 0
-1653 -2729 0
-1654 -2730 0
-1655 -2731 0
-1656 -2732 0
-1653 -2829 0
-1654 -2830 0
-1655 -2831 0
-1656 -2832 0
-1657 -1673 0
-1658 -1674 0
-1659 -1675 0
-1660 -1676 0
-1657 -2317 0
-1658 -2318 0
-1659 -2319 0
-1660 -2320 0
-1657 -2537 0
-1658 -2538 0
-1659 -2539 0
-1660 -2540 0
-1661 -1669 0
-1662 -1670 0
-1663 -1671 0
-1664 -1672 0
-1661 -1765 0
-1662 -1766 0
-1663 -1767 0
-1664 -1768 0
-1661 -2097 0
-1662 -2098 0
-1663 -2099 0
-1664 -2100 0
-1661 -2733 0
-1662 -2734 0
-1663 -2735 0
-1664 -2736 0
-1661 -2825 0
-1662 -2826 0
-1663 -2827 0
-1664 -2828 0
-1669 -1673 0
-1670 -1674 0
-1671 -1675 0
-1672 -1676 0
-1669 -1781 0
-1670 -1782 0
-1671 -1783 0
-1672 -1784 0
-1669 -1933 0
-1670 -1934 0
-1671 -1935 0
-1672 -1936 0
-1669 -2009 0
-1670 -2010 0
-1671 -2011 0
-1672 -2012 0
-1669 -2489 0
-1670 -2490 0
-1671 -2491 0
-1672 -2492 0
-1669 -2645 0
-1670 -2646 0
-1671 -2647 0
-1672 -2648 0
-1669 -2737 0
-1670 -2738 0
-1671 -2739 0
-1672 -2740 0
-1669 -2829 0
-1670 -2830 0
-1671 -2831 0
-1672 -2832 0
-1673 -1937 0
-1674 -1938 0
-1675 -1939 0
-1676 -1940 0
-1673 -2325 0
-1674 -2326 0
-1675 -2327 0
-1676 -2328 0
-1673 -2541 0
-1674 -2542 0
-1675 -2543 0
-1676 -2544 0
-1673 -2741 0
-1674 -2742 0
-1675 -2743 0
-1676 -2744 0
-1677 -1681 0
-1678 -1682 0
-1679 -1683 0
-1680 -1684 0
-1677 -2549 0
-1678 -2550 0
-1679 -2551 0
-1680 -2552 0
-1677 -2781 0
-1678 -2782 0
-1679 -2783 0
-1680 -2784 0
-1681 -1689 0
-1682 -1690 0
-1683 -1691 0
-1684 -1692 0
-1681 -1877 0
-1682 -1878 0
-1683 -1879 0
-1684 -1880 0
-1681 -1945 0
-1682 -1946 0
-1683 -1947 0
-1684 -1948 0
-1681 -2365 0
-1682 -2366 0
-1683 -2367 0
-1684 -2368 0
-1681 -2781 0
-1682 -2782 0
-1683 -2783 0
-1684 -2784 0
-1689 -1953 0
-1690 -1954 0
-1691 -1955 0
-1692 -1956 0
-1689 -2029 0
-1690 -2030 0
-1691 -2031 0
-1692 -2032 0
-1689 -2353 0
-1690 -2354 0
-1691 -2355 0
-1692 -2356 0
-1689 -2373 0
-1690 -2374 0
-1691 -2375 0
-1692 -2376 0
-1693 -2549 0
-1694 -2550 0
-1695 -2551 0
-1696 -2552 0
-1693 -2821 0
-1694 -2822 0
-1695 -2823 0
-1696 -2824 0
-1693 -2829 0
-1694 -2830 0
-1695 -2831 0
-1696 -2832 0
-1697 -1865 0
-1698 -1866 0
-1699 -1867 0
-1700 -1868 0
-1697 -1993 0
-1698 -1994 0
-1699 -1995 0
-1700 -1996 0
-1705 -1709 0
-1706 -1710 0
-1707 -1711 0
-1708 -1712 0
-1705 -1713 0
-1706 -1714 0
-1707 -1715 0
-1708 -1716 0
-1705 -1717 0
-1706 -1718 0
-1707 -1719 0
-1708 -1720 0
-1705 -1737 0
-1706 -1738 0
-1707 -1739 0
-1708 -1740 0
-1705 -1741 0
-1706 -1742 0
-1707 -1743 0
-1708 -1744 0
-1705 -2577 0
-1706 -2578 0
-1707 -2579 0
-1708 -2580 0
-1705 -2761 0
-1706 -2762 0
-1707 -2763 0
-1708 -2764 0
-1709 -1745 0
-1710 -1746 0
-1711 -1747 0
-1712 -1748 0
-1709 -1749 0
-1710 -1750 0
-1711 -1751 0
-1712 -1752 0
-1709 -1981 0
-1710 -1982 0
-1711 -1983 0
-1712 -1984 0
-1709 -2589 0
-1710 -2590 0
-1711 -2591 0
-1712 -2592 0
-1713 -1729 0
-1714 -1730 0
-1715 -1731 0
-1716 -1732 0
-1713 -2021 0
-1714 -2022 0
-1715 -2023 0
-1716 -2024 0
-1713 -2421 0
-1714 -2422 0
-1715 -2423 0
-1716 -2424 0
-1713 -2601 0
-1714 -2602 0
-1715 -2603 0
-1716 -2604 0
-1717 -1729 0
-1718 -1730 0
-1719 -1731 0
-1720 -1732 0
-1717 -1765 0
-1718 -1766 0
-1719 -1767 0
-1720 -1768 0
-1717 -1773 0
-1718 -1774 0
-1719 -1775 0
-1720 -1776 0
-1717 -2173 0
-1718 -2174 0
-1719 -2175 0
-1720 -2176 0
-1717 -2585 0
-1718 -2586 0
-1719 -2587 0
-1720 -2588 0
-1717 -2841 0
-1718 -2842 0
-1719 -2843 0
-1720 -2844 0
-1721 -1729 0
-1722 -1730 0
-1723 -1731 0
-1724 -1732 0
-1721 -1793 0
-1722 -1794 0
-1723 -1795 0
-1724 -1796 0
-1721 -2037 0
-1722 -2038 0
-1723 -2039 0
-1724 -2040 0
-1721 -2597 0
-1722 -2598 0
-1723 -2599 0
-1724 -2600 0
-1721 -2849 0
-1722 -2850 0
-1723 -2851 0
-1724 -2852 0
-1725 -1729 0
-1726 -1730 0
-1727 -1731 0
-1728 -1732 0
-1725 -1861 0
-1726 -1862 0
-1727 -1863 0
-1728 -1864 0
-1725 -2137 0
-1726 -2138 0
-1727 -2139 0
-1728 -2140 0
-1725 -2485 0
-1726 -2486 0
-1727 -2487 0
-1728 -2488 0
-1725 -2845 0
-1726 -2846 0
-1727 -2847 0
-1728 -2848 0
-1729 -1797 0
-1730 -1798 0
-1731 -1799 0
-1732 -1800 0
-1729 -1861 0
-1730 -1862 0
-1731 -1863 0
-1732 -1864 0
-1729 -2045 0
-1730 -2046 0
-1731 -2047 0
-1732 -2048 0
-1729 -2497 0
-1730 -2498 0
-1731 -2499 0
-1732 -2500 0
-1729 -2605 0
-1730 -2606 0
-1731 -2607 0
-1732 -2608 0
-1729 -2849 0
-1730 -2850 0
-1731 -2851 0
-1732 -2852 0
-1737 -1741 0
-1738 -1742 0
-1739 -1743 0
-1740 -1744 0
-1737 -1745 0
-1738 -1746 0
-1739 -1747 0
-1740 -1748 0
-1737 -1761 0
-1738 -1762 0
-1739 -1763 0
-1740 -1764 0
-1737 -1765 0
-1738 -1766 0
-1739 -1767 0
-1740 -1768 0
-1737 -1805 0
-1738 -1806 0
-1739 -1807 0
-1740 -1808 0
-1737 -1809 0
-1738 -1810 0
-1739 -1811 0
-1740 -1812 0
-1737 -1865 0
-1738 -1866 0
-1739 -1867 0
-1740 -1868 0
-1737 -2629 0
-1738 -2630 0
-1739 -2631 0
-1740 -2632 0
-1737 -2881 0
-1738 -2882 0
-1739 -2883 0
-1740 -2884 0
-1741 -1749 0
-1742 -1750 0
-1743 -1751 0
-1744 -1752 0
-1741 -1769 0
-1742 -1770 0
-1743 -1771 0
-1744 -1772 0
-1741 -1773 0
-1742 -1774 0
-1743 -1775 0
-1744 -1776 0
-1741 -2197 0
-1742 -2198 0
-1743 -2199 0
-1744 -2200 0
-1741 -2633 0
-1742 -2634 0
-1743 -2635 0
-1744 -2636 0
-1741 -2689 0
-1742 -2690 0
-1743 -2691 0
-1744 -2692 0
-1745 -1749 0
-1746 -1750 0
-1747 -1751 0
-1748 -1752 0
-1745 -1813 0
-1746 -1814 0
-1747 -1815 0
-1748 -1816 0
-1745 -1869 0
-1746 -1870 0
-1747 -1871 0
-1748 -1872 0
-1745 -2645 0
-1746 -2646 0
-1747 -2647 0
-1748 -2648 0
-1749 -2649 0
-1750 -2650 0
-1751 -2651 0
-1752 -2652 0
-1757 -1773 0
-1758 -1774 0
-1759 -1775 0
-1760 -1776 0
-1757 -1793 0
-1758 -1794 0
-1759 -1795 0
-1760 -1796 0
-1757 -2237 0
-1758 -2238 0
-1759 -2239 0
-1760 -2240 0
-1757 -2853 0
-1758 -2854 0
-1759 -2855 0
-1760 -2856 0
-1761 -1765 0
-1762 -1766 0
-1763 -1767 0
-1764 -1768 0
-1761 -1769 0
-1762 -1770 0
-1763 -1771 0
-1764 -1772 0
-1761 -1777 0
-1762 -1778 0
-1763 -1779 0
-1764 -1780 0
-1761 -1829 0
-1762 -1830 0
-1763 -1831 0
-1764 -1832 0
-1761 -2157 0
-1762 -2158 0
-1763 -2159 0
-1764 -2160 0
-1761 -2573 0
-1762 -2574 0
-1763 -2575 0
-1764 -2576 0
-1761 -2769 0
-1762 -2770 0
-1763 -2771 0
-1764 -2772 0
-1765 -1773 0
-1766 -1774 0
-1767 -1775 0
-1768 -1776 0
-1765 -1781 0
-1766 -1782 0
-1767 -1783 0
-1768 -1784 0
-1765 -1917 0
-1766 -1918 0
-1767 -1919 0
-1768 -1920 0
-1765 -2265 0
-1766 -2266 0
-1767 -2267 0
-1768 -2268 0
-1765 -2773 0
-1766 -2774 0
-1767 -2775 0
-1768 -2776 0
-1769 -1773 0
-1770 -1774 0
-1771 -1775 0
-1772 -1776 0
-1769 -1785 0
-1770 -1786 0
-1771 -1787 0
-1772 -1788 0
-1769 -1833 0
-1770 -1834 0
-1771 -1835 0
-1772 -1836 0
-1769 -1913 0
-1770 -1914 0
-1771 -1915 0
-1772 -1916 0
-1769 -1993 0
-1770 -1994 0
-1771 -1995 0
-1772 -1996 0
-1769 -2077 0
-1770 -2078 0
-1771 -2079 0
-1772 -2080 0
-1769 -2269 0
-1770 -2270 0
-1771 -2271 0
-1772 -2272 0
-1769 -2777 0
-1770 -2778 0
-1771 -2779 0
-1772 -2780 0
-1773 -1797 0
-1774 -1798 0
-1775 -1799 0
-1776 -1800 0
-1773 -2273 0
-1774 -2274 0
-1775 -2275 0
-1776 -2276 0
-1773 -2781 0
-1774 -2782 0
-1775 -2783 0
-1776 -2784 0
-1773 -2853 0
-1774 -2854 0
-1775 -2855 0
-1776 -2856 0
-1773 -2873 0
-1774 -2874 0
-1775 -2875 0
-1776 -2876 0
-1777 -1781 0
-1778 -1782 0
-1779 -1783 0
-1780 -1784 0
-1777 -1785 0
-1778 -1786 0
-1779 -1787 0
-1780 -1788 0
-1777 -1829 0
-1778 -1830 0
-1779 -1831 0
-1780 -1832 0
-1777 -2161 0
-1778 -2162 0
-1779 -2163 0
-1780 -2164 0
-1777 -2577 0
-1778 -2578 0
-1779 -2579 0
-1780 -2580 0
-1781 -2645 0
-1782 -2646 0
-1783 -2647 0
-1784 -2648 0
-1785 -1833 0
-1786 -1834 0
-1787 -1835 0
-1788 -1836 0
-1785 -1997 0
-1786 -1998 0
-1787 -1999 0
-1788 -2000 0
-1785 -2301 0
-1786 -2302 0
-1787 -2303 0
-1788 -2304 0
-1789 -1797 0
-1790 -1798 0
-1791 -1799 0
-1792 -1800 0
-1789 -2137 0
-1790 -2138 0
-1791 -2139 0
-1792 -2140 0
-1789 -2525 0
-1790 -2526 0
-1791 -2527 0
-1792 -2528 0
-1793 -1797 0
-1794 -1798 0
-1795 -1799 0
-1796 -1800 0
-1793 -2089 0
-1794 -2090 0
-1795 -2091 0
-1796 -2092 0
-1793 -2141 0
-1794 -2142 0
-1795 -2143 0
-1796 -2144 0
-1793 -2305 0
-1794 -2306 0
-1795 -2307 0
-1796 -2308 0
-1793 -2857 0
-1794 -2858 0
-1795 -2859 0
-1796 -2860 0
-1797 -1925 0
-1798 -1926 0
-1799 -1927 0
-1800 -1928 0
-1797 -2105 0
-1798 -2106 0
-1799 -2107 0
-1800 -2108 0
-1797 -2145 0
-1798 -2146 0
-1799 -2147 0
-1800 -2148 0
-1797 -2309 0
-1798 -2310 0
-1799 -2311 0
-1800 -2312 0
-1797 -2857 0
-1798 -2858 0
-1799 -2859 0
-1800 -2860 0
-1797 -2873 0
-1798 -2874 0
-1799 -2875 0
-1800 -2876 0
-1801 -1853 0
-1802 -1854 0
-1803 -1855 0
-1804 -1856 0
-1801 -1857 0
-1802 -1858 0
-1803 -1859 0
-1804 -1860 0
-1801 -2161 0
-1802 -2162 0
-1803 -2163 0
-1804 -2164 0
-1801 -2621 0
-1802 -2622 0
-1803 -2623 0
-1804 -2624 0
-1805 -1809 0
-1806 -1810 0
-1807 -1811 0
-1808 -1812 0
-1805 -1877 0
-1806 -1878 0
-1807 -1879 0
-1808 -1880 0
-1805 -2801 0
-1806 -2802 0
-1807 -2803 0
-1808 -2804 0
-1809 -1813 0
-1810 -1814 0
-1811 -1815 0
-1812 -1816 0
-1809 -1829 0
-1810 -1830 0
-1811 -1831 0
-1812 -1832 0
-1809 -1885 0
-1810 -1886 0
-1811 -1887 0
-1812 -1888 0
-1809 -2049 0
-1810 -2050 0
-1811 -2051 0
-1812 -2052 0
-1809 -2117 0
-1810 -2118 0
-1811 -2119 0
-1812 -2120 0
-1809 -2201 0
-1810 -2202 0
-1811 -2203 0
-1812 -2204 0
-1809 -2697 0
-1810 -2698 0
-1811 -2699 0
-1812 -2700 0
-1809 -2889 0
-1810 -2890 0
-1811 -2891 0
-1812 -2892 0
-1813 -1841 0
-1814 -1842 0
-1815 -1843 0
-1816 -1844 0
-1813 -1897 0
-1814 -1898 0
-1815 -1899 0
-1816 -1900 0
-1813 -2057 0
-1814 -2058 0
-1815 -2059 0
-1816 -2060 0
-1813 -2125 0
-1814 -2126 0
-1815 -2127 0
-1816 -2128 0
-1817 -1821 0
-1818 -1822 0
-1819 -1823 0
-1820 -1824 0
-1817 -1829 0
-1818 -1830 0
-1819 -1831 0
-1820 -1832 0
-1817 -2217 0
-1818 -2218 0
-1819 -2219 0
-1820 -2220 0
-1817 -2545 0
-1818 -2546 0
-1819 -2547 0
-1820 -2548 0
-1817 -2821 0
-1818 -2822 0
-1819 -2823 0
-1820 -2824 0
-1817 -2845 0
-1818 -2846 0
-1819 -2847 0
-1820 -2848 0
-1817 -2893 0
-1818 -2894 0
-1819 -2895 0
-1820 -2896 0
-1821 -1837 0
-1822 -1838 0
-1823 -1839 0
-1824 -1840 0
-1821 -1853 0
-1822 -1854 0
-1823 -1855 0
-1824 -1856 0
-1821 -2173 0
-1822 -2174 0
-1823 -2175 0
-1824 -2176 0
-1821 -2849 0
-1822 -2850 0
-1823 -2851 0
-1824 -2852 0
-1829 -1833 0
-1830 -1834 0
-1831 -1835 0
-1832 -1836 0
-1829 -1837 0
-1830 -1838 0
-1831 -1839 0
-1832 -1840 0
-1829 -1841 0
-1830 -1842 0
-1831 -1843 0
-1832 -1844 0
-1829 -1901 0
-1830 -1902 0
-1831 -1903 0
-1832 -1904 0
-1829 -2081 0
-1830 -2082 0
-1831 -2083 0
-1832 -2084 0
-1829 -2273 0
-1830 -2274 0
-1831 -2275 0
-1832 -2276 0
-1829 -2657 0
-1830 -2658 0
-1831 -2659 0
-1832 -2660 0
-1829 -2829 0
-1830 -2830 0
-1831 -2831 0
-1832 -2832 0
-1829 -2845 0
-1830 -2846 0
-1831 -2847 0
-1832 -2848 0
-1833 -1949 0
-1834 -1950 0
-1835 -1951 0
-1836 -1952 0
-1833 -2085 0
-1834 -2086 0
-1835 -2087 0
-1836 -2088 0
-1833 -2281 0
-1834 -2282 0
-1835 -2283 0
-1836 -2284 0
-1833 -2485 0
-1834 -2486 0
-1835 -2487 0
-1836 -2488 0
-1833 -2701 0
-1834 -2702 0
-1835 -2703 0
-1836 -2704 0
-1837 -1845 0
-1838 -1846 0
-1839 -1847 0
-1840 -1848 0
-1837 -1901 0
-1838 -1902 0
-1839 -1903 0
-1840 -1904 0
-1837 -1957 0
-1838 -1958 0
-1839 -1959 0
-1840 -1960 0
-1837 -2289 0
-1838 -2290 0
-1839 -2291 0
-1840 -2292 0
-1837 -2493 0
-1838 -2494 0
-1839 -2495 0
-1840 -2496 0
-1837 -2849 0
-1838 -2850 0
-1839 -2851 0
-1840 -2852 0
-1841 -1845 0
-1842 -1846 0
-1843 -1847 0
-1844 -1848 0
-1841 -1905 0
-1842 -1906 0
-1843 -1907 0
-1844 -1908 0
-1841 -2097 0
-1842 -2098 0
-1843 -2099 0
-1844 -2100 0
-1841 -2293 0
-1842 -2294 0
-1843 -2295 0
-1844 -2296 0
-1841 -2661 0
-1842 -2662 0
-1843 -2663 0
-1844 -2664 0
-1845 -1905 0
-1846 -1906 0
-1847 -1907 0
-1848 -1908 0
-1845 -1965 0
-1846 -1966 0
-1847 -1967 0
-1848 -1968 0
-1853 -1857 0
-1854 -1858 0
-1855 -1859 0
-1856 -1860 0
-1853 -2273 0
-1854 -2274 0
-1855 -2275 0
-1856 -2276 0
-1853 -2521 0
-1854 -2522 0
-1855 -2523 0
-1856 -2524 0
-1853 -2857 0
-1854 -2858 0
-1855 -2859 0
-1856 -2860 0
-1857 -2285 0
-1858 -2286 0
-1859 -2287 0
-1860 -2288 0
-1857 -2529 0
-1858 -2530 0
-1859 -2531 0
-1860 -2532 0
-1857 -2665 0
-1858 -2666 0
-1859 -2667 0
-1860 -2668 0
-1861 -2717 0
-1862 -2718 0
-1863 -2719 0
-1864 -2720 0
-1861 -2877 0
-1862 -2878 0
-1863 -2879 0
-1864 -2880 0
-1865 -1869 0
-1866 -1870 0
-1867 -1871 0
-1868 -1872 0
-1865 -1877 0
-1866 -1878 0
-1867 -1879 0
-1868 -1880 0
-1865 -1885 0
-1866 -1886 0
-1867 -1887 0
-1868 -1888 0
-1865 -1989 0
-1866 -1990 0
-1867 -1991 0
-1868 -1992 0
-1865 -2149 0
-1866 -2150 0
-1867 -2151 0
-1868 -2152 0
-1865 -2509 0
-1866 -2510 0
-1867 -2511 0
-1868 -2512 0
-1869 -1889 0
-1870 -1890 0
-1871 -1891 0
-1872 -1892 0
-1869 -1897 0
-1870 -1898 0
-1871 -1899 0
-1872 -1900 0
-1869 -2157 0
-1870 -2158 0
-1871 -2159 0
-1872 -2160 0
-1869 -2517 0
-1870 -2518 0
-1871 -2519 0
-1872 -2520 0
-1877 -1885 0
-1878 -1886 0
-1879 -1887 0
-1880 -1888 0
-1877 -1889 0
-1878 -1890 0
-1879 -1891 0
-1880 -1892 0
-1877 -2053 0
-1878 -2054 0
-1879 -2055 0
-1880 -2056 0
-1877 -2225 0
-1878 -2226 0
-1879 -2227 0
-1880 -2228 0
-1877 -2365 0
-1878 -2366 0
-1879 -2367 0
-1880 -2368 0
-1881 -1885 0
-1882 -1886 0
-1883 -1887 0
-1884 -1888 0
-1881 -1893 0
-1882 -1894 0
-1883 -1895 0
-1884 -1896 0
-1881 -1901 0
-1882 -1902 0
-1883 -1903 0
-1884 -1904 0
-1881 -2233 0
-1882 -2234 0
-1883 -2235 0
-1884 -2236 0
-1881 -2545 0
-1882 -2546 0
-1883 -2547 0
-1884 -2548 0
-1881 -2861 0
-1882 -2862 0
-1883 -2863 0
-1884 -2864 0
-1885 -1897 0
-1886 -1898 0
-1887 -1899 0
-1888 -1900 0
-1885 -1901 0
-1886 -1902 0
-1887 -1903 0
-1888 -1904 0
-1885 -2237 0
-1886 -2238 0
-1887 -2239 0
-1888 -2240 0
-1885 -2549 0
-1886 -2550 0
-1887 -2551 0
-1888 -2552 0
-1885 -2677 0
-1886 -2678 0
-1887 -2679 0
-1888 -2680 0
-1885 -2741 0
-1886 -2742 0
-1887 -2743 0
-1888 -2744 0
-1885 -2865 0
-1886 -2866 0
-1887 -2867 0
-1888 -2868 0
-1889 -1897 0
-1890 -1898 0
-1891 -1899 0
-1892 -1900 0
-1889 -2061 0
-1890 -2062 0
-1891 -2063 0
-1892 -2064 0
-1889 -2261 0
-1890 -2262 0
-1891 -2263 0
-1892 -2264 0
-1889 -2369 0
-1890 -2370 0
-1891 -2371 0
-1892 -2372 0
-1889 -2873 0
-1890 -2874 0
-1891 -2875 0
-1892 -2876 0
-1893 -1897 0
-1894 -1898 0
-1895 -1899 0
-1896 -1900 0
-1893 -1905 0
-1894 -1906 0
-1895 -1907 0
-1896 -1908 0
-1893 -2269 0
-1894 -2270 0
-1895 -2271 0
-1896 -2272 0
-1897 -1905 0
-1898 -1906 0
-1899 -1907 0
-1900 -1908 0
-1897 -2273 0
-1898 -2274 0
-1899 -2275 0
-1900 -2276 0
-1897 -2869 0
-1898 -2870 0
-1899 -2871 0
-1900 -2872 0
-1901 -1905 0
-1902 -1906 0
-1903 -1907 0
-1904 -1908 0
-1901 -2405 0
-1902 -2406 0
-1903 -2407 0
-1904 -2408 0
-1901 -2749 0
-1902 -2750 0
-1903 -2751 0
-1904 -2752 0
-1901 -2877 0
-1902 -2878 0
-1903 -2879 0
-1904 -2880 0
-1905 -2321 0
-1906 -2322 0
-1907 -2323 0
-1908 -2324 0
-1913 -1921 0
-1914 -1922 0
-1915 -1923 0
-1916 -1924 0
-1913 -1945 0
-1914 -1946 0
-1915 -1947 0
-1916 -1948 0
-1913 -1949 0
-1914 -1950 0
-1915 -1951 0
-1916 -1952 0
-1913 -2149 0
-1914 -2150 0
-1915 -2151 0
-1916 -2152 0
-1913 -2209 0
-1914 -2210 0
-1915 -2211 0
-1916 -2212 0
-1913 -2881 0
-1914 -2882 0
-1915 -2883 0
-1916 -2884 0
-1917 -1925 0
-1918 -1926 0
-1919 -1927 0
-1920 -1928 0
-1917 -1933 0
-1918 -1934 0
-1919 -1935 0
-1920 -1936 0
-1917 -2001 0
-1918 -2002 0
-1919 -2003 0
-1920 -2004 0
-1917 -2633 0
-1918 -2634 0
-1919 -2635 0
-1920 -2636 0
-1917 -2917 0
-1918 -2918 0
-1919 -2919 0
-1920 -2920 0
-1921 -1925 0
-1922 -1926 0
-1923 -1927 0
-1924 -1928 0
-1921 -1929 0
-1922 -1930 0
-1923 -1931 0
-1924 -1932 0
-1921 -1937 0
-1922 -1938 0
-1923 -1939 0
-1924 -1940 0
-1921 -1953 0
-1922 -1954 0
-1923 -1955 0
-1924 -1956 0
-1921 -1957 0
-1922 -1958 0
-1923 -1959 0
-1924 -1960 0
-1921 -1997 0
-1922 -1998 0
-1923 -1999 0
-1924 -2000 0
-1921 -2273 0
-1922 -2274 0
-1923 -2275 0
-1924 -2276 0
-1921 -2561 0
-1922 -2562 0
-1923 -2563 0
-1924 -2564 0
-1921 -2685 0
-1922 -2686 0
-1923 -2687 0
-1924 -2688 0
-1921 -2881 0
-1922 -2882 0
-1923 -2883 0
-1924 -2884 0
-1925 -1937 0
-1926 -1938 0
-1927 -1939 0
-1928 -1940 0
-1925 -2001 0
-1926 -2002 0
-1927 -2003 0
-1928 -2004 0
-1925 -2277 0
-1926 -2278 0
-1927 -2279 0
-1928 -2280 0
-1925 -2641 0
-1926 -2642 0
-1927 -2643 0
-1928 -2644 0
-1929 -1961 0
-1930 -1962 0
-1931 -1963 0
-1932 -1964 0
-1929 -1965 0
-1930 -1966 0
-1931 -1967 0
-1932 -1968 0
-1929 -2005 0
-1930 -2006 0
-1931 -2007 0
-1932 -2008 0
-1929 -2293 0
-1930 -2294 0
-1931 -2295 0
-1932 -2296 0
-1929 -2689 0
-1930 -2690 0
-1931 -2691 0
-1932 -2692 0
-1933 -1937 0
-1934 -1938 0
-1935 -1939 0
-1936 -1940 0
-1933 -2413 0
-1934 -2414 0
-1935 -2415 0
-1936 -2416 0
-1933 -2845 0
-1934 -2846 0
-1935 -2847 0
-1936 -2848 0
-1937 -2325 0
-1938 -2326 0
-1939 -2327 0
-1940 -2328 0
-1937 -2849 0
-1938 -2850 0
-1939 -2851 0
-1940 -2852 0
-1941 -1949 0
-1942 -1950 0
-1943 -1951 0
-1944 -1952 0
-1941 -1969 0
-1942 -1970 0
-1943 -1971 0
-1944 -1972 0
-1941 -2473 0
-1942 -2474 0
-1943 -2475 0
-1944 -2476 0
-1941 -2885 0
-1942 -2886 0
-1943 -2887 0
-1944 -2888 0
-1945 -1949 0
-1946 -1950 0
-1947 -1951 0
-1948 -1952 0
-1945 -1953 0
-1946 -1954 0
-1947 -1955 0
-1948 -1956 0
-1945 -2065 0
-1946 -2066 0
-1947 -2067 0
-1948 -2068 0
-1945 -2225 0
-1946 -2226 0
-1947 -2227 0
-1948 -2228 0
-1945 -2469 0
-1946 -2470 0
-1947 -2471 0
-1948 -2472 0
-1945 -2573 0
-1946 -2574 0
-1947 -2575 0
-1948 -2576 0
-1945 -2853 0
-1946 -2854 0
-1947 -2855 0
-1948 -2856 0
-1949 -1957 0
-1950 -1958 0
-1951 -1959 0
-1952 -1960 0
-1949 -1973 0
-1950 -1974 0
-1951 -1975 0
-1952 -1976 0
-1949 -2237 0
-1950 -2238 0
-1951 -2239 0
-1952 -2240 0
-1949 -2449 0
-1950 -2450 0
-1951 -2451 0
-1952 -2452 0
-1949 -2577 0
-1950 -2578 0
-1951 -2579 0
-1952 -2580 0
-1949 -2701 0
-1950 -2702 0
-1951 -2703 0
-1952 -2704 0
-1949 -2889 0
-1950 -2890 0
-1951 -2891 0
-1952 -2892 0
-1953 -1957 0
-1954 -1958 0
-1955 -1959 0
-1956 -1960 0
-1953 -1961 0
-1954 -1962 0
-1955 -1963 0
-1956 -1964 0
-1953 -2085 0
-1954 -2086 0
-1955 -2087 0
-1956 -2088 0
-1953 -2093 0
-1954 -2094 0
-1955 -2095 0
-1956 -2096 0
-1953 -2353 0
-1954 -2354 0
-1955 -2355 0
-1956 -2356 0
-1953 -2429 0
-1954 -2430 0
-1955 -2431 0
-1956 -2432 0
-1953 -2597 0
-1954 -2598 0
-1955 -2599 0
-1956 -2600 0
-1953 -2857 0
-1954 -2858 0
-1955 -2859 0
-1956 -2860 0
-1957 -1965 0
-1958 -1966 0
-1959 -1967 0
-1960 -1968 0
-1957 -2305 0
-1958 -2306 0
-1959 -2307 0
-1960 -2308 0
-1957 -2357 0
-1958 -2358 0
-1959 -2359 0
-1960 -2360 0
-1957 -2601 0
-1958 -2602 0
-1959 -2603 0
-1960 -2604 0
-1957 -2889 0
-1958 -2890 0
-1959 -2891 0
-1960 -2892 0
-1961 -1965 0
-1962 -1966 0
-1963 -1967 0
-1964 -1968 0
-1961 -2101 0
-1962 -2102 0
-1963 -2103 0
-1964 -2104 0
-1961 -2109 0
-1962 -2110 0
-1963 -2111 0
-1964 -2112 0
-1961 -2129 0
-1962 -2130 0
-1963 -2131 0
-1964 -2132 0
-1961 -2433 0
-1962 -2434 0
-1963 -2435 0
-1964 -2436 0
-1961 -2605 0
-1962 -2606 0
-1963 -2607 0
-1964 -2608 0
-1965 -2309 0
-1966 -2310 0
-1967 -2311 0
-1968 -2312 0
-1965 -2609 0
-1966 -2610 0
-1967 -2611 0
-1968 -2612 0
-1969 -1973 0
-1970 -1974 0
-1971 -1975 0
-1972 -1976 0
-1969 -2921 0
-1970 -2922 0
-1971 -2923 0
-1972 -2924 0
-1973 -2329 0
-1974 -2330 0
-1975 -2331 0
-1976 -2332 0
-1973 -2465 0
-1974 -2466 0
-1975 -2467 0
-1976 -2468 0
-1973 -2629 0
-1974 -2630 0
-1975 -2631 0
-1976 -2632 0
-1981 -1985 0
-1982 -1986 0
-1983 -1987 0
-1984 -1988 0
-1981 -2021 0
-1982 -2022 0
-1983 -2023 0
-1984 -2024 0
-1981 -2717 0
-1982 -2718 0
-1983 -2719 0
-1984 -2720 0
-1985 -2029 0
-1986 -2030 0
-1987 -2031 0
-1988 -2032 0
-1985 -2369 0
-1986 -2370 0
-1987 -2371 0
-1988 -2372 0
-1985 -2585 0
-1986 -2586 0
-1987 -2587 0
-1988 -2588 0
-1985 -2881 0
-1986 -2882 0
-1987 -2883 0
-1988 -2884 0
-1989 -1997 0
-1990 -1998 0
-1991 -1999 0
-1992 -2000 0
-1989 -2001 0
-1990 -2002 0
-1991 -2003 0
-1992 -2004 0
-1989 -2053 0
-1990 -2054 0
-1991 -2055 0
-1992 -2056 0
-1989 -2613 0
-1990 -2614 0
-1991 -2615 0
-1992 -2616 0
-1993 -1997 0
-1994 -1998 0
-1995 -1999 0
-1996 -2000 0
-1993 -2085 0
-1994 -2086 0
-1995 -2087 0
-1996 -2088 0
-1993 -2149 0
-1994 -2150 0
-1995 -2151 0
-1996 -2152 0
-1997 -2001 0
-1998 -2002 0
-1999 -2003 0
-2000 -2004 0
-1997 -2005 0
-1998 -2006 0
-1999 -2007 0
-2000 -2008 0
-1997 -2085 0
-1998 -2086 0
-1999 -2087 0
-2000 -2088 0
-1997 -2153 0
-1998 -2154 0
-1999 -2155 0
-2000 -2156 0
-1997 -2401 0
-1998 -2402 0
-1999 -2403 0
-2000 -2404 0
-1997 -2537 0
-1998 -2538 0
-1999 -2539 0
-2000 -2540 0
-1997 -2713 0
-1998 -2714 0
-1999 -2715 0
-2000 -2716 0
-1997 -2861 0
-1998 -2862 0
-1999 -2863 0
-2000 -2864 0
-2001 -2009 0
-2002 -2010 0
-2003 -2011 0
-2004 -2012 0
-2001 -2089 0
-2002 -2090 0
-2003 -2091 0
-2004 -2092 0
-2001 -2409 0
-2002 -2410 0
-2003 -2411 0
-2004 -2412 0
-2001 -2529 0
-2002 -2530 0
-2003 -2531 0
-2004 -2532 0
-2001 -2865 0
-2002 -2866 0
-2003 -2867 0
-2004 -2868 0
-2005 -2009 0
-2006 -2010 0
-2007 -2011 0
-2008 -2012 0
-2005 -2101 0
-2006 -2102 0
-2007 -2103 0
-2008 -2104 0
-2005 -2161 0
-2006 -2162 0
-2007 -2163 0
-2008 -2164 0
-2005 -2541 0
-2006 -2542 0
-2007 -2543 0
-2008 -2544 0
-2005 -2721 0
-2006 -2722 0
-2007 -2723 0
-2008 -2724 0
-2009 -2105 0
-2010 -2106 0
-2011 -2107 0
-2012 -2108 0
-2009 -2413 0
-2010 -2414 0
-2011 -2415 0
-2012 -2416 0
-2009 -2869 0
-2010 -2870 0
-2011 -2871 0
-2012 -2872 0
-2017 -2021 0
-2018 -2022 0
-2019 -2023 0
-2020 -2024 0
-2017 -2025 0
-2018 -2026 0
-2019 -2027 0
-2020 -2028 0
-2017 -2033 0
-2018 -2034 0
-2019 -2035 0
-2020 -2036 0
-2017 -2037 0
-2018 -2038 0
-2019 -2039 0
-2020 -2040 0
-2017 -2049 0
-2018 -2050 0
-2019 -2051 0
-2020 -2052 0
-2017 -2053 0
-2018 -2054 0
-2019 -2055 0
-2020 -2056 0
-2017 -2729 0
-2018 -2730 0
-2019 -2731 0
-2020 -2732 0
-2017 -2865 0
-2018 -2866 0
-2019 -2867 0
-2020 -2868 0
-2017 -2885 0
-2018 -2886 0
-2019 -2887 0
-2020 -2888 0
-2021 -2029 0
-2022 -2030 0
-2023 -2031 0
-2024 -2032 0
-2021 -2041 0
-2022 -2042 0
-2023 -2043 0
-2024 -2044 0
-2021 -2045 0
-2022 -2046 0
-2023 -2047 0
-2024 -2048 0
-2021 -2057 0
-2022 -2058 0
-2023 -2059 0
-2024 -2060 0
-2021 -2061 0
-2022 -2062 0
-2023 -2063 0
-2024 -2064 0
-2021 -2421 0
-2022 -2422 0
-2023 -2423 0
-2024 -2424 0
-2021 -2737 0
-2022 -2738 0
-2023 -2739 0
-2024 -2740 0
-2021 -2869 0
-2022 -2870 0
-2023 -2871 0
-2024 -2872 0
-2021 -2885 0
-2022 -2886 0
-2023 -2887 0
-2024 -2888 0
-2025 -2029 0
-2026 -2030 0
-2027 -2031 0
-2028 -2032 0
-2025 -2657 0
-2026 -2658 0
-2027 -2659 0
-2028 -2660 0
-2025 -2889 0
-2026 -2890 0
-2027 -2891 0
-2028 -2892 0
-2029 -2373 0
-2030 -2374 0
-2031 -2375 0
-2032 -2376 0
-2029 -2429 0
-2030 -2430 0
-2031 -2431 0
-2032 -2432 0
-2029 -2661 0
-2030 -2662 0
-2031 -2663 0
-2032 -2664 0
-2029 -2889 0
-2030 -2890 0
-2031 -2891 0
-2032 -2892 0
-2033 -2037 0
-2034 -2038 0
-2035 -2039 0
-2036 -2040 0
-2033 -2041 0
-2034 -2042 0
-2035 -2043 0
-2036 -2044 0
-2033 -2081 0
-2034 -2082 0
-2035 -2083 0
-2036 -2084 0
-2033 -2085 0
-2034 -2086 0
-2035 -2087 0
-2036 -2088 0
-2033 -2165 0
-2034 -2166 0
-2035 -2167 0
-2036 -2168 0
-2033 -2481 0
-2034 -2482 0
-2035 -2483 0
-2036 -2484 0
-2033 -2769 0
-2034 -2770 0
-2035 -2771 0
-2036 -2772 0
-2033 -2877 0
-2034 -2878 0
-2035 -2879 0
-2036 -2880 0
-2033 -2893 0
-2034 -2894 0
-2035 -2895 0
-2036 -2896 0
-2037 -2045 0
-2038 -2046 0
-2039 -2047 0
-2040 -2048 0
-2037 -2089 0
-2038 -2090 0
-2039 -2091 0
-2040 -2092 0
-2037 -2733 0
-2038 -2734 0
-2039 -2735 0
-2040 -2736 0
-2037 -2773 0
-2038 -2774 0
-2039 -2775 0
-2040 -2776 0
-2037 -2897 0
-2038 -2898 0
-2039 -2899 0
-2040 -2900 0
-2041 -2045 0
-2042 -2046 0
-2043 -2047 0
-2044 -2048 0
-2041 -2097 0
-2042 -2098 0
-2043 -2099 0
-2044 -2100 0
-2041 -2101 0
-2042 -2102 0
-2043 -2103 0
-2044 -2104 0
-2041 -2173 0
-2042 -2174 0
-2043 -2175 0
-2044 -2176 0
-2041 -2893 0
-2042 -2894 0
-2043 -2895 0
-2044 -2896 0
-2045 -2105 0
-2046 -2106 0
-2047 -2107 0
-2048 -2108 0
-2045 -2745 0
-2046 -2746 0
-2047 -2747 0
-2048 -2748 0
-2045 -2785 0
-2046 -2786 0
-2047 -2787 0
-2048 -2788 0
-2045 -2897 0
-2046 -2898 0
-2047 -2899 0
-2048 -2900 0
-2049 -2053 0
-2050 -2054 0
-2051 -2055 0
-2052 -2056 0
-2049 -2057 0
-2050 -2058 0
-2051 -2059 0
-2052 -2060 0
-2049 -2081 0
-2050 -2082 0
-2051 -2083 0
-2052 -2084 0
-2049 -2933 0
-2050 -2934 0
-2051 -2935 0
-2052 -2936 0
-2053 -2061 0
-2054 -2062 0
-2055 -2063 0
-2056 -2064 0
-2053 -2085 0
-2054 -2086 0
-2055 -2087 0
-2056 -2088 0
-2053 -2089 0
-2054 -2090 0
-2055 -2091 0
-2056 -2092 0
-2053 -2189 0
-2054 -2190 0
-2055 -2191 0
-2056 -2192 0
-2053 -2477 0
-2054 -2478 0
-2055 -2479 0
-2056 -2480 0
-2057 -2061 0
-2058 -2062 0
-2059 -2063 0
-2060 -2064 0
-2057 -2097 0
-2058 -2098 0
-2059 -2099 0
-2060 -2100 0
-2057 -2453 0
-2058 -2454 0
-2059 -2455 0
-2060 -2456 0
-2057 -2677 0
-2058 -2678 0
-2059 -2679 0
-2060 -2680 0
-2057 -2937 0
-2058 -2938 0
-2059 -2939 0
-2060 -2940 0
-2061 -2101 0
-2062 -2102 0
-2063 -2103 0
-2064 -2104 0
-2061 -2105 0
-2062 -2106 0
-2063 -2107 0
-2064 -2108 0
-2061 -2201 0
-2062 -2202 0
-2063 -2203 0
-2064 -2204 0
-2065 -2077 0
-2066 -2078 0
-2067 -2079 0
-2068 -2080 0
-2065 -2085 0
-2066 -2086 0
-2067 -2087 0
-2068 -2088 0
-2065 -2205 0
-2066 -2206 0
-2067 -2207 0
-2068 -2208 0
-2065 -2545 0
-2066 -2546 0
-2067 -2547 0
-2068 -2548 0
-2065 -2793 0
-2066 -2794 0
-2067 -2795 0
-2068 -2796 0
-2077 -2101 0
-2078 -2102 0
-2079 -2103 0
-2080 -2104 0
-2077 -2209 0
-2078 -2210 0
-2079 -2211 0
-2080 -2212 0
-2081 -2085 0
-2082 -2086 0
-2083 -2087 0
-2084 -2088 0
-2081 -2097 0
-2082 -2098 0
-2083 -2099 0
-2084 -2100 0
-2081 -2229 0
-2082 -2230 0
-2083 -2231 0
-2084 -2232 0
-2081 -2521 0
-2082 -2522 0
-2083 -2523 0
-2084 -2524 0
-2081 -2725 0
-2082 -2726 0
-2083 -2727 0
-2084 -2728 0
-2085 -2089 0
-2086 -2090 0
-2087 -2091 0
-2088 -2092 0
-2085 -2093 0
-2086 -2094 0
-2087 -2095 0
-2088 -2096 0
-2085 -2101 0
-2086 -2102 0
-2087 -2103 0
-2088 -2104 0
-2085 -2237 0
-2086 -2238 0
-2087 -2239 0
-2088 -2240 0
-2085 -2485 0
-2086 -2486 0
-2087 -2487 0
-2088 -2488 0
-2085 -2525 0
-2086 -2526 0
-2087 -2527 0
-2088 -2528 0
-2085 -2797 0
-2086 -2798 0
-2087 -2799 0
-2088 -2800 0
-2089 -2105 0
-2090 -2106 0
-2091 -2107 0
-2092 -2108 0
-2089 -2241 0
-2090 -2242 0
-2091 -2243 0
-2092 -2244 0
-2089 -2489 0
-2090 -2490 0
-2091 -2491 0
-2092 -2492 0
-2089 -2553 0
-2090 -2554 0
-2091 -2555 0
-2092 -2556 0
-2089 -2801 0
-2090 -2802 0
-2091 -2803 0
-2092 -2804 0
-2093 -2109 0
-2094 -2110 0
-2095 -2111 0
-2096 -2112 0
-2093 -2253 0
-2094 -2254 0
-2095 -2255 0
-2096 -2256 0
-2093 -2497 0
-2094 -2498 0
-2095 -2499 0
-2096 -2500 0
-2093 -2809 0
-2094 -2810 0
-2095 -2811 0
-2096 -2812 0
-2097 -2101 0
-2098 -2102 0
-2099 -2103 0
-2100 -2104 0
-2097 -2265 0
-2098 -2266 0
-2099 -2267 0
-2100 -2268 0
-2097 -2533 0
-2098 -2534 0
-2099 -2535 0
-2100 -2536 0
-2097 -2733 0
-2098 -2734 0
-2099 -2735 0
-2100 -2736 0
-2101 -2105 0
-2102 -2106 0
-2103 -2107 0
-2104 -2108 0
-2101 -2109 0
-2102 -2110 0
-2103 -2111 0
-2104 -2112 0
-2101 -2273 0
-2102 -2274 0
-2103 -2275 0
-2104 -2276 0
-2101 -2501 0
-2102 -2502 0
-2103 -2503 0
-2104 -2504 0
-2105 -2277 0
-2106 -2278 0
-2107 -2279 0
-2108 -2280 0
-2105 -2817 0
-2106 -2818 0
-2107 -2819 0
-2108 -2820 0
-2109 -2289 0
-2110 -2290 0
-2111 -2291 0
-2112 -2292 0
-2109 -2505 0
-2110 -2506 0
-2111 -2507 0
-2112 -2508 0
-2117 -2125 0
-2118 -2126 0
-2119 -2127 0
-2120 -2128 0
-2117 -2221 0
-2118 -2222 0
-2119 -2223 0
-2120 -2224 0
-2117 -2237 0
-2118 -2238 0
-2119 -2239 0
-2120 -2240 0
-2117 -2557 0
-2118 -2558 0
-2119 -2559 0
-2120 -2560 0
-2125 -2129 0
-2126 -2130 0
-2127 -2131 0
-2128 -2132 0
-2125 -2257 0
-2126 -2258 0
-2127 -2259 0
-2128 -2260 0
-2125 -2273 0
-2126 -2274 0
-2127 -2275 0
-2128 -2276 0
-2125 -2453 0
-2126 -2454 0
-2127 -2455 0
-2128 -2456 0
-2125 -2701 0
-2126 -2702 0
-2127 -2703 0
-2128 -2704 0
-2129 -2273 0
-2130 -2274 0
-2131 -2275 0
-2132 -2276 0
-2129 -2289 0
-2130 -2290 0
-2131 -2291 0
-2132 -2292 0
-2129 -2705 0
-2130 -2706 0
-2131 -2707 0
-2132 -2708 0
-2133 -2137 0
-2134 -2138 0
-2135 -2139 0
-2136 -2140 0
-2133 -2141 0
-2134 -2142 0
-2135 -2143 0
-2136 -2144 0
-2133 -2713 0
-2134 -2714 0
-2135 -2715 0
-2136 -2716 0
-2133 -2905 0
-2134 -2906 0
-2135 -2907 0
-2136 -2908 0
-2133 -2909 0
-2134 -2910 0
-2135 -2911 0
-2136 -2912 0
-2137 -2145 0
-2138 -2146 0
-2139 -2147 0
-2140 -2148 0
-2137 -2721 0
-2138 -2722 0
-2139 -2723 0
-2140 -2724 0
-2137 -2909 0
-2138 -2910 0
-2139 -2911 0
-2140 -2912 0
-2141 -2145 0
-2142 -2146 0
-2143 -2147 0
-2144 -2148 0
-2141 -2489 0
-2142 -2490 0
-2143 -2491 0
-2144 -2492 0
-2141 -2601 0
-2142 -2602 0
-2143 -2603 0
-2144 -2604 0
-2141 -2913 0
-2142 -2914 0
-2143 -2915 0
-2144 -2916 0
-2141 -2917 0
-2142 -2918 0
-2143 -2919 0
-2144 -2920 0
-2145 -2609 0
-2146 -2610 0
-2147 -2611 0
-2148 -2612 0
-2145 -2917 0
-2146 -2918 0
-2147 -2919 0
-2148 -2920 0
-2149 -2153 0
-2150 -2154 0
-2151 -2155 0
-2152 -2156 0
-2149 -2157 0
-2150 -2158 0
-2151 -2159 0
-2152 -2160 0
-2149 -2225 0
-2150 -2226 0
-2151 -2227 0
-2152 -2228 0
-2149 -2237 0
-2150 -2238 0
-2151 -2239 0
-2152 -2240 0
-2149 -2509 0
-2150 -2510 0
-2151 -2511 0
-2152 -2512 0
-2153 -2161 0
-2154 -2162 0
-2155 -2163 0
-2156 -2164 0
-2153 -2237 0
-2154 -2238 0
-2155 -2239 0
-2156 -2240 0
-2153 -2513 0
-2154 -2514 0
-2155 -2515 0
-2156 -2516 0
-2157 -2161 0
-2158 -2162 0
-2159 -2163 0
-2160 -2164 0
-2157 -2261 0
-2158 -2262 0
-2159 -2263 0
-2160 -2264 0
-2157 -2273 0
-2158 -2274 0
-2159 -2275 0
-2160 -2276 0
-2157 -2517 0
-2158 -2518 0
-2159 -2519 0
-2160 -2520 0
-2161 -2273 0
-2162 -2274 0
-2163 -2275 0
-2164 -2276 0
-2161 -2285 0
-2162 -2286 0
-2163 -2287 0
-2164 -2288 0
-2161 -2761 0
-2162 -2762 0
-2163 -2763 0
-2164 -2764 0
-2165 -2169 0
-2166 -2170 0
-2167 -2171 0
-2168 -2172 0
-2165 -2173 0
-2166 -2174 0
-2167 -2175 0
-2168 -2176 0
-2165 -2229 0
-2166 -2230 0
-2167 -2231 0
-2168 -2232 0
-2165 -2237 0
-2166 -2238 0
-2167 -2239 0
-2168 -2240 0
-2165 -2769 0
-2166 -2770 0
-2167 -2771 0
-2168 -2772 0
-2169 -2177 0
-2170 -2178 0
-2171 -2179 0
-2172 -2180 0
-2169 -2237 0
-2170 -2238 0
-2171 -2239 0
-2172 -2240 0
-2169 -2245 0
-2170 -2246 0
-2171 -2247 0
-2172 -2248 0
-2169 -2777 0
-2170 -2778 0
-2171 -2779 0
-2172 -2780 0
-2173 -2177 0
-2174 -2178 0
-2175 -2179 0
-2176 -2180 0
-2173 -2265 0
-2174 -2266 0
-2175 -2267 0
-2176 -2268 0
-2173 -2273 0
-2174 -2274 0
-2175 -2275 0
-2176 -2276 0
-2173 -2697 0
-2174 -2698 0
-2175 -2699 0
-2176 -2700 0
-2177 -2273 0
-2178 -2274 0
-2179 -2275 0
-2180 -2276 0
-2177 -2281 0
-2178 -2282 0
-2179 -2283 0
-2180 -2284 0
-2177 -2481 0
-2178 -2482 0
-2179 -2483 0
-2180 -2484 0
-2185 -2189 0
-2186 -2190 0
-2187 -2191 0
-2188 -2192 0
-2185 -2197 0
-2186 -2198 0
-2187 -2199 0
-2188 -2200 0
-2185 -2233 0
-2186 -2234 0
-2187 -2235 0
-2188 -2236 0
-2185 -2237 0
-2186 -2238 0
-2187 -2239 0
-2188 -2240 0
-2189 -2201 0
-2190 -2202 0
-2191 -2203 0
-2192 -2204 0
-2189 -2237 0
-2190 -2238 0
-2191 -2239 0
-2192 -2240 0
-2189 -2241 0
-2190 -2242 0
-2191 -2243 0
-2192 -2244 0
-2197 -2201 0
-2198 -2202 0
-2199 -2203 0
-2200 -2204 0
-2197 -2269 0
-2198 -2270 0
-2199 -2271 0
-2200 -2272 0
-2197 -2273 0
-2198 -2274 0
-2199 -2275 0
-2200 -2276 0
-2197 -2805 0
-2198 -2806 0
-2199 -2807 0
-2200 -2808 0
-2201 -2273 0
-2202 -2274 0
-2203 -2275 0
-2204 -2276 0
-2201 -2277 0
-2202 -2278 0
-2203 -2279 0
-2204 -2280 0
-2201 -2557 0
-2202 -2558 0
-2203 -2559 0
-2204 -2560 0
-2205 -2209 0
-2206 -2210 0
-2207 -2211 0
-2208 -2212 0
-2205 -2237 0
-2206 -2238 0
-2207 -2239 0
-2208 -2240 0
-2205 -2841 0
-2206 -2842 0
-2207 -2843 0
-2208 -2844 0
-2209 -2273 0
-2210 -2274 0
-2211 -2275 0
-2212 -2276 0
-2209 -2509 0
-2210 -2510 0
-2211 -2511 0
-2212 -2512 0
-2209 -2929 0
-2210 -2930 0
-2211 -2931 0
-2212 -2932 0
-2217 -2273 0
-2218 -2274 0
-2219 -2275 0
-2220 -2276 0
-2217 -2821 0
-2218 -2822 0
-2219 -2823 0
-2220 -2824 0
-2217 -2909 0
-2218 -2910 0
-2219 -2911 0
-2220 -2912 0
-2221 -2237 0
-2222 -2238 0
-2223 -2239 0
-2224 -2240 0
-2221 -2257 0
-2222 -2258 0
-2223 -2259 0
-2224 -2260 0
-2221 -2389 0
-2222 -2390 0
-2223 -2391 0
-2224 -2392 0
-2221 -2613 0
-2222 -2614 0
-2223 -2615 0
-2224 -2616 0
-2221 -2845 0
-2222 -2846 0
-2223 -2847 0
-2224 -2848 0
-2225 -2237 0
-2226 -2238 0
-2227 -2239 0
-2228 -2240 0
-2225 -2261 0
-2226 -2262 0
-2227 -2263 0
-2228 -2264 0
-2225 -2345 0
-2226 -2346 0
-2227 -2347 0
-2228 -2348 0
-2225 -2573 0
-2226 -2574 0
-2227 -2575 0
-2228 -2576 0
-2229 -2237 0
-2230 -2238 0
-2231 -2239 0
-2232 -2240 0
-2229 -2265 0
-2230 -2266 0
-2231 -2267 0
-2232 -2268 0
-2229 -2329 0
-2230 -2330 0
-2231 -2331 0
-2232 -2332 0
-2233 -2237 0
-2234 -2238 0
-2235 -2239 0
-2236 -2240 0
-2233 -2269 0
-2234 -2270 0
-2235 -2271 0
-2236 -2272 0
-2233 -2545 0
-2234 -2546 0
-2235 -2547 0
-2236 -2548 0
-2237 -2241 0
-2238 -2242 0
-2239 -2243 0
-2240 -2244 0
-2237 -2245 0
-2238 -2246 0
-2239 -2247 0
-2240 -2248 0
-2237 -2253 0
-2238 -2254 0
-2239 -2255 0
-2240 -2256 0
-2237 -2273 0
-2238 -2274 0
-2239 -2275 0
-2240 -2276 0
-2237 -2297 0
-2238 -2298 0
-2239 -2299 0
-2240 -2300 0
-2237 -2305 0
-2238 -2306 0
-2239 -2307 0
-2240 -2308 0
-2237 -2317 0
-2238 -2318 0
-2239 -2319 0
-2240 -2320 0
-2237 -2329 0
-2238 -2330 0
-2239 -2331 0
-2240 -2332 0
-2237 -2345 0
-2238 -2346 0
-2239 -2347 0
-2240 -2348 0
-2237 -2349 0
-2238 -2350 0
-2239 -2351 0
-2240 -2352 0
-2237 -2389 0
-2238 -2390 0
-2239 -2391 0
-2240 -2392 0
-2237 -2393 0
-2238 -2394 0
-2239 -2395 0
-2240 -2396 0
-2237 -2549 0
-2238 -2550 0
-2239 -2551 0
-2240 -2552 0
-2237 -2577 0
-2238 -2578 0
-2239 -2579 0
-2240 -2580 0
-2237 -2621 0
-2238 -2622 0
-2239 -2623 0
-2240 -2624 0
-2237 -2709 0
-2238 -2710 0
-2239 -2711 0
-2240 -2712 0
-2237 -2797 0
-2238 -2798 0
-2239 -2799 0
-2240 -2800 0
-2237 -2849 0
-2238 -2850 0
-2239 -2851 0
-2240 -2852 0
-2237 -2905 0
-2238 -2906 0
-2239 -2907 0
-2240 -2908 0
-2237 -2913 0
-2238 -2914 0
-2239 -2915 0
-2240 -2916 0
-2237 -2921 0
-2238 -2922 0
-2239 -2923 0
-2240 -2924 0
-2237 -2933 0
-2238 -2934 0
-2239 -2935 0
-2240 -2936 0
-2241 -2277 0
-2242 -2278 0
-2243 -2279 0
-2244 -2280 0
-2241 -2317 0
-2242 -2318 0
-2243 -2319 0
-2244 -2320 0
-2241 -2801 0
-2242 -2802 0
-2243 -2803 0
-2244 -2804 0
-2245 -2281 0
-2246 -2282 0
-2247 -2283 0
-2248 -2284 0
-2245 -2713 0
-2246 -2714 0
-2247 -2715 0
-2248 -2716 0
-2253 -2289 0
-2254 -2290 0
-2255 -2291 0
-2256 -2292 0
-2253 -2393 0
-2254 -2394 0
-2255 -2395 0
-2256 -2396 0
-2253 -2581 0
-2254 -2582 0
-2255 -2583 0
-2256 -2584 0
-2253 -2809 0
-2254 -2810 0
-2255 -2811 0
-2256 -2812 0
-2257 -2273 0
-2258 -2274 0
-2259 -2275 0
-2260 -2276 0
-2257 -2401 0
-2258 -2402 0
-2259 -2403 0
-2260 -2404 0
-2257 -2625 0
-2258 -2626 0
-2259 -2627 0
-2260 -2628 0
-2261 -2273 0
-2262 -2274 0
-2263 -2275 0
-2264 -2276 0
-2261 -2353 0
-2262 -2354 0
-2263 -2355 0
-2264 -2356 0
-2261 -2585 0
-2262 -2586 0
-2263 -2587 0
-2264 -2588 0
-2261 -2825 0
-2262 -2826 0
-2263 -2827 0
-2264 -2828 0
-2265 -2273 0
-2266 -2274 0
-2267 -2275 0
-2268 -2276 0
-2265 -2337 0
-2266 -2338 0
-2267 -2339 0
-2268 -2340 0
-2265 -2749 0
-2266 -2750 0
-2267 -2751 0
-2268 -2752 0
-2265 -2773 0
-2266 -2774 0
-2267 -2775 0
-2268 -2776 0
-2269 -2273 0
-2270 -2274 0
-2271 -2275 0
-2272 -2276 0
-2269 -2321 0
-2270 -2322 0
-2271 -2323 0
-2272 -2324 0
-2269 -2777 0
-2270 -2778 0
-2271 -2779 0
-2272 -2780 0
-2273 -2277 0
-2274 -2278 0
-2275 -2279 0
-2276 -2280 0
-2273 -2281 0
-2274 -2282 0
-2275 -2283 0
-2276 -2284 0
-2273 -2285 0
-2274 -2286 0
-2275 -2287 0
-2276 -2288 0
-2273 -2289 0
-2274 -2290 0
-2275 -2291 0
-2276 -2292 0
-2273 -2293 0
-2274 -2294 0
-2275 -2295 0
-2276 -2296 0
-2273 -2301 0
-2274 -2302 0
-2275 -2303 0
-2276 -2304 0
-2273 -2309 0
-2274 -2310 0
-2275 -2311 0
-2276 -2312 0
-2273 -2321 0
-2274 -2322 0
-2275 -2323 0
-2276 -2324 0
-2273 -2325 0
-2274 -2326 0
-2275 -2327 0
-2276 -2328 0
-2273 -2337 0
-2274 -2338 0
-2275 -2339 0
-2276 -2340 0
-2273 -2341 0
-2274 -2342 0
-2275 -2343 0
-2276 -2344 0
-2273 -2353 0
-2274 -2354 0
-2275 -2355 0
-2276 -2356 0
-2273 -2357 0
-2274 -2358 0
-2275 -2359 0
-2276 -2360 0
-2273 -2401 0
-2274 -2402 0
-2275 -2403 0
-2276 -2404 0
-2273 -2405 0
-2274 -2406 0
-2275 -2407 0
-2276 -2408 0
-2273 -2445 0
-2274 -2446 0
-2275 -2447 0
-2276 -2448 0
-2273 -2521 0
-2274 -2522 0
-2275 -2523 0
-2276 -2524 0
-2273 -2561 0
-2274 -2562 0
-2275 -2563 0
-2276 -2564 0
-2273 -2589 0
-2274 -2590 0
-2275 -2591 0
-2276 -2592 0
-2273 -2717 0
-2274 -2718 0
-2275 -2719 0
-2276 -2720 0
-2273 -2753 0
-2274 -2754 0
-2275 -2755 0
-2276 -2756 0
-2273 -2781 0
-2274 -2782 0
-2275 -2783 0
-2276 -2784 0
-2273 -2829 0
-2274 -2830 0
-2275 -2831 0
-2276 -2832 0
-2273 -2885 0
-2274 -2886 0
-2275 -2887 0
-2276 -2888 0
-2273 -2909 0
-2274 -2910 0
-2275 -2911 0
-2276 -2912 0
-2273 -2917 0
-2274 -2918 0
-2275 -2919 0
-2276 -2920 0
-2273 -2921 0
-2274 -2922 0
-2275 -2923 0
-2276 -2924 0
-2273 -2929 0
-2274 -2930 0
-2275 -2931 0
-2276 -2932 0
-2273 -2937 0
-2274 -2938 0
-2275 -2939 0
-2276 -2940 0
-2277 -2325 0
-2278 -2326 0
-2279 -2327 0
-2280 -2328 0
-2277 -2817 0
-2278 -2818 0
-2279 -2819 0
-2280 -2820 0
-2281 -2341 0
-2282 -2342 0
-2283 -2343 0
-2284 -2344 0
-2281 -2449 0
-2282 -2450 0
-2283 -2451 0
-2284 -2452 0
-2281 -2525 0
-2282 -2526 0
-2283 -2527 0
-2284 -2528 0
-2281 -2721 0
-2282 -2722 0
-2283 -2723 0
-2284 -2724 0
-2285 -2357 0
-2286 -2358 0
-2287 -2359 0
-2288 -2360 0
-2285 -2529 0
-2286 -2530 0
-2287 -2531 0
-2288 -2532 0
-2289 -2405 0
-2290 -2406 0
-2291 -2407 0
-2292 -2408 0
-2289 -2593 0
-2290 -2594 0
-2291 -2595 0
-2292 -2596 0
-2293 -2533 0
-2294 -2534 0
-2295 -2535 0
-2296 -2536 0
-2293 -2789 0
-2294 -2790 0
-2295 -2791 0
-2296 -2792 0
-2297 -2301 0
-2298 -2302 0
-2299 -2303 0
-2300 -2304 0
-2297 -2641 0
-2298 -2642 0
-2299 -2643 0
-2300 -2644 0
-2297 -2913 0
-2298 -2914 0
-2299 -2915 0
-2300 -2916 0
-2301 -2537 0
-2302 -2538 0
-2303 -2539 0
-2304 -2540 0
-2301 -2889 0
-2302 -2890 0
-2303 -2891 0
-2304 -2892 0
-2301 -2917 0
-2302 -2918 0
-2303 -2919 0
-2304 -2920 0
-2305 -2309 0
-2306 -2310 0
-2307 -2311 0
-2308 -2312 0
-2305 -2553 0
-2306 -2554 0
-2307 -2555 0
-2308 -2556 0
-2305 -2601 0
-2306 -2602 0
-2307 -2603 0
-2308 -2604 0
-2305 -2933 0
-2306 -2934 0
-2307 -2935 0
-2308 -2936 0
-2309 -2609 0
-2310 -2610 0
-2311 -2611 0
-2312 -2612 0
-2309 -2937 0
-2310 -2938 0
-2311 -2939 0
-2312 -2940 0
-2317 -2325 0
-2318 -2326 0
-2319 -2327 0
-2320 -2328 0
-2317 -2825 0
-2318 -2826 0
-2319 -2827 0
-2320 -2828 0
-2321 -2325 0
-2322 -2326 0
-2323 -2327 0
-2324 -2328 0
-2321 -2793 0
-2322 -2794 0
-2323 -2795 0
-2324 -2796 0
-2321 -2893 0
-2322 -2894 0
-2323 -2895 0
-2324 -2896 0
-2325 -2897 0
-2326 -2898 0
-2327 -2899 0
-2328 -2900 0
-2329 -2337 0
-2330 -2338 0
-2331 -2339 0
-2332 -2340 0
-2329 -2629 0
-2330 -2630 0
-2331 -2631 0
-2332 -2632 0
-2337 -2341 0
-2338 -2342 0
-2339 -2343 0
-2340 -2344 0
-2337 -2645 0
-2338 -2646 0
-2339 -2647 0
-2340 -2648 0
-2337 -2801 0
-2338 -2802 0
-2339 -2803 0
-2340 -2804 0
-2341 -2465 0
-2342 -2466 0
-2343 -2467 0
-2344 -2468 0
-2341 -2649 0
-2342 -2650 0
-2343 -2651 0
-2344 -2652 0
-2345 -2349 0
-2346 -2350 0
-2347 -2351 0
-2348 -2352 0
-2345 -2353 0
-2346 -2354 0
-2347 -2355 0
-2348 -2356 0
-2345 -2657 0
-2346 -2658 0
-2347 -2659 0
-2348 -2660 0
-2345 -2725 0
-2346 -2726 0
-2347 -2727 0
-2348 -2728 0
-2349 -2357 0
-2350 -2358 0
-2351 -2359 0
-2352 -2360 0
-2349 -2665 0
-2350 -2666 0
-2351 -2667 0
-2352 -2668 0
-2349 -2729 0
-2350 -2730 0
-2351 -2731 0
-2352 -2732 0
-2353 -2357 0
-2354 -2358 0
-2355 -2359 0
-2356 -2360 0
-2353 -2473 0
-2354 -2474 0
-2355 -2475 0
-2356 -2476 0
-2353 -2661 0
-2354 -2662 0
-2355 -2663 0
-2356 -2664 0
-2353 -2733 0
-2354 -2734 0
-2355 -2735 0
-2356 -2736 0
-2357 -2553 0
-2358 -2554 0
-2359 -2555 0
-2360 -2556 0
-2357 -2737 0
-2358 -2738 0
-2359 -2739 0
-2360 -2740 0
-2365 -2369 0
-2366 -2370 0
-2367 -2371 0
-2368 -2372 0
-2365 -2373 0
-2366 -2374 0
-2367 -2375 0
-2368 -2376 0
-2365 -2477 0
-2366 -2478 0
-2367 -2479 0
-2368 -2480 0
-2365 -2573 0
-2366 -2574 0
-2367 -2575 0
-2368 -2576 0
-2365 -2929 0
-2366 -2930 0
-2367 -2931 0
-2368 -2932 0
-2369 -2377 0
-2370 -2378 0
-2371 -2379 0
-2372 -2380 0
-2369 -2585 0
-2370 -2586 0
-2371 -2587 0
-2372 -2588 0
-2369 -2929 0
-2370 -2930 0
-2371 -2931 0
-2372 -2932 0
-2373 -2377 0
-2374 -2378 0
-2375 -2379 0
-2376 -2380 0
-2373 -2597 0
-2374 -2598 0
-2375 -2599 0
-2376 -2600 0
-2373 -2733 0
-2374 -2734 0
-2375 -2735 0
-2376 -2736 0
-2373 -2933 0
-2374 -2934 0
-2375 -2935 0
-2376 -2936 0
-2373 -2937 0
-2374 -2938 0
-2375 -2939 0
-2376 -2940 0
-2377 -2605 0
-2378 -2606 0
-2379 -2607 0
-2380 -2608 0
-2377 -2745 0
-2378 -2746 0
-2379 -2747 0
-2380 -2748 0
-2377 -2937 0
-2378 -2938 0
-2379 -2939 0
-2380 -2940 0
-2389 -2393 0
-2390 -2394 0
-2391 -2395 0
-2392 -2396 0
-2389 -2401 0
-2390 -2402 0
-2391 -2403 0
-2392 -2404 0
-2389 -2877 0
-2390 -2878 0
-2391 -2879 0
-2392 -2880 0
-2393 -2405 0
-2394 -2406 0
-2395 -2407 0
-2396 -2408 0
-2401 -2405 0
-2402 -2406 0
-2403 -2407 0
-2404 -2408 0
-2401 -2513 0
-2402 -2514 0
-2403 -2515 0
-2404 -2516 0
-2405 -2653 0
-2406 -2654 0
-2407 -2655 0
-2408 -2656 0
-2409 -2413 0
-2410 -2414 0
-2411 -2415 0
-2412 -2416 0
-2409 -2693 0
-2410 -2694 0
-2411 -2695 0
-2412 -2696 0
-2409 -2905 0
-2410 -2906 0
-2411 -2907 0
-2412 -2908 0
-2413 -2909 0
-2414 -2910 0
-2415 -2911 0
-2416 -2912 0
-2421 -2429 0
-2422 -2430 0
-2423 -2431 0
-2424 -2432 0
-2421 -2453 0
-2422 -2454 0
-2423 -2455 0
-2424 -2456 0
-2421 -2481 0
-2422 -2482 0
-2423 -2483 0
-2424 -2484 0
-2421 -2777 0
-2422 -2778 0
-2423 -2779 0
-2424 -2780 0
-2421 -2845 0
-2422 -2846 0
-2423 -2847 0
-2424 -2848 0
-2421 -2909 0
-2422 -2910 0
-2423 -2911 0
-2424 -2912 0
-2429 -2433 0
-2430 -2434 0
-2431 -2435 0
-2432 -2436 0
-2429 -2485 0
-2430 -2486 0
-2431 -2487 0
-2432 -2488 0
-2429 -2497 0
-2430 -2498 0
-2431 -2499 0
-2432 -2500 0
-2429 -2597 0
-2430 -2598 0
-2431 -2599 0
-2432 -2600 0
-2429 -2661 0
-2430 -2662 0
-2431 -2663 0
-2432 -2664 0
-2429 -2689 0
-2430 -2690 0
-2431 -2691 0
-2432 -2692 0
-2429 -2917 0
-2430 -2918 0
-2431 -2919 0
-2432 -2920 0
-2433 -2501 0
-2434 -2502 0
-2435 -2503 0
-2436 -2504 0
-2433 -2505 0
-2434 -2506 0
-2435 -2507 0
-2436 -2508 0
-2433 -2605 0
-2434 -2606 0
-2435 -2607 0
-2436 -2608 0
-2445 -2449 0
-2446 -2450 0
-2447 -2451 0
-2448 -2452 0
-2445 -2465 0
-2446 -2466 0
-2447 -2467 0
-2448 -2468 0
-2445 -2473 0
-2446 -2474 0
-2447 -2475 0
-2448 -2476 0
-2445 -2513 0
-2446 -2514 0
-2447 -2515 0
-2448 -2516 0
-2449 -2465 0
-2450 -2466 0
-2451 -2467 0
-2452 -2468 0
-2449 -2621 0
-2450 -2622 0
-2451 -2623 0
-2452 -2624 0
-2449 -2761 0
-2450 -2762 0
-2451 -2763 0
-2452 -2764 0
-2453 -2521 0
-2454 -2522 0
-2455 -2523 0
-2456 -2524 0
-2453 -2797 0
-2454 -2798 0
-2455 -2799 0
-2456 -2800 0
-2453 -2949 0
-2454 -2950 0
-2455 -2951 0
-2456 -2952 0
-2469 -2473 0
-2470 -2474 0
-2471 -2475 0
-2472 -2476 0
-2469 -2545 0
-2470 -2546 0
-2471 -2547 0
-2472 -2548 0
-2469 -2769 0
-2470 -2770 0
-2471 -2771 0
-2472 -2772 0
-2469 -2921 0
-2470 -2922 0
-2471 -2923 0
-2472 -2924 0
-2473 -2549 0
-2474 -2550 0
-2475 -2551 0
-2476 -2552 0
-2473 -2773 0
-2474 -2774 0
-2475 -2775 0
-2476 -2776 0
-2477 -2485 0
-2478 -2486 0
-2479 -2487 0
-2480 -2488 0
-2477 -2489 0
-2478 -2490 0
-2479 -2491 0
-2480 -2492 0
-2481 -2497 0
-2482 -2498 0
-2483 -2499 0
-2484 -2500 0
-2481 -2521 0
-2482 -2522 0
-2483 -2523 0
-2484 -2524 0
-2481 -2525 0
-2482 -2526 0
-2483 -2527 0
-2484 -2528 0
-2481 -2877 0
-2482 -2878 0
-2483 -2879 0
-2484 -2880 0
-2485 -2489 0
-2486 -2490 0
-2487 -2491 0
-2488 -2492 0
-2485 -2497 0
-2486 -2498 0
-2487 -2499 0
-2488 -2500 0
-2485 -2501 0
-2486 -2502 0
-2487 -2503 0
-2488 -2504 0
-2485 -2577 0
-2486 -2578 0
-2487 -2579 0
-2488 -2580 0
-2485 -2721 0
-2486 -2722 0
-2487 -2723 0
-2488 -2724 0
-2489 -2737 0
-2490 -2738 0
-2491 -2739 0
-2492 -2740 0
-2493 -2497 0
-2494 -2498 0
-2495 -2499 0
-2496 -2500 0
-2493 -2537 0
-2494 -2538 0
-2495 -2539 0
-2496 -2540 0
-2493 -2601 0
-2494 -2602 0
-2495 -2603 0
-2496 -2604 0
-2497 -2505 0
-2498 -2506 0
-2499 -2507 0
-2500 -2508 0
-2497 -2537 0
-2498 -2538 0
-2499 -2539 0
-2500 -2540 0
-2497 -2581 0
-2498 -2582 0
-2499 -2583 0
-2500 -2584 0
-2497 -2793 0
-2498 -2794 0
-2499 -2795 0
-2500 -2796 0
-2497 -2881 0
-2498 -2882 0
-2499 -2883 0
-2500 -2884 0
-2501 -2505 0
-2502 -2506 0
-2503 -2507 0
-2504 -2508 0
-2501 -2589 0
-2502 -2590 0
-2503 -2591 0
-2504 -2592 0
-2505 -2541 0
-2506 -2542 0
-2507 -2543 0
-2508 -2544 0
-2505 -2593 0
-2506 -2594 0
-2507 -2595 0
-2508 -2596 0
-2509 -2513 0
-2510 -2514 0
-2511 -2515 0
-2512 -2516 0
-2509 -2517 0
-2510 -2518 0
-2511 -2519 0
-2512 -2520 0
-2509 -2521 0
-2510 -2522 0
-2511 -2523 0
-2512 -2524 0
-2509 -2549 0
-2510 -2550 0
-2511 -2551 0
-2512 -2552 0
-2509 -2613 0
-2510 -2614 0
-2511 -2615 0
-2512 -2616 0
-2509 -2801 0
-2510 -2802 0
-2511 -2803 0
-2512 -2804 0
-2513 -2529 0
-2514 -2530 0
-2515 -2531 0
-2516 -2532 0
-2513 -2549 0
-2514 -2550 0
-2515 -2551 0
-2516 -2552 0
-2517 -2533 0
-2518 -2534 0
-2519 -2535 0
-2520 -2536 0
-2517 -2625 0
-2518 -2626 0
-2519 -2627 0
-2520 -2628 0
-2517 -2817 0
-2518 -2818 0
-2519 -2819 0
-2520 -2820 0
-2521 -2525 0
-2522 -2526 0
-2523 -2527 0
-2524 -2528 0
-2521 -2529 0
-2522 -2530 0
-2523 -2531 0
-2524 -2532 0
-2521 -2533 0
-2522 -2534 0
-2523 -2535 0
-2524 -2536 0
-2521 -2537 0
-2522 -2538 0
-2523 -2539 0
-2524 -2540 0
-2521 -2553 0
-2522 -2554 0
-2523 -2555 0
-2524 -2556 0
-2521 -2717 0
-2522 -2718 0
-2523 -2719 0
-2524 -2720 0
-2525 -2621 0
-2526 -2622 0
-2527 -2623 0
-2528 -2624 0
-2525 -2721 0
-2526 -2722 0
-2527 -2723 0
-2528 -2724 0
-2529 -2553 0
-2530 -2554 0
-2531 -2555 0
-2532 -2556 0
-2529 -2693 0
-2530 -2694 0
-2531 -2695 0
-2532 -2696 0
-2529 -2821 0
-2530 -2822 0
-2531 -2823 0
-2532 -2824 0
-2529 -2865 0
-2530 -2866 0
-2531 -2867 0
-2532 -2868 0
-2533 -2541 0
-2534 -2542 0
-2535 -2543 0
-2536 -2544 0
-2537 -2541 0
-2538 -2542 0
-2539 -2543 0
-2540 -2544 0
-2537 -2825 0
-2538 -2826 0
-2539 -2827 0
-2540 -2828 0
-2537 -2933 0
-2538 -2934 0
-2539 -2935 0
-2540 -2936 0
-2541 -2873 0
-2542 -2874 0
-2543 -2875 0
-2544 -2876 0
-2541 -2937 0
-2542 -2938 0
-2543 -2939 0
-2544 -2940 0
-2545 -2549 0
-2546 -2550 0
-2547 -2551 0
-2548 -2552 0
-2545 -2893 0
-2546 -2894 0
-2547 -2895 0
-2548 -2896 0
-2549 -2553 0
-2550 -2554 0
-2551 -2555 0
-2552 -2556 0
-2549 -2897 0
-2550 -2898 0
-2551 -2899 0
-2552 -2900 0
-2553 -2737 0
-2554 -2738 0
-2555 -2739 0
-2556 -2740 0
-2557 -2561 0
-2558 -2562 0
-2559 -2563 0
-2560 -2564 0
-2557 -2613 0
-2558 -2614 0
-2559 -2615 0
-2560 -2616 0
-2557 -2621 0
-2558 -2622 0
-2559 -2623 0
-2560 -2624 0
-2561 -2653 0
-2562 -2654 0
-2563 -2655 0
-2564 -2656 0
-2561 -2945 0
-2562 -2946 0
-2563 -2947 0
-2564 -2948 0
-2561 -2949 0
-2562 -2950 0
-2563 -2951 0
-2564 -2952 0
-2573 -2577 0
-2574 -2578 0
-2575 -2579 0
-2576 -2580 0
-2573 -2585 0
-2574 -2586 0
-2575 -2587 0
-2576 -2588 0
-2573 -2597 0
-2574 -2598 0
-2575 -2599 0
-2576 -2600 0
-2573 -2657 0
-2574 -2658 0
-2575 -2659 0
-2576 -2660 0
-2573 -2769 0
-2574 -2770 0
-2575 -2771 0
-2576 -2772 0
-2573 -2945 0
-2574 -2946 0
-2575 -2947 0
-2576 -2948 0
-2577 -2581 0
-2578 -2582 0
-2579 -2583 0
-2580 -2584 0
-2577 -2589 0
-2578 -2590 0
-2579 -2591 0
-2580 -2592 0
-2577 -2601 0
-2578 -2602 0
-2579 -2603 0
-2580 -2604 0
-2577 -2629 0
-2578 -2630 0
-2579 -2631 0
-2580 -2632 0
-2577 -2633 0
-2578 -2634 0
-2579 -2635 0
-2580 -2636 0
-2577 -2657 0
-2578 -2658 0
-2579 -2659 0
-2580 -2660 0
-2577 -2709 0
-2578 -2710 0
-2579 -2711 0
-2580 -2712 0
-2577 -2761 0
-2578 -2762 0
-2579 -2763 0
-2580 -2764 0
-2581 -2593 0
-2582 -2594 0
-2583 -2595 0
-2584 -2596 0
-2581 -2641 0
-2582 -2642 0
-2583 -2643 0
-2584 -2644 0
-2581 -2841 0
-2582 -2842 0
-2583 -2843 0
-2584 -2844 0
-2581 -2881 0
-2582 -2882 0
-2583 -2883 0
-2584 -2884 0
-2585 -2589 0
-2586 -2590 0
-2587 -2591 0
-2588 -2592 0
-2585 -2605 0
-2586 -2606 0
-2587 -2607 0
-2588 -2608 0
-2585 -2661 0
-2586 -2662 0
-2587 -2663 0
-2588 -2664 0
-2585 -2945 0
-2586 -2946 0
-2587 -2947 0
-2588 -2948 0
-2589 -2593 0
-2590 -2594 0
-2591 -2595 0
-2592 -2596 0
-2589 -2609 0
-2590 -2610 0
-2591 -2611 0
-2592 -2612 0
-2589 -2645 0
-2590 -2646 0
-2591 -2647 0
-2592 -2648 0
-2589 -2649 0
-2590 -2650 0
-2591 -2651 0
-2592 -2652 0
-2589 -2661 0
-2590 -2662 0
-2591 -2663 0
-2592 -2664 0
-2589 -2717 0
-2590 -2718 0
-2591 -2719 0
-2592 -2720 0
-2597 -2601 0
-2598 -2602 0
-2599 -2603 0
-2600 -2604 0
-2597 -2605 0
-2598 -2606 0
-2599 -2607 0
-2600 -2608 0
-2597 -2733 0
-2598 -2734 0
-2599 -2735 0
-2600 -2736 0
-2597 -2949 0
-2598 -2950 0
-2599 -2951 0
-2600 -2952 0
-2601 -2609 0
-2602 -2610 0
-2603 -2611 0
-2604 -2612 0
-2601 -2737 0
-2602 -2738 0
-2603 -2739 0
-2604 -2740 0
-2601 -2845 0
-2602 -2846 0
-2603 -2847 0
-2604 -2848 0
-2605 -2609 0
-2606 -2610 0
-2607 -2611 0
-2608 -2612 0
-2605 -2745 0
-2606 -2746 0
-2607 -2747 0
-2608 -2748 0
-2605 -2949 0
-2606 -2950 0
-2607 -2951 0
-2608 -2952 0
-2613 -2621 0
-2614 -2622 0
-2615 -2623 0
-2616 -2624 0
-2613 -2625 0
-2614 -2626 0
-2615 -2627 0
-2616 -2628 0
-2613 -2633 0
-2614 -2634 0
-2615 -2635 0
-2616 -2636 0
-2613 -2801 0
-2614 -2802 0
-2615 -2803 0
-2616 -2804 0
-2613 -2909 0
-2614 -2910 0
-2615 -2911 0
-2616 -2912 0
-2621 -2641 0
-2622 -2642 0
-2623 -2643 0
-2624 -2644 0
-2621 -2653 0
-2622 -2654 0
-2623 -2655 0
-2624 -2656 0
-2621 -2665 0
-2622 -2666 0
-2623 -2667 0
-2624 -2668 0
-2621 -2761 0
-2622 -2762 0
-2623 -2763 0
-2624 -2764 0
-2625 -2649 0
-2626 -2650 0
-2627 -2651 0
-2628 -2652 0
-2625 -2817 0
-2626 -2818 0
-2627 -2819 0
-2628 -2820 0
-2629 -2633 0
-2630 -2634 0
-2631 -2635 0
-2632 -2636 0
-2629 -2645 0
-2630 -2646 0
-2631 -2647 0
-2632 -2648 0
-2633 -2641 0
-2634 -2642 0
-2635 -2643 0
-2636 -2644 0
-2633 -2649 0
-2634 -2650 0
-2635 -2651 0
-2636 -2652 0
-2633 -2805 0
-2634 -2806 0
-2635 -2807 0
-2636 -2808 0
-2633 -2917 0
-2634 -2918 0
-2635 -2919 0
-2636 -2920 0
-2641 -2813 0
-2642 -2814 0
-2643 -2815 0
-2644 -2816 0
-2641 -2853 0
-2642 -2854 0
-2643 -2855 0
-2644 -2856 0
-2645 -2649 0
-2646 -2650 0
-2647 -2651 0
-2648 -2652 0
-2653 -2669 0
-2654 -2670 0
-2655 -2671 0
-2656 -2672 0
-2653 -2857 0
-2654 -2858 0
-2655 -2859 0
-2656 -2860 0
-2657 -2661 0
-2658 -2662 0
-2659 -2663 0
-2660 -2664 0
-2657 -2725 0
-2658 -2726 0
-2659 -2727 0
-2660 -2728 0
-2657 -2781 0
-2658 -2782 0
-2659 -2783 0
-2660 -2784 0
-2661 -2733 0
-2662 -2734 0
-2663 -2735 0
-2664 -2736 0
-2661 -2789 0
-2662 -2790 0
-2663 -2791 0
-2664 -2792 0
-2665 -2669 0
-2666 -2670 0
-2667 -2671 0
-2668 -2672 0
-2665 -2865 0
-2666 -2866 0
-2667 -2867 0
-2668 -2868 0
-2669 -2877 0
-2670 -2878 0
-2671 -2879 0
-2672 -2880 0
-2669 -2921 0
-2670 -2922 0
-2671 -2923 0
-2672 -2924 0
-2677 -2797 0
-2678 -2798 0
-2679 -2799 0
-2680 -2800 0
-2677 -2937 0
-2678 -2938 0
-2679 -2939 0
-2680 -2940 0
-2685 -2689 0
-2686 -2690 0
-2687 -2691 0
-2688 -2692 0
-2685 -2713 0
-2686 -2714 0
-2687 -2715 0
-2688 -2716 0
-2685 -2781 0
-2686 -2782 0
-2687 -2783 0
-2688 -2784 0
-2685 -2913 0
-2686 -2914 0
-2687 -2915 0
-2688 -2916 0
-2689 -2721 0
-2690 -2722 0
-2691 -2723 0
-2692 -2724 0
-2689 -2789 0
-2690 -2790 0
-2691 -2791 0
-2692 -2792 0
-2689 -2917 0
-2690 -2918 0
-2691 -2919 0
-2692 -2920 0
-2693 -2821 0
-2694 -2822 0
-2695 -2823 0
-2696 -2824 0
-2693 -2905 0
-2694 -2906 0
-2695 -2907 0
-2696 -2908 0
-2693 -2953 0
-2694 -2954 0
-2695 -2955 0
-2696 -2956 0
-2697 -2737 0
-2698 -2738 0
-2699 -2739 0
-2700 -2740 0
-2697 -2741 0
-2698 -2742 0
-2699 -2743 0
-2700 -2744 0
-2697 -2889 0
-2698 -2890 0
-2699 -2891 0
-2700 -2892 0
-2701 -2705 0
-2702 -2706 0
-2703 -2707 0
-2704 -2708 0
-2701 -2753 0
-2702 -2754 0
-2703 -2755 0
-2704 -2756 0
-2701 -2797 0
-2702 -2798 0
-2703 -2799 0
-2704 -2800 0
-2705 -2753 0
-2706 -2754 0
-2707 -2755 0
-2708 -2756 0
-2705 -2809 0
-2706 -2810 0
-2707 -2811 0
-2708 -2812 0
-2705 -2881 0
-2706 -2882 0
-2707 -2883 0
-2708 -2884 0
-2709 -2713 0
-2710 -2714 0
-2711 -2715 0
-2712 -2716 0
-2709 -2717 0
-2710 -2718 0
-2711 -2719 0
-2712 -2720 0
-2709 -2725 0
-2710 -2726 0
-2711 -2727 0
-2712 -2728 0
-2709 -2729 0
-2710 -2730 0
-2711 -2731 0
-2712 -2732 0
-2709 -2953 0
-2710 -2954 0
-2711 -2955 0
-2712 -2956 0
-2713 -2721 0
-2714 -2722 0
-2715 -2723 0
-2716 -2724 0
-2713 -2861 0
-2714 -2862 0
-2715 -2863 0
-2716 -2864 0
-2717 -2721 0
-2718 -2722 0
-2719 -2723 0
-2720 -2724 0
-2717 -2733 0
-2718 -2734 0
-2719 -2735 0
-2720 -2736 0
-2717 -2737 0
-2718 -2738 0
-2719 -2739 0
-2720 -2740 0
-2717 -2953 0
-2718 -2954 0
-2719 -2955 0
-2720 -2956 0
-2721 -2761 0
-2722 -2762 0
-2723 -2763 0
-2724 -2764 0
-2721 -2873 0
-2722 -2874 0
-2723 -2875 0
-2724 -2876 0
-2725 -2729 0
-2726 -2730 0
-2727 -2731 0
-2728 -2732 0
-2725 -2733 0
-2726 -2734 0
-2727 -2735 0
-2728 -2736 0
-2729 -2737 0
-2730 -2738 0
-2731 -2739 0
-2732 -2740 0
-2729 -2865 0
-2730 -2866 0
-2731 -2867 0
-2732 -2868 0
-2733 -2737 0
-2734 -2738 0
-2735 -2739 0
-2736 -2740 0
-2733 -2745 0
-2734 -2746 0
-2735 -2747 0
-2736 -2748 0
-2733 -2773 0
-2734 -2774 0
-2735 -2775 0
-2736 -2776 0
-2737 -2741 0
-2738 -2742 0
-2739 -2743 0
-2740 -2744 0
-2737 -2845 0
-2738 -2846 0
-2739 -2847 0
-2740 -2848 0
-2737 -2869 0
-2738 -2870 0
-2739 -2871 0
-2740 -2872 0
-2741 -2849 0
-2742 -2850 0
-2743 -2851 0
-2744 -2852 0
-2741 -2897 0
-2742 -2898 0
-2743 -2899 0
-2744 -2900 0
-2741 -2937 0
-2742 -2938 0
-2743 -2939 0
-2744 -2940 0
-2745 -2785 0
-2746 -2786 0
-2747 -2787 0
-2748 -2788 0
-2749 -2753 0
-2750 -2754 0
-2751 -2755 0
-2752 -2756 0
-2749 -2805 0
-2750 -2806 0
-2751 -2807 0
-2752 -2808 0
-2749 -2953 0
-2750 -2954 0
-2751 -2955 0
-2752 -2956 0
-2761 -2781 0
-2762 -2782 0
-2763 -2783 0
-2764 -2784 0
-2769 -2773 0
-2770 -2774 0
-2771 -2775 0
-2772 -2776 0
-2769 -2777 0
-2770 -2778 0
-2771 -2779 0
-2772 -2780 0
-2769 -2797 0
-2770 -2798 0
-2771 -2799 0
-2772 -2800 0
-2769 -2953 0
-2770 -2954 0
-2771 -2955 0
-2772 -2956 0
-2773 -2781 0
-2774 -2782 0
-2775 -2783 0
-2776 -2784 0
-2773 -2785 0
-2774 -2786 0
-2775 -2787 0
-2776 -2788 0
-2773 -2801 0
-2774 -2802 0
-2775 -2803 0
-2776 -2804 0
-2777 -2781 0
-2778 -2782 0
-2779 -2783 0
-2780 -2784 0
-2777 -2793 0
-2778 -2794 0
-2779 -2795 0
-2780 -2796 0
-2777 -2797 0
-2778 -2798 0
-2779 -2799 0
-2780 -2800 0
-2781 -2789 0
-2782 -2790 0
-2783 -2791 0
-2784 -2792 0
-2781 -2793 0
-2782 -2794 0
-2783 -2795 0
-2784 -2796 0
-2781 -2801 0
-2782 -2802 0
-2783 -2803 0
-2784 -2804 0
-2781 -2885 0
-2782 -2886 0
-2783 -2887 0
-2784 -2888 0
-2785 -2789 0
-2786 -2790 0
-2787 -2791 0
-2788 -2792 0
-2785 -2817 0
-2786 -2818 0
-2787 -2819 0
-2788 -2820 0
-2785 -2929 0
-2786 -2930 0
-2787 -2931 0
-2788 -2932 0
-2789 -2817 0
-2790 -2818 0
-2791 -2819 0
-2792 -2820 0
-2793 -2825 0
-2794 -2826 0
-2795 -2827 0
-2796 -2828 0
-2793 -2841 0
-2794 -2842 0
-2795 -2843 0
-2796 -2844 0
-2793 -2893 0
-2794 -2894 0
-2795 -2895 0
-2796 -2896 0
-2793 -2945 0
-2794 -2946 0
-2795 -2947 0
-2796 -2948 0
-2797 -2801 0
-2798 -2802 0
-2799 -2803 0
-2800 -2804 0
-2797 -2805 0
-2798 -2806 0
-2799 -2807 0
-2800 -2808 0
-2797 -2809 0
-2798 -2810 0
-2799 -2811 0
-2800 -2812 0
-2797 -2825 0
-2798 -2826 0
-2799 -2827 0
-2800 -2828 0
-2797 -2949 0
-2798 -2950 0
-2799 -2951 0
-2800 -2952 0
-2801 -2817 0
-2802 -2818 0
-2803 -2819 0
-2804 -2820 0
-2801 -2825 0
-2802 -2826 0
-2803 -2827 0
-2804 -2828 0
-2805 -2813 0
-2806 -2814 0
-2807 -2815 0
-2808 -2816 0
-2805 -2829 0
-2806 -2830 0
-2807 -2831 0
-2808 -2832 0
-2809 -2813 0
-2810 -2814 0
-2811 -2815 0
-2812 -2816 0
-2809 -2881 0
-2810 -2882 0
-2811 -2883 0
-2812 -2884 0
-2813 -2921 0
-2814 -2922 0
-2815 -2923 0
-2816 -2924 0
-2821 -2829 0
-2822 -2830 0
-2823 -2831 0
-2824 -2832 0
-2825 -2829 0
-2826 -2830 0
-2827 -2831 0
-2828 -2832 0
-2841 -2849 0
-2842 -2850 0
-2843 -2851 0
-2844 -2852 0
-2841 -2853 0
-2842 -2854 0
-2843 -2855 0
-2844 -2856 0
-2841 -2945 0
-2842 -2946 0
-2843 -2947 0
-2844 -2948 0
-2845 -2849 0
-2846 -2850 0
-2847 -2851 0
-2848 -2852 0
-2845 -2877 0
-2846 -2878 0
-2847 -2879 0
-2848 -2880 0
-2845 -2909 0
-2846 -2910 0
-2847 -2911 0
-2848 -2912 0
-2849 -2857 0
-2850 -2858 0
-2851 -2859 0
-2852 -2860 0
-2849 -2877 0
-2850 -2878 0
-2851 -2879 0
-2852 -2880 0
-2849 -2897 0
-2850 -2898 0
-2851 -2899 0
-2852 -2900 0
-2849 -2949 0
-2850 -2950 0
-2851 -2951 0
-2852 -2952 0
-2853 -2857 0
-2854 -2858 0
-2855 -2859 0
-2856 -2860 0
-2853 -2921 0
-2854 -2922 0
-2855 -2923 0
-2856 -2924 0
-2857 -2917 0
-2858 -2918 0
-2859 -2919 0
-2860 -2920 0
-2861 -2865 0
-2862 -2866 0
-2863 -2867 0
-2864 -2868 0
-2861 -2877 0
-2862 -2878 0
-2863 -2879 0
-2864 -2880 0
-2861 -2933 0
-2862 -2934 0
-2863 -2935 0
-2864 -2936 0
-2865 -2869 0
-2866 -2870 0
-2867 -2871 0
-2868 -2872 0
-2865 -2877 0
-2866 -2878 0
-2867 -2879 0
-2868 -2880 0
-2865 -2905 0
-2866 -2906 0
-2867 -2907 0
-2868 -2908 0
-2869 -2909 0
-2870 -2910 0
-2871 -2911 0
-2872 -2912 0
-2873 -2937 0
-2874 -2938 0
-2875 -2939 0
-2876 -2940 0
-2877 -2953 0
-2878 -2954 0
-2879 -2955 0
-2880 -2956 0
-2881 -2889 0
-2882 -2890 0
-2883 -2891 0
-2884 -2892 0
-2881 -2929 0
-2882 -2930 0
-2883 -2931 0
-2884 -2932 0
-2881 -2945 0
-2882 -2946 0
-2883 -2947 0
-2884 -2948 0
-2885 -2889 0
-2886 -2890 0
-2887 -2891 0
-2888 -2892 0
-2885 -2893 0
-2886 -2894 0
-2887 -2895 0
-2888 -2896 0
-2885 -2897 0
-2886 -2898 0
-2887 -2899 0
-2888 -2900 0
-2889 -2933 0
-2890 -2934 0
-2891 -2935 0
-2892 -2936 0
-2893 -2897 0
-2894 -2898 0
-2895 -2899 0
-2896 -2900 0
-2905 -2909 0
-2906 -2910 0
-2907 -2911 0
-2908 -2912 0
-2905 -2913 0
-2906 -2914 0
-2907 -2915 0
-2908 -2916 0
-2909 -2917 0
-2910 -2918 0
-2911 -2919 0
-2912 -2920 0
-2913 -2917 0
-2914 -2918 0
-2915 -2919 0
-2916 -2920 0
-2921 -2953 0
-2922 -2954 0
-2923 -2955 0
-2924 -2956 0
-2929 -2937 0
-2930 -2938 0
-2931 -2939 0
-2932 -2940 0
-2929 -2945 0
-2930 -2946 0
-2931 -2947 0
-2932 -2948 0
-2933 -2937 0
-2934 -2938 0
-2935 -2939 0
-2936 -2940 0
-2937 -2949 0
-2938 -2950 0
-2939 -2951 0
-2940 -2952 0
-2945 -2949 0
-2946 -2950 0
-2947 -2951 0
-2948 -2952 0
-2237 721 0
2237 -721 0
-2238 722 0
2238 -722 0
-2239 723 0
2239 -723 0
-2240 724 0
2240 -724 0
2237 0
454 0
1507 0
