p cnf 8044 48598
1 2 3 4 0
5 6 7 8 0
9 10 11 12 0
13 14 15 16 0
17 18 19 20 0
21 22 23 24 0
25 26 27 28 0
29 30 31 32 0
33 34 35 36 0
37 38 39 40 0
41 42 43 44 0
45 46 47 48 0
49 50 51 52 0
53 54 55 56 0
57 58 59 60 0
61 62 63 64 0
65 66 67 68 0
69 70 71 72 0
73 74 75 76 0
77 78 79 80 0
81 82 83 84 0
85 86 87 88 0
89 90 91 92 0
93 94 95 96 0
97 98 99 100 0
101 102 103 104 0
105 106 107 108 0
109 110 111 112 0
113 114 115 116 0
117 118 119 120 0
121 122 123 124 0
125 126 127 128 0
129 130 131 132 0
133 134 135 136 0
137 138 139 140 0
141 142 143 144 0
145 146 147 148 0
149 150 151 152 0
153 154 155 156 0
157 158 159 160 0
161 162 163 164 0
165 166 167 168 0
169 170 171 172 0
173 174 175 176 0
177 178 179 180 0
181 182 183 184 0
185 186 187 188 0
189 190 191 192 0
193 194 195 196 0
197 198 199 200 0
201 202 203 204 0
205 206 207 208 0
209 210 211 212 0
213 214 215 216 0
217 218 219 220 0
221 222 223 224 0
225 226 227 228 0
229 230 231 232 0
233 234 235 236 0
237 238 239 240 0
241 242 243 244 0
245 246 247 248 0
249 250 251 252 0
253 254 255 256 0
257 258 259 260 0
261 262 263 264 0
265 266 267 268 0
269 270 271 272 0
273 274 275 276 0
277 278 279 280 0
281 282 283 284 0
285 286 287 288 0
289 290 291 292 0
293 294 295 296 0
297 298 299 300 0
301 302 303 304 0
305 306 307 308 0
309 310 311 312 0
313 314 315 316 0
317 318 319 320 0
321 322 323 324 0
325 326 327 328 0
329 330 331 332 0
333 334 335 336 0
337 338 339 340 0
341 342 343 344 0
345 346 347 348 0
349 350 351 352 0
353 354 355 356 0
357 358 359 360 0
361 362 363 364 0
365 366 367 368 0
369 370 371 372 0
373 374 375 376 0
377 378 379 380 0
381 382 383 384 0
385 386 387 388 0
389 390 391 392 0
393 394 395 396 0
397 398 399 400 0
401 402 403 404 0
405 406 407 408 0
409 410 411 412 0
413 414 415 416 0
417 418 419 420 0
421 422 423 424 0
425 426 427 428 0
429 430 431 432 0
433 434 435 436 0
437 438 439 440 0
441 442 443 444 0
445 446 447 448 0
449 450 451 452 0
453 454 455 456 0
457 458 459 460 0
461 462 463 464 0
465 466 467 468 0
469 470 471 472 0
473 474 475 476 0
477 478 479 480 0
481 482 483 484 0
485 486 487 488 0
489 490 491 492 0
493 494 495 496 0
497 498 499 500 0
501 502 503 504 0
505 506 507 508 0
509 510 511 512 0
513 514 515 516 0
517 518 519 520 0
521 522 523 524 0
525 526 527 528 0
529 530 531 532 0
533 534 535 536 0
537 538 539 540 0
541 542 543 544 0
545 546 547 548 0
549 550 551 552 0
553 554 555 556 0
557 558 559 560 0
561 562 563 564 0
565 566 567 568 0
569 570 571 572 0
573 574 575 576 0
577 578 579 580 0
581 582 583 584 0
585 586 587 588 0
589 590 591 592 0
593 594 595 596 0
597 598 599 600 0
601 602 603 604 0
605 606 607 608 0
609 610 611 612 0
613 614 615 616 0
617 618 619 620 0
621 622 623 624 0
625 626 627 628 0
629 630 631 632 0
633 634 635 636 0
637 638 639 640 0
641 642 643 644 0
645 646 647 648 0
649 650 651 652 0
653 654 655 656 0
657 658 659 660 0
661 662 663 664 0
665 666 667 668 0
669 670 671 672 0
673 674 675 676 0
677 678 679 680 0
681 682 683 684 0
685 686 687 688 0
689 690 691 692 0
693 694 695 696 0
697 698 699 700 0
701 702 703 704 0
705 706 707 708 0
709 710 711 712 0
713 714 715 716 0
717 718 719 720 0
721 722 723 724 0
725 726 727 728 0
729 730 731 732 0
733 734 735 736 0
737 738 739 740 0
741 742 743 744 0
745 746 747 748 0
749 750 751 752 0
753 754 755 756 0
757 758 759 760 0
761 762 763 764 0
765 766 767 768 0
769 770 771 772 0
773 774 775 776 0
777 778 779 780 0
781 782 783 784 0
785 786 787 788 0
789 790 791 792 0
793 794 795 796 0
797 798 799 800 0
801 802 803 804 0
805 806 807 808 0
809 810 811 812 0
813 814 815 816 0
817 818 819 820 0
821 822 823 824 0
825 826 827 828 0
829 830 831 832 0
833 834 835 836 0
837 838 839 840 0
841 842 843 844 0
845 846 847 848 0
849 850 851 852 0
853 854 855 856 0
857 858 859 860 0
861 862 863 864 0
865 866 867 868 0
869 870 871 872 0
873 874 875 876 0
877 878 879 880 0
881 882 883 884 0
885 886 887 888 0
889 890 891 892 0
893 894 895 896 0
897 898 899 900 0
901 902 903 904 0
905 906 907 908 0
909 910 911 912 0
913 914 915 916 0
917 918 919 920 0
921 922 923 924 0
925 926 927 928 0
929 930 931 932 0
933 934 935 936 0
937 938 939 940 0
941 942 943 944 0
945 946 947 948 0
949 950 951 952 0
953 954 955 956 0
957 958 959 960 0
961 962 963 964 0
965 966 967 968 0
969 970 971 972 0
973 974 975 976 0
977 978 979 980 0
981 982 983 984 0
985 986 987 988 0
989 990 991 992 0
993 994 995 996 0
997 998 999 1000 0
1001 1002 1003 1004 0
1005 1006 1007 1008 0
1009 1010 1011 1012 0
1013 1014 1015 1016 0
1017 1018 1019 1020 0
1021 1022 1023 1024 0
1025 1026 1027 1028 0
1029 1030 1031 1032 0
1033 1034 1035 1036 0
1037 1038 1039 1040 0
1041 1042 1043 1044 0
1045 1046 1047 1048 0
1049 1050 1051 1052 0
1053 1054 1055 1056 0
1057 1058 1059 1060 0
1061 1062 1063 1064 0
1065 1066 1067 1068 0
1069 1070 1071 1072 0
1073 1074 1075 1076 0
1077 1078 1079 1080 0
1081 1082 1083 1084 0
1085 1086 1087 1088 0
1089 1090 1091 1092 0
1093 1094 1095 1096 0
1097 1098 1099 1100 0
1101 1102 1103 1104 0
1105 1106 1107 1108 0
1109 1110 1111 1112 0
1113 1114 1115 1116 0
1117 1118 1119 1120 0
1121 1122 1123 1124 0
1125 1126 1127 1128 0
1129 1130 1131 1132 0
1133 1134 1135 1136 0
1137 1138 1139 1140 0
1141 1142 1143 1144 0
1145 1146 1147 1148 0
1149 1150 1151 1152 0
1153 1154 1155 1156 0
1157 1158 1159 1160 0
1161 1162 1163 1164 0
1165 1166 1167 1168 0
1169 1170 1171 1172 0
1173 1174 1175 1176 0
1177 1178 1179 1180 0
1181 1182 1183 1184 0
1185 1186 1187 1188 0
1189 1190 1191 1192 0
1193 1194 1195 1196 0
1197 1198 1199 1200 0
1201 1202 1203 1204 0
1205 1206 1207 1208 0
1209 1210 1211 1212 0
1213 1214 1215 1216 0
1217 1218 1219 1220 0
1221 1222 1223 1224 0
1225 1226 1227 1228 0
1229 1230 1231 1232 0
1233 1234 1235 1236 0
1237 1238 1239 1240 0
1241 1242 1243 1244 0
1245 1246 1247 1248 0
1249 1250 1251 1252 0
1253 1254 1255 1256 0
1257 1258 1259 1260 0
1261 1262 1263 1264 0
1265 1266 1267 1268 0
1269 1270 1271 1272 0
1273 1274 1275 1276 0
1277 1278 1279 1280 0
1281 1282 1283 1284 0
1285 1286 1287 1288 0
1289 1290 1291 1292 0
1293 1294 1295 1296 0
1297 1298 1299 1300 0
1301 1302 1303 1304 0
1305 1306 1307 1308 0
1309 1310 1311 1312 0
1313 1314 1315 1316 0
1317 1318 1319 1320 0
1321 1322 1323 1324 0
1325 1326 1327 1328 0
1329 1330 1331 1332 0
1333 1334 1335 1336 0
1337 1338 1339 1340 0
1341 1342 1343 1344 0
1345 1346 1347 1348 0
1349 1350 1351 1352 0
1353 1354 1355 1356 0
1357 1358 1359 1360 0
1361 1362 1363 1364 0
1365 1366 1367 1368 0
1369 1370 1371 1372 0
1373 1374 1375 1376 0
1377 1378 1379 1380 0
1381 1382 1383 1384 0
1385 1386 1387 1388 0
1389 1390 1391 1392 0
1393 1394 1395 1396 0
1397 1398 1399 1400 0
1401 1402 1403 1404 0
1405 1406 1407 1408 0
1409 1410 1411 1412 0
1413 1414 1415 1416 0
1417 1418 1419 1420 0
1421 1422 1423 1424 0
1425 1426 1427 1428 0
1429 1430 1431 1432 0
1433 1434 1435 1436 0
1437 1438 1439 1440 0
1441 1442 1443 1444 0
1445 1446 1447 1448 0
1449 1450 1451 1452 0
1453 1454 1455 1456 0
1457 1458 1459 1460 0
1461 1462 1463 1464 0
1465 1466 1467 1468 0
1469 1470 1471 1472 0
1473 1474 1475 1476 0
1477 1478 1479 1480 0
1481 1482 1483 1484 0
1485 1486 1487 1488 0
1489 1490 1491 1492 0
1493 1494 1495 1496 0
1497 1498 1499 1500 0
1501 1502 1503 1504 0
1505 1506 1507 1508 0
1509 1510 1511 1512 0
1513 1514 1515 1516 0
1517 1518 1519 1520 0
1521 1522 1523 1524 0
1525 1526 1527 1528 0
1529 1530 1531 1532 0
1533 1534 1535 1536 0
1537 1538 1539 1540 0
1541 1542 1543 1544 0
1545 1546 1547 1548 0
1549 1550 1551 1552 0
1553 1554 1555 1556 0
1557 1558 1559 1560 0
1561 1562 1563 1564 0
1565 1566 1567 1568 0
1569 1570 1571 1572 0
1573 1574 1575 1576 0
1577 1578 1579 1580 0
1581 1582 1583 1584 0
1585 1586 1587 1588 0
1589 1590 1591 1592 0
1593 1594 1595 1596 0
1597 1598 1599 1600 0
1601 1602 1603 1604 0
1605 1606 1607 1608 0
1609 1610 1611 1612 0
1613 1614 1615 1616 0
1617 1618 1619 1620 0
1621 1622 1623 1624 0
1625 1626 1627 1628 0
1629 1630 1631 1632 0
1633 1634 1635 1636 0
1637 1638 1639 1640 0
1641 1642 1643 1644 0
1645 1646 1647 1648 0
1649 1650 1651 1652 0
1653 1654 1655 1656 0
1657 1658 1659 1660 0
1661 1662 1663 1664 0
1665 1666 1667 1668 0
1669 1670 1671 1672 0
1673 1674 1675 1676 0
1677 1678 1679 1680 0
1681 1682 1683 1684 0
1685 1686 1687 1688 0
1689 1690 1691 1692 0
1693 1694 1695 1696 0
1697 1698 1699 1700 0
1701 1702 1703 1704 0
1705 1706 1707 1708 0
1709 1710 1711 1712 0
1713 1714 1715 1716 0
1717 1718 1719 1720 0
1721 1722 1723 1724 0
1725 1726 1727 1728 0
1729 1730 1731 1732 0
1733 1734 1735 1736 0
1737 1738 1739 1740 0
1741 1742 1743 1744 0
1745 1746 1747 1748 0
1749 1750 1751 1752 0
1753 1754 1755 1756 0
1757 1758 1759 1760 0
1761 1762 1763 1764 0
1765 1766 1767 1768 0
1769 1770 1771 1772 0
1773 1774 1775 1776 0
1777 1778 1779 1780 0
1781 1782 1783 1784 0
1785 1786 1787 1788 0
1789 1790 1791 1792 0
1793 1794 1795 1796 0
1797 1798 1799 1800 0
1801 1802 1803 1804 0
1805 1806 1807 1808 0
1809 1810 1811 1812 0
1813 1814 1815 1816 0
1817 1818 1819 1820 0
1821 1822 1823 1824 0
1825 1826 1827 1828 0
1829 1830 1831 1832 0
1833 1834 1835 1836 0
1837 1838 1839 1840 0
1841 1842 1843 1844 0
1845 1846 1847 1848 0
1849 1850 1851 1852 0
1853 1854 1855 1856 0
1857 1858 1859 1860 0
1861 1862 1863 1864 0
1865 1866 1867 1868 0
1869 1870 1871 1872 0
1873 1874 1875 1876 0
1877 1878 1879 1880 0
1881 1882 1883 1884 0
1885 1886 1887 1888 0
1889 1890 1891 1892 0
1893 1894 1895 1896 0
1897 1898 1899 1900 0
1901 1902 1903 1904 0
1905 1906 1907 1908 0
1909 1910 1911 1912 0
1913 1914 1915 1916 0
1917 1918 1919 1920 0
1921 1922 1923 1924 0
1925 1926 1927 1928 0
1929 1930 1931 1932 0
1933 1934 1935 1936 0
1937 1938 1939 1940 0
1941 1942 1943 1944 0
1945 1946 1947 1948 0
1949 1950 1951 1952 0
1953 1954 1955 1956 0
1957 1958 1959 1960 0
1961 1962 1963 1964 0
1965 1966 1967 1968 0
1969 1970 1971 1972 0
1973 1974 1975 1976 0
1977 1978 1979 1980 0
1981 1982 1983 1984 0
1985 1986 1987 1988 0
1989 1990 1991 1992 0
1993 1994 1995 1996 0
1997 1998 1999 2000 0
2001 2002 2003 2004 0
2005 2006 2007 2008 0
2009 2010 2011 2012 0
2013 2014 2015 2016 0
2017 2018 2019 2020 0
2021 2022 2023 2024 0
2025 2026 2027 2028 0
2029 2030 2031 2032 0
2033 2034 2035 2036 0
2037 2038 2039 2040 0
2041 2042 2043 2044 0
2045 2046 2047 2048 0
2049 2050 2051 2052 0
2053 2054 2055 2056 0
2057 2058 2059 2060 0
2061 2062 2063 2064 0
2065 2066 2067 2068 0
2069 2070 2071 2072 0
2073 2074 2075 2076 0
2077 2078 2079 2080 0
2081 2082 2083 2084 0
2085 2086 2087 2088 0
2089 2090 2091 2092 0
2093 2094 2095 2096 0
2097 2098 2099 2100 0
2101 2102 2103 2104 0
2105 2106 2107 2108 0
2109 2110 2111 2112 0
2113 2114 2115 2116 0
2117 2118 2119 2120 0
2121 2122 2123 2124 0
2125 2126 2127 2128 0
2129 2130 2131 2132 0
2133 2134 2135 2136 0
2137 2138 2139 2140 0
2141 2142 2143 2144 0
2145 2146 2147 2148 0
2149 2150 2151 2152 0
2153 2154 2155 2156 0
2157 2158 2159 2160 0
2161 2162 2163 2164 0
2165 2166 2167 2168 0
2169 2170 2171 2172 0
2173 2174 2175 2176 0
2177 2178 2179 2180 0
2181 2182 2183 2184 0
2185 2186 2187 2188 0
2189 2190 2191 2192 0
2193 2194 2195 2196 0
2197 2198 2199 2200 0
2201 2202 2203 2204 0
2205 2206 2207 2208 0
2209 2210 2211 2212 0
2213 2214 2215 2216 0
2217 2218 2219 2220 0
2221 2222 2223 2224 0
2225 2226 2227 2228 0
2229 2230 2231 2232 0
2233 2234 2235 2236 0
2237 2238 2239 2240 0
2241 2242 2243 2244 0
2245 2246 2247 2248 0
2249 2250 2251 2252 0
2253 2254 2255 2256 0
2257 2258 2259 2260 0
2261 2262 2263 2264 0
2265 2266 2267 2268 0
2269 2270 2271 2272 0
2273 2274 2275 2276 0
2277 2278 2279 2280 0
2281 2282 2283 2284 0
2285 2286 2287 2288 0
2289 2290 2291 2292 0
2293 2294 2295 2296 0
2297 2298 2299 2300 0
2301 2302 2303 2304 0
2305 2306 2307 2308 0
2309 2310 2311 2312 0
2313 2314 2315 2316 0
2317 2318 2319 2320 0
2321 2322 2323 2324 0
2325 2326 2327 2328 0
2329 2330 2331 2332 0
2333 2334 2335 2336 0
2337 2338 2339 2340 0
2341 2342 2343 2344 0
2345 2346 2347 2348 0
2349 2350 2351 2352 0
2353 2354 2355 2356 0
2357 2358 2359 2360 0
2361 2362 2363 2364 0
2365 2366 2367 2368 0
2369 2370 2371 2372 0
2373 2374 2375 2376 0
2377 2378 2379 2380 0
2381 2382 2383 2384 0
2385 2386 2387 2388 0
2389 2390 2391 2392 0
2393 2394 2395 2396 0
2397 2398 2399 2400 0
2401 2402 2403 2404 0
2405 2406 2407 2408 0
2409 2410 2411 2412 0
2413 2414 2415 2416 0
2417 2418 2419 2420 0
2421 2422 2423 2424 0
2425 2426 2427 2428 0
2429 2430 2431 2432 0
2433 2434 2435 2436 0
2437 2438 2439 2440 0
2441 2442 2443 2444 0
2445 2446 2447 2448 0
2449 2450 2451 2452 0
2453 2454 2455 2456 0
2457 2458 2459 2460 0
2461 2462 2463 2464 0
2465 2466 2467 2468 0
2469 2470 2471 2472 0
2473 2474 2475 2476 0
2477 2478 2479 2480 0
2481 2482 2483 2484 0
2485 2486 2487 2488 0
2489 2490 2491 2492 0
2493 2494 2495 2496 0
2497 2498 2499 2500 0
2501 2502 2503 2504 0
2505 2506 2507 2508 0
2509 2510 2511 2512 0
2513 2514 2515 2516 0
2517 2518 2519 2520 0
2521 2522 2523 2524 0
2525 2526 2527 2528 0
2529 2530 2531 2532 0
2533 2534 2535 2536 0
2537 2538 2539 2540 0
2541 2542 2543 2544 0
2545 2546 2547 2548 0
2549 2550 2551 2552 0
2553 2554 2555 2556 0
2557 2558 2559 2560 0
2561 2562 2563 2564 0
2565 2566 2567 2568 0
2569 2570 2571 2572 0
2573 2574 2575 2576 0
2577 2578 2579 2580 0
2581 2582 2583 2584 0
2585 2586 2587 2588 0
2589 2590 2591 2592 0
2593 2594 2595 2596 0
2597 2598 2599 2600 0
2601 2602 2603 2604 0
2605 2606 2607 2608 0
2609 2610 2611 2612 0
2613 2614 2615 2616 0
2617 2618 2619 2620 0
2621 2622 2623 2624 0
2625 2626 2627 2628 0
2629 2630 2631 2632 0
2633 2634 2635 2636 0
2637 2638 2639 2640 0
2641 2642 2643 2644 0
2645 2646 2647 2648 0
2649 2650 2651 2652 0
2653 2654 2655 2656 0
2657 2658 2659 2660 0
2661 2662 2663 2664 0
2665 2666 2667 2668 0
2669 2670 2671 2672 0
2673 2674 2675 2676 0
2677 2678 2679 2680 0
2681 2682 2683 2684 0
2685 2686 2687 2688 0
2689 2690 2691 2692 0
2693 2694 2695 2696 0
2697 2698 2699 2700 0
2701 2702 2703 2704 0
2705 2706 2707 2708 0
2709 2710 2711 2712 0
2713 2714 2715 2716 0
2717 2718 2719 2720 0
2721 2722 2723 2724 0
2725 2726 2727 2728 0
2729 2730 2731 2732 0
2733 2734 2735 2736 0
2737 2738 2739 2740 0
2741 2742 2743 2744 0
2745 2746 2747 2748 0
2749 2750 2751 2752 0
2753 2754 2755 2756 0
2757 2758 2759 2760 0
2761 2762 2763 2764 0
2765 2766 2767 2768 0
2769 2770 2771 2772 0
2773 2774 2775 2776 0
2777 2778 2779 2780 0
2781 2782 2783 2784 0
2785 2786 2787 2788 0
2789 2790 2791 2792 0
2793 2794 2795 2796 0
2797 2798 2799 2800 0
2801 2802 2803 2804 0
2805 2806 2807 2808 0
2809 2810 2811 2812 0
2813 2814 2815 2816 0
2817 2818 2819 2820 0
2821 2822 2823 2824 0
2825 2826 2827 2828 0
2829 2830 2831 2832 0
2833 2834 2835 2836 0
2837 2838 2839 2840 0
2841 2842 2843 2844 0
2845 2846 2847 2848 0
2849 2850 2851 2852 0
2853 2854 2855 2856 0
2857 2858 2859 2860 0
2861 2862 2863 2864 0
2865 2866 2867 2868 0
2869 2870 2871 2872 0
2873 2874 2875 2876 0
2877 2878 2879 2880 0
2881 2882 2883 2884 0
2885 2886 2887 2888 0
2889 2890 2891 2892 0
2893 2894 2895 2896 0
2897 2898 2899 2900 0
2901 2902 2903 2904 0
2905 2906 2907 2908 0
2909 2910 2911 2912 0
2913 2914 2915 2916 0
2917 2918 2919 2920 0
2921 2922 2923 2924 0
2925 2926 2927 2928 0
2929 2930 2931 2932 0
2933 2934 2935 2936 0
2937 2938 2939 2940 0
2941 2942 2943 2944 0
2945 2946 2947 2948 0
2949 2950 2951 2952 0
2953 2954 2955 2956 0
2957 2958 2959 2960 0
2961 2962 2963 2964 0
2965 2966 2967 2968 0
2969 2970 2971 2972 0
2973 2974 2975 2976 0
2977 2978 2979 2980 0
2981 2982 2983 2984 0
2985 2986 2987 2988 0
2989 2990 2991 2992 0
2993 2994 2995 2996 0
2997 2998 2999 3000 0
3001 3002 3003 3004 0
3005 3006 3007 3008 0
3009 3010 3011 3012 0
3013 3014 3015 3016 0
3017 3018 3019 3020 0
3021 3022 3023 3024 0
3025 3026 3027 3028 0
3029 3030 3031 3032 0
3033 3034 3035 3036 0
3037 3038 3039 3040 0
3041 3042 3043 3044 0
3045 3046 3047 3048 0
3049 3050 3051 3052 0
3053 3054 3055 3056 0
3057 3058 3059 3060 0
3061 3062 3063 3064 0
3065 3066 3067 3068 0
3069 3070 3071 3072 0
3073 3074 3075 3076 0
3077 3078 3079 3080 0
3081 3082 3083 3084 0
3085 3086 3087 3088 0
3089 3090 3091 3092 0
3093 3094 3095 3096 0
3097 3098 3099 3100 0
3101 3102 3103 3104 0
3105 3106 3107 3108 0
3109 3110 3111 3112 0
3113 3114 3115 3116 0
3117 3118 3119 3120 0
3121 3122 3123 3124 0
3125 3126 3127 3128 0
3129 3130 3131 3132 0
3133 3134 3135 3136 0
3137 3138 3139 3140 0
3141 3142 3143 3144 0
3145 3146 3147 3148 0
3149 3150 3151 3152 0
3153 3154 3155 3156 0
3157 3158 3159 3160 0
3161 3162 3163 3164 0
3165 3166 3167 3168 0
3169 3170 3171 3172 0
3173 3174 3175 3176 0
3177 3178 3179 3180 0
3181 3182 3183 3184 0
3185 3186 3187 3188 0
3189 3190 3191 3192 0
3193 3194 3195 3196 0
3197 3198 3199 3200 0
3201 3202 3203 3204 0
3205 3206 3207 3208 0
3209 3210 3211 3212 0
3213 3214 3215 3216 0
3217 3218 3219 3220 0
3221 3222 3223 3224 0
3225 3226 3227 3228 0
3229 3230 3231 3232 0
3233 3234 3235 3236 0
3237 3238 3239 3240 0
3241 3242 3243 3244 0
3245 3246 3247 3248 0
3249 3250 3251 3252 0
3253 3254 3255 3256 0
3257 3258 3259 3260 0
3261 3262 3263 3264 0
3265 3266 3267 3268 0
3269 3270 3271 3272 0
3273 3274 3275 3276 0
3277 3278 3279 3280 0
3281 3282 3283 3284 0
3285 3286 3287 3288 0
3289 3290 3291 3292 0
3293 3294 3295 3296 0
3297 3298 3299 3300 0
3301 3302 3303 3304 0
3305 3306 3307 3308 0
3309 3310 3311 3312 0
3313 3314 3315 3316 0
3317 3318 3319 3320 0
3321 3322 3323 3324 0
3325 3326 3327 3328 0
3329 3330 3331 3332 0
3333 3334 3335 3336 0
3337 3338 3339 3340 0
3341 3342 3343 3344 0
3345 3346 3347 3348 0
3349 3350 3351 3352 0
3353 3354 3355 3356 0
3357 3358 3359 3360 0
3361 3362 3363 3364 0
3365 3366 3367 3368 0
3369 3370 3371 3372 0
3373 3374 3375 3376 0
3377 3378 3379 3380 0
3381 3382 3383 3384 0
3385 3386 3387 3388 0
3389 3390 3391 3392 0
3393 3394 3395 3396 0
3397 3398 3399 3400 0
3401 3402 3403 3404 0
3405 3406 3407 3408 0
3409 3410 3411 3412 0
3413 3414 3415 3416 0
3417 3418 3419 3420 0
3421 3422 3423 3424 0
3425 3426 3427 3428 0
3429 3430 3431 3432 0
3433 3434 3435 3436 0
3437 3438 3439 3440 0
3441 3442 3443 3444 0
3445 3446 3447 3448 0
3449 3450 3451 3452 0
3453 3454 3455 3456 0
3457 3458 3459 3460 0
3461 3462 3463 3464 0
3465 3466 3467 3468 0
3469 3470 3471 3472 0
3473 3474 3475 3476 0
3477 3478 3479 3480 0
3481 3482 3483 3484 0
3485 3486 3487 3488 0
3489 3490 3491 3492 0
3493 3494 3495 3496 0
3497 3498 3499 3500 0
3501 3502 3503 3504 0
3505 3506 3507 3508 0
3509 3510 3511 3512 0
3513 3514 3515 3516 0
3517 3518 3519 3520 0
3521 3522 3523 3524 0
3525 3526 3527 3528 0
3529 3530 3531 3532 0
3533 3534 3535 3536 0
3537 3538 3539 3540 0
3541 3542 3543 3544 0
3545 3546 3547 3548 0
3549 3550 3551 3552 0
3553 3554 3555 3556 0
3557 3558 3559 3560 0
3561 3562 3563 3564 0
3565 3566 3567 3568 0
3569 3570 3571 3572 0
3573 3574 3575 3576 0
3577 3578 3579 3580 0
3581 3582 3583 3584 0
3585 3586 3587 3588 0
3589 3590 3591 3592 0
3593 3594 3595 3596 0
3597 3598 3599 3600 0
3601 3602 3603 3604 0
3605 3606 3607 3608 0
3609 3610 3611 3612 0
3613 3614 3615 3616 0
3617 3618 3619 3620 0
3621 3622 3623 3624 0
3625 3626 3627 3628 0
3629 3630 3631 3632 0
3633 3634 3635 3636 0
3637 3638 3639 3640 0
3641 3642 3643 3644 0
3645 3646 3647 3648 0
3649 3650 3651 3652 0
3653 3654 3655 3656 0
3657 3658 3659 3660 0
3661 3662 3663 3664 0
3665 3666 3667 3668 0
3669 3670 3671 3672 0
3673 3674 3675 3676 0
3677 3678 3679 3680 0
3681 3682 3683 3684 0
3685 3686 3687 3688 0
3689 3690 3691 3692 0
3693 3694 3695 3696 0
3697 3698 3699 3700 0
3701 3702 3703 3704 0
3705 3706 3707 3708 0
3709 3710 3711 3712 0
3713 3714 3715 3716 0
3717 3718 3719 3720 0
3721 3722 3723 3724 0
3725 3726 3727 3728 0
3729 3730 3731 3732 0
3733 3734 3735 3736 0
3737 3738 3739 3740 0
3741 3742 3743 3744 0
3745 3746 3747 3748 0
3749 3750 3751 3752 0
3753 3754 3755 3756 0
3757 3758 3759 3760 0
3761 3762 3763 3764 0
3765 3766 3767 3768 0
3769 3770 3771 3772 0
3773 3774 3775 3776 0
3777 3778 3779 3780 0
3781 3782 3783 3784 0
3785 3786 3787 3788 0
3789 3790 3791 3792 0
3793 3794 3795 3796 0
3797 3798 3799 3800 0
3801 3802 3803 3804 0
3805 3806 3807 3808 0
3809 3810 3811 3812 0
3813 3814 3815 3816 0
3817 3818 3819 3820 0
3821 3822 3823 3824 0
3825 3826 3827 3828 0
3829 3830 3831 3832 0
3833 3834 3835 3836 0
3837 3838 3839 3840 0
3841 3842 3843 3844 0
3845 3846 3847 3848 0
3849 3850 3851 3852 0
3853 3854 3855 3856 0
3857 3858 3859 3860 0
3861 3862 3863 3864 0
3865 3866 3867 3868 0
3869 3870 3871 3872 0
3873 3874 3875 3876 0
3877 3878 3879 3880 0
3881 3882 3883 3884 0
3885 3886 3887 3888 0
3889 3890 3891 3892 0
3893 3894 3895 3896 0
3897 3898 3899 3900 0
3901 3902 3903 3904 0
3905 3906 3907 3908 0
3909 3910 3911 3912 0
3913 3914 3915 3916 0
3917 3918 3919 3920 0
3921 3922 3923 3924 0
3925 3926 3927 3928 0
3929 3930 3931 3932 0
3933 3934 3935 3936 0
3937 3938 3939 3940 0
3941 3942 3943 3944 0
3945 3946 3947 3948 0
3949 3950 3951 3952 0
3953 3954 3955 3956 0
3957 3958 3959 3960 0
3961 3962 3963 3964 0
3965 3966 3967 3968 0
3969 3970 3971 3972 0
3973 3974 3975 3976 0
3977 3978 3979 3980 0
3981 3982 3983 3984 0
3985 3986 3987 3988 0
3989 3990 3991 3992 0
3993 3994 3995 3996 0
3997 3998 3999 4000 0
4001 4002 4003 4004 0
4005 4006 4007 4008 0
4009 4010 4011 4012 0
4013 4014 4015 4016 0
4017 4018 4019 4020 0
4021 4022 4023 4024 0
4025 4026 4027 4028 0
4029 4030 4031 4032 0
4033 4034 4035 4036 0
4037 4038 4039 4040 0
4041 4042 4043 4044 0
4045 4046 4047 4048 0
4049 4050 4051 4052 0
4053 4054 4055 4056 0
4057 4058 4059 4060 0
4061 4062 4063 4064 0
4065 4066 4067 4068 0
4069 4070 4071 4072 0
4073 4074 4075 4076 0
4077 4078 4079 4080 0
4081 4082 4083 4084 0
4085 4086 4087 4088 0
4089 4090 4091 4092 0
4093 4094 4095 4096 0
4097 4098 4099 4100 0
4101 4102 4103 4104 0
4105 4106 4107 4108 0
4109 4110 4111 4112 0
4113 4114 4115 4116 0
4117 4118 4119 4120 0
4121 4122 4123 4124 0
4125 4126 4127 4128 0
4129 4130 4131 4132 0
4133 4134 4135 4136 0
4137 4138 4139 4140 0
4141 4142 4143 4144 0
4145 4146 4147 4148 0
4149 4150 4151 4152 0
4153 4154 4155 4156 0
4157 4158 4159 4160 0
4161 4162 4163 4164 0
4165 4166 4167 4168 0
4169 4170 4171 4172 0
4173 4174 4175 4176 0
4177 4178 4179 4180 0
4181 4182 4183 4184 0
4185 4186 4187 4188 0
4189 4190 4191 4192 0
4193 4194 4195 4196 0
4197 4198 4199 4200 0
4201 4202 4203 4204 0
4205 4206 4207 4208 0
4209 4210 4211 4212 0
4213 4214 4215 4216 0
4217 4218 4219 4220 0
4221 4222 4223 4224 0
4225 4226 4227 4228 0
4229 4230 4231 4232 0
4233 4234 4235 4236 0
4237 4238 4239 4240 0
4241 4242 4243 4244 0
4245 4246 4247 4248 0
4249 4250 4251 4252 0
4253 4254 4255 4256 0
4257 4258 4259 4260 0
4261 4262 4263 4264 0
4265 4266 4267 4268 0
4269 4270 4271 4272 0
4273 4274 4275 4276 0
4277 4278 4279 4280 0
4281 4282 4283 4284 0
4285 4286 4287 4288 0
4289 4290 4291 4292 0
4293 4294 4295 4296 0
4297 4298 4299 4300 0
4301 4302 4303 4304 0
4305 4306 4307 4308 0
4309 4310 4311 4312 0
4313 4314 4315 4316 0
4317 4318 4319 4320 0
4321 4322 4323 4324 0
4325 4326 4327 4328 0
4329 4330 4331 4332 0
4333 4334 4335 4336 0
4337 4338 4339 4340 0
4341 4342 4343 4344 0
4345 4346 4347 4348 0
4349 4350 4351 4352 0
4353 4354 4355 4356 0
4357 4358 4359 4360 0
4361 4362 4363 4364 0
4365 4366 4367 4368 0
4369 4370 4371 4372 0
4373 4374 4375 4376 0
4377 4378 4379 4380 0
4381 4382 4383 4384 0
4385 4386 4387 4388 0
4389 4390 4391 4392 0
4393 4394 4395 4396 0
4397 4398 4399 4400 0
4401 4402 4403 4404 0
4405 4406 4407 4408 0
4409 4410 4411 4412 0
4413 4414 4415 4416 0
4417 4418 4419 4420 0
4421 4422 4423 4424 0
4425 4426 4427 4428 0
4429 4430 4431 4432 0
4433 4434 4435 4436 0
4437 4438 4439 4440 0
4441 4442 4443 4444 0
4445 4446 4447 4448 0
4449 4450 4451 4452 0
4453 4454 4455 4456 0
4457 4458 4459 4460 0
4461 4462 4463 4464 0
4465 4466 4467 4468 0
4469 4470 4471 4472 0
4473 4474 4475 4476 0
4477 4478 4479 4480 0
4481 4482 4483 4484 0
4485 4486 4487 4488 0
4489 4490 4491 4492 0
4493 4494 4495 4496 0
4497 4498 4499 4500 0
4501 4502 4503 4504 0
4505 4506 4507 4508 0
4509 4510 4511 4512 0
4513 4514 4515 4516 0
4517 4518 4519 4520 0
4521 4522 4523 4524 0
4525 4526 4527 4528 0
4529 4530 4531 4532 0
4533 4534 4535 4536 0
4537 4538 4539 4540 0
4541 4542 4543 4544 0
4545 4546 4547 4548 0
4549 4550 4551 4552 0
4553 4554 4555 4556 0
4557 4558 4559 4560 0
4561 4562 4563 4564 0
4565 4566 4567 4568 0
4569 4570 4571 4572 0
4573 4574 4575 4576 0
4577 4578 4579 4580 0
4581 4582 4583 4584 0
4585 4586 4587 4588 0
4589 4590 4591 4592 0
4593 4594 4595 4596 0
4597 4598 4599 4600 0
4601 4602 4603 4604 0
4605 4606 4607 4608 0
4609 4610 4611 4612 0
4613 4614 4615 4616 0
4617 4618 4619 4620 0
4621 4622 4623 4624 0
4625 4626 4627 4628 0
4629 4630 4631 4632 0
4633 4634 4635 4636 0
4637 4638 4639 4640 0
4641 4642 4643 4644 0
4645 4646 4647 4648 0
4649 4650 4651 4652 0
4653 4654 4655 4656 0
4657 4658 4659 4660 0
4661 4662 4663 4664 0
4665 4666 4667 4668 0
4669 4670 4671 4672 0
4673 4674 4675 4676 0
4677 4678 4679 4680 0
4681 4682 4683 4684 0
4685 4686 4687 4688 0
4689 4690 4691 4692 0
4693 4694 4695 4696 0
4697 4698 4699 4700 0
4701 4702 4703 4704 0
4705 4706 4707 4708 0
4709 4710 4711 4712 0
4713 4714 4715 4716 0
4717 4718 4719 4720 0
4721 4722 4723 4724 0
4725 4726 4727 4728 0
4729 4730 4731 4732 0
4733 4734 4735 4736 0
4737 4738 4739 4740 0
4741 4742 4743 4744 0
4745 4746 4747 4748 0
4749 4750 4751 4752 0
4753 4754 4755 4756 0
4757 4758 4759 4760 0
4761 4762 4763 4764 0
4765 4766 4767 4768 0
4769 4770 4771 4772 0
4773 4774 4775 4776 0
4777 4778 4779 4780 0
4781 4782 4783 4784 0
4785 4786 4787 4788 0
4789 4790 4791 4792 0
4793 4794 4795 4796 0
4797 4798 4799 4800 0
4801 4802 4803 4804 0
4805 4806 4807 4808 0
4809 4810 4811 4812 0
4813 4814 4815 4816 0
4817 4818 4819 4820 0
4821 4822 4823 4824 0
4825 4826 4827 4828 0
4829 4830 4831 4832 0
4833 4834 4835 4836 0
4837 4838 4839 4840 0
4841 4842 4843 4844 0
4845 4846 4847 4848 0
4849 4850 4851 4852 0
4853 4854 4855 4856 0
4857 4858 4859 4860 0
4861 4862 4863 4864 0
4865 4866 4867 4868 0
4869 4870 4871 4872 0
4873 4874 4875 4876 0
4877 4878 4879 4880 0
4881 4882 4883 4884 0
4885 4886 4887 4888 0
4889 4890 4891 4892 0
4893 4894 4895 4896 0
4897 4898 4899 4900 0
4901 4902 4903 4904 0
4905 4906 4907 4908 0
4909 4910 4911 4912 0
4913 4914 4915 4916 0
4917 4918 4919 4920 0
4921 4922 4923 4924 0
4925 4926 4927 4928 0
4929 4930 4931 4932 0
4933 4934 4935 4936 0
4937 4938 4939 4940 0
4941 4942 4943 4944 0
4945 4946 4947 4948 0
4949 4950 4951 4952 0
4953 4954 4955 4956 0
4957 4958 4959 4960 0
4961 4962 4963 4964 0
4965 4966 4967 4968 0
4969 4970 4971 4972 0
4973 4974 4975 4976 0
4977 4978 4979 4980 0
4981 4982 4983 4984 0
4985 4986 4987 4988 0
4989 4990 4991 4992 0
4993 4994 4995 4996 0
4997 4998 4999 5000 0
5001 5002 5003 5004 0
5005 5006 5007 5008 0
5009 5010 5011 5012 0
5013 5014 5015 5016 0
5017 5018 5019 5020 0
5021 5022 5023 5024 0
5025 5026 5027 5028 0
5029 5030 5031 5032 0
5033 5034 5035 5036 0
5037 5038 5039 5040 0
5041 5042 5043 5044 0
5045 5046 5047 5048 0
5049 5050 5051 5052 0
5053 5054 5055 5056 0
5057 5058 5059 5060 0
5061 5062 5063 5064 0
5065 5066 5067 5068 0
5069 5070 5071 5072 0
5073 5074 5075 5076 0
5077 5078 5079 5080 0
5081 5082 5083 5084 0
5085 5086 5087 5088 0
5089 5090 5091 5092 0
5093 5094 5095 5096 0
5097 5098 5099 5100 0
5101 5102 5103 5104 0
5105 5106 5107 5108 0
5109 5110 5111 5112 0
5113 5114 5115 5116 0
5117 5118 5119 5120 0
5121 5122 5123 5124 0
5125 5126 5127 5128 0
5129 5130 5131 5132 0
5133 5134 5135 5136 0
5137 5138 5139 5140 0
5141 5142 5143 5144 0
5145 5146 5147 5148 0
5149 5150 5151 5152 0
5153 5154 5155 5156 0
5157 5158 5159 5160 0
5161 5162 5163 5164 0
5165 5166 5167 5168 0
5169 5170 5171 5172 0
5173 5174 5175 5176 0
5177 5178 5179 5180 0
5181 5182 5183 5184 0
5185 5186 5187 5188 0
5189 5190 5191 5192 0
5193 5194 5195 5196 0
5197 5198 5199 5200 0
5201 5202 5203 5204 0
5205 5206 5207 5208 0
5209 5210 5211 5212 0
5213 5214 5215 5216 0
5217 5218 5219 5220 0
5221 5222 5223 5224 0
5225 5226 5227 5228 0
5229 5230 5231 5232 0
5233 5234 5235 5236 0
5237 5238 5239 5240 0
5241 5242 5243 5244 0
5245 5246 5247 5248 0
5249 5250 5251 5252 0
5253 5254 5255 5256 0
5257 5258 5259 5260 0
5261 5262 5263 5264 0
5265 5266 5267 5268 0
5269 5270 5271 5272 0
5273 5274 5275 5276 0
5277 5278 5279 5280 0
5281 5282 5283 5284 0
5285 5286 5287 5288 0
5289 5290 5291 5292 0
5293 5294 5295 5296 0
5297 5298 5299 5300 0
5301 5302 5303 5304 0
5305 5306 5307 5308 0
5309 5310 5311 5312 0
5313 5314 5315 5316 0
5317 5318 5319 5320 0
5321 5322 5323 5324 0
5325 5326 5327 5328 0
5329 5330 5331 5332 0
5333 5334 5335 5336 0
5337 5338 5339 5340 0
5341 5342 5343 5344 0
5345 5346 5347 5348 0
5349 5350 5351 5352 0
5353 5354 5355 5356 0
5357 5358 5359 5360 0
5361 5362 5363 5364 0
5365 5366 5367 5368 0
5369 5370 5371 5372 0
5373 5374 5375 5376 0
5377 5378 5379 5380 0
5381 5382 5383 5384 0
5385 5386 5387 5388 0
5389 5390 5391 5392 0
5393 5394 5395 5396 0
5397 5398 5399 5400 0
5401 5402 5403 5404 0
5405 5406 5407 5408 0
5409 5410 5411 5412 0
5413 5414 5415 5416 0
5417 5418 5419 5420 0
5421 5422 5423 5424 0
5425 5426 5427 5428 0
5429 5430 5431 5432 0
5433 5434 5435 5436 0
5437 5438 5439 5440 0
5441 5442 5443 5444 0
5445 5446 5447 5448 0
5449 5450 5451 5452 0
5453 5454 5455 5456 0
5457 5458 5459 5460 0
5461 5462 5463 5464 0
5465 5466 5467 5468 0
5469 5470 5471 5472 0
5473 5474 5475 5476 0
5477 5478 5479 5480 0
5481 5482 5483 5484 0
5485 5486 5487 5488 0
5489 5490 5491 5492 0
5493 5494 5495 5496 0
5497 5498 5499 5500 0
5501 5502 5503 5504 0
5505 5506 5507 5508 0
5509 5510 5511 5512 0
5513 5514 5515 5516 0
5517 5518 5519 5520 0
5521 5522 5523 5524 0
5525 5526 5527 5528 0
5529 5530 5531 5532 0
5533 5534 5535 5536 0
5537 5538 5539 5540 0
5541 5542 5543 5544 0
5545 5546 5547 5548 0
5549 5550 5551 5552 0
5553 5554 5555 5556 0
5557 5558 5559 5560 0
5561 5562 5563 5564 0
5565 5566 5567 5568 0
5569 5570 5571 5572 0
5573 5574 5575 5576 0
5577 5578 5579 5580 0
5581 5582 5583 5584 0
5585 5586 5587 5588 0
5589 5590 5591 5592 0
5593 5594 5595 5596 0
5597 5598 5599 5600 0
5601 5602 5603 5604 0
5605 5606 5607 5608 0
5609 5610 5611 5612 0
5613 5614 5615 5616 0
5617 5618 5619 5620 0
5621 5622 5623 5624 0
5625 5626 5627 5628 0
5629 5630 5631 5632 0
5633 5634 5635 5636 0
5637 5638 5639 5640 0
5641 5642 5643 5644 0
5645 5646 5647 5648 0
5649 5650 5651 5652 0
5653 5654 5655 5656 0
5657 5658 5659 5660 0
5661 5662 5663 5664 0
5665 5666 5667 5668 0
5669 5670 5671 5672 0
5673 5674 5675 5676 0
5677 5678 5679 5680 0
5681 5682 5683 5684 0
5685 5686 5687 5688 0
5689 5690 5691 5692 0
5693 5694 5695 5696 0
5697 5698 5699 5700 0
5701 5702 5703 5704 0
5705 5706 5707 5708 0
5709 5710 5711 5712 0
5713 5714 5715 5716 0
5717 5718 5719 5720 0
5721 5722 5723 5724 0
5725 5726 5727 5728 0
5729 5730 5731 5732 0
5733 5734 5735 5736 0
5737 5738 5739 5740 0
5741 5742 5743 5744 0
5745 5746 5747 5748 0
5749 5750 5751 5752 0
5753 5754 5755 5756 0
5757 5758 5759 5760 0
5761 5762 5763 5764 0
5765 5766 5767 5768 0
5769 5770 5771 5772 0
5773 5774 5775 5776 0
5777 5778 5779 5780 0
5781 5782 5783 5784 0
5785 5786 5787 5788 0
5789 5790 5791 5792 0
5793 5794 5795 5796 0
5797 5798 5799 5800 0
5801 5802 5803 5804 0
5805 5806 5807 5808 0
5809 5810 5811 5812 0
5813 5814 5815 5816 0
5817 5818 5819 5820 0
5821 5822 5823 5824 0
5825 5826 5827 5828 0
5829 5830 5831 5832 0
5833 5834 5835 5836 0
5837 5838 5839 5840 0
5841 5842 5843 5844 0
5845 5846 5847 5848 0
5849 5850 5851 5852 0
5853 5854 5855 5856 0
5857 5858 5859 5860 0
5861 5862 5863 5864 0
5865 5866 5867 5868 0
5869 5870 5871 5872 0
5873 5874 5875 5876 0
5877 5878 5879 5880 0
5881 5882 5883 5884 0
5885 5886 5887 5888 0
5889 5890 5891 5892 0
5893 5894 5895 5896 0
5897 5898 5899 5900 0
5901 5902 5903 5904 0
5905 5906 5907 5908 0
5909 5910 5911 5912 0
5913 5914 5915 5916 0
5917 5918 5919 5920 0
5921 5922 5923 5924 0
5925 5926 5927 5928 0
5929 5930 5931 5932 0
5933 5934 5935 5936 0
5937 5938 5939 5940 0
5941 5942 5943 5944 0
5945 5946 5947 5948 0
5949 5950 5951 5952 0
5953 5954 5955 5956 0
5957 5958 5959 5960 0
5961 5962 5963 5964 0
5965 5966 5967 5968 0
5969 5970 5971 5972 0
5973 5974 5975 5976 0
5977 5978 5979 5980 0
5981 5982 5983 5984 0
5985 5986 5987 5988 0
5989 5990 5991 5992 0
5993 5994 5995 5996 0
5997 5998 5999 6000 0
6001 6002 6003 6004 0
6005 6006 6007 6008 0
6009 6010 6011 6012 0
6013 6014 6015 6016 0
6017 6018 6019 6020 0
6021 6022 6023 6024 0
6025 6026 6027 6028 0
6029 6030 6031 6032 0
6033 6034 6035 6036 0
6037 6038 6039 6040 0
6041 6042 6043 6044 0
6045 6046 6047 6048 0
6049 6050 6051 6052 0
6053 6054 6055 6056 0
6057 6058 6059 6060 0
6061 6062 6063 6064 0
6065 6066 6067 6068 0
6069 6070 6071 6072 0
6073 6074 6075 6076 0
6077 6078 6079 6080 0
6081 6082 6083 6084 0
6085 6086 6087 6088 0
6089 6090 6091 6092 0
6093 6094 6095 6096 0
6097 6098 6099 6100 0
6101 6102 6103 6104 0
6105 6106 6107 6108 0
6109 6110 6111 6112 0
6113 6114 6115 6116 0
6117 6118 6119 6120 0
6121 6122 6123 6124 0
6125 6126 6127 6128 0
6129 6130 6131 6132 0
6133 6134 6135 6136 0
6137 6138 6139 6140 0
6141 6142 6143 6144 0
6145 6146 6147 6148 0
6149 6150 6151 6152 0
6153 6154 6155 6156 0
6157 6158 6159 6160 0
6161 6162 6163 6164 0
6165 6166 6167 6168 0
6169 6170 6171 6172 0
6173 6174 6175 6176 0
6177 6178 6179 6180 0
6181 6182 6183 6184 0
6185 6186 6187 6188 0
6189 6190 6191 6192 0
6193 6194 6195 6196 0
6197 6198 6199 6200 0
6201 6202 6203 6204 0
6205 6206 6207 6208 0
6209 6210 6211 6212 0
6213 6214 6215 6216 0
6217 6218 6219 6220 0
6221 6222 6223 6224 0
6225 6226 6227 6228 0
6229 6230 6231 6232 0
6233 6234 6235 6236 0
6237 6238 6239 6240 0
6241 6242 6243 6244 0
6245 6246 6247 6248 0
6249 6250 6251 6252 0
6253 6254 6255 6256 0
6257 6258 6259 6260 0
6261 6262 6263 6264 0
6265 6266 6267 6268 0
6269 6270 6271 6272 0
6273 6274 6275 6276 0
6277 6278 6279 6280 0
6281 6282 6283 6284 0
6285 6286 6287 6288 0
6289 6290 6291 6292 0
6293 6294 6295 6296 0
6297 6298 6299 6300 0
6301 6302 6303 6304 0
6305 6306 6307 6308 0
6309 6310 6311 6312 0
6313 6314 6315 6316 0
6317 6318 6319 6320 0
6321 6322 6323 6324 0
6325 6326 6327 6328 0
6329 6330 6331 6332 0
6333 6334 6335 6336 0
6337 6338 6339 6340 0
6341 6342 6343 6344 0
6345 6346 6347 6348 0
6349 6350 6351 6352 0
6353 6354 6355 6356 0
6357 6358 6359 6360 0
6361 6362 6363 6364 0
6365 6366 6367 6368 0
6369 6370 6371 6372 0
6373 6374 6375 6376 0
6377 6378 6379 6380 0
6381 6382 6383 6384 0
6385 6386 6387 6388 0
6389 6390 6391 6392 0
6393 6394 6395 6396 0
6397 6398 6399 6400 0
6401 6402 6403 6404 0
6405 6406 6407 6408 0
6409 6410 6411 6412 0
6413 6414 6415 6416 0
6417 6418 6419 6420 0
6421 6422 6423 6424 0
6425 6426 6427 6428 0
6429 6430 6431 6432 0
6433 6434 6435 6436 0
6437 6438 6439 6440 0
6441 6442 6443 6444 0
6445 6446 6447 6448 0
6449 6450 6451 6452 0
6453 6454 6455 6456 0
6457 6458 6459 6460 0
6461 6462 6463 6464 0
6465 6466 6467 6468 0
6469 6470 6471 6472 0
6473 6474 6475 6476 0
6477 6478 6479 6480 0
6481 6482 6483 6484 0
6485 6486 6487 6488 0
6489 6490 6491 6492 0
6493 6494 6495 6496 0
6497 6498 6499 6500 0
6501 6502 6503 6504 0
6505 6506 6507 6508 0
6509 6510 6511 6512 0
6513 6514 6515 6516 0
6517 6518 6519 6520 0
6521 6522 6523 6524 0
6525 6526 6527 6528 0
6529 6530 6531 6532 0
6533 6534 6535 6536 0
6537 6538 6539 6540 0
6541 6542 6543 6544 0
6545 6546 6547 6548 0
6549 6550 6551 6552 0
6553 6554 6555 6556 0
6557 6558 6559 6560 0
6561 6562 6563 6564 0
6565 6566 6567 6568 0
6569 6570 6571 6572 0
6573 6574 6575 6576 0
6577 6578 6579 6580 0
6581 6582 6583 6584 0
6585 6586 6587 6588 0
6589 6590 6591 6592 0
6593 6594 6595 6596 0
6597 6598 6599 6600 0
6601 6602 6603 6604 0
6605 6606 6607 6608 0
6609 6610 6611 6612 0
6613 6614 6615 6616 0
6617 6618 6619 6620 0
6621 6622 6623 6624 0
6625 6626 6627 6628 0
6629 6630 6631 6632 0
6633 6634 6635 6636 0
6637 6638 6639 6640 0
6641 6642 6643 6644 0
6645 6646 6647 6648 0
6649 6650 6651 6652 0
6653 6654 6655 6656 0
6657 6658 6659 6660 0
6661 6662 6663 6664 0
6665 6666 6667 6668 0
6669 6670 6671 6672 0
6673 6674 6675 6676 0
6677 6678 6679 6680 0
6681 6682 6683 6684 0
6685 6686 6687 6688 0
6689 6690 6691 6692 0
6693 6694 6695 6696 0
6697 6698 6699 6700 0
6701 6702 6703 6704 0
6705 6706 6707 6708 0
6709 6710 6711 6712 0
6713 6714 6715 6716 0
6717 6718 6719 6720 0
6721 6722 6723 6724 0
6725 6726 6727 6728 0
6729 6730 6731 6732 0
6733 6734 6735 6736 0
6737 6738 6739 6740 0
6741 6742 6743 6744 0
6745 6746 6747 6748 0
6749 6750 6751 6752 0
6753 6754 6755 6756 0
6757 6758 6759 6760 0
6761 6762 6763 6764 0
6765 6766 6767 6768 0
6769 6770 6771 6772 0
6773 6774 6775 6776 0
6777 6778 6779 6780 0
6781 6782 6783 6784 0
6785 6786 6787 6788 0
6789 6790 6791 6792 0
6793 6794 6795 6796 0
6797 6798 6799 6800 0
6801 6802 6803 6804 0
6805 6806 6807 6808 0
6809 6810 6811 6812 0
6813 6814 6815 6816 0
6817 6818 6819 6820 0
6821 6822 6823 6824 0
6825 6826 6827 6828 0
6829 6830 6831 6832 0
6833 6834 6835 6836 0
6837 6838 6839 6840 0
6841 6842 6843 6844 0
6845 6846 6847 6848 0
6849 6850 6851 6852 0
6853 6854 6855 6856 0
6857 6858 6859 6860 0
6861 6862 6863 6864 0
6865 6866 6867 6868 0
6869 6870 6871 6872 0
6873 6874 6875 6876 0
6877 6878 6879 6880 0
6881 6882 6883 6884 0
6885 6886 6887 6888 0
6889 6890 6891 6892 0
6893 6894 6895 6896 0
6897 6898 6899 6900 0
6901 6902 6903 6904 0
6905 6906 6907 6908 0
6909 6910 6911 6912 0
6913 6914 6915 6916 0
6917 6918 6919 6920 0
6921 6922 6923 6924 0
6925 6926 6927 6928 0
6929 6930 6931 6932 0
6933 6934 6935 6936 0
6937 6938 6939 6940 0
6941 6942 6943 6944 0
6945 6946 6947 6948 0
6949 6950 6951 6952 0
6953 6954 6955 6956 0
6957 6958 6959 6960 0
6961 6962 6963 6964 0
6965 6966 6967 6968 0
6969 6970 6971 6972 0
6973 6974 6975 6976 0
6977 6978 6979 6980 0
6981 6982 6983 6984 0
6985 6986 6987 6988 0
6989 6990 6991 6992 0
6993 6994 6995 6996 0
6997 6998 6999 7000 0
7001 7002 7003 7004 0
7005 7006 7007 7008 0
7009 7010 7011 7012 0
7013 7014 7015 7016 0
7017 7018 7019 7020 0
7021 7022 7023 7024 0
7025 7026 7027 7028 0
7029 7030 7031 7032 0
7033 7034 7035 7036 0
7037 7038 7039 7040 0
7041 7042 7043 7044 0
7045 7046 7047 7048 0
7049 7050 7051 7052 0
7053 7054 7055 7056 0
7057 7058 7059 7060 0
7061 7062 7063 7064 0
7065 7066 7067 7068 0
7069 7070 7071 7072 0
7073 7074 7075 7076 0
7077 7078 7079 7080 0
7081 7082 7083 7084 0
7085 7086 7087 7088 0
7089 7090 7091 7092 0
7093 7094 7095 7096 0
7097 7098 7099 7100 0
7101 7102 7103 7104 0
7105 7106 7107 7108 0
7109 7110 7111 7112 0
7113 7114 7115 7116 0
7117 7118 7119 7120 0
7121 7122 7123 7124 0
7125 7126 7127 7128 0
7129 7130 7131 7132 0
7133 7134 7135 7136 0
7137 7138 7139 7140 0
7141 7142 7143 7144 0
7145 7146 7147 7148 0
7149 7150 7151 7152 0
7153 7154 7155 7156 0
7157 7158 7159 7160 0
7161 7162 7163 7164 0
7165 7166 7167 7168 0
7169 7170 7171 7172 0
7173 7174 7175 7176 0
7177 7178 7179 7180 0
7181 7182 7183 7184 0
7185 7186 7187 7188 0
7189 7190 7191 7192 0
7193 7194 7195 7196 0
7197 7198 7199 7200 0
7201 7202 7203 7204 0
7205 7206 7207 7208 0
7209 7210 7211 7212 0
7213 7214 7215 7216 0
7217 7218 7219 7220 0
7221 7222 7223 7224 0
7225 7226 7227 7228 0
7229 7230 7231 7232 0
7233 7234 7235 7236 0
7237 7238 7239 7240 0
7241 7242 7243 7244 0
7245 7246 7247 7248 0
7249 7250 7251 7252 0
7253 7254 7255 7256 0
7257 7258 7259 7260 0
7261 7262 7263 7264 0
7265 7266 7267 7268 0
7269 7270 7271 7272 0
7273 7274 7275 7276 0
7277 7278 7279 7280 0
7281 7282 7283 7284 0
7285 7286 7287 7288 0
7289 7290 7291 7292 0
7293 7294 7295 7296 0
7297 7298 7299 7300 0
7301 7302 7303 7304 0
7305 7306 7307 7308 0
7309 7310 7311 7312 0
7313 7314 7315 7316 0
7317 7318 7319 7320 0
7321 7322 7323 7324 0
7325 7326 7327 7328 0
7329 7330 7331 7332 0
7333 7334 7335 7336 0
7337 7338 7339 7340 0
7341 7342 7343 7344 0
7345 7346 7347 7348 0
7349 7350 7351 7352 0
7353 7354 7355 7356 0
7357 7358 7359 7360 0
7361 7362 7363 7364 0
7365 7366 7367 7368 0
7369 7370 7371 7372 0
7373 7374 7375 7376 0
7377 7378 7379 7380 0
7381 7382 7383 7384 0
7385 7386 7387 7388 0
7389 7390 7391 7392 0
7393 7394 7395 7396 0
7397 7398 7399 7400 0
7401 7402 7403 7404 0
7405 7406 7407 7408 0
7409 7410 7411 7412 0
7413 7414 7415 7416 0
7417 7418 7419 7420 0
7421 7422 7423 7424 0
7425 7426 7427 7428 0
7429 7430 7431 7432 0
7433 7434 7435 7436 0
7437 7438 7439 7440 0
7441 7442 7443 7444 0
7445 7446 7447 7448 0
7449 7450 7451 7452 0
7453 7454 7455 7456 0
7457 7458 7459 7460 0
7461 7462 7463 7464 0
7465 7466 7467 7468 0
7469 7470 7471 7472 0
7473 7474 7475 7476 0
7477 7478 7479 7480 0
7481 7482 7483 7484 0
7485 7486 7487 7488 0
7489 7490 7491 7492 0
7493 7494 7495 7496 0
7497 7498 7499 7500 0
7501 7502 7503 7504 0
7505 7506 7507 7508 0
7509 7510 7511 7512 0
7513 7514 7515 7516 0
7517 7518 7519 7520 0
7521 7522 7523 7524 0
7525 7526 7527 7528 0
7529 7530 7531 7532 0
7533 7534 7535 7536 0
7537 7538 7539 7540 0
7541 7542 7543 7544 0
7545 7546 7547 7548 0
7549 7550 7551 7552 0
7553 7554 7555 7556 0
7557 7558 7559 7560 0
7561 7562 7563 7564 0
7565 7566 7567 7568 0
7569 7570 7571 7572 0
7573 7574 7575 7576 0
7577 7578 7579 7580 0
7581 7582 7583 7584 0
7585 7586 7587 7588 0
7589 7590 7591 7592 0
7593 7594 7595 7596 0
7597 7598 7599 7600 0
7601 7602 7603 7604 0
7605 7606 7607 7608 0
7609 7610 7611 7612 0
7613 7614 7615 7616 0
7617 7618 7619 7620 0
7621 7622 7623 7624 0
7625 7626 7627 7628 0
7629 7630 7631 7632 0
7633 7634 7635 7636 0
7637 7638 7639 7640 0
7641 7642 7643 7644 0
7645 7646 7647 7648 0
7649 7650 7651 7652 0
7653 7654 7655 7656 0
7657 7658 7659 7660 0
7661 7662 7663 7664 0
7665 7666 7667 7668 0
7669 7670 7671 7672 0
7673 7674 7675 7676 0
7677 7678 7679 7680 0
7681 7682 7683 7684 0
7685 7686 7687 7688 0
7689 7690 7691 7692 0
7693 7694 7695 7696 0
7697 7698 7699 7700 0
7701 7702 7703 7704 0
7705 7706 7707 7708 0
7709 7710 7711 7712 0
7713 7714 7715 7716 0
7717 7718 7719 7720 0
7721 7722 7723 7724 0
7725 7726 7727 7728 0
7729 7730 7731 7732 0
7733 7734 7735 7736 0
7737 7738 7739 7740 0
7741 7742 7743 7744 0
7745 7746 7747 7748 0
7749 7750 7751 7752 0
7753 7754 7755 7756 0
7757 7758 7759 7760 0
7761 7762 7763 7764 0
7765 7766 7767 7768 0
7769 7770 7771 7772 0
7773 7774 7775 7776 0
7777 7778 7779 7780 0
7781 7782 7783 7784 0
7785 7786 7787 7788 0
7789 7790 7791 7792 0
7793 7794 7795 7796 0
7797 7798 7799 7800 0
7801 7802 7803 7804 0
7805 7806 7807 7808 0
7809 7810 7811 7812 0
7813 7814 7815 7816 0
7817 7818 7819 7820 0
7821 7822 7823 7824 0
7825 7826 7827 7828 0
7829 7830 7831 7832 0
7833 7834 7835 7836 0
7837 7838 7839 7840 0
7841 7842 7843 7844 0
7845 7846 7847 7848 0
7849 7850 7851 7852 0
7853 7854 7855 7856 0
7857 7858 7859 7860 0
7861 7862 7863 7864 0
7865 7866 7867 7868 0
7869 7870 7871 7872 0
7873 7874 7875 7876 0
7877 7878 7879 7880 0
7881 7882 7883 7884 0
7885 7886 7887 7888 0
7889 7890 7891 7892 0
7893 7894 7895 7896 0
7897 7898 7899 7900 0
7901 7902 7903 7904 0
7905 7906 7907 7908 0
7909 7910 7911 7912 0
7913 7914 7915 7916 0
7917 7918 7919 7920 0
7921 7922 7923 7924 0
7925 7926 7927 7928 0
7929 7930 7931 7932 0
7933 7934 7935 7936 0
7937 7938 7939 7940 0
7941 7942 7943 7944 0
7945 7946 7947 7948 0
7949 7950 7951 7952 0
7953 7954 7955 7956 0
7957 7958 7959 7960 0
7961 7962 7963 7964 0
7965 7966 7967 7968 0
7969 7970 7971 7972 0
7973 7974 7975 7976 0
7977 7978 7979 7980 0
7981 7982 7983 7984 0
7985 7986 7987 7988 0
7989 7990 7991 7992 0
7993 7994 7995 7996 0
7997 7998 7999 8000 0
8001 8002 8003 8004 0
8005 8006 8007 8008 0
8009 8010 8011 8012 0
8013 8014 8015 8016 0
8017 8018 8019 8020 0
8021 8022 8023 8024 0
8025 8026 8027 8028 0
8029 8030 8031 8032 0
8033 8034 8035 8036 0
8037 8038 8039 8040 0
8041 8042 8043 8044 0
-1 -33 0
-2 -34 0
-3 -35 0
-4 -36 0
-1 -77 0
-2 -78 0
-3 -79 0
-4 -80 0
-1 -177 0
-2 -178 0
-3 -179 0
-4 -180 0
-1 -201 0
-2 -202 0
-3 -203 0
-4 -204 0
-1 -237 0
-2 -238 0
-3 -239 0
-4 -240 0
-1 -245 0
-2 -246 0
-3 -247 0
-4 -248 0
-1 -265 0
-2 -266 0
-3 -267 0
-4 -268 0
-1 -269 0
-2 -270 0
-3 -271 0
-4 -272 0
-5 -17 0
-6 -18 0
-7 -19 0
-8 -20 0
-5 -101 0
-6 -102 0
-7 -103 0
-8 -104 0
-5 -153 0
-6 -154 0
-7 -155 0
-8 -156 0
-5 -361 0
-6 -362 0
-7 -363 0
-8 -364 0
-5 -389 0
-6 -390 0
-7 -391 0
-8 -392 0
-5 -525 0
-6 -526 0
-7 -527 0
-8 -528 0
-9 -41 0
-10 -42 0
-11 -43 0
-12 -44 0
-9 -129 0
-10 -130 0
-11 -131 0
-12 -132 0
-9 -165 0
-10 -166 0
-11 -167 0
-12 -168 0
-9 -325 0
-10 -326 0
-11 -327 0
-12 -328 0
-9 -409 0
-10 -410 0
-11 -411 0
-12 -412 0
-9 -477 0
-10 -478 0
-11 -479 0
-12 -480 0
-9 -713 0
-10 -714 0
-11 -715 0
-12 -716 0
-13 -37 0
-14 -38 0
-15 -39 0
-16 -40 0
-13 -89 0
-14 -90 0
-15 -91 0
-16 -92 0
-13 -225 0
-14 -226 0
-15 -227 0
-16 -228 0
-13 -361 0
-14 -362 0
-15 -363 0
-16 -364 0
-13 -421 0
-14 -422 0
-15 -423 0
-16 -424 0
-13 -437 0
-14 -438 0
-15 -439 0
-16 -440 0
-13 -773 0
-14 -774 0
-15 -775 0
-16 -776 0
-17 -21 0
-18 -22 0
-19 -23 0
-20 -24 0
-17 -25 0
-18 -26 0
-19 -27 0
-20 -28 0
-17 -205 0
-18 -206 0
-19 -207 0
-20 -208 0
-17 -289 0
-18 -290 0
-19 -291 0
-20 -292 0
-17 -565 0
-18 -566 0
-19 -567 0
-20 -568 0
-17 -633 0
-18 -634 0
-19 -635 0
-20 -636 0
-17 -661 0
-18 -662 0
-19 -663 0
-20 -664 0
-17 -869 0
-18 -870 0
-19 -871 0
-20 -872 0
-21 -29 0
-22 -30 0
-23 -31 0
-24 -32 0
-21 -57 0
-22 -58 0
-23 -59 0
-24 -60 0
-21 -125 0
-22 -126 0
-23 -127 0
-24 -128 0
-21 -293 0
-22 -294 0
-23 -295 0
-24 -296 0
-21 -421 0
-22 -422 0
-23 -423 0
-24 -424 0
-21 -565 0
-22 -566 0
-23 -567 0
-24 -568 0
-21 -573 0
-22 -574 0
-23 -575 0
-24 -576 0
-21 -637 0
-22 -638 0
-23 -639 0
-24 -640 0
-21 -697 0
-22 -698 0
-23 -699 0
-24 -700 0
-21 -877 0
-22 -878 0
-23 -879 0
-24 -880 0
-25 -29 0
-26 -30 0
-27 -31 0
-28 -32 0
-25 -65 0
-26 -66 0
-27 -67 0
-28 -68 0
-25 -297 0
-26 -298 0
-27 -299 0
-28 -300 0
-25 -577 0
-26 -578 0
-27 -579 0
-28 -580 0
-25 -661 0
-26 -662 0
-27 -663 0
-28 -664 0
-25 -733 0
-26 -734 0
-27 -735 0
-28 -736 0
-29 -69 0
-30 -70 0
-31 -71 0
-32 -72 0
-29 -173 0
-30 -174 0
-31 -175 0
-32 -176 0
-29 -201 0
-30 -202 0
-31 -203 0
-32 -204 0
-29 -301 0
-30 -302 0
-31 -303 0
-32 -304 0
-29 -453 0
-30 -454 0
-31 -455 0
-32 -456 0
-29 -577 0
-30 -578 0
-31 -579 0
-32 -580 0
-29 -581 0
-30 -582 0
-31 -583 0
-32 -584 0
-29 -697 0
-30 -698 0
-31 -699 0
-32 -700 0
-29 -737 0
-30 -738 0
-31 -739 0
-32 -740 0
-29 -889 0
-30 -890 0
-31 -891 0
-32 -892 0
-33 -93 0
-34 -94 0
-35 -95 0
-36 -96 0
-33 -137 0
-34 -138 0
-35 -139 0
-36 -140 0
-33 -305 0
-34 -306 0
-35 -307 0
-36 -308 0
-33 -513 0
-34 -514 0
-35 -515 0
-36 -516 0
-33 -661 0
-34 -662 0
-35 -663 0
-36 -664 0
-33 -697 0
-34 -698 0
-35 -699 0
-36 -700 0
-33 -973 0
-34 -974 0
-35 -975 0
-36 -976 0
-37 -41 0
-38 -42 0
-39 -43 0
-40 -44 0
-37 -45 0
-38 -46 0
-39 -47 0
-40 -48 0
-37 -89 0
-38 -90 0
-39 -91 0
-40 -92 0
-37 -337 0
-38 -338 0
-39 -339 0
-40 -340 0
-37 -533 0
-38 -534 0
-39 -535 0
-40 -536 0
-37 -641 0
-38 -642 0
-39 -643 0
-40 -644 0
-37 -661 0
-38 -662 0
-39 -663 0
-40 -664 0
-37 -797 0
-38 -798 0
-39 -799 0
-40 -800 0
-37 -1021 0
-38 -1022 0
-39 -1023 0
-40 -1024 0
-41 -49 0
-42 -50 0
-43 -51 0
-44 -52 0
-41 -261 0
-42 -262 0
-43 -263 0
-44 -264 0
-41 -281 0
-42 -282 0
-43 -283 0
-44 -284 0
-41 -341 0
-42 -342 0
-43 -343 0
-44 -344 0
-41 -537 0
-42 -538 0
-43 -539 0
-44 -540 0
-41 -645 0
-42 -646 0
-43 -647 0
-44 -648 0
-41 -697 0
-42 -698 0
-43 -699 0
-44 -700 0
-41 -797 0
-42 -798 0
-43 -799 0
-44 -800 0
-41 -805 0
-42 -806 0
-43 -807 0
-44 -808 0
-41 -1033 0
-42 -1034 0
-43 -1035 0
-44 -1036 0
-45 -49 0
-46 -50 0
-47 -51 0
-48 -52 0
-45 -105 0
-46 -106 0
-47 -107 0
-48 -108 0
-45 -353 0
-46 -354 0
-47 -355 0
-48 -356 0
-45 -541 0
-46 -542 0
-47 -543 0
-48 -544 0
-45 -661 0
-46 -662 0
-47 -663 0
-48 -664 0
-45 -725 0
-46 -726 0
-47 -727 0
-48 -728 0
-45 -809 0
-46 -810 0
-47 -811 0
-48 -812 0
-49 -81 0
-50 -82 0
-51 -83 0
-52 -84 0
-49 -109 0
-50 -110 0
-51 -111 0
-52 -112 0
-49 -265 0
-50 -266 0
-51 -267 0
-52 -268 0
-49 -545 0
-50 -546 0
-51 -547 0
-52 -548 0
-49 -697 0
-50 -698 0
-51 -699 0
-52 -700 0
-49 -729 0
-50 -730 0
-51 -731 0
-52 -732 0
-49 -809 0
-50 -810 0
-51 -811 0
-52 -812 0
-49 -813 0
-50 -814 0
-51 -815 0
-52 -816 0
-53 -61 0
-54 -62 0
-55 -63 0
-56 -64 0
-53 -101 0
-54 -102 0
-55 -103 0
-56 -104 0
-53 -205 0
-54 -206 0
-55 -207 0
-56 -208 0
-53 -409 0
-54 -410 0
-55 -411 0
-56 -412 0
-53 -617 0
-54 -618 0
-55 -619 0
-56 -620 0
-53 -893 0
-54 -894 0
-55 -895 0
-56 -896 0
-57 -61 0
-58 -62 0
-59 -63 0
-60 -64 0
-57 -65 0
-58 -66 0
-59 -67 0
-60 -68 0
-57 -125 0
-58 -126 0
-59 -127 0
-60 -128 0
-57 -257 0
-58 -258 0
-59 -259 0
-60 -260 0
-57 -641 0
-58 -642 0
-59 -643 0
-60 -644 0
-57 -901 0
-58 -902 0
-59 -903 0
-60 -904 0
-57 -905 0
-58 -906 0
-59 -907 0
-60 -908 0
-57 -977 0
-58 -978 0
-59 -979 0
-60 -980 0
-57 -989 0
-58 -990 0
-59 -991 0
-60 -992 0
-57 -1145 0
-58 -1146 0
-59 -1147 0
-60 -1148 0
-61 -117 0
-62 -118 0
-63 -119 0
-64 -120 0
-61 -165 0
-62 -166 0
-63 -167 0
-64 -168 0
-61 -417 0
-62 -418 0
-63 -419 0
-64 -420 0
-61 -661 0
-62 -662 0
-63 -663 0
-64 -664 0
-61 -909 0
-62 -910 0
-63 -911 0
-64 -912 0
-61 -913 0
-62 -914 0
-63 -915 0
-64 -916 0
-61 -1001 0
-62 -1002 0
-63 -1003 0
-64 -1004 0
-65 -69 0
-66 -70 0
-67 -71 0
-68 -72 0
-65 -141 0
-66 -142 0
-67 -143 0
-68 -144 0
-65 -249 0
-66 -250 0
-67 -251 0
-68 -252 0
-65 -277 0
-66 -278 0
-67 -279 0
-68 -280 0
-65 -369 0
-66 -370 0
-67 -371 0
-68 -372 0
-65 -465 0
-66 -466 0
-67 -467 0
-68 -468 0
-65 -961 0
-66 -962 0
-67 -963 0
-68 -964 0
-65 -1017 0
-66 -1018 0
-67 -1019 0
-68 -1020 0
-65 -1037 0
-66 -1038 0
-67 -1039 0
-68 -1040 0
-65 -1229 0
-66 -1230 0
-67 -1231 0
-68 -1232 0
-69 -285 0
-70 -286 0
-71 -287 0
-72 -288 0
-69 -473 0
-70 -474 0
-71 -475 0
-72 -476 0
-69 -961 0
-70 -962 0
-71 -963 0
-72 -964 0
-69 -1029 0
-70 -1030 0
-71 -1031 0
-72 -1032 0
-69 -1041 0
-70 -1042 0
-71 -1043 0
-72 -1044 0
-69 -1237 0
-70 -1238 0
-71 -1239 0
-72 -1240 0
-73 -97 0
-74 -98 0
-75 -99 0
-76 -100 0
-73 -269 0
-74 -270 0
-75 -271 0
-76 -272 0
-73 -393 0
-74 -394 0
-75 -395 0
-76 -396 0
-73 -829 0
-74 -830 0
-75 -831 0
-76 -832 0
-73 -969 0
-74 -970 0
-75 -971 0
-76 -972 0
-73 -973 0
-74 -974 0
-75 -975 0
-76 -976 0
-73 -1021 0
-74 -1022 0
-75 -1023 0
-76 -1024 0
-73 -1033 0
-74 -1034 0
-75 -1035 0
-76 -1036 0
-77 -81 0
-78 -82 0
-79 -83 0
-80 -84 0
-77 -101 0
-78 -102 0
-79 -103 0
-80 -104 0
-77 -105 0
-78 -106 0
-79 -107 0
-80 -108 0
-77 -305 0
-78 -306 0
-79 -307 0
-80 -308 0
-77 -485 0
-78 -486 0
-79 -487 0
-80 -488 0
-77 -561 0
-78 -562 0
-79 -563 0
-80 -564 0
-77 -897 0
-78 -898 0
-79 -899 0
-80 -900 0
-77 -1049 0
-78 -1050 0
-79 -1051 0
-80 -1052 0
-77 -1089 0
-78 -1090 0
-79 -1091 0
-80 -1092 0
-77 -1093 0
-78 -1094 0
-79 -1095 0
-80 -1096 0
-77 -1353 0
-78 -1354 0
-79 -1355 0
-80 -1356 0
-81 -85 0
-82 -86 0
-83 -87 0
-84 -88 0
-81 -217 0
-82 -218 0
-83 -219 0
-84 -220 0
-81 -309 0
-82 -310 0
-83 -311 0
-84 -312 0
-81 -429 0
-82 -430 0
-83 -431 0
-84 -432 0
-81 -913 0
-82 -914 0
-83 -915 0
-84 -916 0
-81 -921 0
-82 -922 0
-83 -923 0
-84 -924 0
-81 -1057 0
-82 -1058 0
-83 -1059 0
-84 -1060 0
-81 -1097 0
-82 -1098 0
-83 -1099 0
-84 -1100 0
-81 -1217 0
-82 -1218 0
-83 -1219 0
-84 -1220 0
-85 -165 0
-86 -166 0
-87 -167 0
-88 -168 0
-85 -221 0
-86 -222 0
-87 -223 0
-88 -224 0
-85 -317 0
-86 -318 0
-87 -319 0
-88 -320 0
-85 -437 0
-86 -438 0
-87 -439 0
-88 -440 0
-85 -929 0
-86 -930 0
-87 -931 0
-88 -932 0
-85 -1061 0
-86 -1062 0
-87 -1063 0
-88 -1064 0
-85 -1221 0
-86 -1222 0
-87 -1223 0
-88 -1224 0
-89 -93 0
-90 -94 0
-91 -95 0
-92 -96 0
-89 -101 0
-90 -102 0
-91 -103 0
-92 -104 0
-89 -329 0
-90 -330 0
-91 -331 0
-92 -332 0
-89 -609 0
-90 -610 0
-91 -611 0
-92 -612 0
-89 -981 0
-90 -982 0
-91 -983 0
-92 -984 0
-89 -1109 0
-90 -1110 0
-91 -1111 0
-92 -1112 0
-89 -1157 0
-90 -1158 0
-91 -1159 0
-92 -1160 0
-89 -1161 0
-90 -1162 0
-91 -1163 0
-92 -1164 0
-89 -1473 0
-90 -1474 0
-91 -1475 0
-92 -1476 0
-93 -97 0
-94 -98 0
-95 -99 0
-96 -100 0
-93 -113 0
-94 -114 0
-95 -115 0
-96 -116 0
-93 -333 0
-94 -334 0
-95 -335 0
-96 -336 0
-93 -997 0
-94 -998 0
-95 -999 0
-96 -1000 0
-93 -1177 0
-94 -1178 0
-95 -1179 0
-96 -1180 0
-93 -1201 0
-94 -1202 0
-95 -1203 0
-96 -1204 0
-97 -113 0
-98 -114 0
-99 -115 0
-100 -116 0
-97 -133 0
-98 -134 0
-99 -135 0
-100 -136 0
-97 -269 0
-98 -270 0
-99 -271 0
-100 -272 0
-97 -625 0
-98 -626 0
-99 -627 0
-100 -628 0
-97 -1185 0
-98 -1186 0
-99 -1187 0
-100 -1188 0
-97 -1209 0
-98 -1210 0
-99 -1211 0
-100 -1212 0
-101 -105 0
-102 -106 0
-103 -107 0
-104 -108 0
-101 -113 0
-102 -114 0
-103 -115 0
-104 -116 0
-101 -117 0
-102 -118 0
-103 -119 0
-104 -120 0
-101 -205 0
-102 -206 0
-103 -207 0
-104 -208 0
-101 -697 0
-102 -698 0
-103 -699 0
-104 -700 0
-101 -1005 0
-102 -1006 0
-103 -1007 0
-104 -1008 0
-101 -1113 0
-102 -1114 0
-103 -1115 0
-104 -1116 0
-101 -1129 0
-102 -1130 0
-103 -1131 0
-104 -1132 0
-101 -1241 0
-102 -1242 0
-103 -1243 0
-104 -1244 0
-101 -1249 0
-102 -1250 0
-103 -1251 0
-104 -1252 0
-101 -1277 0
-102 -1278 0
-103 -1279 0
-104 -1280 0
-101 -1497 0
-102 -1498 0
-103 -1499 0
-104 -1500 0
-105 -109 0
-106 -110 0
-107 -111 0
-108 -112 0
-105 -209 0
-106 -210 0
-107 -211 0
-108 -212 0
-105 -357 0
-106 -358 0
-107 -359 0
-108 -360 0
-105 -541 0
-106 -542 0
-107 -543 0
-108 -544 0
-105 -717 0
-106 -718 0
-107 -719 0
-108 -720 0
-105 -1121 0
-106 -1122 0
-107 -1123 0
-108 -1124 0
-105 -1133 0
-106 -1134 0
-107 -1135 0
-108 -1136 0
-105 -1245 0
-106 -1246 0
-107 -1247 0
-108 -1248 0
-105 -1253 0
-106 -1254 0
-107 -1255 0
-108 -1256 0
-109 -217 0
-110 -218 0
-111 -219 0
-112 -220 0
-109 -365 0
-110 -366 0
-111 -367 0
-112 -368 0
-109 -545 0
-110 -546 0
-111 -547 0
-112 -548 0
-109 -1125 0
-110 -1126 0
-111 -1127 0
-112 -1128 0
-109 -1137 0
-110 -1138 0
-111 -1139 0
-112 -1140 0
-109 -1253 0
-110 -1254 0
-111 -1255 0
-112 -1256 0
-113 -157 0
-114 -158 0
-115 -159 0
-116 -160 0
-113 -369 0
-114 -370 0
-115 -371 0
-116 -372 0
-113 -737 0
-114 -738 0
-115 -739 0
-116 -740 0
-113 -1257 0
-114 -1258 0
-115 -1259 0
-116 -1260 0
-113 -1261 0
-114 -1262 0
-115 -1263 0
-116 -1264 0
-113 -1277 0
-114 -1278 0
-115 -1279 0
-116 -1280 0
-117 -281 0
-118 -282 0
-119 -283 0
-120 -284 0
-117 -753 0
-118 -754 0
-119 -755 0
-120 -756 0
-117 -757 0
-118 -758 0
-119 -759 0
-120 -760 0
-117 -1017 0
-118 -1018 0
-119 -1019 0
-120 -1020 0
-117 -1265 0
-118 -1266 0
-119 -1267 0
-120 -1268 0
-121 -141 0
-122 -142 0
-123 -143 0
-124 -144 0
-121 -153 0
-122 -154 0
-123 -155 0
-124 -156 0
-121 -197 0
-122 -198 0
-123 -199 0
-124 -200 0
-121 -437 0
-122 -438 0
-123 -439 0
-124 -440 0
-121 -557 0
-122 -558 0
-123 -559 0
-124 -560 0
-121 -1285 0
-122 -1286 0
-123 -1287 0
-124 -1288 0
-125 -137 0
-126 -138 0
-127 -139 0
-128 -140 0
-125 -141 0
-126 -142 0
-127 -143 0
-128 -144 0
-125 -313 0
-126 -314 0
-127 -315 0
-128 -316 0
-125 -405 0
-126 -406 0
-127 -407 0
-128 -408 0
-125 -1289 0
-126 -1290 0
-127 -1291 0
-128 -1292 0
-125 -1293 0
-126 -1294 0
-127 -1295 0
-128 -1296 0
-129 -133 0
-130 -134 0
-131 -135 0
-132 -136 0
-129 -145 0
-130 -146 0
-131 -147 0
-132 -148 0
-129 -261 0
-130 -262 0
-131 -263 0
-132 -264 0
-129 -661 0
-130 -662 0
-131 -663 0
-132 -664 0
-129 -1121 0
-130 -1122 0
-131 -1123 0
-132 -1124 0
-129 -1321 0
-130 -1322 0
-131 -1323 0
-132 -1324 0
-129 -1337 0
-130 -1338 0
-131 -1339 0
-132 -1340 0
-133 -149 0
-134 -150 0
-135 -151 0
-136 -152 0
-133 -153 0
-134 -154 0
-135 -155 0
-136 -156 0
-133 -157 0
-134 -158 0
-135 -159 0
-136 -160 0
-133 -421 0
-134 -422 0
-135 -423 0
-136 -424 0
-133 -625 0
-134 -626 0
-135 -627 0
-136 -628 0
-133 -673 0
-134 -674 0
-135 -675 0
-136 -676 0
-133 -1325 0
-134 -1326 0
-135 -1327 0
-136 -1328 0
-133 -1341 0
-134 -1342 0
-135 -1343 0
-136 -1344 0
-137 -141 0
-138 -142 0
-139 -143 0
-140 -144 0
-137 -145 0
-138 -146 0
-139 -147 0
-140 -148 0
-137 -333 0
-138 -334 0
-139 -335 0
-140 -336 0
-137 -1357 0
-138 -1358 0
-139 -1359 0
-140 -1360 0
-137 -1373 0
-138 -1374 0
-139 -1375 0
-140 -1376 0
-137 -1633 0
-138 -1634 0
-139 -1635 0
-140 -1636 0
-141 -153 0
-142 -154 0
-143 -155 0
-144 -156 0
-141 -249 0
-142 -250 0
-143 -251 0
-144 -252 0
-141 -681 0
-142 -682 0
-143 -683 0
-144 -684 0
-141 -1361 0
-142 -1362 0
-143 -1363 0
-144 -1364 0
-141 -1377 0
-142 -1378 0
-143 -1379 0
-144 -1380 0
-141 -1637 0
-142 -1638 0
-143 -1639 0
-144 -1640 0
-145 -153 0
-146 -154 0
-147 -155 0
-148 -156 0
-145 -201 0
-146 -202 0
-147 -203 0
-148 -204 0
-145 -337 0
-146 -338 0
-147 -339 0
-148 -340 0
-145 -685 0
-146 -686 0
-147 -687 0
-148 -688 0
-145 -745 0
-146 -746 0
-147 -747 0
-148 -748 0
-145 -833 0
-146 -834 0
-147 -835 0
-148 -836 0
-145 -1365 0
-146 -1366 0
-147 -1367 0
-148 -1368 0
-145 -1385 0
-146 -1386 0
-147 -1387 0
-148 -1388 0
-149 -153 0
-150 -154 0
-151 -155 0
-152 -156 0
-149 -165 0
-150 -166 0
-151 -167 0
-152 -168 0
-149 -173 0
-150 -174 0
-151 -175 0
-152 -176 0
-149 -273 0
-150 -274 0
-151 -275 0
-152 -276 0
-149 -353 0
-150 -354 0
-151 -355 0
-152 -356 0
-149 -461 0
-150 -462 0
-151 -463 0
-152 -464 0
-149 -605 0
-150 -606 0
-151 -607 0
-152 -608 0
-149 -693 0
-150 -694 0
-151 -695 0
-152 -696 0
-149 -837 0
-150 -838 0
-151 -839 0
-152 -840 0
-149 -1389 0
-150 -1390 0
-151 -1391 0
-152 -1392 0
-149 -1473 0
-150 -1474 0
-151 -1475 0
-152 -1476 0
-153 -169 0
-154 -170 0
-155 -171 0
-156 -172 0
-153 -177 0
-154 -178 0
-155 -179 0
-156 -180 0
-153 -253 0
-154 -254 0
-155 -255 0
-156 -256 0
-153 -289 0
-154 -290 0
-155 -291 0
-156 -292 0
-153 -525 0
-154 -526 0
-155 -527 0
-156 -528 0
-153 -697 0
-154 -698 0
-155 -699 0
-156 -700 0
-153 -841 0
-154 -842 0
-155 -843 0
-156 -844 0
-153 -1369 0
-154 -1370 0
-155 -1371 0
-156 -1372 0
-153 -1393 0
-154 -1394 0
-155 -1395 0
-156 -1396 0
-153 -1477 0
-154 -1478 0
-155 -1479 0
-156 -1480 0
-157 -161 0
-158 -162 0
-159 -163 0
-160 -164 0
-157 -165 0
-158 -166 0
-159 -167 0
-160 -168 0
-157 -169 0
-158 -170 0
-159 -171 0
-160 -172 0
-157 -297 0
-158 -298 0
-159 -299 0
-160 -300 0
-157 -465 0
-158 -466 0
-159 -467 0
-160 -468 0
-157 -621 0
-158 -622 0
-159 -623 0
-160 -624 0
-157 -861 0
-158 -862 0
-159 -863 0
-160 -864 0
-157 -1421 0
-158 -1422 0
-159 -1423 0
-160 -1424 0
-157 -1681 0
-158 -1682 0
-159 -1683 0
-160 -1684 0
-161 -181 0
-162 -182 0
-163 -183 0
-164 -184 0
-161 -185 0
-162 -186 0
-163 -187 0
-164 -188 0
-161 -301 0
-162 -302 0
-163 -303 0
-164 -304 0
-161 -473 0
-162 -474 0
-163 -475 0
-164 -476 0
-161 -629 0
-162 -630 0
-163 -631 0
-164 -632 0
-161 -1421 0
-162 -1422 0
-163 -1423 0
-164 -1424 0
-161 -1697 0
-162 -1698 0
-163 -1699 0
-164 -1700 0
-165 -169 0
-166 -170 0
-167 -171 0
-168 -172 0
-165 -173 0
-166 -174 0
-167 -175 0
-168 -176 0
-165 -181 0
-166 -182 0
-167 -183 0
-168 -184 0
-165 -193 0
-166 -194 0
-167 -195 0
-168 -196 0
-165 -281 0
-166 -282 0
-167 -283 0
-168 -284 0
-165 -317 0
-166 -318 0
-167 -319 0
-168 -320 0
-165 -325 0
-166 -326 0
-167 -327 0
-168 -328 0
-165 -493 0
-166 -494 0
-167 -495 0
-168 -496 0
-165 -661 0
-166 -662 0
-167 -663 0
-168 -664 0
-165 -885 0
-166 -886 0
-167 -887 0
-168 -888 0
-165 -1177 0
-166 -1178 0
-167 -1179 0
-168 -1180 0
-165 -1301 0
-166 -1302 0
-167 -1303 0
-168 -1304 0
-165 -1309 0
-166 -1310 0
-167 -1311 0
-168 -1312 0
-165 -1437 0
-166 -1438 0
-167 -1439 0
-168 -1440 0
-165 -1493 0
-166 -1494 0
-167 -1495 0
-168 -1496 0
-165 -1721 0
-166 -1722 0
-167 -1723 0
-168 -1724 0
-169 -177 0
-170 -178 0
-171 -179 0
-172 -180 0
-169 -185 0
-170 -186 0
-171 -187 0
-172 -188 0
-169 -541 0
-170 -542 0
-171 -543 0
-172 -544 0
-169 -665 0
-170 -666 0
-171 -667 0
-172 -668 0
-169 -765 0
-170 -766 0
-171 -767 0
-172 -768 0
-169 -1181 0
-170 -1182 0
-171 -1183 0
-172 -1184 0
-169 -1429 0
-170 -1430 0
-171 -1431 0
-172 -1432 0
-169 -1441 0
-170 -1442 0
-171 -1443 0
-172 -1444 0
-169 -1725 0
-170 -1726 0
-171 -1727 0
-172 -1728 0
-173 -177 0
-174 -178 0
-175 -179 0
-176 -180 0
-173 -189 0
-174 -190 0
-175 -191 0
-176 -192 0
-173 -213 0
-174 -214 0
-175 -215 0
-176 -216 0
-173 -285 0
-174 -286 0
-175 -287 0
-176 -288 0
-173 -385 0
-174 -386 0
-175 -387 0
-176 -388 0
-173 -509 0
-174 -510 0
-175 -511 0
-176 -512 0
-173 -669 0
-174 -670 0
-175 -671 0
-176 -672 0
-173 -889 0
-174 -890 0
-175 -891 0
-176 -892 0
-173 -893 0
-174 -894 0
-175 -895 0
-176 -896 0
-173 -1185 0
-174 -1186 0
-175 -1187 0
-176 -1188 0
-173 -1445 0
-174 -1446 0
-175 -1447 0
-176 -1448 0
-173 -1497 0
-174 -1498 0
-175 -1499 0
-176 -1500 0
-177 -377 0
-178 -378 0
-179 -379 0
-180 -380 0
-177 -513 0
-178 -514 0
-179 -515 0
-180 -516 0
-177 -769 0
-178 -770 0
-179 -771 0
-180 -772 0
-177 -897 0
-178 -898 0
-179 -899 0
-180 -900 0
-177 -1189 0
-178 -1190 0
-179 -1191 0
-180 -1192 0
-177 -1433 0
-178 -1434 0
-179 -1435 0
-180 -1436 0
-177 -1449 0
-178 -1450 0
-179 -1451 0
-180 -1452 0
-177 -1501 0
-178 -1502 0
-179 -1503 0
-180 -1504 0
-181 -185 0
-182 -186 0
-183 -187 0
-184 -188 0
-181 -189 0
-182 -190 0
-183 -191 0
-184 -192 0
-181 -497 0
-182 -498 0
-183 -499 0
-184 -500 0
-181 -697 0
-182 -698 0
-183 -699 0
-184 -700 0
-181 -1201 0
-182 -1202 0
-183 -1203 0
-184 -1204 0
-181 -1305 0
-182 -1306 0
-183 -1307 0
-184 -1308 0
-181 -1313 0
-182 -1314 0
-183 -1315 0
-184 -1316 0
-181 -1437 0
-182 -1438 0
-183 -1439 0
-184 -1440 0
-181 -1505 0
-182 -1506 0
-183 -1507 0
-184 -1508 0
-181 -1737 0
-182 -1738 0
-183 -1739 0
-184 -1740 0
-185 -545 0
-186 -546 0
-187 -547 0
-188 -548 0
-185 -701 0
-186 -702 0
-187 -703 0
-188 -704 0
-185 -1205 0
-186 -1206 0
-187 -1207 0
-188 -1208 0
-185 -1441 0
-186 -1442 0
-187 -1443 0
-188 -1444 0
-185 -1741 0
-186 -1742 0
-187 -1743 0
-188 -1744 0
-189 -221 0
-190 -222 0
-191 -223 0
-192 -224 0
-189 -705 0
-190 -706 0
-191 -707 0
-192 -708 0
-189 -1209 0
-190 -1210 0
-191 -1211 0
-192 -1212 0
-189 -1445 0
-190 -1446 0
-191 -1447 0
-192 -1448 0
-189 -1509 0
-190 -1510 0
-191 -1511 0
-192 -1512 0
-193 -233 0
-194 -234 0
-195 -235 0
-196 -236 0
-193 -345 0
-194 -346 0
-195 -347 0
-196 -348 0
-193 -373 0
-194 -374 0
-195 -375 0
-196 -376 0
-193 -777 0
-194 -778 0
-195 -779 0
-196 -780 0
-193 -1269 0
-194 -1270 0
-195 -1271 0
-196 -1272 0
-193 -1405 0
-194 -1406 0
-195 -1407 0
-196 -1408 0
-193 -1413 0
-194 -1414 0
-195 -1415 0
-196 -1416 0
-193 -1469 0
-194 -1470 0
-195 -1471 0
-196 -1472 0
-197 -201 0
-198 -202 0
-199 -203 0
-200 -204 0
-197 -249 0
-198 -250 0
-199 -251 0
-200 -252 0
-197 -253 0
-198 -254 0
-199 -255 0
-200 -256 0
-197 -661 0
-198 -662 0
-199 -663 0
-200 -664 0
-197 -857 0
-198 -858 0
-199 -859 0
-200 -860 0
-197 -1521 0
-198 -1522 0
-199 -1523 0
-200 -1524 0
-197 -1533 0
-198 -1534 0
-199 -1535 0
-200 -1536 0
-197 -1613 0
-198 -1614 0
-199 -1615 0
-200 -1616 0
-197 -1813 0
-198 -1814 0
-199 -1815 0
-200 -1816 0
-201 -453 0
-202 -454 0
-203 -455 0
-204 -456 0
-201 -669 0
-202 -670 0
-203 -671 0
-204 -672 0
-201 -1049 0
-202 -1050 0
-203 -1051 0
-204 -1052 0
-201 -1525 0
-202 -1526 0
-203 -1527 0
-204 -1528 0
-201 -1537 0
-202 -1538 0
-203 -1539 0
-204 -1540 0
-201 -1621 0
-202 -1622 0
-203 -1623 0
-204 -1624 0
-205 -209 0
-206 -210 0
-207 -211 0
-208 -212 0
-205 -257 0
-206 -258 0
-207 -259 0
-208 -260 0
-205 -1057 0
-206 -1058 0
-207 -1059 0
-208 -1060 0
-205 -1317 0
-206 -1318 0
-207 -1319 0
-208 -1320 0
-205 -1553 0
-206 -1554 0
-207 -1555 0
-208 -1556 0
-205 -1661 0
-206 -1662 0
-207 -1663 0
-208 -1664 0
-205 -1865 0
-206 -1866 0
-207 -1867 0
-208 -1868 0
-209 -213 0
-210 -214 0
-211 -215 0
-212 -216 0
-209 -217 0
-210 -218 0
-211 -219 0
-212 -220 0
-209 -237 0
-210 -238 0
-211 -239 0
-212 -240 0
-209 -257 0
-210 -258 0
-211 -259 0
-212 -260 0
-209 -357 0
-210 -358 0
-211 -359 0
-212 -360 0
-209 -397 0
-210 -398 0
-211 -399 0
-212 -400 0
-209 -585 0
-210 -586 0
-211 -587 0
-212 -588 0
-209 -909 0
-210 -910 0
-211 -911 0
-212 -912 0
-209 -1321 0
-210 -1322 0
-211 -1323 0
-212 -1324 0
-209 -1561 0
-210 -1562 0
-211 -1563 0
-212 -1564 0
-209 -1677 0
-210 -1678 0
-211 -1679 0
-212 -1680 0
-213 -221 0
-214 -222 0
-215 -223 0
-216 -224 0
-213 -237 0
-214 -238 0
-215 -239 0
-216 -240 0
-213 -361 0
-214 -362 0
-215 -363 0
-216 -364 0
-213 -565 0
-214 -566 0
-215 -567 0
-216 -568 0
-213 -589 0
-214 -590 0
-215 -591 0
-216 -592 0
-213 -893 0
-214 -894 0
-215 -895 0
-216 -896 0
-213 -1325 0
-214 -1326 0
-215 -1327 0
-216 -1328 0
-213 -1565 0
-214 -1566 0
-215 -1567 0
-216 -1568 0
-213 -1645 0
-214 -1646 0
-215 -1647 0
-216 -1648 0
-213 -1681 0
-214 -1682 0
-215 -1683 0
-216 -1684 0
-217 -221 0
-218 -222 0
-219 -223 0
-220 -224 0
-217 -245 0
-218 -246 0
-219 -247 0
-220 -248 0
-217 -365 0
-218 -366 0
-219 -367 0
-220 -368 0
-217 -401 0
-218 -402 0
-219 -403 0
-220 -404 0
-217 -477 0
-218 -478 0
-219 -479 0
-220 -480 0
-217 -593 0
-218 -594 0
-219 -595 0
-220 -596 0
-217 -913 0
-218 -914 0
-219 -915 0
-220 -916 0
-217 -1337 0
-218 -1338 0
-219 -1339 0
-220 -1340 0
-217 -1561 0
-218 -1562 0
-219 -1563 0
-220 -1564 0
-217 -1569 0
-218 -1570 0
-219 -1571 0
-220 -1572 0
-217 -1693 0
-218 -1694 0
-219 -1695 0
-220 -1696 0
-221 -245 0
-222 -246 0
-223 -247 0
-224 -248 0
-221 -325 0
-222 -326 0
-223 -327 0
-224 -328 0
-221 -573 0
-222 -574 0
-223 -575 0
-224 -576 0
-221 -597 0
-222 -598 0
-223 -599 0
-224 -600 0
-221 -845 0
-222 -846 0
-223 -847 0
-224 -848 0
-221 -1341 0
-222 -1342 0
-223 -1343 0
-224 -1344 0
-221 -1565 0
-222 -1566 0
-223 -1567 0
-224 -1568 0
-221 -1573 0
-222 -1574 0
-223 -1575 0
-224 -1576 0
-221 -1649 0
-222 -1650 0
-223 -1651 0
-224 -1652 0
-221 -1697 0
-222 -1698 0
-223 -1699 0
-224 -1700 0
-225 -241 0
-226 -242 0
-227 -243 0
-228 -244 0
-225 -245 0
-226 -246 0
-227 -247 0
-228 -248 0
-225 -273 0
-226 -274 0
-227 -275 0
-228 -276 0
-225 -337 0
-226 -338 0
-227 -339 0
-228 -340 0
-225 -609 0
-226 -610 0
-227 -611 0
-228 -612 0
-225 -773 0
-226 -774 0
-227 -775 0
-228 -776 0
-225 -933 0
-226 -934 0
-227 -935 0
-228 -936 0
-225 -945 0
-226 -946 0
-227 -947 0
-228 -948 0
-225 -1393 0
-226 -1394 0
-227 -1395 0
-228 -1396 0
-225 -1581 0
-226 -1582 0
-227 -1583 0
-228 -1584 0
-225 -1585 0
-226 -1586 0
-227 -1587 0
-228 -1588 0
-229 -245 0
-230 -246 0
-231 -247 0
-232 -248 0
-229 -425 0
-230 -426 0
-231 -427 0
-232 -428 0
-229 -645 0
-230 -646 0
-231 -647 0
-232 -648 0
-229 -801 0
-230 -802 0
-231 -803 0
-232 -804 0
-229 -961 0
-230 -962 0
-231 -963 0
-232 -964 0
-229 -1537 0
-230 -1538 0
-231 -1539 0
-232 -1540 0
-229 -1745 0
-230 -1746 0
-231 -1747 0
-232 -1748 0
-229 -1953 0
-230 -1954 0
-231 -1955 0
-232 -1956 0
-233 -237 0
-234 -238 0
-235 -239 0
-236 -240 0
-233 -241 0
-234 -242 0
-235 -243 0
-236 -244 0
-233 -433 0
-234 -434 0
-235 -435 0
-236 -436 0
-233 -469 0
-234 -470 0
-235 -471 0
-236 -472 0
-233 -657 0
-234 -658 0
-235 -659 0
-236 -660 0
-233 -1429 0
-234 -1430 0
-235 -1431 0
-236 -1432 0
-233 -1521 0
-234 -1522 0
-235 -1523 0
-236 -1524 0
-233 -1589 0
-234 -1590 0
-235 -1591 0
-236 -1592 0
-237 -245 0
-238 -246 0
-239 -247 0
-240 -248 0
-237 -277 0
-238 -278 0
-239 -279 0
-240 -280 0
-237 -437 0
-238 -438 0
-239 -439 0
-240 -440 0
-237 -661 0
-238 -662 0
-239 -663 0
-240 -664 0
-237 -949 0
-238 -950 0
-239 -951 0
-240 -952 0
-237 -1077 0
-238 -1078 0
-239 -1079 0
-240 -1080 0
-237 -1089 0
-238 -1090 0
-239 -1091 0
-240 -1092 0
-237 -1433 0
-238 -1434 0
-239 -1435 0
-240 -1436 0
-237 -1525 0
-238 -1526 0
-239 -1527 0
-240 -1528 0
-237 -1593 0
-238 -1594 0
-239 -1595 0
-240 -1596 0
-237 -1749 0
-238 -1750 0
-239 -1751 0
-240 -1752 0
-237 -1757 0
-238 -1758 0
-239 -1759 0
-240 -1760 0
-241 -245 0
-242 -246 0
-243 -247 0
-244 -248 0
-241 -281 0
-242 -282 0
-243 -283 0
-244 -284 0
-241 -445 0
-242 -446 0
-243 -447 0
-244 -448 0
-241 -481 0
-242 -482 0
-243 -483 0
-244 -484 0
-241 -689 0
-242 -690 0
-243 -691 0
-244 -692 0
-241 -809 0
-242 -810 0
-243 -811 0
-244 -812 0
-241 -925 0
-242 -926 0
-243 -927 0
-244 -928 0
-241 -1441 0
-242 -1442 0
-243 -1443 0
-244 -1444 0
-241 -1533 0
-242 -1534 0
-243 -1535 0
-244 -1536 0
-241 -1545 0
-242 -1546 0
-243 -1547 0
-244 -1548 0
-241 -1589 0
-242 -1590 0
-243 -1591 0
-244 -1592 0
-241 -1597 0
-242 -1598 0
-243 -1599 0
-244 -1600 0
-241 -1973 0
-242 -1974 0
-243 -1975 0
-244 -1976 0
-245 -285 0
-246 -286 0
-247 -287 0
-248 -288 0
-245 -373 0
-246 -374 0
-247 -375 0
-248 -376 0
-245 -449 0
-246 -450 0
-247 -451 0
-248 -452 0
-245 -505 0
-246 -506 0
-247 -507 0
-248 -508 0
-245 -697 0
-246 -698 0
-247 -699 0
-248 -700 0
-245 -957 0
-246 -958 0
-247 -959 0
-248 -960 0
-245 -965 0
-246 -966 0
-247 -967 0
-248 -968 0
-245 -1085 0
-246 -1086 0
-247 -1087 0
-248 -1088 0
-245 -1093 0
-246 -1094 0
-247 -1095 0
-248 -1096 0
-245 -1449 0
-246 -1450 0
-247 -1451 0
-248 -1452 0
-245 -1453 0
-246 -1454 0
-247 -1455 0
-248 -1456 0
-245 -1537 0
-246 -1538 0
-247 -1539 0
-248 -1540 0
-245 -1593 0
-246 -1594 0
-247 -1595 0
-248 -1596 0
-245 -1601 0
-246 -1602 0
-247 -1603 0
-248 -1604 0
-245 -1753 0
-246 -1754 0
-247 -1755 0
-248 -1756 0
-245 -1761 0
-246 -1762 0
-247 -1763 0
-248 -1764 0
-249 -253 0
-250 -254 0
-251 -255 0
-252 -256 0
-249 -817 0
-250 -818 0
-251 -819 0
-252 -820 0
-249 -1701 0
-250 -1702 0
-251 -1703 0
-252 -1704 0
-249 -1997 0
-250 -1998 0
-251 -1999 0
-252 -2000 0
-253 -821 0
-254 -822 0
-255 -823 0
-256 -824 0
-253 -989 0
-254 -990 0
-255 -991 0
-256 -992 0
-253 -1117 0
-254 -1118 0
-255 -1119 0
-256 -1120 0
-253 -1709 0
-254 -1710 0
-255 -1711 0
-256 -1712 0
-257 -277 0
-258 -278 0
-259 -279 0
-260 -280 0
-257 -761 0
-258 -762 0
-259 -763 0
-260 -764 0
-257 -1145 0
-258 -1146 0
-259 -1147 0
-260 -1148 0
-257 -1773 0
-258 -1774 0
-259 -1775 0
-260 -1776 0
-261 -265 0
-262 -266 0
-263 -267 0
-264 -268 0
-261 -1017 0
-262 -1018 0
-263 -1019 0
-264 -1020 0
-261 -1485 0
-262 -1486 0
-263 -1487 0
-264 -1488 0
-261 -1621 0
-262 -1622 0
-263 -1623 0
-264 -1624 0
-261 -1745 0
-262 -1746 0
-263 -1747 0
-264 -1748 0
-265 -269 0
-266 -270 0
-267 -271 0
-268 -272 0
-265 -429 0
-266 -430 0
-267 -431 0
-268 -432 0
-265 -1501 0
-266 -1502 0
-267 -1503 0
-268 -1504 0
-265 -1621 0
-266 -1622 0
-267 -1623 0
-268 -1624 0
-265 -1749 0
-266 -1750 0
-267 -1751 0
-268 -1752 0
-265 -1753 0
-266 -1754 0
-267 -1755 0
-268 -1756 0
-269 -457 0
-270 -458 0
-271 -459 0
-272 -460 0
-269 -785 0
-270 -786 0
-271 -787 0
-272 -788 0
-269 -1757 0
-270 -1758 0
-271 -1759 0
-272 -1760 0
-269 -1761 0
-270 -1762 0
-271 -1763 0
-272 -1764 0
-273 -281 0
-274 -282 0
-275 -283 0
-276 -284 0
-273 -285 0
-274 -286 0
-275 -287 0
-276 -288 0
-273 -793 0
-274 -794 0
-275 -795 0
-276 -796 0
-273 -1025 0
-274 -1026 0
-275 -1027 0
-276 -1028 0
-273 -1161 0
-274 -1162 0
-275 -1163 0
-276 -1164 0
-273 -1637 0
-274 -1638 0
-275 -1639 0
-276 -1640 0
-277 -285 0
-278 -286 0
-279 -287 0
-280 -288 0
-277 -817 0
-278 -818 0
-279 -819 0
-280 -820 0
-277 -1229 0
-278 -1230 0
-279 -1231 0
-280 -1232 0
-277 -1241 0
-278 -1242 0
-279 -1243 0
-280 -1244 0
-277 -1765 0
-278 -1766 0
-279 -1767 0
-280 -1768 0
-281 -285 0
-282 -286 0
-283 -287 0
-284 -288 0
-281 -493 0
-282 -494 0
-283 -495 0
-284 -496 0
-281 -537 0
-282 -538 0
-283 -539 0
-284 -540 0
-281 -1017 0
-282 -1018 0
-283 -1019 0
-284 -1020 0
-281 -1233 0
-282 -1234 0
-283 -1235 0
-284 -1236 0
-281 -1701 0
-282 -1702 0
-283 -1703 0
-284 -1704 0
-281 -1717 0
-282 -1718 0
-283 -1719 0
-284 -1720 0
-281 -1769 0
-282 -1770 0
-283 -1771 0
-284 -1772 0
-281 -2037 0
-282 -2038 0
-283 -2039 0
-284 -2040 0
-285 -361 0
-286 -362 0
-287 -363 0
-288 -364 0
-285 -825 0
-286 -826 0
-287 -827 0
-288 -828 0
-285 -1237 0
-286 -1238 0
-287 -1239 0
-288 -1240 0
-285 -1249 0
-286 -1250 0
-287 -1251 0
-288 -1252 0
-285 -1765 0
-286 -1766 0
-287 -1767 0
-288 -1768 0
-289 -293 0
-290 -294 0
-291 -295 0
-292 -296 0
-289 -869 0
-290 -870 0
-291 -871 0
-292 -872 0
-289 -1057 0
-290 -1058 0
-291 -1059 0
-292 -1060 0
-289 -1781 0
-290 -1782 0
-291 -1783 0
-292 -1784 0
-289 -1801 0
-290 -1802 0
-291 -1803 0
-292 -1804 0
-289 -1813 0
-290 -1814 0
-291 -1815 0
-292 -1816 0
-293 -877 0
-294 -878 0
-295 -879 0
-296 -880 0
-293 -1065 0
-294 -1066 0
-295 -1067 0
-296 -1068 0
-293 -1781 0
-294 -1782 0
-295 -1783 0
-296 -1784 0
-293 -1805 0
-294 -1806 0
-295 -1807 0
-296 -1808 0
-293 -1821 0
-294 -1822 0
-295 -1823 0
-296 -1824 0
-297 -301 0
-298 -302 0
-299 -303 0
-300 -304 0
-297 -465 0
-298 -466 0
-299 -467 0
-300 -468 0
-297 -1785 0
-298 -1786 0
-299 -1787 0
-300 -1788 0
-297 -1825 0
-298 -1826 0
-299 -1827 0
-300 -1828 0
-297 -2053 0
-298 -2054 0
-299 -2055 0
-300 -2056 0
-301 -321 0
-302 -322 0
-303 -323 0
-304 -324 0
-301 -325 0
-302 -326 0
-303 -327 0
-304 -328 0
-301 -473 0
-302 -474 0
-303 -475 0
-304 -476 0
-301 -893 0
-302 -894 0
-303 -895 0
-304 -896 0
-301 -1049 0
-302 -1050 0
-303 -1051 0
-304 -1052 0
-301 -1785 0
-302 -1786 0
-303 -1787 0
-304 -1788 0
-301 -1833 0
-302 -1834 0
-303 -1835 0
-304 -1836 0
-301 -2069 0
-302 -2070 0
-303 -2071 0
-304 -2072 0
-305 -309 0
-306 -310 0
-307 -311 0
-308 -312 0
-305 -313 0
-306 -314 0
-307 -315 0
-308 -316 0
-305 -329 0
-306 -330 0
-307 -331 0
-308 -332 0
-305 -1825 0
-306 -1826 0
-307 -1827 0
-308 -1828 0
-305 -1833 0
-306 -1834 0
-307 -1835 0
-308 -1836 0
-305 -2133 0
-306 -2134 0
-307 -2135 0
-308 -2136 0
-309 -313 0
-310 -314 0
-311 -315 0
-312 -316 0
-309 -317 0
-310 -318 0
-311 -319 0
-312 -320 0
-309 -345 0
-310 -346 0
-311 -347 0
-312 -348 0
-309 -593 0
-310 -594 0
-311 -595 0
-312 -596 0
-309 -1105 0
-310 -1106 0
-311 -1107 0
-312 -1108 0
-309 -1609 0
-310 -1610 0
-311 -1611 0
-312 -1612 0
-309 -1857 0
-310 -1858 0
-311 -1859 0
-312 -1860 0
-309 -1881 0
-310 -1882 0
-311 -1883 0
-312 -1884 0
-313 -405 0
-314 -406 0
-315 -407 0
-316 -408 0
-313 -689 0
-314 -690 0
-315 -691 0
-316 -692 0
-313 -1613 0
-314 -1614 0
-315 -1615 0
-316 -1616 0
-313 -1861 0
-314 -1862 0
-315 -1863 0
-316 -1864 0
-313 -1885 0
-314 -1886 0
-315 -1887 0
-316 -1888 0
-317 -345 0
-318 -346 0
-319 -347 0
-320 -348 0
-317 -597 0
-318 -598 0
-319 -599 0
-320 -600 0
-317 -1109 0
-318 -1110 0
-319 -1111 0
-320 -1112 0
-317 -1873 0
-318 -1874 0
-319 -1875 0
-320 -1876 0
-317 -1897 0
-318 -1898 0
-319 -1899 0
-320 -1900 0
-321 -325 0
-322 -326 0
-323 -327 0
-324 -328 0
-321 -369 0
-322 -370 0
-323 -371 0
-324 -372 0
-321 -765 0
-322 -766 0
-323 -767 0
-324 -768 0
-321 -1113 0
-322 -1114 0
-323 -1115 0
-324 -1116 0
-321 -1305 0
-322 -1306 0
-323 -1307 0
-324 -1308 0
-321 -2009 0
-322 -2010 0
-323 -2011 0
-324 -2012 0
-321 -2165 0
-322 -2166 0
-323 -2167 0
-324 -2168 0
-325 -373 0
-326 -374 0
-327 -375 0
-328 -376 0
-325 -377 0
-326 -378 0
-327 -379 0
-328 -380 0
-325 -537 0
-326 -538 0
-327 -539 0
-328 -540 0
-325 -597 0
-326 -598 0
-327 -599 0
-328 -600 0
-325 -905 0
-326 -906 0
-327 -907 0
-328 -908 0
-325 -1121 0
-326 -1122 0
-327 -1123 0
-328 -1124 0
-325 -1653 0
-326 -1654 0
-327 -1655 0
-328 -1656 0
-325 -1917 0
-326 -1918 0
-327 -1919 0
-328 -1920 0
-325 -2013 0
-326 -2014 0
-327 -2015 0
-328 -2016 0
-325 -2173 0
-326 -2174 0
-327 -2175 0
-328 -2176 0
-329 -345 0
-330 -346 0
-331 -347 0
-332 -348 0
-329 -389 0
-330 -390 0
-331 -391 0
-332 -392 0
-329 -549 0
-330 -550 0
-331 -551 0
-332 -552 0
-329 -629 0
-330 -630 0
-331 -631 0
-332 -632 0
-329 -917 0
-330 -918 0
-331 -919 0
-332 -920 0
-329 -1673 0
-330 -1674 0
-331 -1675 0
-332 -1676 0
-329 -1921 0
-330 -1922 0
-331 -1923 0
-332 -1924 0
-329 -1925 0
-330 -1926 0
-331 -1927 0
-332 -1928 0
-329 -2185 0
-330 -2186 0
-331 -2187 0
-332 -2188 0
-333 -337 0
-334 -338 0
-335 -339 0
-336 -340 0
-333 -345 0
-334 -346 0
-335 -347 0
-336 -348 0
-333 -369 0
-334 -370 0
-335 -371 0
-336 -372 0
-333 -645 0
-334 -646 0
-335 -647 0
-336 -648 0
-333 -1013 0
-334 -1014 0
-335 -1015 0
-336 -1016 0
-333 -1701 0
-334 -1702 0
-335 -1703 0
-336 -1704 0
-333 -1809 0
-334 -1810 0
-335 -1811 0
-336 -1812 0
-333 -1937 0
-334 -1938 0
-335 -1939 0
-336 -1940 0
-333 -1941 0
-334 -1942 0
-335 -1943 0
-336 -1944 0
-333 -2193 0
-334 -2194 0
-335 -2195 0
-336 -2196 0
-337 -341 0
-338 -342 0
-339 -343 0
-340 -344 0
-337 -353 0
-338 -354 0
-339 -355 0
-340 -356 0
-337 -373 0
-338 -374 0
-339 -375 0
-340 -376 0
-337 -453 0
-338 -454 0
-339 -455 0
-340 -456 0
-337 -609 0
-338 -610 0
-339 -611 0
-340 -612 0
-337 -1021 0
-338 -1022 0
-339 -1023 0
-340 -1024 0
-337 -1193 0
-338 -1194 0
-339 -1195 0
-340 -1196 0
-337 -1225 0
-338 -1226 0
-339 -1227 0
-340 -1228 0
-337 -1709 0
-338 -1710 0
-339 -1711 0
-340 -1712 0
-337 -1813 0
-338 -1814 0
-339 -1815 0
-340 -1816 0
-337 -1949 0
-338 -1950 0
-339 -1951 0
-340 -1952 0
-341 -381 0
-342 -382 0
-343 -383 0
-344 -384 0
-341 -1033 0
-342 -1034 0
-343 -1035 0
-344 -1036 0
-341 -1233 0
-342 -1234 0
-343 -1235 0
-344 -1236 0
-341 -1821 0
-342 -1822 0
-343 -1823 0
-344 -1824 0
-341 -1949 0
-342 -1950 0
-343 -1951 0
-344 -1952 0
-345 -349 0
-346 -350 0
-347 -351 0
-348 -352 0
-345 -353 0
-346 -354 0
-347 -355 0
-348 -356 0
-345 -393 0
-346 -394 0
-347 -395 0
-348 -396 0
-345 -433 0
-346 -434 0
-347 -435 0
-348 -436 0
-345 -697 0
-346 -698 0
-347 -699 0
-348 -700 0
-345 -1153 0
-346 -1154 0
-347 -1155 0
-348 -1156 0
-345 -1717 0
-346 -1718 0
-347 -1719 0
-348 -1720 0
-345 -1809 0
-346 -1810 0
-347 -1811 0
-348 -1812 0
-345 -1957 0
-346 -1958 0
-347 -1959 0
-348 -1960 0
-345 -1961 0
-346 -1962 0
-347 -1963 0
-348 -1964 0
-349 -437 0
-350 -438 0
-351 -439 0
-352 -440 0
-349 -529 0
-350 -530 0
-351 -531 0
-352 -532 0
-349 -705 0
-350 -706 0
-351 -707 0
-352 -708 0
-349 -789 0
-350 -790 0
-351 -791 0
-352 -792 0
-349 -1345 0
-350 -1346 0
-351 -1347 0
-352 -1348 0
-349 -1969 0
-350 -1970 0
-351 -1971 0
-352 -1972 0
-353 -385 0
-354 -386 0
-355 -387 0
-356 -388 0
-353 -393 0
-354 -394 0
-355 -395 0
-356 -396 0
-353 -461 0
-354 -462 0
-355 -463 0
-356 -464 0
-353 -717 0
-354 -718 0
-355 -719 0
-356 -720 0
-353 -1217 0
-354 -1218 0
-355 -1219 0
-356 -1220 0
-353 -1725 0
-354 -1726 0
-355 -1727 0
-356 -1728 0
-353 -1813 0
-354 -1814 0
-355 -1815 0
-356 -1816 0
-353 -1973 0
-354 -1974 0
-355 -1975 0
-356 -1976 0
-357 -361 0
-358 -362 0
-359 -363 0
-360 -364 0
-357 -365 0
-358 -366 0
-359 -367 0
-360 -368 0
-357 -373 0
-358 -374 0
-359 -375 0
-360 -376 0
-357 -637 0
-358 -638 0
-359 -639 0
-360 -640 0
-357 -797 0
-358 -798 0
-359 -799 0
-360 -800 0
-357 -977 0
-358 -978 0
-359 -979 0
-360 -980 0
-357 -1385 0
-358 -1386 0
-359 -1387 0
-360 -1388 0
-357 -1845 0
-358 -1846 0
-359 -1847 0
-360 -1848 0
-357 -1869 0
-358 -1870 0
-359 -1871 0
-360 -1872 0
-357 -1977 0
-358 -1978 0
-359 -1979 0
-360 -1980 0
-357 -2021 0
-358 -2022 0
-359 -2023 0
-360 -2024 0
-357 -2237 0
-358 -2238 0
-359 -2239 0
-360 -2240 0
-361 -377 0
-362 -378 0
-363 -379 0
-364 -380 0
-361 -533 0
-362 -534 0
-363 -535 0
-364 -536 0
-361 -565 0
-362 -566 0
-363 -567 0
-364 -568 0
-361 -981 0
-362 -982 0
-363 -983 0
-364 -984 0
-361 -1249 0
-362 -1250 0
-363 -1251 0
-364 -1252 0
-361 -1393 0
-362 -1394 0
-363 -1395 0
-364 -1396 0
-361 -1849 0
-362 -1850 0
-363 -1851 0
-364 -1852 0
-361 -1877 0
-362 -1878 0
-363 -1879 0
-364 -1880 0
-361 -1981 0
-362 -1982 0
-363 -1983 0
-364 -1984 0
-361 -2029 0
-362 -2030 0
-363 -2031 0
-364 -2032 0
-361 -2241 0
-362 -2242 0
-363 -2243 0
-364 -2244 0
-365 -381 0
-366 -382 0
-367 -383 0
-368 -384 0
-365 -805 0
-366 -806 0
-367 -807 0
-368 -808 0
-365 -1265 0
-366 -1266 0
-367 -1267 0
-368 -1268 0
-365 -1745 0
-366 -1746 0
-367 -1747 0
-368 -1748 0
-365 -1853 0
-366 -1854 0
-367 -1855 0
-368 -1856 0
-365 -1893 0
-366 -1894 0
-367 -1895 0
-368 -1896 0
-365 -1977 0
-366 -1978 0
-367 -1979 0
-368 -1980 0
-365 -2033 0
-366 -2034 0
-367 -2035 0
-368 -2036 0
-369 -373 0
-370 -374 0
-371 -375 0
-372 -376 0
-369 -465 0
-370 -466 0
-371 -467 0
-372 -468 0
-369 -681 0
-370 -682 0
-371 -683 0
-372 -684 0
-369 -1409 0
-370 -1410 0
-371 -1411 0
-372 -1412 0
-369 -1985 0
-370 -1986 0
-371 -1987 0
-372 -1988 0
-369 -2257 0
-370 -2258 0
-371 -2259 0
-372 -2260 0
-373 -377 0
-374 -378 0
-375 -379 0
-376 -380 0
-373 -381 0
-374 -382 0
-375 -383 0
-376 -384 0
-373 -385 0
-374 -386 0
-375 -387 0
-376 -388 0
-373 -469 0
-374 -470 0
-375 -471 0
-376 -472 0
-373 -697 0
-374 -698 0
-375 -699 0
-376 -700 0
-373 -989 0
-374 -990 0
-375 -991 0
-376 -992 0
-373 -1173 0
-374 -1174 0
-375 -1175 0
-376 -1176 0
-373 -1269 0
-374 -1270 0
-375 -1271 0
-376 -1272 0
-373 -1417 0
-374 -1418 0
-375 -1419 0
-376 -1420 0
-373 -1909 0
-374 -1910 0
-375 -1911 0
-376 -1912 0
-373 -1989 0
-374 -1990 0
-375 -1991 0
-376 -1992 0
-373 -2021 0
-374 -2022 0
-375 -2023 0
-376 -2024 0
-373 -2269 0
-374 -2270 0
-375 -2271 0
-376 -2272 0
-377 -577 0
-378 -578 0
-379 -579 0
-380 -580 0
-377 -709 0
-378 -710 0
-379 -711 0
-380 -712 0
-377 -961 0
-378 -962 0
-379 -963 0
-380 -964 0
-377 -997 0
-378 -998 0
-379 -999 0
-380 -1000 0
-377 -1189 0
-378 -1190 0
-379 -1191 0
-380 -1192 0
-377 -1261 0
-378 -1262 0
-379 -1263 0
-380 -1264 0
-377 -1421 0
-378 -1422 0
-379 -1423 0
-380 -1424 0
-377 -1993 0
-378 -1994 0
-379 -1995 0
-380 -1996 0
-377 -2029 0
-378 -2030 0
-379 -2031 0
-380 -2032 0
-381 -481 0
-382 -482 0
-383 -483 0
-384 -484 0
-381 -721 0
-382 -722 0
-383 -723 0
-384 -724 0
-381 -1197 0
-382 -1198 0
-383 -1199 0
-384 -1200 0
-381 -1273 0
-382 -1274 0
-383 -1275 0
-384 -1276 0
-381 -1913 0
-382 -1914 0
-383 -1915 0
-384 -1916 0
-381 -1989 0
-382 -1990 0
-383 -1991 0
-384 -1992 0
-381 -2033 0
-382 -2034 0
-383 -2035 0
-384 -2036 0
-385 -729 0
-386 -730 0
-387 -731 0
-388 -732 0
-385 -1001 0
-386 -1002 0
-387 -1003 0
-388 -1004 0
-385 -1757 0
-386 -1758 0
-387 -1759 0
-388 -1760 0
-385 -1909 0
-386 -1910 0
-387 -1911 0
-388 -1912 0
-389 -393 0
-390 -394 0
-391 -395 0
-392 -396 0
-389 -661 0
-390 -662 0
-391 -663 0
-392 -664 0
-389 -1017 0
-390 -1018 0
-391 -1019 0
-392 -1020 0
-389 -1277 0
-390 -1278 0
-391 -1279 0
-392 -1280 0
-389 -1477 0
-390 -1478 0
-391 -1479 0
-392 -1480 0
-389 -2017 0
-390 -2018 0
-391 -2019 0
-392 -2020 0
-389 -2029 0
-390 -2030 0
-391 -2031 0
-392 -2032 0
-393 -521 0
-394 -522 0
-395 -523 0
-396 -524 0
-393 -741 0
-394 -742 0
-395 -743 0
-396 -744 0
-393 -829 0
-394 -830 0
-395 -831 0
-396 -832 0
-393 -1493 0
-394 -1494 0
-395 -1495 0
-396 -1496 0
-393 -1997 0
-394 -1998 0
-395 -1999 0
-396 -2000 0
-393 -2037 0
-394 -2038 0
-395 -2039 0
-396 -2040 0
-397 -401 0
-398 -402 0
-399 -403 0
-400 -404 0
-397 -409 0
-398 -410 0
-399 -411 0
-400 -412 0
-397 -429 0
-398 -430 0
-399 -431 0
-400 -432 0
-397 -437 0
-398 -438 0
-399 -439 0
-400 -440 0
-397 -585 0
-398 -586 0
-399 -587 0
-400 -588 0
-397 -637 0
-398 -638 0
-399 -639 0
-400 -640 0
-397 -837 0
-398 -838 0
-399 -839 0
-400 -840 0
-397 -1789 0
-398 -1790 0
-399 -1791 0
-400 -1792 0
-397 -2041 0
-398 -2042 0
-399 -2043 0
-400 -2044 0
-397 -2045 0
-398 -2046 0
-399 -2047 0
-400 -2048 0
-397 -2133 0
-398 -2134 0
-399 -2135 0
-400 -2136 0
-401 -441 0
-402 -442 0
-403 -443 0
-404 -444 0
-401 -449 0
-402 -450 0
-403 -451 0
-404 -452 0
-401 -593 0
-402 -594 0
-403 -595 0
-404 -596 0
-401 -849 0
-402 -850 0
-403 -851 0
-404 -852 0
-401 -1793 0
-402 -1794 0
-403 -1795 0
-404 -1796 0
-401 -2045 0
-402 -2046 0
-403 -2047 0
-404 -2048 0
-405 -413 0
-406 -414 0
-407 -415 0
-408 -416 0
-405 -513 0
-406 -514 0
-407 -515 0
-408 -516 0
-405 -1129 0
-406 -1130 0
-407 -1131 0
-408 -1132 0
-405 -2049 0
-406 -2050 0
-407 -2051 0
-408 -2052 0
-405 -2065 0
-406 -2066 0
-407 -2067 0
-408 -2068 0
-405 -2333 0
-406 -2334 0
-407 -2335 0
-408 -2336 0
-409 -413 0
-410 -414 0
-411 -415 0
-412 -416 0
-409 -417 0
-410 -418 0
-411 -419 0
-412 -420 0
-409 -457 0
-410 -458 0
-411 -459 0
-412 -460 0
-409 -461 0
-410 -462 0
-411 -463 0
-412 -464 0
-409 -509 0
-410 -510 0
-411 -511 0
-412 -512 0
-409 -697 0
-410 -698 0
-411 -699 0
-412 -700 0
-409 -1057 0
-410 -1058 0
-411 -1059 0
-412 -1060 0
-409 -1309 0
-410 -1310 0
-411 -1311 0
-412 -1312 0
-409 -1797 0
-410 -1798 0
-411 -1799 0
-412 -1800 0
-409 -2053 0
-410 -2054 0
-411 -2055 0
-412 -2056 0
-409 -2069 0
-410 -2070 0
-411 -2071 0
-412 -2072 0
-409 -2133 0
-410 -2134 0
-411 -2135 0
-412 -2136 0
-413 -417 0
-414 -418 0
-415 -419 0
-416 -420 0
-413 -513 0
-414 -514 0
-415 -515 0
-416 -516 0
-413 -701 0
-414 -702 0
-415 -703 0
-416 -704 0
-413 -861 0
-414 -862 0
-415 -863 0
-416 -864 0
-413 -1133 0
-414 -1134 0
-415 -1135 0
-416 -1136 0
-413 -2057 0
-414 -2058 0
-415 -2059 0
-416 -2060 0
-413 -2073 0
-414 -2074 0
-415 -2075 0
-416 -2076 0
-417 -753 0
-418 -754 0
-419 -755 0
-420 -756 0
-417 -885 0
-418 -886 0
-419 -887 0
-420 -888 0
-417 -1813 0
-418 -1814 0
-419 -1815 0
-420 -1816 0
-417 -2077 0
-418 -2078 0
-419 -2079 0
-420 -2080 0
-417 -2081 0
-418 -2082 0
-419 -2083 0
-420 -2084 0
-421 -425 0
-422 -426 0
-423 -427 0
-424 -428 0
-421 -437 0
-422 -438 0
-423 -439 0
-424 -440 0
-421 -453 0
-422 -454 0
-423 -455 0
-424 -456 0
-421 -465 0
-422 -466 0
-423 -467 0
-424 -468 0
-421 -641 0
-422 -642 0
-423 -643 0
-424 -644 0
-421 -925 0
-422 -926 0
-423 -927 0
-424 -928 0
-421 -1329 0
-422 -1330 0
-423 -1331 0
-424 -1332 0
-421 -1361 0
-422 -1362 0
-423 -1363 0
-424 -1364 0
-421 -1849 0
-422 -1850 0
-423 -1851 0
-424 -1852 0
-421 -2085 0
-422 -2086 0
-423 -2087 0
-424 -2088 0
-421 -2177 0
-422 -2178 0
-423 -2179 0
-424 -2180 0
-421 -2369 0
-422 -2370 0
-423 -2371 0
-424 -2372 0
-425 -449 0
-426 -450 0
-427 -451 0
-428 -452 0
-425 -473 0
-426 -474 0
-427 -475 0
-428 -476 0
-425 -645 0
-426 -646 0
-427 -647 0
-428 -648 0
-425 -937 0
-426 -938 0
-427 -939 0
-428 -940 0
-425 -1165 0
-426 -1166 0
-427 -1167 0
-428 -1168 0
-425 -1377 0
-426 -1378 0
-427 -1379 0
-428 -1380 0
-425 -2085 0
-426 -2086 0
-427 -2087 0
-428 -2088 0
-425 -2181 0
-426 -2182 0
-427 -2183 0
-428 -2184 0
-425 -2377 0
-426 -2378 0
-427 -2379 0
-428 -2380 0
-429 -437 0
-430 -438 0
-431 -439 0
-432 -440 0
-429 -441 0
-430 -442 0
-431 -443 0
-432 -444 0
-429 -457 0
-430 -458 0
-431 -459 0
-432 -460 0
-429 -653 0
-430 -654 0
-431 -655 0
-432 -656 0
-429 -921 0
-430 -922 0
-431 -923 0
-432 -924 0
-429 -1105 0
-430 -1106 0
-431 -1107 0
-432 -1108 0
-429 -1397 0
-430 -1398 0
-431 -1399 0
-432 -1400 0
-429 -1869 0
-430 -1870 0
-431 -1871 0
-432 -1872 0
-429 -2089 0
-430 -2090 0
-431 -2091 0
-432 -2092 0
-433 -437 0
-434 -438 0
-435 -439 0
-436 -440 0
-433 -445 0
-434 -446 0
-435 -447 0
-436 -448 0
-433 -485 0
-434 -486 0
-435 -487 0
-436 -488 0
-433 -521 0
-434 -522 0
-435 -523 0
-436 -524 0
-433 -657 0
-434 -658 0
-435 -659 0
-436 -660 0
-433 -841 0
-434 -842 0
-435 -843 0
-436 -844 0
-433 -2093 0
-434 -2094 0
-435 -2095 0
-436 -2096 0
-437 -449 0
-438 -450 0
-439 -451 0
-440 -452 0
-437 -461 0
-438 -462 0
-439 -463 0
-440 -464 0
-437 -485 0
-438 -486 0
-439 -487 0
-440 -488 0
-437 -525 0
-438 -526 0
-439 -527 0
-440 -528 0
-437 -661 0
-438 -662 0
-439 -663 0
-440 -664 0
-437 -845 0
-438 -846 0
-439 -847 0
-440 -848 0
-437 -929 0
-438 -930 0
-439 -931 0
-440 -932 0
-437 -1109 0
-438 -1110 0
-439 -1111 0
-440 -1112 0
-437 -1345 0
-438 -1346 0
-439 -1347 0
-440 -1348 0
-437 -1877 0
-438 -1878 0
-439 -1879 0
-440 -1880 0
-437 -2097 0
-438 -2098 0
-439 -2099 0
-440 -2100 0
-437 -2185 0
-438 -2186 0
-439 -2187 0
-440 -2188 0
-441 -449 0
-442 -450 0
-443 -451 0
-444 -452 0
-441 -685 0
-442 -686 0
-443 -687 0
-444 -688 0
-441 -933 0
-442 -934 0
-443 -935 0
-444 -936 0
-441 -1401 0
-442 -1402 0
-443 -1403 0
-444 -1404 0
-441 -1893 0
-442 -1894 0
-443 -1895 0
-444 -1896 0
-441 -2089 0
-442 -2090 0
-443 -2091 0
-444 -2092 0
-445 -449 0
-446 -450 0
-447 -451 0
-448 -452 0
-445 -489 0
-446 -490 0
-447 -491 0
-448 -492 0
-445 -689 0
-446 -690 0
-447 -691 0
-448 -692 0
-445 -853 0
-446 -854 0
-447 -855 0
-448 -856 0
-445 -2093 0
-446 -2094 0
-447 -2095 0
-448 -2096 0
-449 -489 0
-450 -490 0
-451 -491 0
-452 -492 0
-449 -697 0
-450 -698 0
-451 -699 0
-452 -700 0
-449 -941 0
-450 -942 0
-451 -943 0
-452 -944 0
-449 -1905 0
-450 -1906 0
-451 -1907 0
-452 -1908 0
-449 -2097 0
-450 -2098 0
-451 -2099 0
-452 -2100 0
-449 -2189 0
-450 -2190 0
-451 -2191 0
-452 -2192 0
-453 -461 0
-454 -462 0
-455 -463 0
-456 -464 0
-453 -1185 0
-454 -1186 0
-455 -1187 0
-456 -1188 0
-453 -2177 0
-454 -2178 0
-455 -2179 0
-456 -2180 0
-453 -2381 0
-454 -2382 0
-455 -2383 0
-456 -2384 0
-457 -461 0
-458 -462 0
-459 -463 0
-460 -464 0
-457 -529 0
-458 -530 0
-459 -531 0
-460 -532 0
-457 -553 0
-458 -554 0
-459 -555 0
-460 -556 0
-457 -785 0
-458 -786 0
-459 -787 0
-460 -788 0
-457 -1413 0
-458 -1414 0
-459 -1415 0
-460 -1416 0
-457 -1909 0
-458 -1910 0
-459 -1911 0
-460 -1912 0
-457 -2101 0
-458 -2102 0
-459 -2103 0
-460 -2104 0
-457 -2105 0
-458 -2106 0
-459 -2107 0
-460 -2108 0
-461 -733 0
-462 -734 0
-463 -735 0
-464 -736 0
-461 -793 0
-462 -794 0
-463 -795 0
-464 -796 0
-461 -865 0
-462 -866 0
-463 -867 0
-464 -868 0
-461 -1073 0
-462 -1074 0
-463 -1075 0
-464 -1076 0
-461 -2109 0
-462 -2110 0
-463 -2111 0
-464 -2112 0
-461 -2185 0
-462 -2186 0
-463 -2187 0
-464 -2188 0
-465 -469 0
-466 -470 0
-467 -471 0
-468 -472 0
-465 -473 0
-466 -474 0
-467 -475 0
-468 -476 0
-465 -485 0
-466 -486 0
-467 -487 0
-468 -488 0
-465 -493 0
-466 -494 0
-467 -495 0
-468 -496 0
-465 -533 0
-466 -534 0
-467 -535 0
-468 -536 0
-465 -1241 0
-466 -1242 0
-467 -1243 0
-468 -1244 0
-465 -1533 0
-466 -1534 0
-467 -1535 0
-468 -1536 0
-465 -2049 0
-466 -2050 0
-467 -2051 0
-468 -2052 0
-465 -2113 0
-466 -2114 0
-467 -2115 0
-468 -2116 0
-465 -2201 0
-466 -2202 0
-467 -2203 0
-468 -2204 0
-465 -2217 0
-466 -2218 0
-467 -2219 0
-468 -2220 0
-465 -2441 0
-466 -2442 0
-467 -2443 0
-468 -2444 0
-469 -481 0
-470 -482 0
-471 -483 0
-472 -484 0
-469 -533 0
-470 -534 0
-471 -535 0
-472 -536 0
-469 -841 0
-470 -842 0
-471 -843 0
-472 -844 0
-469 -1117 0
-470 -1118 0
-471 -1119 0
-472 -1120 0
-469 -1245 0
-470 -1246 0
-471 -1247 0
-472 -1248 0
-469 -1417 0
-470 -1418 0
-471 -1419 0
-472 -1420 0
-469 -1429 0
-470 -1430 0
-471 -1431 0
-472 -1432 0
-469 -2057 0
-470 -2058 0
-471 -2059 0
-472 -2060 0
-469 -2117 0
-470 -2118 0
-471 -2119 0
-472 -2120 0
-469 -2457 0
-470 -2458 0
-471 -2459 0
-472 -2460 0
-473 -481 0
-474 -482 0
-475 -483 0
-476 -484 0
-473 -489 0
-474 -490 0
-475 -491 0
-476 -492 0
-473 -497 0
-474 -498 0
-475 -499 0
-476 -500 0
-473 -537 0
-474 -538 0
-475 -539 0
-476 -540 0
-473 -1249 0
-474 -1250 0
-475 -1251 0
-476 -1252 0
-473 -1333 0
-474 -1334 0
-475 -1335 0
-476 -1336 0
-473 -2065 0
-474 -2066 0
-475 -2067 0
-476 -2068 0
-473 -2113 0
-474 -2114 0
-475 -2115 0
-476 -2116 0
-473 -2209 0
-474 -2210 0
-475 -2211 0
-476 -2212 0
-473 -2225 0
-474 -2226 0
-475 -2227 0
-476 -2228 0
-473 -2477 0
-474 -2478 0
-475 -2479 0
-476 -2480 0
-477 -481 0
-478 -482 0
-479 -483 0
-480 -484 0
-477 -501 0
-478 -502 0
-479 -503 0
-480 -504 0
-477 -505 0
-478 -506 0
-479 -507 0
-480 -508 0
-477 -805 0
-478 -806 0
-479 -807 0
-480 -808 0
-477 -849 0
-478 -850 0
-479 -851 0
-480 -852 0
-477 -1337 0
-478 -1338 0
-479 -1339 0
-480 -1340 0
-477 -1437 0
-478 -1438 0
-479 -1439 0
-480 -1440 0
-477 -1917 0
-478 -1918 0
-479 -1919 0
-480 -1920 0
-477 -2069 0
-478 -2070 0
-479 -2071 0
-480 -2072 0
-477 -2213 0
-478 -2214 0
-479 -2215 0
-480 -2216 0
-481 -501 0
-482 -502 0
-483 -503 0
-484 -504 0
-481 -537 0
-482 -538 0
-483 -539 0
-484 -540 0
-481 -853 0
-482 -854 0
-483 -855 0
-484 -856 0
-481 -1253 0
-482 -1254 0
-483 -1255 0
-484 -1256 0
-481 -1441 0
-482 -1442 0
-483 -1443 0
-484 -1444 0
-481 -2073 0
-482 -2074 0
-483 -2075 0
-484 -2076 0
-481 -2117 0
-482 -2118 0
-483 -2119 0
-484 -2120 0
-481 -2493 0
-482 -2494 0
-483 -2495 0
-484 -2496 0
-485 -489 0
-486 -490 0
-487 -491 0
-488 -492 0
-485 -541 0
-486 -542 0
-487 -543 0
-488 -544 0
-485 -897 0
-486 -898 0
-487 -899 0
-488 -900 0
-485 -1545 0
-486 -1546 0
-487 -1547 0
-488 -1548 0
-485 -1921 0
-486 -1922 0
-487 -1923 0
-488 -1924 0
-485 -2049 0
-486 -2050 0
-487 -2051 0
-488 -2052 0
-485 -2121 0
-486 -2122 0
-487 -2123 0
-488 -2124 0
-485 -2497 0
-486 -2498 0
-487 -2499 0
-488 -2500 0
-489 -545 0
-490 -546 0
-491 -547 0
-492 -548 0
-489 -765 0
-490 -766 0
-491 -767 0
-492 -768 0
-489 -1349 0
-490 -1350 0
-491 -1351 0
-492 -1352 0
-489 -1549 0
-490 -1550 0
-491 -1551 0
-492 -1552 0
-489 -1925 0
-490 -1926 0
-491 -1927 0
-492 -1928 0
-489 -2065 0
-490 -2066 0
-491 -2067 0
-492 -2068 0
-489 -2121 0
-490 -2122 0
-491 -2123 0
-492 -2124 0
-489 -2501 0
-490 -2502 0
-491 -2503 0
-492 -2504 0
-493 -497 0
-494 -498 0
-495 -499 0
-496 -500 0
-493 -905 0
-494 -906 0
-495 -907 0
-496 -908 0
-493 -1357 0
-494 -1358 0
-495 -1359 0
-496 -1360 0
-493 -1937 0
-494 -1938 0
-495 -1939 0
-496 -1940 0
-493 -2125 0
-494 -2126 0
-495 -2127 0
-496 -2128 0
-493 -2253 0
-494 -2254 0
-495 -2255 0
-496 -2256 0
-493 -2513 0
-494 -2514 0
-495 -2515 0
-496 -2516 0
-497 -501 0
-498 -502 0
-499 -503 0
-500 -504 0
-497 -569 0
-498 -570 0
-499 -571 0
-500 -572 0
-497 -1373 0
-498 -1374 0
-499 -1375 0
-500 -1376 0
-497 -1941 0
-498 -1942 0
-499 -1943 0
-500 -1944 0
-497 -2125 0
-498 -2126 0
-499 -2127 0
-500 -2128 0
-497 -2521 0
-498 -2522 0
-499 -2523 0
-500 -2524 0
-501 -581 0
-502 -582 0
-503 -583 0
-504 -584 0
-501 -881 0
-502 -882 0
-503 -883 0
-504 -884 0
-501 -1385 0
-502 -1386 0
-503 -1387 0
-504 -1388 0
-501 -1949 0
-502 -1950 0
-503 -1951 0
-504 -1952 0
-501 -2081 0
-502 -2082 0
-503 -2083 0
-504 -2084 0
-505 -941 0
-506 -942 0
-507 -943 0
-508 -944 0
-505 -1201 0
-506 -1202 0
-507 -1203 0
-508 -1204 0
-505 -1453 0
-506 -1454 0
-507 -1455 0
-508 -1456 0
-505 -1993 0
-506 -1994 0
-507 -1995 0
-508 -1996 0
-505 -2109 0
-506 -2110 0
-507 -2111 0
-508 -2112 0
-505 -2289 0
-506 -2290 0
-507 -2291 0
-508 -2292 0
-509 -513 0
-510 -514 0
-511 -515 0
-512 -516 0
-509 -529 0
-510 -530 0
-511 -531 0
-512 -532 0
-509 -589 0
-510 -590 0
-511 -591 0
-512 -592 0
-509 -825 0
-510 -826 0
-511 -827 0
-512 -828 0
-509 -1001 0
-510 -1002 0
-511 -1003 0
-512 -1004 0
-509 -1141 0
-510 -1142 0
-511 -1143 0
-512 -1144 0
-509 -1605 0
-510 -1606 0
-511 -1607 0
-512 -1608 0
-509 -2153 0
-510 -2154 0
-511 -2155 0
-512 -2156 0
-509 -2165 0
-510 -2166 0
-511 -2167 0
-512 -2168 0
-513 -997 0
-514 -998 0
-515 -999 0
-516 -1000 0
-513 -2157 0
-514 -2158 0
-515 -2159 0
-516 -2160 0
-513 -2169 0
-514 -2170 0
-515 -2171 0
-516 -2172 0
-517 -529 0
-518 -530 0
-519 -531 0
-520 -532 0
-517 -601 0
-518 -602 0
-519 -603 0
-520 -604 0
-517 -969 0
-518 -970 0
-519 -971 0
-520 -972 0
-517 -1609 0
-518 -1610 0
-519 -1611 0
-520 -1612 0
-517 -1997 0
-518 -1998 0
-519 -1999 0
-520 -2000 0
-517 -2193 0
-518 -2194 0
-519 -2195 0
-520 -2196 0
-521 -525 0
-522 -526 0
-523 -527 0
-524 -528 0
-521 -541 0
-522 -542 0
-523 -543 0
-524 -544 0
-521 -673 0
-522 -674 0
-523 -675 0
-524 -676 0
-521 -1493 0
-522 -1494 0
-523 -1495 0
-524 -1496 0
-521 -2137 0
-522 -2138 0
-523 -2139 0
-524 -2140 0
-525 -541 0
-526 -542 0
-527 -543 0
-528 -544 0
-525 -821 0
-526 -822 0
-527 -823 0
-528 -824 0
-525 -869 0
-526 -870 0
-527 -871 0
-528 -872 0
-525 -1497 0
-526 -1498 0
-527 -1499 0
-528 -1500 0
-525 -1645 0
-526 -1646 0
-527 -1647 0
-528 -1648 0
-525 -2241 0
-526 -2242 0
-527 -2243 0
-528 -2244 0
-529 -661 0
-530 -662 0
-531 -663 0
-532 -664 0
-529 -993 0
-530 -994 0
-531 -995 0
-532 -996 0
-529 -1661 0
-530 -1662 0
-531 -1663 0
-532 -1664 0
-529 -2245 0
-530 -2246 0
-531 -2247 0
-532 -2248 0
-529 -2257 0
-530 -2258 0
-531 -2259 0
-532 -2260 0
-533 -537 0
-534 -538 0
-535 -539 0
-536 -540 0
-533 -541 0
-534 -542 0
-535 -543 0
-536 -544 0
-533 -901 0
-534 -902 0
-535 -903 0
-536 -904 0
-533 -981 0
-534 -982 0
-535 -983 0
-536 -984 0
-533 -1709 0
-534 -1710 0
-535 -1711 0
-536 -1712 0
-533 -2157 0
-534 -2158 0
-535 -2159 0
-536 -2160 0
-533 -2273 0
-534 -2274 0
-535 -2275 0
-536 -2276 0
-533 -2597 0
-534 -2598 0
-535 -2599 0
-536 -2600 0
-537 -545 0
-538 -546 0
-539 -547 0
-540 -548 0
-537 -905 0
-538 -906 0
-539 -907 0
-540 -908 0
-537 -985 0
-538 -986 0
-539 -987 0
-540 -988 0
-537 -1485 0
-538 -1486 0
-539 -1487 0
-540 -1488 0
-537 -2169 0
-538 -2170 0
-539 -2171 0
-540 -2172 0
-537 -2273 0
-538 -2274 0
-539 -2275 0
-540 -2276 0
-537 -2277 0
-538 -2278 0
-539 -2279 0
-540 -2280 0
-537 -2605 0
-538 -2606 0
-539 -2607 0
-540 -2608 0
-541 -545 0
-542 -546 0
-543 -547 0
-544 -548 0
-541 -909 0
-542 -910 0
-543 -911 0
-544 -912 0
-541 -1725 0
-542 -1726 0
-543 -1727 0
-544 -1728 0
-541 -2017 0
-542 -2018 0
-543 -2019 0
-544 -2020 0
-541 -2157 0
-542 -2158 0
-543 -2159 0
-544 -2160 0
-541 -2281 0
-542 -2282 0
-543 -2283 0
-544 -2284 0
-545 -913 0
-546 -914 0
-547 -915 0
-548 -916 0
-545 -1265 0
-546 -1266 0
-547 -1267 0
-548 -1268 0
-545 -1501 0
-546 -1502 0
-547 -1503 0
-548 -1504 0
-545 -1741 0
-546 -1742 0
-547 -1743 0
-548 -1744 0
-545 -2029 0
-546 -2030 0
-547 -2031 0
-548 -2032 0
-545 -2169 0
-546 -2170 0
-547 -2171 0
-548 -2172 0
-545 -2281 0
-546 -2282 0
-547 -2283 0
-548 -2284 0
-545 -2285 0
-546 -2286 0
-547 -2287 0
-548 -2288 0
-549 -553 0
-550 -554 0
-551 -555 0
-552 -556 0
-549 -557 0
-550 -558 0
-551 -559 0
-552 -560 0
-549 -649 0
-550 -650 0
-551 -651 0
-552 -652 0
-549 -661 0
-550 -662 0
-551 -663 0
-552 -664 0
-549 -917 0
-550 -918 0
-551 -919 0
-552 -920 0
-549 -1049 0
-550 -1050 0
-551 -1051 0
-552 -1052 0
-549 -2049 0
-550 -2050 0
-551 -2051 0
-552 -2052 0
-549 -2293 0
-550 -2294 0
-551 -2295 0
-552 -2296 0
-549 -2621 0
-550 -2622 0
-551 -2623 0
-552 -2624 0
-553 -561 0
-554 -562 0
-555 -563 0
-556 -564 0
-553 -661 0
-554 -662 0
-555 -663 0
-556 -664 0
-553 -677 0
-554 -678 0
-555 -679 0
-556 -680 0
-553 -925 0
-554 -926 0
-555 -927 0
-556 -928 0
-553 -2057 0
-554 -2058 0
-555 -2059 0
-556 -2060 0
-553 -2297 0
-554 -2298 0
-555 -2299 0
-556 -2300 0
-557 -561 0
-558 -562 0
-559 -563 0
-560 -564 0
-557 -681 0
-558 -682 0
-559 -683 0
-560 -684 0
-557 -697 0
-558 -698 0
-559 -699 0
-560 -700 0
-557 -857 0
-558 -858 0
-559 -859 0
-560 -860 0
-557 -1053 0
-558 -1054 0
-559 -1055 0
-560 -1056 0
-557 -1345 0
-558 -1346 0
-559 -1347 0
-560 -1348 0
-557 -2065 0
-558 -2066 0
-559 -2067 0
-560 -2068 0
-557 -2293 0
-558 -2294 0
-559 -2295 0
-560 -2296 0
-557 -2301 0
-558 -2302 0
-559 -2303 0
-560 -2304 0
-557 -2625 0
-558 -2626 0
-559 -2627 0
-560 -2628 0
-561 -697 0
-562 -698 0
-563 -699 0
-564 -700 0
-561 -717 0
-562 -718 0
-563 -719 0
-564 -720 0
-561 -937 0
-562 -938 0
-563 -939 0
-564 -940 0
-561 -1281 0
-562 -1282 0
-563 -1283 0
-564 -1284 0
-561 -1353 0
-562 -1354 0
-563 -1355 0
-564 -1356 0
-561 -1545 0
-562 -1546 0
-563 -1547 0
-564 -1548 0
-561 -2073 0
-562 -2074 0
-563 -2075 0
-564 -2076 0
-561 -2297 0
-562 -2298 0
-563 -2299 0
-564 -2300 0
-561 -2305 0
-562 -2306 0
-563 -2307 0
-564 -2308 0
-565 -573 0
-566 -574 0
-567 -575 0
-568 -576 0
-565 -577 0
-566 -578 0
-567 -579 0
-568 -580 0
-565 -901 0
-566 -902 0
-567 -903 0
-568 -904 0
-565 -1289 0
-566 -1290 0
-567 -1291 0
-568 -1292 0
-565 -1553 0
-566 -1554 0
-567 -1555 0
-568 -1556 0
-565 -1781 0
-566 -1782 0
-567 -1783 0
-568 -1784 0
-565 -2313 0
-566 -2314 0
-567 -2315 0
-568 -2316 0
-565 -2401 0
-566 -2402 0
-567 -2403 0
-568 -2404 0
-565 -2441 0
-566 -2442 0
-567 -2443 0
-568 -2444 0
-565 -2665 0
-566 -2666 0
-567 -2667 0
-568 -2668 0
-569 -573 0
-570 -574 0
-571 -575 0
-572 -576 0
-569 -1425 0
-570 -1426 0
-571 -1427 0
-572 -1428 0
-569 -1517 0
-570 -1518 0
-571 -1519 0
-572 -1520 0
-569 -2469 0
-570 -2470 0
-571 -2471 0
-572 -2472 0
-569 -2669 0
-570 -2670 0
-571 -2671 0
-572 -2672 0
-573 -581 0
-574 -582 0
-575 -583 0
-576 -584 0
-573 -905 0
-574 -906 0
-575 -907 0
-576 -908 0
-573 -1101 0
-574 -1102 0
-575 -1103 0
-576 -1104 0
-573 -1293 0
-574 -1294 0
-575 -1295 0
-576 -1296 0
-573 -2085 0
-574 -2086 0
-575 -2087 0
-576 -2088 0
-573 -2313 0
-574 -2314 0
-575 -2315 0
-576 -2316 0
-573 -2405 0
-574 -2406 0
-575 -2407 0
-576 -2408 0
-573 -2477 0
-574 -2478 0
-575 -2479 0
-576 -2480 0
-573 -2673 0
-574 -2674 0
-575 -2675 0
-576 -2676 0
-577 -581 0
-578 -582 0
-579 -583 0
-580 -584 0
-577 -961 0
-578 -962 0
-579 -963 0
-580 -964 0
-577 -1061 0
-578 -1062 0
-579 -1063 0
-580 -1064 0
-577 -1301 0
-578 -1302 0
-579 -1303 0
-580 -1304 0
-577 -1525 0
-578 -1526 0
-579 -1527 0
-580 -1528 0
-577 -1785 0
-578 -1786 0
-579 -1787 0
-580 -1788 0
-577 -2317 0
-578 -2318 0
-579 -2319 0
-580 -2320 0
-577 -2441 0
-578 -2442 0
-579 -2443 0
-580 -2444 0
-577 -2505 0
-578 -2506 0
-579 -2507 0
-580 -2508 0
-577 -2681 0
-578 -2682 0
-579 -2683 0
-580 -2684 0
-581 -1069 0
-582 -1070 0
-583 -1071 0
-584 -1072 0
-581 -1305 0
-582 -1306 0
-583 -1307 0
-584 -1308 0
-581 -1445 0
-582 -1446 0
-583 -1447 0
-584 -1448 0
-581 -1537 0
-582 -1538 0
-583 -1539 0
-584 -1540 0
-581 -2317 0
-582 -2318 0
-583 -2319 0
-584 -2320 0
-581 -2477 0
-582 -2478 0
-583 -2479 0
-584 -2480 0
-581 -2509 0
-582 -2510 0
-583 -2511 0
-584 -2512 0
-585 -589 0
-586 -590 0
-587 -591 0
-588 -592 0
-585 -593 0
-586 -594 0
-587 -595 0
-588 -596 0
-585 -653 0
-586 -654 0
-587 -655 0
-588 -656 0
-585 -661 0
-586 -662 0
-587 -663 0
-588 -664 0
-585 -977 0
-586 -978 0
-587 -979 0
-588 -980 0
-585 -2337 0
-586 -2338 0
-587 -2339 0
-588 -2340 0
-589 -597 0
-590 -598 0
-591 -599 0
-592 -600 0
-589 -661 0
-590 -662 0
-591 -663 0
-592 -664 0
-589 -673 0
-590 -674 0
-591 -675 0
-592 -676 0
-589 -981 0
-590 -982 0
-591 -983 0
-592 -984 0
-589 -1289 0
-590 -1290 0
-591 -1291 0
-592 -1292 0
-589 -1605 0
-590 -1606 0
-591 -1607 0
-592 -1608 0
-589 -2345 0
-590 -2346 0
-591 -2347 0
-592 -2348 0
-593 -597 0
-594 -598 0
-595 -599 0
-596 -600 0
-593 -685 0
-594 -686 0
-595 -687 0
-596 -688 0
-593 -697 0
-594 -698 0
-595 -699 0
-596 -700 0
-593 -2129 0
-594 -2130 0
-595 -2131 0
-596 -2132 0
-593 -2337 0
-594 -2338 0
-595 -2339 0
-596 -2340 0
-593 -2349 0
-594 -2350 0
-595 -2351 0
-596 -2352 0
-597 -697 0
-598 -698 0
-599 -699 0
-600 -700 0
-597 -709 0
-598 -710 0
-599 -711 0
-600 -712 0
-597 -985 0
-598 -986 0
-599 -987 0
-600 -988 0
-597 -1293 0
-598 -1294 0
-599 -1295 0
-600 -1296 0
-597 -2345 0
-598 -2346 0
-599 -2347 0
-600 -2348 0
-597 -2353 0
-598 -2354 0
-599 -2355 0
-600 -2356 0
-601 -605 0
-602 -606 0
-603 -607 0
-604 -608 0
-601 -609 0
-602 -610 0
-603 -611 0
-604 -612 0
-601 -657 0
-602 -658 0
-603 -659 0
-604 -660 0
-601 -661 0
-602 -662 0
-603 -663 0
-604 -664 0
-601 -1609 0
-602 -1610 0
-603 -1611 0
-604 -1612 0
-601 -2137 0
-602 -2138 0
-603 -2139 0
-604 -2140 0
-601 -2365 0
-602 -2366 0
-603 -2367 0
-604 -2368 0
-605 -613 0
-606 -614 0
-607 -615 0
-608 -616 0
-605 -661 0
-606 -662 0
-607 -663 0
-608 -664 0
-605 -669 0
-606 -670 0
-607 -671 0
-608 -672 0
-605 -1617 0
-606 -1618 0
-607 -1619 0
-608 -1620 0
-605 -1789 0
-606 -1790 0
-607 -1791 0
-608 -1792 0
-605 -2369 0
-606 -2370 0
-607 -2371 0
-608 -2372 0
-609 -613 0
-610 -614 0
-611 -615 0
-612 -616 0
-609 -689 0
-610 -690 0
-611 -691 0
-612 -692 0
-609 -697 0
-610 -698 0
-611 -699 0
-612 -700 0
-609 -1473 0
-610 -1474 0
-611 -1475 0
-612 -1476 0
-609 -1625 0
-610 -1626 0
-611 -1627 0
-612 -1628 0
-609 -2145 0
-610 -2146 0
-611 -2147 0
-612 -2148 0
-609 -2365 0
-610 -2366 0
-611 -2367 0
-612 -2368 0
-609 -2373 0
-610 -2374 0
-611 -2375 0
-612 -2376 0
-613 -697 0
-614 -698 0
-615 -699 0
-616 -700 0
-613 -705 0
-614 -706 0
-615 -707 0
-616 -708 0
-613 -969 0
-614 -970 0
-615 -971 0
-616 -972 0
-613 -1629 0
-614 -1630 0
-615 -1631 0
-616 -1632 0
-613 -1637 0
-614 -1638 0
-615 -1639 0
-616 -1640 0
-613 -1793 0
-614 -1794 0
-615 -1795 0
-616 -1796 0
-613 -2369 0
-614 -2370 0
-615 -2371 0
-616 -2372 0
-613 -2377 0
-614 -2378 0
-615 -2379 0
-616 -2380 0
-617 -621 0
-618 -622 0
-619 -623 0
-620 -624 0
-617 -625 0
-618 -626 0
-619 -627 0
-620 -628 0
-617 -661 0
-618 -662 0
-619 -663 0
-620 -664 0
-617 -1005 0
-618 -1006 0
-619 -1007 0
-620 -1008 0
-617 -1317 0
-618 -1318 0
-619 -1319 0
-620 -1320 0
-617 -1797 0
-618 -1798 0
-619 -1799 0
-620 -1800 0
-617 -2385 0
-618 -2386 0
-619 -2387 0
-620 -2388 0
-621 -629 0
-622 -630 0
-623 -631 0
-624 -632 0
-621 -661 0
-622 -662 0
-623 -663 0
-624 -664 0
-621 -665 0
-622 -666 0
-623 -667 0
-624 -668 0
-621 -2389 0
-622 -2390 0
-623 -2391 0
-624 -2392 0
-621 -2729 0
-622 -2730 0
-623 -2731 0
-624 -2732 0
-625 -629 0
-626 -630 0
-627 -631 0
-628 -632 0
-625 -693 0
-626 -694 0
-627 -695 0
-628 -696 0
-625 -697 0
-626 -698 0
-627 -699 0
-628 -700 0
-625 -1009 0
-626 -1010 0
-627 -1011 0
-628 -1012 0
-625 -1329 0
-626 -1330 0
-627 -1331 0
-628 -1332 0
-625 -1669 0
-626 -1670 0
-627 -1671 0
-628 -1672 0
-625 -2385 0
-626 -2386 0
-627 -2387 0
-628 -2388 0
-625 -2393 0
-626 -2394 0
-627 -2395 0
-628 -2396 0
-629 -697 0
-630 -698 0
-631 -699 0
-632 -700 0
-629 -701 0
-630 -702 0
-631 -703 0
-632 -704 0
-629 -1049 0
-630 -1050 0
-631 -1051 0
-632 -1052 0
-629 -1333 0
-630 -1334 0
-631 -1335 0
-632 -1336 0
-629 -1673 0
-630 -1674 0
-631 -1675 0
-632 -1676 0
-629 -2389 0
-630 -2390 0
-631 -2391 0
-632 -2392 0
-629 -2397 0
-630 -2398 0
-631 -2399 0
-632 -2400 0
-629 -2733 0
-630 -2734 0
-631 -2735 0
-632 -2736 0
-633 -637 0
-634 -638 0
-635 -639 0
-636 -640 0
-633 -661 0
-634 -662 0
-635 -663 0
-636 -664 0
-633 -1157 0
-634 -1158 0
-635 -1159 0
-636 -1160 0
-633 -1801 0
-634 -1802 0
-635 -1803 0
-636 -1804 0
-633 -2401 0
-634 -2402 0
-635 -2403 0
-636 -2404 0
-633 -2573 0
-634 -2574 0
-635 -2575 0
-636 -2576 0
-637 -697 0
-638 -698 0
-639 -699 0
-640 -700 0
-637 -757 0
-638 -758 0
-639 -759 0
-640 -760 0
-637 -977 0
-638 -978 0
-639 -979 0
-640 -980 0
-637 -1161 0
-638 -1162 0
-639 -1163 0
-640 -1164 0
-637 -1349 0
-638 -1350 0
-639 -1351 0
-640 -1352 0
-637 -1805 0
-638 -1806 0
-639 -1807 0
-640 -1808 0
-637 -2401 0
-638 -2402 0
-639 -2403 0
-640 -2404 0
-637 -2405 0
-638 -2406 0
-639 -2407 0
-640 -2408 0
-637 -2577 0
-638 -2578 0
-639 -2579 0
-640 -2580 0
-641 -645 0
-642 -646 0
-643 -647 0
-644 -648 0
-641 -661 0
-642 -662 0
-643 -663 0
-644 -664 0
-641 -1169 0
-642 -1170 0
-643 -1171 0
-644 -1172 0
-641 -2321 0
-642 -2322 0
-643 -2323 0
-644 -2324 0
-641 -2409 0
-642 -2410 0
-643 -2411 0
-644 -2412 0
-641 -2737 0
-642 -2738 0
-643 -2739 0
-644 -2740 0
-645 -697 0
-646 -698 0
-647 -699 0
-648 -700 0
-645 -1481 0
-646 -1482 0
-647 -1483 0
-648 -1484 0
-645 -1701 0
-646 -1702 0
-647 -1703 0
-648 -1704 0
-645 -2325 0
-646 -2326 0
-647 -2327 0
-648 -2328 0
-645 -2409 0
-646 -2410 0
-647 -2411 0
-648 -2412 0
-645 -2413 0
-646 -2414 0
-647 -2415 0
-648 -2416 0
-645 -2741 0
-646 -2742 0
-647 -2743 0
-648 -2744 0
-649 -661 0
-650 -662 0
-651 -663 0
-652 -664 0
-649 -681 0
-650 -682 0
-651 -683 0
-652 -684 0
-649 -817 0
-650 -818 0
-651 -819 0
-652 -820 0
-649 -1113 0
-650 -1114 0
-651 -1115 0
-652 -1116 0
-649 -1809 0
-650 -1810 0
-651 -1811 0
-652 -1812 0
-649 -2421 0
-650 -2422 0
-651 -2423 0
-652 -2424 0
-649 -2745 0
-650 -2746 0
-651 -2747 0
-652 -2748 0
-653 -661 0
-654 -662 0
-655 -663 0
-656 -664 0
-653 -685 0
-654 -686 0
-655 -687 0
-656 -688 0
-653 -777 0
-654 -778 0
-655 -779 0
-656 -780 0
-653 -1105 0
-654 -1106 0
-655 -1107 0
-656 -1108 0
-653 -2429 0
-654 -2430 0
-655 -2431 0
-656 -2432 0
-657 -661 0
-658 -662 0
-659 -663 0
-660 -664 0
-657 -689 0
-658 -690 0
-659 -691 0
-660 -692 0
-657 -1117 0
-658 -1118 0
-659 -1119 0
-660 -1120 0
-657 -2433 0
-658 -2434 0
-659 -2435 0
-660 -2436 0
-661 -665 0
-662 -666 0
-663 -667 0
-664 -668 0
-661 -669 0
-662 -670 0
-663 -671 0
-664 -672 0
-661 -673 0
-662 -674 0
-663 -675 0
-664 -676 0
-661 -677 0
-662 -678 0
-663 -679 0
-664 -680 0
-661 -697 0
-662 -698 0
-663 -699 0
-664 -700 0
-661 -725 0
-662 -726 0
-663 -727 0
-664 -728 0
-661 -733 0
-662 -734 0
-663 -735 0
-664 -736 0
-661 -741 0
-662 -742 0
-663 -743 0
-664 -744 0
-661 -745 0
-662 -746 0
-663 -747 0
-664 -748 0
-661 -761 0
-662 -762 0
-663 -763 0
-664 -764 0
-661 -777 0
-662 -778 0
-663 -779 0
-664 -780 0
-661 -781 0
-662 -782 0
-663 -783 0
-664 -784 0
-661 -817 0
-662 -818 0
-663 -819 0
-664 -820 0
-661 -821 0
-662 -822 0
-663 -823 0
-664 -824 0
-661 -1017 0
-662 -1018 0
-663 -1019 0
-664 -1020 0
-661 -1109 0
-662 -1110 0
-663 -1111 0
-664 -1112 0
-661 -1121 0
-662 -1122 0
-663 -1123 0
-664 -1124 0
-661 -1177 0
-662 -1178 0
-663 -1179 0
-664 -1180 0
-661 -1357 0
-662 -1358 0
-663 -1359 0
-664 -1360 0
-661 -1661 0
-662 -1662 0
-663 -1663 0
-664 -1664 0
-661 -1813 0
-662 -1814 0
-663 -1815 0
-664 -1816 0
-661 -1825 0
-662 -1826 0
-663 -1827 0
-664 -1828 0
-661 -2157 0
-662 -2158 0
-663 -2159 0
-664 -2160 0
-661 -2321 0
-662 -2322 0
-663 -2323 0
-664 -2324 0
-661 -2329 0
-662 -2330 0
-663 -2331 0
-664 -2332 0
-661 -2417 0
-662 -2418 0
-663 -2419 0
-664 -2420 0
-661 -2441 0
-662 -2442 0
-663 -2443 0
-664 -2444 0
-661 -2573 0
-662 -2574 0
-663 -2575 0
-664 -2576 0
-661 -2581 0
-662 -2582 0
-663 -2583 0
-664 -2584 0
-661 -2753 0
-662 -2754 0
-663 -2755 0
-664 -2756 0
-661 -4041 0
-662 -4042 0
-663 -4043 0
-664 -4044 0
-661 -4049 0
-662 -4050 0
-663 -4051 0
-664 -4052 0
-661 -4057 0
-662 -4058 0
-663 -4059 0
-664 -4060 0
-661 -4061 0
-662 -4062 0
-663 -4063 0
-664 -4064 0
-661 -4069 0
-662 -4070 0
-663 -4071 0
-664 -4072 0
-661 -4085 0
-662 -4086 0
-663 -4087 0
-664 -4088 0
-661 -4153 0
-662 -4154 0
-663 -4155 0
-664 -4156 0
-661 -4189 0
-662 -4190 0
-663 -4191 0
-664 -4192 0
-661 -4221 0
-662 -4222 0
-663 -4223 0
-664 -4224 0
-661 -4261 0
-662 -4262 0
-663 -4263 0
-664 -4264 0
-661 -4413 0
-662 -4414 0
-663 -4415 0
-664 -4416 0
-661 -4461 0
-662 -4462 0
-663 -4463 0
-664 -4464 0
-661 -4553 0
-662 -4554 0
-663 -4555 0
-664 -4556 0
-661 -4573 0
-662 -4574 0
-663 -4575 0
-664 -4576 0
-661 -4577 0
-662 -4578 0
-663 -4579 0
-664 -4580 0
-661 -4609 0
-662 -4610 0
-663 -4611 0
-664 -4612 0
-661 -4613 0
-662 -4614 0
-663 -4615 0
-664 -4616 0
-661 -4625 0
-662 -4626 0
-663 -4627 0
-664 -4628 0
-661 -4629 0
-662 -4630 0
-663 -4631 0
-664 -4632 0
-661 -4641 0
-662 -4642 0
-663 -4643 0
-664 -4644 0
-661 -4645 0
-662 -4646 0
-663 -4647 0
-664 -4648 0
-661 -4657 0
-662 -4658 0
-663 -4659 0
-664 -4660 0
-661 -4665 0
-662 -4666 0
-663 -4667 0
-664 -4668 0
-661 -4673 0
-662 -4674 0
-663 -4675 0
-664 -4676 0
-661 -4677 0
-662 -4678 0
-663 -4679 0
-664 -4680 0
-661 -4681 0
-662 -4682 0
-663 -4683 0
-664 -4684 0
-661 -4685 0
-662 -4686 0
-663 -4687 0
-664 -4688 0
-661 -4689 0
-662 -4690 0
-663 -4691 0
-664 -4692 0
-661 -4693 0
-662 -4694 0
-663 -4695 0
-664 -4696 0
-661 -4697 0
-662 -4698 0
-663 -4699 0
-664 -4700 0
-661 -4717 0
-662 -4718 0
-663 -4719 0
-664 -4720 0
-661 -4745 0
-662 -4746 0
-663 -4747 0
-664 -4748 0
-661 -4753 0
-662 -4754 0
-663 -4755 0
-664 -4756 0
-661 -4761 0
-662 -4762 0
-663 -4763 0
-664 -4764 0
-661 -4765 0
-662 -4766 0
-663 -4767 0
-664 -4768 0
-661 -4781 0
-662 -4782 0
-663 -4783 0
-664 -4784 0
-661 -4797 0
-662 -4798 0
-663 -4799 0
-664 -4800 0
-661 -4801 0
-662 -4802 0
-663 -4803 0
-664 -4804 0
-661 -4837 0
-662 -4838 0
-663 -4839 0
-664 -4840 0
-661 -4841 0
-662 -4842 0
-663 -4843 0
-664 -4844 0
-661 -5037 0
-662 -5038 0
-663 -5039 0
-664 -5040 0
-661 -5129 0
-662 -5130 0
-663 -5131 0
-664 -5132 0
-661 -5141 0
-662 -5142 0
-663 -5143 0
-664 -5144 0
-661 -5197 0
-662 -5198 0
-663 -5199 0
-664 -5200 0
-661 -5377 0
-662 -5378 0
-663 -5379 0
-664 -5380 0
-661 -5681 0
-662 -5682 0
-663 -5683 0
-664 -5684 0
-661 -5833 0
-662 -5834 0
-663 -5835 0
-664 -5836 0
-661 -5845 0
-662 -5846 0
-663 -5847 0
-664 -5848 0
-661 -6177 0
-662 -6178 0
-663 -6179 0
-664 -6180 0
-661 -6341 0
-662 -6342 0
-663 -6343 0
-664 -6344 0
-661 -6349 0
-662 -6350 0
-663 -6351 0
-664 -6352 0
-661 -6437 0
-662 -6438 0
-663 -6439 0
-664 -6440 0
-661 -6461 0
-662 -6462 0
-663 -6463 0
-664 -6464 0
-661 -6593 0
-662 -6594 0
-663 -6595 0
-664 -6596 0
-661 -6601 0
-662 -6602 0
-663 -6603 0
-664 -6604 0
-661 -6773 0
-662 -6774 0
-663 -6775 0
-664 -6776 0
-665 -701 0
-666 -702 0
-667 -703 0
-668 -704 0
-665 -745 0
-666 -746 0
-667 -747 0
-668 -748 0
-665 -1181 0
-666 -1182 0
-667 -1183 0
-668 -1184 0
-665 -1665 0
-666 -1666 0
-667 -1667 0
-668 -1668 0
-665 -2445 0
-666 -2446 0
-667 -2447 0
-668 -2448 0
-669 -705 0
-670 -706 0
-671 -707 0
-672 -708 0
-669 -761 0
-670 -762 0
-671 -763 0
-672 -764 0
-669 -1185 0
-670 -1186 0
-671 -1187 0
-672 -1188 0
-669 -1829 0
-670 -1830 0
-671 -1831 0
-672 -1832 0
-669 -2449 0
-670 -2450 0
-671 -2451 0
-672 -2452 0
-673 -709 0
-674 -710 0
-675 -711 0
-676 -712 0
-673 -781 0
-674 -782 0
-675 -783 0
-676 -784 0
-673 -1361 0
-674 -1362 0
-675 -1363 0
-676 -1364 0
-673 -1669 0
-674 -1670 0
-675 -1671 0
-676 -1672 0
-673 -2453 0
-674 -2454 0
-675 -2455 0
-676 -2456 0
-677 -717 0
-678 -718 0
-679 -719 0
-680 -720 0
-677 -821 0
-678 -822 0
-679 -823 0
-680 -824 0
-677 -1365 0
-678 -1366 0
-679 -1367 0
-680 -1368 0
-677 -1677 0
-678 -1678 0
-679 -1679 0
-680 -1680 0
-677 -2457 0
-678 -2458 0
-679 -2459 0
-680 -2460 0
-681 -697 0
-682 -698 0
-683 -699 0
-684 -700 0
-681 -825 0
-682 -826 0
-683 -827 0
-684 -828 0
-681 -1817 0
-682 -1818 0
-683 -1819 0
-684 -1820 0
-681 -2421 0
-682 -2422 0
-683 -2423 0
-684 -2424 0
-681 -2461 0
-682 -2462 0
-683 -2463 0
-684 -2464 0
-681 -2757 0
-682 -2758 0
-683 -2759 0
-684 -2760 0
-685 -697 0
-686 -698 0
-687 -699 0
-688 -700 0
-685 -785 0
-686 -786 0
-687 -787 0
-688 -788 0
-685 -833 0
-686 -834 0
-687 -835 0
-688 -836 0
-685 -1193 0
-686 -1194 0
-687 -1195 0
-688 -1196 0
-685 -1713 0
-686 -1714 0
-687 -1715 0
-688 -1716 0
-685 -2161 0
-686 -2162 0
-687 -2163 0
-688 -2164 0
-685 -2429 0
-686 -2430 0
-687 -2431 0
-688 -2432 0
-685 -2465 0
-686 -2466 0
-687 -2467 0
-688 -2468 0
-689 -697 0
-690 -698 0
-691 -699 0
-692 -700 0
-689 -765 0
-690 -766 0
-691 -767 0
-692 -768 0
-689 -1493 0
-690 -1494 0
-691 -1495 0
-692 -1496 0
-689 -1613 0
-690 -1614 0
-691 -1615 0
-692 -1616 0
-689 -2433 0
-690 -2434 0
-691 -2435 0
-692 -2436 0
-689 -2469 0
-690 -2470 0
-691 -2471 0
-692 -2472 0
-693 -697 0
-694 -698 0
-695 -699 0
-696 -700 0
-693 -713 0
-694 -714 0
-695 -715 0
-696 -716 0
-693 -749 0
-694 -750 0
-695 -751 0
-696 -752 0
-693 -789 0
-694 -790 0
-695 -791 0
-696 -792 0
-693 -837 0
-694 -838 0
-695 -839 0
-696 -840 0
-693 -1025 0
-694 -1026 0
-695 -1027 0
-696 -1028 0
-693 -1217 0
-694 -1218 0
-695 -1219 0
-696 -1220 0
-693 -1617 0
-694 -1618 0
-695 -1619 0
-696 -1620 0
-693 -2165 0
-694 -2166 0
-695 -2167 0
-696 -2168 0
-693 -2437 0
-694 -2438 0
-695 -2439 0
-696 -2440 0
-693 -2473 0
-694 -2474 0
-695 -2475 0
-696 -2476 0
-697 -701 0
-698 -702 0
-699 -703 0
-700 -704 0
-697 -705 0
-698 -706 0
-699 -707 0
-700 -708 0
-697 -709 0
-698 -710 0
-699 -711 0
-700 -712 0
-697 -717 0
-698 -718 0
-699 -719 0
-700 -720 0
-697 -721 0
-698 -722 0
-699 -723 0
-700 -724 0
-697 -729 0
-698 -730 0
-699 -731 0
-700 -732 0
-697 -737 0
-698 -738 0
-699 -739 0
-700 -740 0
-697 -749 0
-698 -750 0
-699 -751 0
-700 -752 0
-697 -753 0
-698 -754 0
-699 -755 0
-700 -756 0
-697 -765 0
-698 -766 0
-699 -767 0
-700 -768 0
-697 -769 0
-698 -770 0
-699 -771 0
-700 -772 0
-697 -785 0
-698 -786 0
-699 -787 0
-700 -788 0
-697 -793 0
-698 -794 0
-699 -795 0
-700 -796 0
-697 -825 0
-698 -826 0
-699 -827 0
-700 -828 0
-697 -829 0
-698 -830 0
-699 -831 0
-700 -832 0
-697 -841 0
-698 -842 0
-699 -843 0
-700 -844 0
-697 -989 0
-698 -990 0
-699 -991 0
-700 -992 0
-697 -1029 0
-698 -1030 0
-699 -1031 0
-700 -1032 0
-697 -1057 0
-698 -1058 0
-699 -1059 0
-700 -1060 0
-697 -1125 0
-698 -1126 0
-699 -1127 0
-700 -1128 0
-697 -1201 0
-698 -1202 0
-699 -1203 0
-700 -1204 0
-697 -1373 0
-698 -1374 0
-699 -1375 0
-700 -1376 0
-697 -1497 0
-698 -1498 0
-699 -1499 0
-700 -1500 0
-697 -1621 0
-698 -1622 0
-699 -1623 0
-700 -1624 0
-697 -1685 0
-698 -1686 0
-699 -1687 0
-700 -1688 0
-697 -1717 0
-698 -1718 0
-699 -1719 0
-700 -1720 0
-697 -1821 0
-698 -1822 0
-699 -1823 0
-700 -1824 0
-697 -1833 0
-698 -1834 0
-699 -1835 0
-700 -1836 0
-697 -2169 0
-698 -2170 0
-699 -2171 0
-700 -2172 0
-697 -2177 0
-698 -2178 0
-699 -2179 0
-700 -2180 0
-697 -2325 0
-698 -2326 0
-699 -2327 0
-700 -2328 0
-697 -2333 0
-698 -2334 0
-699 -2335 0
-700 -2336 0
-697 -2441 0
-698 -2442 0
-699 -2443 0
-700 -2444 0
-697 -2477 0
-698 -2478 0
-699 -2479 0
-700 -2480 0
-697 -2577 0
-698 -2578 0
-699 -2579 0
-700 -2580 0
-697 -2585 0
-698 -2586 0
-699 -2587 0
-700 -2588 0
-697 -2761 0
-698 -2762 0
-699 -2763 0
-700 -2764 0
-701 -753 0
-702 -754 0
-703 -755 0
-704 -756 0
-701 -1205 0
-702 -1206 0
-703 -1207 0
-704 -1208 0
-701 -1501 0
-702 -1502 0
-703 -1503 0
-704 -1504 0
-701 -2445 0
-702 -2446 0
-703 -2447 0
-704 -2448 0
-701 -2481 0
-702 -2482 0
-703 -2483 0
-704 -2484 0
-705 -769 0
-706 -770 0
-707 -771 0
-708 -772 0
-705 -845 0
-706 -846 0
-707 -847 0
-708 -848 0
-705 -993 0
-706 -994 0
-707 -995 0
-708 -996 0
-705 -1209 0
-706 -1210 0
-707 -1211 0
-708 -1212 0
-705 -1837 0
-706 -1838 0
-707 -1839 0
-708 -1840 0
-705 -2449 0
-706 -2450 0
-707 -2451 0
-708 -2452 0
-705 -2485 0
-706 -2486 0
-707 -2487 0
-708 -2488 0
-709 -793 0
-710 -794 0
-711 -795 0
-712 -796 0
-709 -997 0
-710 -998 0
-711 -999 0
-712 -1000 0
-709 -1061 0
-710 -1062 0
-711 -1063 0
-712 -1064 0
-709 -1377 0
-710 -1378 0
-711 -1379 0
-712 -1380 0
-709 -1689 0
-710 -1690 0
-711 -1691 0
-712 -1692 0
-709 -1841 0
-710 -1842 0
-711 -1843 0
-712 -1844 0
-709 -2453 0
-710 -2454 0
-711 -2455 0
-712 -2456 0
-709 -2489 0
-710 -2490 0
-711 -2491 0
-712 -2492 0
-713 -717 0
-714 -718 0
-715 -719 0
-716 -720 0
-713 -1033 0
-714 -1034 0
-715 -1035 0
-716 -1036 0
-713 -1381 0
-714 -1382 0
-715 -1383 0
-716 -1384 0
-713 -1721 0
-714 -1722 0
-715 -1723 0
-716 -1724 0
-713 -2173 0
-714 -2174 0
-715 -2175 0
-716 -2176 0
-717 -829 0
-718 -830 0
-719 -831 0
-720 -832 0
-717 -865 0
-718 -866 0
-719 -867 0
-720 -868 0
-717 -1385 0
-718 -1386 0
-719 -1387 0
-720 -1388 0
-717 -1693 0
-718 -1694 0
-719 -1695 0
-720 -1696 0
-717 -1725 0
-718 -1726 0
-719 -1727 0
-720 -1728 0
-717 -2457 0
-718 -2458 0
-719 -2459 0
-720 -2460 0
-717 -2493 0
-718 -2494 0
-719 -2495 0
-720 -2496 0
-721 -853 0
-722 -854 0
-723 -855 0
-724 -856 0
-721 -1065 0
-722 -1066 0
-723 -1067 0
-724 -1068 0
-721 -1509 0
-722 -1510 0
-723 -1511 0
-724 -1512 0
-721 -1733 0
-722 -1734 0
-723 -1735 0
-724 -1736 0
-721 -2181 0
-722 -2182 0
-723 -2183 0
-724 -2184 0
-721 -2477 0
-722 -2478 0
-723 -2479 0
-724 -2480 0
-721 -4741 0
-722 -4742 0
-723 -4743 0
-724 -4744 0
-725 -729 0
-726 -730 0
-727 -731 0
-728 -732 0
-725 -1133 0
-726 -1134 0
-727 -1135 0
-728 -1136 0
-725 -1397 0
-726 -1398 0
-727 -1399 0
-728 -1400 0
-725 -2329 0
-726 -2330 0
-727 -2331 0
-728 -2332 0
-725 -2497 0
-726 -2498 0
-727 -2499 0
-728 -2500 0
-729 -1001 0
-730 -1002 0
-731 -1003 0
-732 -1004 0
-729 -1137 0
-730 -1138 0
-731 -1139 0
-732 -1140 0
-729 -1221 0
-730 -1222 0
-731 -1223 0
-732 -1224 0
-729 -1401 0
-730 -1402 0
-731 -1403 0
-732 -1404 0
-729 -2185 0
-730 -2186 0
-731 -2187 0
-732 -2188 0
-729 -2333 0
-730 -2334 0
-731 -2335 0
-732 -2336 0
-729 -2497 0
-730 -2498 0
-731 -2499 0
-732 -2500 0
-729 -2501 0
-730 -2502 0
-731 -2503 0
-732 -2504 0
-733 -737 0
-734 -738 0
-735 -739 0
-736 -740 0
-733 -1037 0
-734 -1038 0
-735 -1039 0
-736 -1040 0
-733 -1405 0
-734 -1406 0
-735 -1407 0
-736 -1408 0
-733 -2505 0
-734 -2506 0
-735 -2507 0
-736 -2508 0
-733 -2581 0
-734 -2582 0
-735 -2583 0
-736 -2584 0
-737 -861 0
-738 -862 0
-739 -863 0
-740 -864 0
-737 -1041 0
-738 -1042 0
-739 -1043 0
-740 -1044 0
-737 -1409 0
-738 -1410 0
-739 -1411 0
-740 -1412 0
-737 -2505 0
-738 -2506 0
-739 -2507 0
-740 -2508 0
-737 -2509 0
-738 -2510 0
-739 -2511 0
-740 -2512 0
-737 -2585 0
-738 -2586 0
-739 -2587 0
-740 -2588 0
-741 -745 0
-742 -746 0
-743 -747 0
-744 -748 0
-741 -749 0
-742 -750 0
-743 -751 0
-744 -752 0
-741 -1145 0
-742 -1146 0
-743 -1147 0
-744 -1148 0
-741 -1413 0
-742 -1414 0
-743 -1415 0
-744 -1416 0
-741 -1857 0
-742 -1858 0
-743 -1859 0
-744 -1860 0
-741 -2513 0
-742 -2514 0
-743 -2515 0
-744 -2516 0
-745 -753 0
-746 -754 0
-747 -755 0
-748 -756 0
-745 -1225 0
-746 -1226 0
-747 -1227 0
-748 -1228 0
-745 -1713 0
-746 -1714 0
-747 -1715 0
-748 -1716 0
-745 -1861 0
-746 -1862 0
-747 -1863 0
-748 -1864 0
-745 -2517 0
-746 -2518 0
-747 -2519 0
-748 -2520 0
-749 -753 0
-750 -754 0
-751 -755 0
-752 -756 0
-749 -873 0
-750 -874 0
-751 -875 0
-752 -876 0
-749 -1149 0
-750 -1150 0
-751 -1151 0
-752 -1152 0
-749 -1633 0
-750 -1634 0
-751 -1635 0
-752 -1636 0
-749 -1881 0
-750 -1882 0
-751 -1883 0
-752 -1884 0
-749 -2193 0
-750 -2194 0
-751 -2195 0
-752 -2196 0
-749 -2513 0
-750 -2514 0
-751 -2515 0
-752 -2516 0
-749 -2521 0
-750 -2522 0
-751 -2523 0
-752 -2524 0
-753 -1233 0
-754 -1234 0
-755 -1235 0
-756 -1236 0
-753 -1729 0
-754 -1730 0
-755 -1731 0
-756 -1732 0
-753 -1885 0
-754 -1886 0
-755 -1887 0
-756 -1888 0
-753 -2197 0
-754 -2198 0
-755 -2199 0
-756 -2200 0
-753 -2517 0
-754 -2518 0
-755 -2519 0
-756 -2520 0
-753 -2525 0
-754 -2526 0
-755 -2527 0
-756 -2528 0
-757 -765 0
-758 -766 0
-759 -767 0
-760 -768 0
-757 -1885 0
-758 -1886 0
-759 -1887 0
-760 -1888 0
-757 -2201 0
-758 -2202 0
-759 -2203 0
-760 -2204 0
-757 -2773 0
-758 -2774 0
-759 -2775 0
-760 -2776 0
-761 -769 0
-762 -770 0
-763 -771 0
-764 -772 0
-761 -1129 0
-762 -1130 0
-763 -1131 0
-764 -1132 0
-761 -1257 0
-762 -1258 0
-763 -1259 0
-764 -1260 0
-761 -1909 0
-762 -1910 0
-763 -1911 0
-764 -1912 0
-761 -2533 0
-762 -2534 0
-763 -2535 0
-764 -2536 0
-765 -769 0
-766 -770 0
-767 -771 0
-768 -772 0
-765 -1665 0
-766 -1666 0
-767 -1667 0
-768 -1668 0
-765 -2217 0
-766 -2218 0
-767 -2219 0
-768 -2220 0
-765 -2357 0
-766 -2358 0
-767 -2359 0
-768 -2360 0
-765 -2529 0
-766 -2530 0
-767 -2531 0
-768 -2532 0
-765 -2537 0
-766 -2538 0
-767 -2539 0
-768 -2540 0
-765 -2805 0
-766 -2806 0
-767 -2807 0
-768 -2808 0
-769 -897 0
-770 -898 0
-771 -899 0
-772 -900 0
-769 -1261 0
-770 -1262 0
-771 -1263 0
-772 -1264 0
-769 -1913 0
-770 -1914 0
-771 -1915 0
-772 -1916 0
-769 -2221 0
-770 -2222 0
-771 -2223 0
-772 -2224 0
-769 -2533 0
-770 -2534 0
-771 -2535 0
-772 -2536 0
-769 -2541 0
-770 -2542 0
-771 -2543 0
-772 -2544 0
-773 -809 0
-774 -810 0
-775 -811 0
-776 -812 0
-773 -1021 0
-774 -1022 0
-775 -1023 0
-776 -1024 0
-773 -1473 0
-774 -1474 0
-775 -1475 0
-776 -1476 0
-773 -2241 0
-774 -2242 0
-775 -2243 0
-776 -2244 0
-773 -2369 0
-774 -2370 0
-775 -2371 0
-776 -2372 0
-777 -781 0
-778 -782 0
-779 -783 0
-780 -784 0
-777 -785 0
-778 -786 0
-779 -787 0
-780 -788 0
-777 -1153 0
-778 -1154 0
-779 -1155 0
-780 -1156 0
-777 -1173 0
-778 -1174 0
-779 -1175 0
-780 -1176 0
-777 -2249 0
-778 -2250 0
-779 -2251 0
-780 -2252 0
-777 -2549 0
-778 -2550 0
-779 -2551 0
-780 -2552 0
-781 -793 0
-782 -794 0
-783 -795 0
-784 -796 0
-781 -1189 0
-782 -1190 0
-783 -1191 0
-784 -1192 0
-781 -1921 0
-782 -1922 0
-783 -1923 0
-784 -1924 0
-781 -2553 0
-782 -2554 0
-783 -2555 0
-784 -2556 0
-785 -793 0
-786 -794 0
-787 -795 0
-788 -796 0
-785 -925 0
-786 -926 0
-787 -927 0
-788 -928 0
-785 -1197 0
-786 -1198 0
-787 -1199 0
-788 -1200 0
-785 -2261 0
-786 -2262 0
-787 -2263 0
-788 -2264 0
-785 -2549 0
-786 -2550 0
-787 -2551 0
-788 -2552 0
-785 -2557 0
-786 -2558 0
-787 -2559 0
-788 -2560 0
-789 -793 0
-790 -794 0
-791 -795 0
-792 -796 0
-789 -929 0
-790 -930 0
-791 -931 0
-792 -932 0
-789 -1209 0
-790 -1210 0
-791 -1211 0
-792 -1212 0
-789 -2265 0
-790 -2266 0
-791 -2267 0
-792 -2268 0
-793 -1037 0
-794 -1038 0
-795 -1039 0
-796 -1040 0
-793 -1073 0
-794 -1074 0
-795 -1075 0
-796 -1076 0
-793 -1213 0
-794 -1214 0
-795 -1215 0
-796 -1216 0
-793 -1925 0
-794 -1926 0
-795 -1927 0
-796 -1928 0
-793 -2553 0
-794 -2554 0
-795 -2555 0
-796 -2556 0
-793 -2561 0
-794 -2562 0
-795 -2563 0
-796 -2564 0
-797 -801 0
-798 -802 0
-799 -803 0
-800 -804 0
-797 -805 0
-798 -806 0
-799 -807 0
-800 -808 0
-797 -809 0
-798 -810 0
-799 -811 0
-800 -812 0
-797 -1161 0
-798 -1162 0
-799 -1163 0
-800 -1164 0
-797 -1465 0
-798 -1466 0
-799 -1467 0
-800 -1468 0
-797 -1949 0
-798 -1950 0
-799 -1951 0
-800 -1952 0
-797 -2273 0
-798 -2274 0
-799 -2275 0
-800 -2276 0
-797 -2409 0
-798 -2410 0
-799 -2411 0
-800 -2412 0
-797 -2441 0
-798 -2442 0
-799 -2443 0
-800 -2444 0
-797 -2565 0
-798 -2566 0
-799 -2567 0
-800 -2568 0
-797 -2821 0
-798 -2822 0
-799 -2823 0
-800 -2824 0
-801 -1165 0
-802 -1166 0
-803 -1167 0
-804 -1168 0
-801 -1481 0
-802 -1482 0
-803 -1483 0
-804 -1484 0
-801 -1765 0
-802 -1766 0
-803 -1767 0
-804 -1768 0
-801 -1953 0
-802 -1954 0
-803 -1955 0
-804 -1956 0
-801 -2449 0
-802 -2450 0
-803 -2451 0
-804 -2452 0
-805 -813 0
-806 -814 0
-807 -815 0
-808 -816 0
-805 -1745 0
-806 -1746 0
-807 -1747 0
-808 -1748 0
-805 -1769 0
-806 -1770 0
-807 -1771 0
-808 -1772 0
-805 -2277 0
-806 -2278 0
-807 -2279 0
-808 -2280 0
-805 -2413 0
-806 -2414 0
-807 -2415 0
-808 -2416 0
-805 -2477 0
-806 -2478 0
-807 -2479 0
-808 -2480 0
-805 -2565 0
-806 -2566 0
-807 -2567 0
-808 -2568 0
-809 -813 0
-810 -814 0
-811 -815 0
-812 -816 0
-809 -953 0
-810 -954 0
-811 -955 0
-812 -956 0
-809 -1253 0
-810 -1254 0
-811 -1255 0
-812 -1256 0
-809 -1493 0
-810 -1494 0
-811 -1495 0
-812 -1496 0
-809 -1749 0
-810 -1750 0
-811 -1751 0
-812 -1752 0
-809 -1973 0
-810 -1974 0
-811 -1975 0
-812 -1976 0
-809 -2281 0
-810 -2282 0
-811 -2283 0
-812 -2284 0
-809 -2441 0
-810 -2442 0
-811 -2443 0
-812 -2444 0
-809 -2497 0
-810 -2498 0
-811 -2499 0
-812 -2500 0
-809 -2569 0
-810 -2570 0
-811 -2571 0
-812 -2572 0
-813 -1045 0
-814 -1046 0
-815 -1047 0
-816 -1048 0
-813 -1097 0
-814 -1098 0
-815 -1099 0
-816 -1100 0
-813 -1505 0
-814 -1506 0
-815 -1507 0
-816 -1508 0
-813 -1753 0
-814 -1754 0
-815 -1755 0
-816 -1756 0
-813 -2285 0
-814 -2286 0
-815 -2287 0
-816 -2288 0
-813 -2289 0
-814 -2290 0
-815 -2291 0
-816 -2292 0
-813 -2477 0
-814 -2478 0
-815 -2479 0
-816 -2480 0
-813 -2501 0
-814 -2502 0
-815 -2503 0
-816 -2504 0
-813 -2569 0
-814 -2570 0
-815 -2571 0
-816 -2572 0
-817 -821 0
-818 -822 0
-819 -823 0
-820 -824 0
-817 -825 0
-818 -826 0
-819 -827 0
-820 -828 0
-817 -1997 0
-818 -1998 0
-819 -1999 0
-820 -2000 0
-817 -2593 0
-818 -2594 0
-819 -2595 0
-820 -2596 0
-821 -829 0
-822 -830 0
-823 -831 0
-824 -832 0
-821 -1773 0
-822 -1774 0
-823 -1775 0
-824 -1776 0
-821 -2005 0
-822 -2006 0
-823 -2007 0
-824 -2008 0
-821 -2597 0
-822 -2598 0
-823 -2599 0
-824 -2600 0
-825 -829 0
-826 -830 0
-827 -831 0
-828 -832 0
-825 -981 0
-826 -982 0
-827 -983 0
-828 -984 0
-825 -1141 0
-826 -1142 0
-827 -1143 0
-828 -1144 0
-825 -2001 0
-826 -2002 0
-827 -2003 0
-828 -2004 0
-825 -2009 0
-826 -2010 0
-827 -2011 0
-828 -2012 0
-825 -2593 0
-826 -2594 0
-827 -2595 0
-828 -2596 0
-825 -2601 0
-826 -2602 0
-827 -2603 0
-828 -2604 0
-829 -1145 0
-830 -1146 0
-831 -1147 0
-832 -1148 0
-829 -1777 0
-830 -1778 0
-831 -1779 0
-832 -1780 0
-829 -2013 0
-830 -2014 0
-831 -2015 0
-832 -2016 0
-829 -2597 0
-830 -2598 0
-831 -2599 0
-832 -2600 0
-829 -2605 0
-830 -2606 0
-831 -2607 0
-832 -2608 0
-833 -841 0
-834 -842 0
-835 -843 0
-836 -844 0
-833 -925 0
-834 -926 0
-835 -927 0
-836 -928 0
-833 -977 0
-834 -978 0
-835 -979 0
-836 -980 0
-833 -1049 0
-834 -1050 0
-835 -1051 0
-836 -1052 0
-833 -1861 0
-834 -1862 0
-835 -1863 0
-836 -1864 0
-833 -2341 0
-834 -2342 0
-835 -2343 0
-836 -2344 0
-837 -841 0
-838 -842 0
-839 -843 0
-840 -844 0
-837 -849 0
-838 -850 0
-839 -851 0
-840 -852 0
-837 -873 0
-838 -874 0
-839 -875 0
-840 -876 0
-837 -893 0
-838 -894 0
-839 -895 0
-840 -896 0
-837 -921 0
-838 -922 0
-839 -923 0
-840 -924 0
-837 -929 0
-838 -930 0
-839 -931 0
-840 -932 0
-837 -1161 0
-838 -1162 0
-839 -1163 0
-840 -1164 0
-837 -1513 0
-838 -1514 0
-839 -1515 0
-840 -1516 0
-837 -1789 0
-838 -1790 0
-839 -1791 0
-840 -1792 0
-837 -1873 0
-838 -1874 0
-839 -1875 0
-840 -1876 0
-837 -2345 0
-838 -2346 0
-839 -2347 0
-840 -2348 0
-837 -2633 0
-838 -2634 0
-839 -2635 0
-840 -2636 0
-841 -845 0
-842 -846 0
-843 -847 0
-844 -848 0
-841 -853 0
-842 -854 0
-843 -855 0
-844 -856 0
-841 -861 0
-842 -862 0
-843 -863 0
-844 -864 0
-841 -873 0
-842 -874 0
-843 -875 0
-844 -876 0
-841 -897 0
-842 -898 0
-843 -899 0
-844 -900 0
-841 -925 0
-842 -926 0
-843 -927 0
-844 -928 0
-841 -981 0
-842 -982 0
-843 -983 0
-844 -984 0
-841 -1117 0
-842 -1118 0
-843 -1119 0
-844 -1120 0
-841 -1517 0
-842 -1518 0
-843 -1519 0
-844 -1520 0
-841 -1645 0
-842 -1646 0
-843 -1647 0
-844 -1648 0
-841 -1833 0
-842 -1834 0
-843 -1835 0
-844 -1836 0
-841 -2637 0
-842 -2638 0
-843 -2639 0
-844 -2640 0
-841 -2885 0
-842 -2886 0
-843 -2887 0
-844 -2888 0
-845 -865 0
-846 -866 0
-847 -867 0
-848 -868 0
-845 -877 0
-846 -878 0
-847 -879 0
-848 -880 0
-845 -897 0
-846 -898 0
-847 -899 0
-848 -900 0
-845 -1121 0
-846 -1122 0
-847 -1123 0
-848 -1124 0
-845 -1341 0
-846 -1342 0
-847 -1343 0
-848 -1344 0
-845 -1837 0
-846 -1838 0
-847 -1839 0
-848 -1840 0
-845 -1877 0
-846 -1878 0
-847 -1879 0
-848 -1880 0
-845 -2641 0
-846 -2642 0
-847 -2643 0
-848 -2644 0
-845 -2733 0
-846 -2734 0
-847 -2735 0
-848 -2736 0
-849 -853 0
-850 -854 0
-851 -855 0
-852 -856 0
-849 -881 0
-850 -882 0
-851 -883 0
-852 -884 0
-849 -933 0
-850 -934 0
-851 -935 0
-852 -936 0
-849 -941 0
-850 -942 0
-851 -943 0
-852 -944 0
-849 -1793 0
-850 -1794 0
-851 -1795 0
-852 -1796 0
-849 -1897 0
-850 -1898 0
-851 -1899 0
-852 -1900 0
-849 -2353 0
-850 -2354 0
-851 -2355 0
-852 -2356 0
-849 -2633 0
-850 -2634 0
-851 -2635 0
-852 -2636 0
-853 -881 0
-854 -882 0
-855 -883 0
-856 -884 0
-853 -937 0
-854 -938 0
-855 -939 0
-856 -940 0
-853 -985 0
-854 -986 0
-855 -987 0
-856 -988 0
-853 -1649 0
-854 -1650 0
-855 -1651 0
-856 -1652 0
-853 -2637 0
-854 -2638 0
-855 -2639 0
-856 -2640 0
-857 -989 0
-858 -990 0
-859 -991 0
-860 -992 0
-857 -1661 0
-858 -1662 0
-859 -1663 0
-860 -1664 0
-857 -2357 0
-858 -2358 0
-859 -2359 0
-860 -2360 0
-857 -2645 0
-858 -2646 0
-859 -2647 0
-860 -2648 0
-857 -2893 0
-858 -2894 0
-859 -2895 0
-860 -2896 0
-861 -865 0
-862 -866 0
-863 -867 0
-864 -868 0
-861 -885 0
-862 -886 0
-863 -887 0
-864 -888 0
-861 -997 0
-862 -998 0
-863 -999 0
-864 -1000 0
-861 -1205 0
-862 -1206 0
-863 -1207 0
-864 -1208 0
-861 -1533 0
-862 -1534 0
-863 -1535 0
-864 -1536 0
-861 -1681 0
-862 -1682 0
-863 -1683 0
-864 -1684 0
-861 -2657 0
-862 -2658 0
-863 -2659 0
-864 -2660 0
-865 -889 0
-866 -890 0
-867 -891 0
-868 -892 0
-865 -1213 0
-866 -1214 0
-867 -1215 0
-868 -1216 0
-865 -1537 0
-866 -1538 0
-867 -1539 0
-868 -1540 0
-865 -2733 0
-866 -2734 0
-867 -2735 0
-868 -2736 0
-869 -877 0
-870 -878 0
-871 -879 0
-872 -880 0
-869 -909 0
-870 -910 0
-871 -911 0
-872 -912 0
-869 -1865 0
-870 -1866 0
-871 -1867 0
-872 -1868 0
-869 -2041 0
-870 -2042 0
-871 -2043 0
-872 -2044 0
-869 -2665 0
-870 -2666 0
-871 -2667 0
-872 -2668 0
-869 -2753 0
-870 -2754 0
-871 -2755 0
-872 -2756 0
-873 -877 0
-874 -878 0
-875 -879 0
-876 -880 0
-873 -881 0
-874 -882 0
-875 -883 0
-876 -884 0
-873 -885 0
-874 -886 0
-875 -887 0
-876 -888 0
-873 -913 0
-874 -914 0
-875 -915 0
-876 -916 0
-873 -945 0
-874 -946 0
-875 -947 0
-876 -948 0
-873 -1061 0
-874 -1062 0
-875 -1063 0
-876 -1064 0
-873 -1297 0
-874 -1298 0
-875 -1299 0
-876 -1300 0
-873 -1545 0
-874 -1546 0
-875 -1547 0
-876 -1548 0
-873 -1801 0
-874 -1802 0
-875 -1803 0
-876 -1804 0
-873 -1881 0
-874 -1882 0
-875 -1883 0
-876 -1884 0
-873 -2361 0
-874 -2362 0
-875 -2363 0
-876 -2364 0
-873 -2365 0
-874 -2366 0
-875 -2367 0
-876 -2368 0
-873 -2661 0
-874 -2662 0
-875 -2663 0
-876 -2664 0
-873 -2669 0
-874 -2670 0
-875 -2671 0
-876 -2672 0
-877 -889 0
-878 -890 0
-879 -891 0
-880 -892 0
-877 -913 0
-878 -914 0
-879 -915 0
-880 -916 0
-877 -1145 0
-878 -1146 0
-879 -1147 0
-880 -1148 0
-877 -1389 0
-878 -1390 0
-879 -1391 0
-880 -1392 0
-877 -1889 0
-878 -1890 0
-879 -1891 0
-880 -1892 0
-877 -2045 0
-878 -2046 0
-879 -2047 0
-880 -2048 0
-877 -2369 0
-878 -2370 0
-879 -2371 0
-880 -2372 0
-877 -2665 0
-878 -2666 0
-879 -2667 0
-880 -2668 0
-877 -2673 0
-878 -2674 0
-879 -2675 0
-880 -2676 0
-877 -2761 0
-878 -2762 0
-879 -2763 0
-880 -2764 0
-881 -1069 0
-882 -1070 0
-883 -1071 0
-884 -1072 0
-881 -1549 0
-882 -1550 0
-883 -1551 0
-884 -1552 0
-881 -1805 0
-882 -1806 0
-883 -1807 0
-884 -1808 0
-881 -2373 0
-882 -2374 0
-883 -2375 0
-884 -2376 0
-881 -2669 0
-882 -2670 0
-883 -2671 0
-884 -2672 0
-885 -889 0
-886 -890 0
-887 -891 0
-888 -892 0
-885 -1233 0
-886 -1234 0
-887 -1235 0
-888 -1236 0
-885 -1721 0
-886 -1722 0
-887 -1723 0
-888 -1724 0
-885 -1813 0
-886 -1814 0
-887 -1815 0
-888 -1816 0
-889 -1237 0
-890 -1238 0
-891 -1239 0
-892 -1240 0
-889 -2069 0
-890 -2070 0
-891 -2071 0
-892 -2072 0
-889 -2381 0
-890 -2382 0
-891 -2383 0
-892 -2384 0
-889 -2681 0
-890 -2682 0
-891 -2683 0
-892 -2684 0
-889 -2761 0
-890 -2762 0
-891 -2763 0
-892 -2764 0
-893 -897 0
-894 -898 0
-895 -899 0
-896 -900 0
-893 -913 0
-894 -914 0
-895 -915 0
-896 -916 0
-893 -949 0
-894 -950 0
-895 -951 0
-896 -952 0
-893 -953 0
-894 -954 0
-895 -955 0
-896 -956 0
-893 -1249 0
-894 -1250 0
-895 -1251 0
-896 -1252 0
-893 -1553 0
-894 -1554 0
-895 -1555 0
-896 -1556 0
-893 -1605 0
-894 -1606 0
-895 -1607 0
-896 -1608 0
-893 -1829 0
-894 -1830 0
-895 -1831 0
-896 -1832 0
-893 -2069 0
-894 -2070 0
-895 -2071 0
-896 -2072 0
-893 -2385 0
-894 -2386 0
-895 -2387 0
-896 -2388 0
-893 -2685 0
-894 -2686 0
-895 -2687 0
-896 -2688 0
-897 -913 0
-898 -914 0
-899 -915 0
-900 -916 0
-897 -1421 0
-898 -1422 0
-899 -1423 0
-900 -1424 0
-897 -1557 0
-898 -1558 0
-899 -1559 0
-900 -1560 0
-897 -2073 0
-898 -2074 0
-899 -2075 0
-900 -2076 0
-897 -2389 0
-898 -2390 0
-899 -2391 0
-900 -2392 0
-897 -2689 0
-898 -2690 0
-899 -2691 0
-900 -2692 0
-897 -2933 0
-898 -2934 0
-899 -2935 0
-900 -2936 0
-901 -905 0
-902 -906 0
-903 -907 0
-904 -908 0
-901 -909 0
-902 -910 0
-903 -911 0
-904 -912 0
-901 -1289 0
-902 -1290 0
-903 -1291 0
-904 -1292 0
-901 -2777 0
-902 -2778 0
-903 -2779 0
-904 -2780 0
-905 -913 0
-906 -914 0
-907 -915 0
-908 -916 0
-905 -961 0
-906 -962 0
-907 -963 0
-908 -964 0
-905 -1293 0
-906 -1294 0
-907 -1295 0
-908 -1296 0
-905 -1577 0
-906 -1578 0
-907 -1579 0
-908 -1580 0
-905 -1845 0
-906 -1846 0
-907 -1847 0
-908 -1848 0
-905 -2409 0
-906 -2410 0
-907 -2411 0
-908 -2412 0
-905 -2609 0
-906 -2610 0
-907 -2611 0
-908 -2612 0
-905 -2693 0
-906 -2694 0
-907 -2695 0
-908 -2696 0
-905 -2765 0
-906 -2766 0
-907 -2767 0
-908 -2768 0
-905 -2789 0
-906 -2790 0
-907 -2791 0
-908 -2792 0
-905 -2941 0
-906 -2942 0
-907 -2943 0
-908 -2944 0
-909 -913 0
-910 -914 0
-911 -915 0
-912 -916 0
-909 -2077 0
-910 -2078 0
-911 -2079 0
-912 -2080 0
-909 -2417 0
-910 -2418 0
-911 -2419 0
-912 -2420 0
-909 -2697 0
-910 -2698 0
-911 -2699 0
-912 -2700 0
-909 -2801 0
-910 -2802 0
-911 -2803 0
-912 -2804 0
-913 -965 0
-914 -966 0
-915 -967 0
-916 -968 0
-913 -1265 0
-914 -1266 0
-915 -1267 0
-916 -1268 0
-913 -1437 0
-914 -1438 0
-915 -1439 0
-916 -1440 0
-913 -1869 0
-914 -1870 0
-915 -1871 0
-916 -1872 0
-913 -2081 0
-914 -2082 0
-915 -2083 0
-916 -2084 0
-913 -2441 0
-914 -2442 0
-915 -2443 0
-916 -2444 0
-913 -2609 0
-914 -2610 0
-915 -2611 0
-916 -2612 0
-913 -2697 0
-914 -2698 0
-915 -2699 0
-916 -2700 0
-913 -2701 0
-914 -2702 0
-915 -2703 0
-916 -2704 0
-913 -2773 0
-914 -2774 0
-915 -2775 0
-916 -2776 0
-913 -2805 0
-914 -2806 0
-915 -2807 0
-916 -2808 0
-917 -925 0
-918 -926 0
-919 -927 0
-920 -928 0
-917 -1017 0
-918 -1018 0
-919 -1019 0
-920 -1020 0
-917 -1333 0
-918 -1334 0
-919 -1335 0
-920 -1336 0
-917 -2425 0
-918 -2426 0
-919 -2427 0
-920 -2428 0
-917 -2945 0
-918 -2946 0
-919 -2947 0
-920 -2948 0
-921 -925 0
-922 -926 0
-923 -927 0
-924 -928 0
-921 -929 0
-922 -930 0
-923 -931 0
-924 -932 0
-921 -933 0
-922 -934 0
-923 -935 0
-924 -936 0
-921 -949 0
-922 -950 0
-923 -951 0
-924 -952 0
-921 -1013 0
-922 -1014 0
-923 -1015 0
-924 -1016 0
-921 -1021 0
-922 -1022 0
-923 -1023 0
-924 -1024 0
-921 -1337 0
-922 -1338 0
-923 -1339 0
-924 -1340 0
-921 -1609 0
-922 -1610 0
-923 -1611 0
-924 -1612 0
-921 -1957 0
-922 -1958 0
-923 -1959 0
-924 -1960 0
-921 -2441 0
-922 -2442 0
-923 -2443 0
-924 -2444 0
-921 -2613 0
-922 -2614 0
-923 -2615 0
-924 -2616 0
-921 -2621 0
-922 -2622 0
-923 -2623 0
-924 -2624 0
-921 -2705 0
-922 -2706 0
-923 -2707 0
-924 -2708 0
-925 -937 0
-926 -938 0
-927 -939 0
-928 -940 0
-925 -1017 0
-926 -1018 0
-927 -1019 0
-928 -1020 0
-925 -1169 0
-926 -1170 0
-927 -1171 0
-928 -1172 0
-925 -1613 0
-926 -1614 0
-927 -1615 0
-928 -1616 0
-925 -1749 0
-926 -1750 0
-927 -1751 0
-928 -1752 0
-925 -2445 0
-926 -2446 0
-927 -2447 0
-928 -2448 0
-925 -2709 0
-926 -2710 0
-927 -2711 0
-928 -2712 0
-925 -2949 0
-926 -2950 0
-927 -2951 0
-928 -2952 0
-929 -941 0
-930 -942 0
-931 -943 0
-932 -944 0
-929 -945 0
-930 -946 0
-931 -947 0
-932 -948 0
-929 -953 0
-930 -954 0
-931 -955 0
-932 -956 0
-929 -1177 0
-930 -1178 0
-931 -1179 0
-932 -1180 0
-929 -1341 0
-930 -1342 0
-931 -1343 0
-932 -1344 0
-929 -2453 0
-930 -2454 0
-931 -2455 0
-932 -2456 0
-929 -2713 0
-930 -2714 0
-931 -2715 0
-932 -2716 0
-933 -937 0
-934 -938 0
-935 -939 0
-936 -940 0
-933 -941 0
-934 -942 0
-935 -943 0
-936 -944 0
-933 -957 0
-934 -958 0
-935 -959 0
-936 -960 0
-933 -1025 0
-934 -1026 0
-935 -1027 0
-936 -1028 0
-933 -1033 0
-934 -1034 0
-935 -1035 0
-936 -1036 0
-933 -1193 0
-934 -1194 0
-935 -1195 0
-936 -1196 0
-933 -1625 0
-934 -1626 0
-935 -1627 0
-936 -1628 0
-933 -1961 0
-934 -1962 0
-935 -1963 0
-936 -1964 0
-933 -2477 0
-934 -2478 0
-935 -2479 0
-936 -2480 0
-933 -2617 0
-934 -2618 0
-935 -2619 0
-936 -2620 0
-933 -2625 0
-934 -2626 0
-935 -2627 0
-936 -2628 0
-933 -2705 0
-934 -2706 0
-935 -2707 0
-936 -2708 0
-937 -1029 0
-938 -1030 0
-939 -1031 0
-940 -1032 0
-937 -1281 0
-938 -1282 0
-939 -1283 0
-940 -1284 0
-937 -1753 0
-938 -1754 0
-939 -1755 0
-940 -1756 0
-937 -1965 0
-938 -1966 0
-939 -1967 0
-940 -1968 0
-937 -2481 0
-938 -2482 0
-939 -2483 0
-940 -2484 0
-937 -2709 0
-938 -2710 0
-939 -2711 0
-940 -2712 0
-941 -1201 0
-942 -1202 0
-943 -1203 0
-944 -1204 0
-941 -2489 0
-942 -2490 0
-943 -2491 0
-944 -2492 0
-941 -2713 0
-942 -2714 0
-943 -2715 0
-944 -2716 0
-945 -965 0
-946 -966 0
-947 -967 0
-948 -968 0
-945 -1225 0
-946 -1226 0
-947 -1227 0
-948 -1228 0
-945 -1393 0
-946 -1394 0
-947 -1395 0
-948 -1396 0
-945 -1961 0
-946 -1962 0
-947 -1963 0
-948 -1964 0
-945 -2093 0
-946 -2094 0
-947 -2095 0
-948 -2096 0
-949 -953 0
-950 -954 0
-951 -955 0
-952 -956 0
-949 -957 0
-950 -958 0
-951 -959 0
-952 -960 0
-949 -1089 0
-950 -1090 0
-951 -1091 0
-952 -1092 0
-949 -1345 0
-950 -1346 0
-951 -1347 0
-952 -1348 0
-949 -1661 0
-950 -1662 0
-951 -1663 0
-952 -1664 0
-949 -2105 0
-950 -2106 0
-951 -2107 0
-952 -2108 0
-949 -2533 0
-950 -2534 0
-951 -2535 0
-952 -2536 0
-949 -2717 0
-950 -2718 0
-951 -2719 0
-952 -2720 0
-953 -965 0
-954 -966 0
-955 -967 0
-956 -968 0
-953 -1257 0
-954 -1258 0
-955 -1259 0
-956 -1260 0
-953 -1669 0
-954 -1670 0
-955 -1671 0
-956 -1672 0
-953 -2109 0
-954 -2110 0
-955 -2111 0
-956 -2112 0
-953 -2721 0
-954 -2722 0
-955 -2723 0
-956 -2724 0
-957 -1093 0
-958 -1094 0
-959 -1095 0
-960 -1096 0
-957 -1685 0
-958 -1686 0
-959 -1687 0
-960 -1688 0
-957 -2541 0
-958 -2542 0
-959 -2543 0
-960 -2544 0
-957 -2545 0
-958 -2546 0
-959 -2547 0
-960 -2548 0
-957 -2649 0
-958 -2650 0
-959 -2651 0
-960 -2652 0
-957 -2717 0
-958 -2718 0
-959 -2719 0
-960 -2720 0
-961 -965 0
-962 -966 0
-963 -967 0
-964 -968 0
-961 -1377 0
-962 -1378 0
-963 -1379 0
-964 -1380 0
-961 -1701 0
-962 -1702 0
-963 -1703 0
-964 -1704 0
-961 -1765 0
-962 -1766 0
-963 -1767 0
-964 -1768 0
-961 -1985 0
-962 -1986 0
-963 -1987 0
-964 -1988 0
-961 -2113 0
-962 -2114 0
-963 -2115 0
-964 -2116 0
-961 -2677 0
-962 -2678 0
-963 -2679 0
-964 -2680 0
-961 -2817 0
-962 -2818 0
-963 -2819 0
-964 -2820 0
-961 -2833 0
-962 -2834 0
-963 -2835 0
-964 -2836 0
-961 -3001 0
-962 -3002 0
-963 -3003 0
-964 -3004 0
-965 -1269 0
-966 -1270 0
-967 -1271 0
-968 -1272 0
-965 -1449 0
-966 -1450 0
-967 -1451 0
-968 -1452 0
-965 -1717 0
-966 -1718 0
-967 -1719 0
-968 -1720 0
-965 -2121 0
-966 -2122 0
-967 -2123 0
-968 -2124 0
-965 -2553 0
-966 -2554 0
-967 -2555 0
-968 -2556 0
-965 -2677 0
-966 -2678 0
-967 -2679 0
-968 -2680 0
-969 -973 0
-970 -974 0
-971 -975 0
-972 -976 0
-969 -989 0
-970 -990 0
-971 -991 0
-972 -992 0
-969 -993 0
-970 -994 0
-971 -995 0
-972 -996 0
-969 -1997 0
-970 -1998 0
-971 -1999 0
-972 -2000 0
-969 -2129 0
-970 -2130 0
-971 -2131 0
-972 -2132 0
-969 -2737 0
-970 -2738 0
-971 -2739 0
-972 -2740 0
-969 -2741 0
-970 -2742 0
-971 -2743 0
-972 -2744 0
-973 -1001 0
-974 -1002 0
-975 -1003 0
-976 -1004 0
-973 -1633 0
-974 -1634 0
-975 -1635 0
-976 -1636 0
-973 -2133 0
-974 -2134 0
-975 -2135 0
-976 -2136 0
-973 -2753 0
-974 -2754 0
-975 -2755 0
-976 -2756 0
-973 -2761 0
-974 -2762 0
-975 -2763 0
-976 -2764 0
-977 -981 0
-978 -982 0
-979 -983 0
-980 -984 0
-977 -989 0
-978 -990 0
-979 -991 0
-980 -992 0
-977 -1017 0
-978 -1018 0
-979 -1019 0
-980 -1020 0
-977 -1113 0
-978 -1114 0
-979 -1115 0
-980 -1116 0
-977 -1665 0
-978 -1666 0
-979 -1667 0
-980 -1668 0
-977 -2141 0
-978 -2142 0
-979 -2143 0
-980 -2144 0
-977 -2765 0
-978 -2766 0
-979 -2767 0
-980 -2768 0
-981 -985 0
-982 -986 0
-983 -987 0
-984 -988 0
-981 -997 0
-982 -998 0
-983 -999 0
-984 -1000 0
-981 -1017 0
-982 -1018 0
-983 -1019 0
-984 -1020 0
-981 -1289 0
-982 -1290 0
-983 -1291 0
-984 -1292 0
-981 -1673 0
-982 -1674 0
-983 -1675 0
-984 -1676 0
-981 -2009 0
-982 -2010 0
-983 -2011 0
-984 -2012 0
-981 -2145 0
-982 -2146 0
-983 -2147 0
-984 -2148 0
-981 -2769 0
-982 -2770 0
-983 -2771 0
-984 -2772 0
-985 -1029 0
-986 -1030 0
-987 -1031 0
-988 -1032 0
-985 -1293 0
-986 -1294 0
-987 -1295 0
-988 -1296 0
-985 -2769 0
-986 -2770 0
-987 -2771 0
-988 -2772 0
-989 -993 0
-990 -994 0
-991 -995 0
-992 -996 0
-989 -997 0
-990 -998 0
-991 -999 0
-992 -1000 0
-989 -1001 0
-990 -1002 0
-991 -1003 0
-992 -1004 0
-989 -1037 0
-990 -1038 0
-991 -1039 0
-992 -1040 0
-989 -1117 0
-990 -1118 0
-991 -1119 0
-992 -1120 0
-989 -1773 0
-990 -1774 0
-991 -1775 0
-992 -1776 0
-989 -2777 0
-990 -2778 0
-991 -2779 0
-992 -2780 0
-989 -2789 0
-990 -2790 0
-991 -2791 0
-992 -2792 0
-993 -1121 0
-994 -1122 0
-995 -1123 0
-996 -1124 0
-993 -2149 0
-994 -2150 0
-995 -2151 0
-996 -2152 0
-993 -2781 0
-994 -2782 0
-995 -2783 0
-996 -2784 0
-993 -2793 0
-994 -2794 0
-995 -2795 0
-996 -2796 0
-997 -1037 0
-998 -1038 0
-999 -1039 0
-1000 -1040 0
-997 -1301 0
-998 -1302 0
-999 -1303 0
-1000 -1304 0
-997 -1701 0
-998 -1702 0
-999 -1703 0
-1000 -1704 0
-997 -2785 0
-998 -2786 0
-999 -2787 0
-1000 -2788 0
-997 -2797 0
-998 -2798 0
-999 -2799 0
-1000 -2800 0
-1001 -1713 0
-1002 -1714 0
-1003 -1715 0
-1004 -1716 0
-1001 -2581 0
-1002 -2582 0
-1003 -2583 0
-1004 -2584 0
-1001 -2801 0
-1002 -2802 0
-1003 -2803 0
-1004 -2804 0
-1001 -2805 0
-1002 -2806 0
-1003 -2807 0
-1004 -2808 0
-1005 -1009 0
-1006 -1010 0
-1007 -1011 0
-1008 -1012 0
-1005 -1013 0
-1006 -1014 0
-1007 -1015 0
-1008 -1016 0
-1005 -1017 0
-1006 -1018 0
-1007 -1019 0
-1008 -1020 0
-1005 -1317 0
-1006 -1318 0
-1007 -1319 0
-1008 -1320 0
-1005 -2177 0
-1006 -2178 0
-1007 -2179 0
-1008 -2180 0
-1005 -2725 0
-1006 -2726 0
-1007 -2727 0
-1008 -2728 0
-1005 -2809 0
-1006 -2810 0
-1007 -2811 0
-1008 -2812 0
-1009 -1025 0
-1010 -1026 0
-1011 -1027 0
-1012 -1028 0
-1009 -1029 0
-1010 -1030 0
-1011 -1031 0
-1012 -1032 0
-1009 -1329 0
-1010 -1330 0
-1011 -1331 0
-1012 -1332 0
-1009 -2181 0
-1010 -2182 0
-1011 -2183 0
-1012 -2184 0
-1009 -2809 0
-1010 -2810 0
-1011 -2811 0
-1012 -2812 0
-1013 -1017 0
-1014 -1018 0
-1015 -1019 0
-1016 -1020 0
-1013 -1021 0
-1014 -1022 0
-1015 -1023 0
-1016 -1024 0
-1013 -1025 0
-1014 -1026 0
-1015 -1027 0
-1016 -1028 0
-1013 -1157 0
-1014 -1158 0
-1015 -1159 0
-1016 -1160 0
-1013 -1481 0
-1014 -1482 0
-1015 -1483 0
-1016 -1484 0
-1013 -2193 0
-1014 -2194 0
-1015 -2195 0
-1016 -2196 0
-1013 -2593 0
-1014 -2594 0
-1015 -2595 0
-1016 -2596 0
-1013 -2745 0
-1014 -2746 0
-1015 -2747 0
-1016 -2748 0
-1013 -2813 0
-1014 -2814 0
-1015 -2815 0
-1016 -2816 0
-1017 -1029 0
-1018 -1030 0
-1019 -1031 0
-1020 -1032 0
-1017 -1037 0
-1018 -1038 0
-1019 -1039 0
-1020 -1040 0
-1017 -1357 0
-1018 -1358 0
-1019 -1359 0
-1020 -1360 0
-1017 -1485 0
-1018 -1486 0
-1019 -1487 0
-1020 -1488 0
-1017 -2197 0
-1018 -2198 0
-1019 -2199 0
-1020 -2200 0
-1017 -2201 0
-1018 -2202 0
-1019 -2203 0
-1020 -2204 0
-1017 -2749 0
-1018 -2750 0
-1019 -2751 0
-1020 -2752 0
-1017 -2817 0
-1018 -2818 0
-1019 -2819 0
-1020 -2820 0
-1017 -3029 0
-1018 -3030 0
-1019 -3031 0
-1020 -3032 0
-1021 -1033 0
-1022 -1034 0
-1023 -1035 0
-1024 -1036 0
-1021 -1185 0
-1022 -1186 0
-1023 -1187 0
-1024 -1188 0
-1021 -1473 0
-1022 -1474 0
-1023 -1475 0
-1024 -1476 0
-1021 -1757 0
-1022 -1758 0
-1023 -1759 0
-1024 -1760 0
-1021 -2597 0
-1022 -2598 0
-1023 -2599 0
-1024 -2600 0
-1021 -2737 0
-1022 -2738 0
-1023 -2739 0
-1024 -2740 0
-1021 -2753 0
-1022 -2754 0
-1023 -2755 0
-1024 -2756 0
-1021 -2821 0
-1022 -2822 0
-1023 -2823 0
-1024 -2824 0
-1025 -1029 0
-1026 -1030 0
-1027 -1031 0
-1028 -1032 0
-1025 -1033 0
-1026 -1034 0
-1027 -1035 0
-1028 -1036 0
-1025 -1161 0
-1026 -1162 0
-1027 -1163 0
-1028 -1164 0
-1025 -1489 0
-1026 -1490 0
-1027 -1491 0
-1028 -1492 0
-1025 -2601 0
-1026 -2602 0
-1027 -2603 0
-1028 -2604 0
-1025 -2757 0
-1026 -2758 0
-1027 -2759 0
-1028 -2760 0
-1025 -2813 0
-1026 -2814 0
-1027 -2815 0
-1028 -2816 0
-1029 -1041 0
-1030 -1042 0
-1031 -1043 0
-1032 -1044 0
-1029 -1373 0
-1030 -1374 0
-1031 -1375 0
-1032 -1376 0
-1029 -2209 0
-1030 -2210 0
-1031 -2211 0
-1032 -2212 0
-1029 -2817 0
-1030 -2818 0
-1031 -2819 0
-1032 -2820 0
-1029 -3033 0
-1030 -3034 0
-1031 -3035 0
-1032 -3036 0
-1033 -1045 0
-1034 -1046 0
-1035 -1047 0
-1036 -1048 0
-1033 -1209 0
-1034 -1210 0
-1035 -1211 0
-1036 -1212 0
-1033 -1381 0
-1034 -1382 0
-1035 -1383 0
-1036 -1384 0
-1033 -1761 0
-1034 -1762 0
-1035 -1763 0
-1036 -1764 0
-1033 -2037 0
-1034 -2038 0
-1035 -2039 0
-1036 -2040 0
-1033 -2213 0
-1034 -2214 0
-1035 -2215 0
-1036 -2216 0
-1033 -2605 0
-1034 -2606 0
-1035 -2607 0
-1036 -2608 0
-1033 -2741 0
-1034 -2742 0
-1035 -2743 0
-1036 -2744 0
-1033 -2761 0
-1034 -2762 0
-1035 -2763 0
-1036 -2764 0
-1033 -2821 0
-1034 -2822 0
-1035 -2823 0
-1036 -2824 0
-1037 -1041 0
-1038 -1042 0
-1039 -1043 0
-1040 -1044 0
-1037 -1181 0
-1038 -1182 0
-1039 -1183 0
-1040 -1184 0
-1037 -1405 0
-1038 -1406 0
-1039 -1407 0
-1040 -1408 0
-1037 -2217 0
-1038 -2218 0
-1039 -2219 0
-1040 -2220 0
-1037 -2829 0
-1038 -2830 0
-1039 -2831 0
-1040 -2832 0
-1037 -2833 0
-1038 -2834 0
-1039 -2835 0
-1040 -2836 0
-1041 -1205 0
-1042 -1206 0
-1043 -1207 0
-1044 -1208 0
-1041 -1409 0
-1042 -1410 0
-1043 -1411 0
-1044 -1412 0
-1041 -2225 0
-1042 -2226 0
-1043 -2227 0
-1044 -2228 0
-1041 -2833 0
-1042 -2834 0
-1043 -2835 0
-1044 -2836 0
-1045 -1261 0
-1046 -1262 0
-1047 -1263 0
-1048 -1264 0
-1045 -1505 0
-1046 -1506 0
-1047 -1507 0
-1048 -1508 0
-1045 -2021 0
-1046 -2022 0
-1047 -2023 0
-1048 -2024 0
-1045 -2789 0
-1046 -2790 0
-1047 -2791 0
-1048 -2792 0
-1045 -2805 0
-1046 -2806 0
-1047 -2807 0
-1048 -2808 0
-1049 -1053 0
-1050 -1054 0
-1051 -1055 0
-1052 -1056 0
-1049 -1057 0
-1050 -1058 0
-1051 -1059 0
-1052 -1060 0
-1049 -1113 0
-1050 -1114 0
-1051 -1115 0
-1052 -1116 0
-1049 -1121 0
-1050 -1122 0
-1051 -1123 0
-1052 -1124 0
-1049 -1333 0
-1050 -1334 0
-1051 -1335 0
-1052 -1336 0
-1049 -1829 0
-1050 -1830 0
-1051 -1831 0
-1052 -1832 0
-1049 -2049 0
-1050 -2050 0
-1051 -2051 0
-1052 -2052 0
-1049 -2837 0
-1050 -2838 0
-1051 -2839 0
-1052 -2840 0
-1049 -3049 0
-1050 -3050 0
-1051 -3051 0
-1052 -3052 0
-1053 -1065 0
-1054 -1066 0
-1055 -1067 0
-1056 -1068 0
-1053 -1125 0
-1054 -1126 0
-1055 -1127 0
-1056 -1128 0
-1053 -1837 0
-1054 -1838 0
-1055 -1839 0
-1056 -1840 0
-1053 -2065 0
-1054 -2066 0
-1055 -2067 0
-1056 -2068 0
-1053 -2837 0
-1054 -2838 0
-1055 -2839 0
-1056 -2840 0
-1057 -1061 0
-1058 -1062 0
-1059 -1063 0
-1060 -1064 0
-1057 -1065 0
-1058 -1066 0
-1059 -1067 0
-1060 -1068 0
-1057 -1073 0
-1058 -1074 0
-1059 -1075 0
-1060 -1076 0
-1057 -1141 0
-1058 -1142 0
-1059 -1143 0
-1060 -1144 0
-1057 -1145 0
-1058 -1146 0
-1059 -1147 0
-1060 -1148 0
-1057 -1373 0
-1058 -1374 0
-1059 -1375 0
-1060 -1376 0
-1057 -1529 0
-1058 -1530 0
-1059 -1531 0
-1060 -1532 0
-1057 -1865 0
-1058 -1866 0
-1059 -1867 0
-1060 -1868 0
-1057 -2609 0
-1058 -2610 0
-1059 -2611 0
-1060 -2612 0
-1057 -2613 0
-1058 -2614 0
-1059 -2615 0
-1060 -2616 0
-1057 -2845 0
-1058 -2846 0
-1059 -2847 0
-1060 -2848 0
-1057 -2877 0
-1058 -2878 0
-1059 -2879 0
-1060 -2880 0
-1057 -2893 0
-1058 -2894 0
-1059 -2895 0
-1060 -2896 0
-1061 -1069 0
-1062 -1070 0
-1063 -1071 0
-1064 -1072 0
-1061 -1073 0
-1062 -1074 0
-1063 -1075 0
-1064 -1076 0
-1061 -1301 0
-1062 -1302 0
-1063 -1303 0
-1064 -1304 0
-1061 -1377 0
-1062 -1378 0
-1063 -1379 0
-1064 -1380 0
-1061 -1545 0
-1062 -1546 0
-1063 -1547 0
-1064 -1548 0
-1061 -2061 0
-1062 -2062 0
-1063 -2063 0
-1064 -2064 0
-1061 -2841 0
-1062 -2842 0
-1063 -2843 0
-1064 -2844 0
-1061 -2853 0
-1062 -2854 0
-1063 -2855 0
-1064 -2856 0
-1061 -2881 0
-1062 -2882 0
-1063 -2883 0
-1064 -2884 0
-1061 -2897 0
-1062 -2898 0
-1063 -2899 0
-1064 -2900 0
-1065 -1069 0
-1066 -1070 0
-1067 -1071 0
-1068 -1072 0
-1065 -1081 0
-1066 -1082 0
-1067 -1083 0
-1068 -1084 0
-1065 -1149 0
-1066 -1150 0
-1067 -1151 0
-1068 -1152 0
-1065 -1889 0
-1066 -1890 0
-1067 -1891 0
-1068 -1892 0
-1065 -2617 0
-1066 -2618 0
-1067 -2619 0
-1068 -2620 0
-1065 -2845 0
-1066 -2846 0
-1067 -2847 0
-1068 -2848 0
-1069 -1081 0
-1070 -1082 0
-1071 -1083 0
-1072 -1084 0
-1069 -1305 0
-1070 -1306 0
-1071 -1307 0
-1072 -1308 0
-1069 -1549 0
-1070 -1550 0
-1071 -1551 0
-1072 -1552 0
-1069 -1901 0
-1070 -1902 0
-1071 -1903 0
-1072 -1904 0
-1069 -2853 0
-1070 -2854 0
-1071 -2855 0
-1072 -2856 0
-1073 -1077 0
-1074 -1078 0
-1075 -1079 0
-1076 -1080 0
-1073 -1081 0
-1074 -1082 0
-1075 -1083 0
-1076 -1084 0
-1073 -1229 0
-1074 -1230 0
-1075 -1231 0
-1076 -1232 0
-1073 -1405 0
-1074 -1406 0
-1075 -1407 0
-1076 -1408 0
-1073 -1537 0
-1074 -1538 0
-1075 -1539 0
-1076 -1540 0
-1073 -1809 0
-1074 -1810 0
-1075 -1811 0
-1076 -1812 0
-1073 -2293 0
-1074 -2294 0
-1075 -2295 0
-1076 -2296 0
-1073 -2677 0
-1074 -2678 0
-1075 -2679 0
-1076 -2680 0
-1073 -2857 0
-1074 -2858 0
-1075 -2859 0
-1076 -2860 0
-1073 -2945 0
-1074 -2946 0
-1075 -2947 0
-1076 -2948 0
-1077 -1085 0
-1078 -1086 0
-1079 -1087 0
-1080 -1088 0
-1077 -1229 0
-1078 -1230 0
-1079 -1231 0
-1080 -1232 0
-1077 -1461 0
-1078 -1462 0
-1079 -1463 0
-1080 -1464 0
-1077 -1813 0
-1078 -1814 0
-1079 -1815 0
-1080 -1816 0
-1077 -2105 0
-1078 -2106 0
-1079 -2107 0
-1080 -2108 0
-1077 -2297 0
-1078 -2298 0
-1079 -2299 0
-1080 -2300 0
-1077 -2861 0
-1078 -2862 0
-1079 -2863 0
-1080 -2864 0
-1077 -2949 0
-1078 -2950 0
-1079 -2951 0
-1080 -2952 0
-1081 -1085 0
-1082 -1086 0
-1083 -1087 0
-1084 -1088 0
-1081 -1237 0
-1082 -1238 0
-1083 -1239 0
-1084 -1240 0
-1081 -1285 0
-1082 -1286 0
-1083 -1287 0
-1084 -1288 0
-1081 -1409 0
-1082 -1410 0
-1083 -1411 0
-1084 -1412 0
-1081 -1817 0
-1082 -1818 0
-1083 -1819 0
-1084 -1820 0
-1081 -1969 0
-1082 -1970 0
-1083 -1971 0
-1084 -1972 0
-1081 -2301 0
-1082 -2302 0
-1083 -2303 0
-1084 -2304 0
-1081 -2857 0
-1082 -2858 0
-1083 -2859 0
-1084 -2860 0
-1085 -1237 0
-1086 -1238 0
-1087 -1239 0
-1088 -1240 0
-1085 -1821 0
-1086 -1822 0
-1087 -1823 0
-1088 -1824 0
-1085 -2305 0
-1086 -2306 0
-1087 -2307 0
-1088 -2308 0
-1085 -2861 0
-1086 -2862 0
-1087 -2863 0
-1088 -2864 0
-1089 -1093 0
-1090 -1094 0
-1091 -1095 0
-1092 -1096 0
-1089 -1241 0
-1090 -1242 0
-1091 -1243 0
-1092 -1244 0
-1089 -1245 0
-1090 -1246 0
-1091 -1247 0
-1092 -1248 0
-1089 -1825 0
-1090 -1826 0
-1091 -1827 0
-1092 -1828 0
-1089 -2297 0
-1090 -2298 0
-1091 -2299 0
-1092 -2300 0
-1089 -2865 0
-1090 -2866 0
-1091 -2867 0
-1092 -2868 0
-1093 -1097 0
-1094 -1098 0
-1095 -1099 0
-1096 -1100 0
-1093 -1101 0
-1094 -1102 0
-1095 -1103 0
-1096 -1104 0
-1093 -1249 0
-1094 -1250 0
-1095 -1251 0
-1096 -1252 0
-1093 -1253 0
-1094 -1254 0
-1095 -1255 0
-1096 -1256 0
-1093 -1417 0
-1094 -1418 0
-1095 -1419 0
-1096 -1420 0
-1093 -1833 0
-1094 -1834 0
-1095 -1835 0
-1096 -1836 0
-1093 -2121 0
-1094 -2122 0
-1095 -2123 0
-1096 -2124 0
-1093 -2305 0
-1094 -2306 0
-1095 -2307 0
-1096 -2308 0
-1093 -2689 0
-1094 -2690 0
-1095 -2691 0
-1096 -2692 0
-1093 -2837 0
-1094 -2838 0
-1095 -2839 0
-1096 -2840 0
-1093 -2865 0
-1094 -2866 0
-1095 -2867 0
-1096 -2868 0
-1093 -3109 0
-1094 -3110 0
-1095 -3111 0
-1096 -3112 0
-1097 -1101 0
-1098 -1102 0
-1099 -1103 0
-1100 -1104 0
-1097 -1569 0
-1098 -1570 0
-1099 -1571 0
-1100 -1572 0
-1097 -1881 0
-1098 -1882 0
-1099 -1883 0
-1100 -1884 0
-1097 -2089 0
-1098 -2090 0
-1099 -2091 0
-1100 -2092 0
-1097 -2701 0
-1098 -2702 0
-1099 -2703 0
-1100 -2704 0
-1097 -2705 0
-1098 -2706 0
-1099 -2707 0
-1100 -2708 0
-1097 -2845 0
-1098 -2846 0
-1099 -2847 0
-1100 -2848 0
-1101 -1265 0
-1102 -1266 0
-1103 -1267 0
-1104 -1268 0
-1101 -1597 0
-1102 -1598 0
-1103 -1599 0
-1104 -1600 0
-1101 -1885 0
-1102 -1886 0
-1103 -1887 0
-1104 -1888 0
-1101 -2709 0
-1102 -2710 0
-1103 -2711 0
-1104 -2712 0
-1101 -2849 0
-1102 -2850 0
-1103 -2851 0
-1104 -2852 0
-1105 -1109 0
-1106 -1110 0
-1107 -1111 0
-1108 -1112 0
-1105 -1153 0
-1106 -1154 0
-1107 -1155 0
-1108 -1156 0
-1105 -1609 0
-1106 -1610 0
-1107 -1611 0
-1108 -1612 0
-1105 -2877 0
-1106 -2878 0
-1107 -2879 0
-1108 -2880 0
-1109 -1129 0
-1110 -1130 0
-1111 -1131 0
-1112 -1132 0
-1109 -1153 0
-1110 -1154 0
-1111 -1155 0
-1112 -1156 0
-1109 -2873 0
-1110 -2874 0
-1111 -2875 0
-1112 -2876 0
-1109 -2881 0
-1110 -2882 0
-1111 -2883 0
-1112 -2884 0
-1113 -1121 0
-1114 -1122 0
-1115 -1123 0
-1116 -1124 0
-1113 -1129 0
-1114 -1130 0
-1115 -1131 0
-1116 -1132 0
-1113 -1141 0
-1114 -1142 0
-1115 -1143 0
-1116 -1144 0
-1113 -1665 0
-1114 -1666 0
-1115 -1667 0
-1116 -1668 0
-1113 -2325 0
-1114 -2326 0
-1115 -2327 0
-1116 -2328 0
-1113 -2901 0
-1114 -2902 0
-1115 -2903 0
-1116 -2904 0
-1113 -3169 0
-1114 -3170 0
-1115 -3171 0
-1116 -3172 0
-1117 -1121 0
-1118 -1122 0
-1119 -1123 0
-1120 -1124 0
-1117 -1169 0
-1118 -1170 0
-1119 -1171 0
-1120 -1172 0
-1117 -1181 0
-1118 -1182 0
-1119 -1183 0
-1120 -1184 0
-1117 -2005 0
-1118 -2006 0
-1119 -2007 0
-1120 -2008 0
-1117 -2905 0
-1118 -2906 0
-1119 -2907 0
-1120 -2908 0
-1121 -1125 0
-1122 -1126 0
-1123 -1127 0
-1124 -1128 0
-1121 -1133 0
-1122 -1134 0
-1123 -1135 0
-1124 -1136 0
-1121 -1145 0
-1122 -1146 0
-1123 -1147 0
-1124 -1148 0
-1121 -1173 0
-1122 -1174 0
-1123 -1175 0
-1124 -1176 0
-1121 -1189 0
-1122 -1190 0
-1123 -1191 0
-1124 -1192 0
-1121 -1485 0
-1122 -1486 0
-1123 -1487 0
-1124 -1488 0
-1121 -1653 0
-1122 -1654 0
-1123 -1655 0
-1124 -1656 0
-1121 -1845 0
-1122 -1846 0
-1123 -1847 0
-1124 -1848 0
-1121 -2149 0
-1122 -2150 0
-1123 -2151 0
-1124 -2152 0
-1121 -2157 0
-1122 -2158 0
-1123 -2159 0
-1124 -2160 0
-1121 -2913 0
-1122 -2914 0
-1123 -2915 0
-1124 -2916 0
-1125 -1137 0
-1126 -1138 0
-1127 -1139 0
-1128 -1140 0
-1125 -1149 0
-1126 -1150 0
-1127 -1151 0
-1128 -1152 0
-1125 -1197 0
-1126 -1198 0
-1127 -1199 0
-1128 -1200 0
-1125 -1213 0
-1126 -1214 0
-1127 -1215 0
-1128 -1216 0
-1125 -1657 0
-1126 -1658 0
-1127 -1659 0
-1128 -1660 0
-1125 -1853 0
-1126 -1854 0
-1127 -1855 0
-1128 -1856 0
-1125 -2169 0
-1126 -2170 0
-1127 -2171 0
-1128 -2172 0
-1125 -2913 0
-1126 -2914 0
-1127 -2915 0
-1128 -2916 0
-1129 -1133 0
-1130 -1134 0
-1131 -1135 0
-1132 -1136 0
-1129 -1669 0
-1130 -1670 0
-1131 -1671 0
-1132 -1672 0
-1129 -2333 0
-1130 -2334 0
-1131 -2335 0
-1132 -2336 0
-1129 -2725 0
-1130 -2726 0
-1131 -2727 0
-1132 -2728 0
-1129 -2917 0
-1130 -2918 0
-1131 -2919 0
-1132 -2920 0
-1129 -2925 0
-1130 -2926 0
-1131 -2927 0
-1132 -2928 0
-1133 -1137 0
-1134 -1138 0
-1135 -1139 0
-1136 -1140 0
-1133 -1501 0
-1134 -1502 0
-1135 -1503 0
-1136 -1504 0
-1133 -1681 0
-1134 -1682 0
-1135 -1683 0
-1136 -1684 0
-1133 -1869 0
-1134 -1870 0
-1135 -1871 0
-1136 -1872 0
-1133 -2729 0
-1134 -2730 0
-1135 -2731 0
-1136 -2732 0
-1133 -2933 0
-1134 -2934 0
-1135 -2935 0
-1136 -2936 0
-1137 -1697 0
-1138 -1698 0
-1139 -1699 0
-1140 -1700 0
-1137 -1893 0
-1138 -1894 0
-1139 -1895 0
-1140 -1896 0
-1137 -2733 0
-1138 -2734 0
-1139 -2735 0
-1140 -2736 0
-1137 -2933 0
-1138 -2934 0
-1139 -2935 0
-1140 -2936 0
-1141 -1145 0
-1142 -1146 0
-1143 -1147 0
-1144 -1148 0
-1141 -1289 0
-1142 -1290 0
-1143 -1291 0
-1144 -1292 0
-1141 -1713 0
-1142 -1714 0
-1143 -1715 0
-1144 -1716 0
-1145 -1149 0
-1146 -1150 0
-1147 -1151 0
-1148 -1152 0
-1145 -1229 0
-1146 -1230 0
-1147 -1231 0
-1148 -1232 0
-1145 -1705 0
-1146 -1706 0
-1147 -1707 0
-1148 -1708 0
-1145 -1909 0
-1146 -1910 0
-1147 -1911 0
-1148 -1912 0
-1145 -2337 0
-1146 -2338 0
-1147 -2339 0
-1148 -2340 0
-1145 -2737 0
-1146 -2738 0
-1147 -2739 0
-1148 -2740 0
-1145 -2941 0
-1146 -2942 0
-1147 -2943 0
-1148 -2944 0
-1149 -1237 0
-1150 -1238 0
-1151 -1239 0
-1152 -1240 0
-1149 -1297 0
-1150 -1298 0
-1151 -1299 0
-1152 -1300 0
-1149 -1913 0
-1150 -1914 0
-1151 -1915 0
-1152 -1916 0
-1149 -2349 0
-1150 -2350 0
-1151 -2351 0
-1152 -2352 0
-1149 -2741 0
-1150 -2742 0
-1151 -2743 0
-1152 -2744 0
-1149 -2941 0
-1150 -2942 0
-1151 -2943 0
-1152 -2944 0
-1153 -1621 0
-1154 -1622 0
-1155 -1623 0
-1156 -1624 0
-1153 -2749 0
-1154 -2750 0
-1155 -2751 0
-1156 -2752 0
-1153 -2945 0
-1154 -2946 0
-1155 -2947 0
-1156 -2948 0
-1157 -1161 0
-1158 -1162 0
-1159 -1163 0
-1160 -1164 0
-1157 -1177 0
-1158 -1178 0
-1159 -1179 0
-1160 -1180 0
-1157 -1241 0
-1158 -1242 0
-1159 -1243 0
-1160 -1244 0
-1157 -1921 0
-1158 -1922 0
-1159 -1923 0
-1160 -1924 0
-1157 -2365 0
-1158 -2366 0
-1159 -2367 0
-1160 -2368 0
-1157 -2873 0
-1158 -2874 0
-1159 -2875 0
-1160 -2876 0
-1157 -2953 0
-1158 -2954 0
-1159 -2955 0
-1160 -2956 0
-1161 -1165 0
-1162 -1166 0
-1163 -1167 0
-1164 -1168 0
-1161 -1201 0
-1162 -1202 0
-1163 -1203 0
-1164 -1204 0
-1161 -1249 0
-1162 -1250 0
-1163 -1251 0
-1164 -1252 0
-1161 -1513 0
-1162 -1514 0
-1163 -1515 0
-1164 -1516 0
-1161 -1641 0
-1162 -1642 0
-1163 -1643 0
-1164 -1644 0
-1161 -1925 0
-1162 -1926 0
-1163 -1927 0
-1164 -1928 0
-1161 -2373 0
-1162 -2374 0
-1163 -2375 0
-1164 -2376 0
-1161 -2769 0
-1162 -2770 0
-1163 -2771 0
-1164 -2772 0
-1161 -2869 0
-1162 -2870 0
-1163 -2871 0
-1164 -2872 0
-1161 -2881 0
-1162 -2882 0
-1163 -2883 0
-1164 -2884 0
-1161 -2953 0
-1162 -2954 0
-1163 -2955 0
-1164 -2956 0
-1161 -2957 0
-1162 -2958 0
-1163 -2959 0
-1164 -2960 0
-1165 -1209 0
-1166 -1210 0
-1167 -1211 0
-1168 -1212 0
-1165 -1249 0
-1166 -1250 0
-1167 -1251 0
-1168 -1252 0
-1165 -1481 0
-1166 -1482 0
-1167 -1483 0
-1168 -1484 0
-1165 -1753 0
-1166 -1754 0
-1167 -1755 0
-1168 -1756 0
-1165 -2377 0
-1166 -2378 0
-1167 -2379 0
-1168 -2380 0
-1169 -1173 0
-1170 -1174 0
-1171 -1175 0
-1172 -1176 0
-1169 -1181 0
-1170 -1182 0
-1171 -1183 0
-1172 -1184 0
-1169 -1613 0
-1170 -1614 0
-1171 -1615 0
-1172 -1616 0
-1173 -1189 0
-1174 -1190 0
-1175 -1191 0
-1176 -1192 0
-1173 -1197 0
-1174 -1198 0
-1175 -1199 0
-1176 -1200 0
-1173 -1621 0
-1174 -1622 0
-1175 -1623 0
-1176 -1624 0
-1173 -2249 0
-1174 -2250 0
-1175 -2251 0
-1176 -2252 0
-1173 -2961 0
-1174 -2962 0
-1175 -2963 0
-1176 -2964 0
-1177 -1181 0
-1178 -1182 0
-1179 -1183 0
-1180 -1184 0
-1177 -1185 0
-1178 -1186 0
-1179 -1187 0
-1180 -1188 0
-1177 -1201 0
-1178 -1202 0
-1179 -1203 0
-1180 -1204 0
-1177 -1225 0
-1178 -1226 0
-1179 -1227 0
-1180 -1228 0
-1177 -1257 0
-1178 -1258 0
-1179 -1259 0
-1180 -1260 0
-1177 -1653 0
-1178 -1654 0
-1179 -1655 0
-1180 -1656 0
-1177 -1937 0
-1178 -1938 0
-1179 -1939 0
-1180 -1940 0
-1177 -2785 0
-1178 -2786 0
-1179 -2787 0
-1180 -2788 0
-1177 -2889 0
-1178 -2890 0
-1179 -2891 0
-1180 -2892 0
-1177 -2965 0
-1178 -2966 0
-1179 -2967 0
-1180 -2968 0
-1181 -1189 0
-1182 -1190 0
-1183 -1191 0
-1184 -1192 0
-1181 -1205 0
-1182 -1206 0
-1183 -1207 0
-1184 -1208 0
-1181 -1225 0
-1182 -1226 0
-1183 -1227 0
-1184 -1228 0
-1181 -1521 0
-1182 -1522 0
-1183 -1523 0
-1184 -1524 0
-1181 -2017 0
-1182 -2018 0
-1183 -2019 0
-1184 -2020 0
-1181 -2217 0
-1182 -2218 0
-1183 -2219 0
-1184 -2220 0
-1181 -2969 0
-1182 -2970 0
-1183 -2971 0
-1184 -2972 0
-1185 -1189 0
-1186 -1190 0
-1187 -1191 0
-1188 -1192 0
-1185 -1209 0
-1186 -1210 0
-1187 -1211 0
-1188 -1212 0
-1185 -1229 0
-1186 -1230 0
-1187 -1231 0
-1188 -1232 0
-1185 -1257 0
-1186 -1258 0
-1187 -1259 0
-1188 -1260 0
-1185 -1325 0
-1186 -1326 0
-1187 -1327 0
-1188 -1328 0
-1185 -1757 0
-1186 -1758 0
-1187 -1759 0
-1188 -1760 0
-1185 -2381 0
-1186 -2382 0
-1187 -2383 0
-1188 -2384 0
-1185 -2385 0
-1186 -2386 0
-1187 -2387 0
-1188 -2388 0
-1185 -2973 0
-1186 -2974 0
-1187 -2975 0
-1188 -2976 0
-1189 -1213 0
-1190 -1214 0
-1191 -1215 0
-1192 -1216 0
-1189 -1229 0
-1190 -1230 0
-1191 -1231 0
-1192 -1232 0
-1189 -1525 0
-1190 -1526 0
-1191 -1527 0
-1192 -1528 0
-1189 -2221 0
-1190 -2222 0
-1191 -2223 0
-1192 -2224 0
-1189 -2389 0
-1190 -2390 0
-1191 -2391 0
-1192 -2392 0
-1189 -2977 0
-1190 -2978 0
-1191 -2979 0
-1192 -2980 0
-1193 -1201 0
-1194 -1202 0
-1195 -1203 0
-1196 -1204 0
-1193 -1217 0
-1194 -1218 0
-1195 -1219 0
-1196 -1220 0
-1193 -1625 0
-1194 -1626 0
-1195 -1627 0
-1196 -1628 0
-1193 -2253 0
-1194 -2254 0
-1195 -2255 0
-1196 -2256 0
-1193 -2789 0
-1194 -2790 0
-1195 -2791 0
-1196 -2792 0
-1193 -2893 0
-1194 -2894 0
-1195 -2895 0
-1196 -2896 0
-1197 -1213 0
-1198 -1214 0
-1199 -1215 0
-1200 -1216 0
-1197 -2261 0
-1198 -2262 0
-1199 -2263 0
-1200 -2264 0
-1197 -2961 0
-1198 -2962 0
-1199 -2963 0
-1200 -2964 0
-1201 -1205 0
-1202 -1206 0
-1203 -1207 0
-1204 -1208 0
-1201 -1209 0
-1202 -1210 0
-1203 -1211 0
-1204 -1212 0
-1201 -1221 0
-1202 -1222 0
-1203 -1223 0
-1204 -1224 0
-1201 -1233 0
-1202 -1234 0
-1203 -1235 0
-1204 -1236 0
-1201 -1261 0
-1202 -1262 0
-1203 -1263 0
-1204 -1264 0
-1201 -1529 0
-1202 -1530 0
-1203 -1531 0
-1204 -1532 0
-1201 -1657 0
-1202 -1658 0
-1203 -1659 0
-1204 -1660 0
-1201 -1941 0
-1202 -1942 0
-1203 -1943 0
-1204 -1944 0
-1201 -2025 0
-1202 -2026 0
-1203 -2027 0
-1204 -2028 0
-1201 -2177 0
-1202 -2178 0
-1203 -2179 0
-1204 -2180 0
-1201 -2797 0
-1202 -2798 0
-1203 -2799 0
-1204 -2800 0
-1201 -2897 0
-1202 -2898 0
-1203 -2899 0
-1204 -2900 0
-1201 -2965 0
-1202 -2966 0
-1203 -2967 0
-1204 -2968 0
-1201 -2981 0
-1202 -2982 0
-1203 -2983 0
-1204 -2984 0
-1201 -3205 0
-1202 -3206 0
-1203 -3207 0
-1204 -3208 0
-1205 -1213 0
-1206 -1214 0
-1207 -1215 0
-1208 -1216 0
-1205 -1233 0
-1206 -1234 0
-1207 -1235 0
-1208 -1236 0
-1205 -1533 0
-1206 -1534 0
-1207 -1535 0
-1208 -1536 0
-1205 -2029 0
-1206 -2030 0
-1207 -2031 0
-1208 -2032 0
-1205 -2225 0
-1206 -2226 0
-1207 -2227 0
-1208 -2228 0
-1205 -2969 0
-1206 -2970 0
-1207 -2971 0
-1208 -2972 0
-1205 -2985 0
-1206 -2986 0
-1207 -2987 0
-1208 -2988 0
-1205 -3209 0
-1206 -3210 0
-1207 -3211 0
-1208 -3212 0
-1209 -1213 0
-1210 -1214 0
-1211 -1215 0
-1212 -1216 0
-1209 -1237 0
-1210 -1238 0
-1211 -1239 0
-1212 -1240 0
-1209 -1261 0
-1210 -1262 0
-1211 -1263 0
-1212 -1264 0
-1209 -1341 0
-1210 -1342 0
-1211 -1343 0
-1212 -1344 0
-1209 -1761 0
-1210 -1762 0
-1211 -1763 0
-1212 -1764 0
-1209 -1945 0
-1210 -1946 0
-1211 -1947 0
-1212 -1948 0
-1209 -2265 0
-1210 -2266 0
-1211 -2267 0
-1212 -2268 0
-1209 -2393 0
-1210 -2394 0
-1211 -2395 0
-1212 -2396 0
-1209 -2973 0
-1210 -2974 0
-1211 -2975 0
-1212 -2976 0
-1213 -1237 0
-1214 -1238 0
-1215 -1239 0
-1216 -1240 0
-1213 -1537 0
-1214 -1538 0
-1215 -1539 0
-1216 -1540 0
-1213 -2229 0
-1214 -2230 0
-1215 -2231 0
-1216 -2232 0
-1213 -2397 0
-1214 -2398 0
-1215 -2399 0
-1216 -2400 0
-1213 -2977 0
-1214 -2978 0
-1215 -2979 0
-1216 -2980 0
-1217 -1221 0
-1218 -1222 0
-1219 -1223 0
-1220 -1224 0
-1217 -1693 0
-1218 -1694 0
-1219 -1695 0
-1220 -1696 0
-1217 -2805 0
-1218 -2806 0
-1219 -2807 0
-1220 -2808 0
-1217 -2893 0
-1218 -2894 0
-1219 -2895 0
-1220 -2896 0
-1221 -1541 0
-1222 -1542 0
-1223 -1543 0
-1224 -1544 0
-1221 -1697 0
-1222 -1698 0
-1223 -1699 0
-1224 -1700 0
-1221 -1961 0
-1222 -1962 0
-1223 -1963 0
-1224 -1964 0
-1221 -2185 0
-1222 -2186 0
-1223 -2187 0
-1224 -2188 0
-1221 -2897 0
-1222 -2898 0
-1223 -2899 0
-1224 -2900 0
-1221 -2989 0
-1222 -2990 0
-1223 -2991 0
-1224 -2992 0
-1225 -1229 0
-1226 -1230 0
-1227 -1231 0
-1228 -1232 0
-1225 -1233 0
-1226 -1234 0
-1227 -1235 0
-1228 -1236 0
-1225 -1269 0
-1226 -1270 0
-1227 -1271 0
-1228 -1272 0
-1225 -1709 0
-1226 -1710 0
-1227 -1711 0
-1228 -1712 0
-1225 -2253 0
-1226 -2254 0
-1227 -2255 0
-1228 -2256 0
-1225 -2433 0
-1226 -2434 0
-1227 -2435 0
-1228 -2436 0
-1225 -2997 0
-1226 -2998 0
-1227 -2999 0
-1228 -3000 0
-1229 -1237 0
-1230 -1238 0
-1231 -1239 0
-1232 -1240 0
-1229 -1269 0
-1230 -1270 0
-1231 -1271 0
-1232 -1272 0
-1229 -1369 0
-1230 -1370 0
-1231 -1371 0
-1232 -1372 0
-1229 -1637 0
-1230 -1638 0
-1231 -1639 0
-1232 -1640 0
-1229 -1997 0
-1230 -1998 0
-1231 -1999 0
-1232 -2000 0
-1229 -2257 0
-1230 -2258 0
-1231 -2259 0
-1232 -2260 0
-1229 -2441 0
-1230 -2442 0
-1231 -2443 0
-1232 -2444 0
-1229 -3001 0
-1230 -3002 0
-1231 -3003 0
-1232 -3004 0
-1229 -3029 0
-1230 -3030 0
-1231 -3031 0
-1232 -3032 0
-1233 -1237 0
-1234 -1238 0
-1235 -1239 0
-1236 -1240 0
-1233 -1273 0
-1234 -1274 0
-1235 -1275 0
-1236 -1276 0
-1233 -2037 0
-1234 -2038 0
-1235 -2039 0
-1236 -2040 0
-1233 -2197 0
-1234 -2198 0
-1235 -2199 0
-1236 -2200 0
-1233 -2469 0
-1234 -2470 0
-1235 -2471 0
-1236 -2472 0
-1233 -2997 0
-1234 -2998 0
-1235 -2999 0
-1236 -3000 0
-1233 -3005 0
-1234 -3006 0
-1235 -3007 0
-1236 -3008 0
-1237 -1273 0
-1238 -1274 0
-1239 -1275 0
-1240 -1276 0
-1237 -1393 0
-1238 -1394 0
-1239 -1395 0
-1240 -1396 0
-1237 -2001 0
-1238 -2002 0
-1239 -2003 0
-1240 -2004 0
-1237 -2477 0
-1238 -2478 0
-1239 -2479 0
-1240 -2480 0
-1237 -3001 0
-1238 -3002 0
-1239 -3003 0
-1240 -3004 0
-1237 -3033 0
-1238 -3034 0
-1239 -3035 0
-1240 -3036 0
-1241 -1245 0
-1242 -1246 0
-1243 -1247 0
-1244 -1248 0
-1241 -1249 0
-1242 -1250 0
-1243 -1251 0
-1244 -1252 0
-1241 -1257 0
-1242 -1258 0
-1243 -1259 0
-1244 -1260 0
-1241 -2441 0
-1242 -2442 0
-1243 -2443 0
-1244 -2444 0
-1241 -2917 0
-1242 -2918 0
-1243 -2919 0
-1244 -2920 0
-1241 -3009 0
-1242 -3010 0
-1243 -3011 0
-1244 -3012 0
-1245 -1253 0
-1246 -1254 0
-1247 -1255 0
-1248 -1256 0
-1245 -1645 0
-1246 -1646 0
-1247 -1647 0
-1248 -1648 0
-1245 -2005 0
-1246 -2006 0
-1247 -2007 0
-1248 -2008 0
-1245 -2457 0
-1246 -2458 0
-1247 -2459 0
-1248 -2460 0
-1245 -3013 0
-1246 -3014 0
-1247 -3015 0
-1248 -3016 0
-1249 -1253 0
-1250 -1254 0
-1251 -1255 0
-1252 -1256 0
-1249 -1261 0
-1250 -1262 0
-1251 -1263 0
-1252 -1264 0
-1249 -1265 0
-1250 -1266 0
-1251 -1267 0
-1252 -1268 0
-1249 -1553 0
-1250 -1554 0
-1251 -1555 0
-1252 -1556 0
-1249 -2009 0
-1250 -2010 0
-1251 -2011 0
-1252 -2012 0
-1249 -2205 0
-1250 -2206 0
-1251 -2207 0
-1252 -2208 0
-1249 -2477 0
-1250 -2478 0
-1251 -2479 0
-1252 -2480 0
-1249 -2809 0
-1250 -2810 0
-1251 -2811 0
-1252 -2812 0
-1249 -2901 0
-1250 -2902 0
-1251 -2903 0
-1252 -2904 0
-1249 -2925 0
-1250 -2926 0
-1251 -2927 0
-1252 -2928 0
-1249 -3009 0
-1250 -3010 0
-1251 -3011 0
-1252 -3012 0
-1249 -3017 0
-1250 -3018 0
-1251 -3019 0
-1252 -3020 0
-1249 -3037 0
-1250 -3038 0
-1251 -3039 0
-1252 -3040 0
-1249 -3225 0
-1250 -3226 0
-1251 -3227 0
-1252 -3228 0
-1253 -1561 0
-1254 -1562 0
-1255 -1563 0
-1256 -1564 0
-1253 -1649 0
-1254 -1650 0
-1255 -1651 0
-1256 -1652 0
-1253 -1977 0
-1254 -1978 0
-1255 -1979 0
-1256 -1980 0
-1253 -2013 0
-1254 -2014 0
-1255 -2015 0
-1256 -2016 0
-1253 -2281 0
-1254 -2282 0
-1255 -2283 0
-1256 -2284 0
-1253 -2493 0
-1254 -2494 0
-1255 -2495 0
-1256 -2496 0
-1253 -2913 0
-1254 -2914 0
-1255 -2915 0
-1256 -2916 0
-1253 -2933 0
-1254 -2934 0
-1255 -2935 0
-1256 -2936 0
-1253 -3013 0
-1254 -3014 0
-1255 -3015 0
-1256 -3016 0
-1257 -1261 0
-1258 -1262 0
-1259 -1263 0
-1260 -1264 0
-1257 -1269 0
-1258 -1270 0
-1259 -1271 0
-1260 -1272 0
-1257 -1669 0
-1258 -1670 0
-1259 -1671 0
-1260 -1672 0
-1257 -2505 0
-1258 -2506 0
-1259 -2507 0
-1260 -2508 0
-1257 -3021 0
-1258 -3022 0
-1259 -3023 0
-1260 -3024 0
-1261 -1273 0
-1262 -1274 0
-1263 -1275 0
-1264 -1276 0
-1261 -1421 0
-1262 -1422 0
-1263 -1423 0
-1264 -1424 0
-1261 -1689 0
-1262 -1690 0
-1263 -1691 0
-1264 -1692 0
-1261 -1985 0
-1262 -1986 0
-1263 -1987 0
-1264 -1988 0
-1261 -2221 0
-1262 -2222 0
-1263 -2223 0
-1264 -2224 0
-1261 -2509 0
-1262 -2510 0
-1263 -2511 0
-1264 -2512 0
-1261 -3021 0
-1262 -3022 0
-1263 -3023 0
-1264 -3024 0
-1261 -3037 0
-1262 -3038 0
-1263 -3039 0
-1264 -3040 0
-1261 -3233 0
-1262 -3234 0
-1263 -3235 0
-1264 -3236 0
-1265 -1273 0
-1266 -1274 0
-1267 -1275 0
-1268 -1276 0
-1265 -1769 0
-1266 -1770 0
-1267 -1771 0
-1268 -1772 0
-1265 -2525 0
-1266 -2526 0
-1267 -2527 0
-1268 -2528 0
-1265 -2817 0
-1266 -2818 0
-1267 -2819 0
-1268 -2820 0
-1265 -2937 0
-1266 -2938 0
-1267 -2939 0
-1268 -2940 0
-1265 -3041 0
-1266 -3042 0
-1267 -3043 0
-1268 -3044 0
-1269 -1273 0
-1270 -1274 0
-1271 -1275 0
-1272 -1276 0
-1269 -1429 0
-1270 -1430 0
-1271 -1431 0
-1272 -1432 0
-1269 -1717 0
-1270 -1718 0
-1271 -1719 0
-1272 -1720 0
-1269 -2249 0
-1270 -2250 0
-1271 -2251 0
-1272 -2252 0
-1269 -2529 0
-1270 -2530 0
-1271 -2531 0
-1272 -2532 0
-1269 -2829 0
-1270 -2830 0
-1271 -2831 0
-1272 -2832 0
-1269 -3025 0
-1270 -3026 0
-1271 -3027 0
-1272 -3028 0
-1273 -1441 0
-1274 -1442 0
-1275 -1443 0
-1276 -1444 0
-1273 -1733 0
-1274 -1734 0
-1275 -1735 0
-1276 -1736 0
-1273 -2261 0
-1274 -2262 0
-1275 -2263 0
-1276 -2264 0
-1273 -2537 0
-1274 -2538 0
-1275 -2539 0
-1276 -2540 0
-1273 -2833 0
-1274 -2834 0
-1275 -2835 0
-1276 -2836 0
-1273 -3025 0
-1274 -3026 0
-1275 -3027 0
-1276 -3028 0
-1273 -3041 0
-1274 -3042 0
-1275 -3043 0
-1276 -3044 0
-1277 -1661 0
-1278 -1662 0
-1279 -1663 0
-1280 -1664 0
-1277 -2585 0
-1278 -2586 0
-1279 -2587 0
-1280 -2588 0
-1277 -3037 0
-1278 -3038 0
-1279 -3039 0
-1280 -3040 0
-1281 -1285 0
-1282 -1286 0
-1283 -1287 0
-1284 -1288 0
-1281 -1373 0
-1282 -1374 0
-1283 -1375 0
-1284 -1376 0
-1281 -1385 0
-1282 -1386 0
-1283 -1387 0
-1284 -1388 0
-1281 -2089 0
-1282 -2090 0
-1283 -2091 0
-1284 -2092 0
-1281 -2309 0
-1282 -2310 0
-1283 -2311 0
-1284 -2312 0
-1281 -2849 0
-1282 -2850 0
-1283 -2851 0
-1284 -2852 0
-1285 -1377 0
-1286 -1378 0
-1287 -1379 0
-1288 -1380 0
-1285 -1393 0
-1286 -1394 0
-1287 -1395 0
-1288 -1396 0
-1285 -1533 0
-1286 -1534 0
-1287 -1535 0
-1288 -1536 0
-1285 -2097 0
-1286 -2098 0
-1287 -2099 0
-1288 -2100 0
-1285 -2301 0
-1286 -2302 0
-1287 -2303 0
-1288 -2304 0
-1285 -3073 0
-1286 -3074 0
-1287 -3075 0
-1288 -3076 0
-1289 -1293 0
-1290 -1294 0
-1291 -1295 0
-1292 -1296 0
-1289 -1301 0
-1290 -1302 0
-1291 -1303 0
-1292 -1304 0
-1289 -1357 0
-1290 -1358 0
-1291 -1359 0
-1292 -1360 0
-1289 -1361 0
-1290 -1362 0
-1291 -1363 0
-1292 -1364 0
-1289 -1861 0
-1290 -1862 0
-1291 -1863 0
-1292 -1864 0
-1289 -2049 0
-1290 -2050 0
-1291 -2051 0
-1292 -2052 0
-1289 -3061 0
-1290 -3062 0
-1291 -3063 0
-1292 -3064 0
-1289 -3165 0
-1290 -3166 0
-1291 -3167 0
-1292 -3168 0
-1293 -1297 0
-1294 -1298 0
-1295 -1299 0
-1296 -1300 0
-1293 -1305 0
-1294 -1306 0
-1295 -1307 0
-1296 -1308 0
-1293 -1373 0
-1294 -1374 0
-1295 -1375 0
-1296 -1376 0
-1293 -1377 0
-1294 -1378 0
-1295 -1379 0
-1296 -1380 0
-1293 -1885 0
-1294 -1886 0
-1295 -1887 0
-1296 -1888 0
-1293 -2065 0
-1294 -2066 0
-1295 -2067 0
-1296 -2068 0
-1293 -2869 0
-1294 -2870 0
-1295 -2871 0
-1296 -2872 0
-1293 -3061 0
-1294 -3062 0
-1295 -3063 0
-1296 -3064 0
-1293 -3173 0
-1294 -3174 0
-1295 -3175 0
-1296 -3176 0
-1293 -3269 0
-1294 -3270 0
-1295 -3271 0
-1296 -3272 0
-1297 -1385 0
-1298 -1386 0
-1299 -1387 0
-1300 -1388 0
-1297 -1393 0
-1298 -1394 0
-1299 -1395 0
-1300 -1396 0
-1297 -2073 0
-1298 -2074 0
-1299 -2075 0
-1300 -2076 0
-1297 -2349 0
-1298 -2350 0
-1299 -2351 0
-1300 -2352 0
-1297 -2361 0
-1298 -2362 0
-1299 -2363 0
-1300 -2364 0
-1301 -1305 0
-1302 -1306 0
-1303 -1307 0
-1304 -1308 0
-1301 -1309 0
-1302 -1310 0
-1303 -1311 0
-1304 -1312 0
-1301 -1405 0
-1302 -1406 0
-1303 -1407 0
-1304 -1408 0
-1301 -1701 0
-1302 -1702 0
-1303 -1703 0
-1304 -1704 0
-1301 -2153 0
-1302 -2154 0
-1303 -2155 0
-1304 -2156 0
-1301 -2321 0
-1302 -2322 0
-1303 -2323 0
-1304 -2324 0
-1301 -3065 0
-1302 -3066 0
-1303 -3067 0
-1304 -3068 0
-1301 -3165 0
-1302 -3166 0
-1303 -3167 0
-1304 -3168 0
-1305 -1313 0
-1306 -1314 0
-1307 -1315 0
-1308 -1316 0
-1305 -1409 0
-1306 -1410 0
-1307 -1411 0
-1308 -1412 0
-1305 -2165 0
-1306 -2166 0
-1307 -2167 0
-1308 -2168 0
-1305 -2325 0
-1306 -2326 0
-1307 -2327 0
-1308 -2328 0
-1305 -3065 0
-1306 -3066 0
-1307 -3067 0
-1308 -3068 0
-1305 -3173 0
-1306 -3174 0
-1307 -3175 0
-1308 -3176 0
-1309 -1313 0
-1310 -1314 0
-1311 -1315 0
-1312 -1316 0
-1309 -1413 0
-1310 -1414 0
-1311 -1415 0
-1312 -1416 0
-1309 -1717 0
-1310 -1718 0
-1311 -1719 0
-1312 -1720 0
-1309 -2329 0
-1310 -2330 0
-1311 -2331 0
-1312 -2332 0
-1309 -2889 0
-1310 -2890 0
-1311 -2891 0
-1312 -2892 0
-1309 -3069 0
-1310 -3070 0
-1311 -3071 0
-1312 -3072 0
-1313 -1733 0
-1314 -1734 0
-1315 -1735 0
-1316 -1736 0
-1313 -2333 0
-1314 -2334 0
-1315 -2335 0
-1316 -2336 0
-1313 -2897 0
-1314 -2898 0
-1315 -2899 0
-1316 -2900 0
-1313 -3069 0
-1314 -3070 0
-1315 -3071 0
-1316 -3072 0
-1317 -1321 0
-1318 -1322 0
-1319 -1323 0
-1320 -1324 0
-1317 -1329 0
-1318 -1330 0
-1319 -1331 0
-1320 -1332 0
-1317 -1357 0
-1318 -1358 0
-1319 -1359 0
-1320 -1360 0
-1317 -2613 0
-1318 -2614 0
-1319 -2615 0
-1320 -2616 0
-1317 -3077 0
-1318 -3078 0
-1319 -3079 0
-1320 -3080 0
-1317 -3281 0
-1318 -3282 0
-1319 -3283 0
-1320 -3284 0
-1321 -1325 0
-1322 -1326 0
-1323 -1327 0
-1324 -1328 0
-1321 -1337 0
-1322 -1338 0
-1323 -1339 0
-1324 -1340 0
-1321 -1365 0
-1322 -1366 0
-1323 -1367 0
-1324 -1368 0
-1321 -1789 0
-1322 -1790 0
-1323 -1791 0
-1324 -1792 0
-1321 -2417 0
-1322 -2418 0
-1323 -2419 0
-1324 -2420 0
-1321 -3085 0
-1322 -3086 0
-1323 -3087 0
-1324 -3088 0
-1325 -1341 0
-1326 -1342 0
-1327 -1343 0
-1328 -1344 0
-1325 -1369 0
-1326 -1370 0
-1327 -1371 0
-1328 -1372 0
-1325 -2385 0
-1326 -2386 0
-1327 -2387 0
-1328 -2388 0
-1329 -1333 0
-1330 -1334 0
-1331 -1335 0
-1332 -1336 0
-1329 -1337 0
-1330 -1338 0
-1331 -1339 0
-1332 -1340 0
-1329 -1345 0
-1330 -1346 0
-1331 -1347 0
-1332 -1348 0
-1329 -1373 0
-1330 -1374 0
-1331 -1375 0
-1332 -1376 0
-1329 -1481 0
-1330 -1482 0
-1331 -1483 0
-1332 -1484 0
-1329 -2421 0
-1330 -2422 0
-1331 -2423 0
-1332 -2424 0
-1329 -2617 0
-1330 -2618 0
-1331 -2619 0
-1332 -2620 0
-1329 -2901 0
-1330 -2902 0
-1331 -2903 0
-1332 -2904 0
-1329 -3077 0
-1330 -3078 0
-1331 -3079 0
-1332 -3080 0
-1329 -3089 0
-1330 -3090 0
-1331 -3091 0
-1332 -3092 0
-1329 -3297 0
-1330 -3298 0
-1331 -3299 0
-1332 -3300 0
-1333 -1349 0
-1334 -1350 0
-1335 -1351 0
-1336 -1352 0
-1333 -1373 0
-1334 -1374 0
-1335 -1375 0
-1336 -1376 0
-1333 -1485 0
-1334 -1486 0
-1335 -1487 0
-1336 -1488 0
-1333 -2205 0
-1334 -2206 0
-1335 -2207 0
-1336 -2208 0
-1333 -2425 0
-1334 -2426 0
-1335 -2427 0
-1336 -2428 0
-1333 -3081 0
-1334 -3082 0
-1335 -3083 0
-1336 -3084 0
-1333 -3093 0
-1334 -3094 0
-1335 -3095 0
-1336 -3096 0
-1333 -3301 0
-1334 -3302 0
-1335 -3303 0
-1336 -3304 0
-1337 -1341 0
-1338 -1342 0
-1339 -1343 0
-1340 -1344 0
-1337 -1353 0
-1338 -1354 0
-1339 -1355 0
-1340 -1356 0
-1337 -1381 0
-1338 -1382 0
-1339 -1383 0
-1340 -1384 0
-1337 -1385 0
-1338 -1386 0
-1339 -1387 0
-1340 -1388 0
-1337 -1417 0
-1338 -1418 0
-1339 -1419 0
-1340 -1420 0
-1337 -1453 0
-1338 -1454 0
-1339 -1455 0
-1340 -1456 0
-1337 -1481 0
-1338 -1482 0
-1339 -1483 0
-1340 -1484 0
-1337 -1745 0
-1338 -1746 0
-1339 -1747 0
-1340 -1748 0
-1337 -1793 0
-1338 -1794 0
-1339 -1795 0
-1340 -1796 0
-1337 -2129 0
-1338 -2130 0
-1339 -2131 0
-1340 -2132 0
-1337 -2441 0
-1338 -2442 0
-1339 -2443 0
-1340 -2444 0
-1337 -2913 0
-1338 -2914 0
-1339 -2915 0
-1340 -2916 0
-1337 -3049 0
-1338 -3050 0
-1339 -3051 0
-1340 -3052 0
-1337 -3085 0
-1338 -3086 0
-1339 -3087 0
-1340 -3088 0
-1337 -3097 0
-1338 -3098 0
-1339 -3099 0
-1340 -3100 0
-1341 -1389 0
-1342 -1390 0
-1343 -1391 0
-1344 -1392 0
-1341 -1393 0
-1342 -1394 0
-1343 -1395 0
-1344 -1396 0
-1341 -1421 0
-1342 -1422 0
-1343 -1423 0
-1344 -1424 0
-1341 -1453 0
-1342 -1454 0
-1343 -1455 0
-1344 -1456 0
-1341 -1653 0
-1342 -1654 0
-1343 -1655 0
-1344 -1656 0
-1341 -1933 0
-1342 -1934 0
-1343 -1935 0
-1344 -1936 0
-1341 -2085 0
-1342 -2086 0
-1343 -2087 0
-1344 -2088 0
-1341 -2393 0
-1342 -2394 0
-1343 -2395 0
-1344 -2396 0
-1341 -2453 0
-1342 -2454 0
-1343 -2455 0
-1344 -2456 0
-1341 -3101 0
-1342 -3102 0
-1343 -3103 0
-1344 -3104 0
-1345 -1349 0
-1346 -1350 0
-1347 -1351 0
-1348 -1352 0
-1345 -1353 0
-1346 -1354 0
-1347 -1355 0
-1348 -1356 0
-1345 -1401 0
-1346 -1402 0
-1347 -1403 0
-1348 -1404 0
-1345 -1497 0
-1346 -1498 0
-1347 -1499 0
-1348 -1500 0
-1345 -1661 0
-1346 -1662 0
-1347 -1663 0
-1348 -1664 0
-1345 -1837 0
-1346 -1838 0
-1347 -1839 0
-1348 -1840 0
-1345 -2625 0
-1346 -2626 0
-1347 -2627 0
-1348 -2628 0
-1345 -2925 0
-1346 -2926 0
-1347 -2927 0
-1348 -2928 0
-1345 -3105 0
-1346 -3106 0
-1347 -3107 0
-1348 -3108 0
-1349 -1401 0
-1350 -1402 0
-1351 -1403 0
-1352 -1404 0
-1349 -1501 0
-1350 -1502 0
-1351 -1503 0
-1352 -1504 0
-1349 -1665 0
-1350 -1666 0
-1351 -1667 0
-1352 -1668 0
-1349 -1925 0
-1350 -1926 0
-1351 -1927 0
-1352 -1928 0
-1353 -1497 0
-1354 -1498 0
-1355 -1499 0
-1356 -1500 0
-1353 -1677 0
-1354 -1678 0
-1355 -1679 0
-1356 -1680 0
-1353 -1753 0
-1354 -1754 0
-1355 -1755 0
-1356 -1756 0
-1353 -1929 0
-1354 -1930 0
-1355 -1931 0
-1356 -1932 0
-1353 -2089 0
-1354 -2090 0
-1355 -2091 0
-1356 -2092 0
-1353 -2133 0
-1354 -2134 0
-1355 -2135 0
-1356 -2136 0
-1353 -2497 0
-1354 -2498 0
-1355 -2499 0
-1356 -2500 0
-1353 -2933 0
-1354 -2934 0
-1355 -2935 0
-1356 -2936 0
-1353 -3049 0
-1354 -3050 0
-1355 -3051 0
-1356 -3052 0
-1353 -3109 0
-1354 -3110 0
-1355 -3111 0
-1356 -3112 0
-1357 -1361 0
-1358 -1362 0
-1359 -1363 0
-1360 -1364 0
-1357 -1365 0
-1358 -1366 0
-1359 -1367 0
-1360 -1368 0
-1357 -1373 0
-1358 -1374 0
-1359 -1375 0
-1360 -1376 0
-1357 -1397 0
-1358 -1398 0
-1359 -1399 0
-1360 -1400 0
-1357 -1405 0
-1358 -1406 0
-1359 -1407 0
-1360 -1408 0
-1357 -1845 0
-1358 -1846 0
-1359 -1847 0
-1360 -1848 0
-1357 -1937 0
-1358 -1938 0
-1359 -1939 0
-1360 -1940 0
-1357 -3113 0
-1358 -3114 0
-1359 -3115 0
-1360 -3116 0
-1357 -3189 0
-1358 -3190 0
-1359 -3191 0
-1360 -3192 0
-1357 -3309 0
-1358 -3310 0
-1359 -3311 0
-1360 -3312 0
-1361 -1369 0
-1362 -1370 0
-1363 -1371 0
-1364 -1372 0
-1361 -1377 0
-1362 -1378 0
-1363 -1379 0
-1364 -1380 0
-1361 -1849 0
-1362 -1850 0
-1363 -1851 0
-1364 -1852 0
-1361 -2421 0
-1362 -2422 0
-1363 -2423 0
-1364 -2424 0
-1361 -3117 0
-1362 -3118 0
-1363 -3119 0
-1364 -3120 0
-1361 -3193 0
-1362 -3194 0
-1363 -3195 0
-1364 -3196 0
-1365 -1369 0
-1366 -1370 0
-1367 -1371 0
-1368 -1372 0
-1365 -1385 0
-1366 -1386 0
-1367 -1387 0
-1368 -1388 0
-1365 -1525 0
-1366 -1526 0
-1367 -1527 0
-1368 -1528 0
-1365 -1801 0
-1366 -1802 0
-1367 -1803 0
-1368 -1804 0
-1365 -2429 0
-1366 -2430 0
-1367 -2431 0
-1368 -2432 0
-1365 -3121 0
-1366 -3122 0
-1367 -3123 0
-1368 -3124 0
-1369 -1393 0
-1370 -1394 0
-1371 -1395 0
-1372 -1396 0
-1369 -1429 0
-1370 -1430 0
-1371 -1431 0
-1372 -1432 0
-1369 -1433 0
-1370 -1434 0
-1371 -1435 0
-1372 -1436 0
-1369 -2137 0
-1370 -2138 0
-1371 -2139 0
-1372 -2140 0
-1369 -2441 0
-1370 -2442 0
-1371 -2443 0
-1372 -2444 0
-1369 -3125 0
-1370 -3126 0
-1371 -3127 0
-1372 -3128 0
-1373 -1377 0
-1374 -1378 0
-1375 -1379 0
-1376 -1380 0
-1373 -1385 0
-1374 -1386 0
-1375 -1387 0
-1376 -1388 0
-1373 -1401 0
-1374 -1402 0
-1375 -1403 0
-1376 -1404 0
-1373 -1409 0
-1374 -1410 0
-1375 -1411 0
-1376 -1412 0
-1373 -1517 0
-1374 -1518 0
-1375 -1519 0
-1376 -1520 0
-1373 -1853 0
-1374 -1854 0
-1375 -1855 0
-1376 -1856 0
-1373 -1941 0
-1374 -1942 0
-1375 -1943 0
-1376 -1944 0
-1373 -2233 0
-1374 -2234 0
-1375 -2235 0
-1376 -2236 0
-1373 -2937 0
-1374 -2938 0
-1375 -2939 0
-1376 -2940 0
-1373 -3113 0
-1374 -3114 0
-1375 -3115 0
-1376 -3116 0
-1373 -3129 0
-1374 -3130 0
-1375 -3131 0
-1376 -3132 0
-1373 -3197 0
-1374 -3198 0
-1375 -3199 0
-1376 -3200 0
-1373 -3313 0
-1374 -3314 0
-1375 -3315 0
-1376 -3316 0
-1377 -1393 0
-1378 -1394 0
-1379 -1395 0
-1380 -1396 0
-1377 -1701 0
-1378 -1702 0
-1379 -1703 0
-1380 -1704 0
-1377 -1965 0
-1378 -1966 0
-1379 -1967 0
-1380 -1968 0
-1377 -2461 0
-1378 -2462 0
-1379 -2463 0
-1380 -2464 0
-1377 -2629 0
-1378 -2630 0
-1379 -2631 0
-1380 -2632 0
-1377 -3117 0
-1378 -3118 0
-1379 -3119 0
-1380 -3120 0
-1377 -3133 0
-1378 -3134 0
-1379 -3135 0
-1380 -3136 0
-1377 -3201 0
-1378 -3202 0
-1379 -3203 0
-1380 -3204 0
-1377 -3317 0
-1378 -3318 0
-1379 -3319 0
-1380 -3320 0
-1381 -1385 0
-1382 -1386 0
-1383 -1387 0
-1384 -1388 0
-1381 -1389 0
-1382 -1390 0
-1383 -1391 0
-1384 -1392 0
-1381 -1457 0
-1382 -1458 0
-1383 -1459 0
-1384 -1460 0
-1381 -2105 0
-1382 -2106 0
-1383 -2107 0
-1384 -2108 0
-1381 -2513 0
-1382 -2514 0
-1383 -2515 0
-1384 -2516 0
-1381 -2941 0
-1382 -2942 0
-1383 -2943 0
-1384 -2944 0
-1385 -1393 0
-1386 -1394 0
-1387 -1395 0
-1388 -1396 0
-1385 -1461 0
-1386 -1462 0
-1387 -1463 0
-1388 -1464 0
-1385 -1537 0
-1386 -1538 0
-1387 -1539 0
-1388 -1540 0
-1385 -1805 0
-1386 -1806 0
-1387 -1807 0
-1388 -1808 0
-1385 -1949 0
-1386 -1950 0
-1387 -1951 0
-1388 -1952 0
-1385 -2141 0
-1386 -2142 0
-1387 -2143 0
-1388 -2144 0
-1385 -2237 0
-1386 -2238 0
-1387 -2239 0
-1388 -2240 0
-1385 -2465 0
-1386 -2466 0
-1387 -2467 0
-1388 -2468 0
-1385 -2517 0
-1386 -2518 0
-1387 -2519 0
-1388 -2520 0
-1385 -3121 0
-1386 -3122 0
-1387 -3123 0
-1388 -3124 0
-1385 -3137 0
-1386 -3138 0
-1387 -3139 0
-1388 -3140 0
-1389 -1393 0
-1390 -1394 0
-1391 -1395 0
-1392 -1396 0
-1389 -1437 0
-1390 -1438 0
-1391 -1439 0
-1392 -1440 0
-1389 -1445 0
-1390 -1446 0
-1391 -1447 0
-1392 -1448 0
-1389 -1457 0
-1390 -1458 0
-1391 -1459 0
-1392 -1460 0
-1389 -1705 0
-1390 -1706 0
-1391 -1707 0
-1392 -1708 0
-1389 -1973 0
-1390 -1974 0
-1391 -1975 0
-1392 -1976 0
-1389 -2109 0
-1390 -2110 0
-1391 -2111 0
-1392 -2112 0
-1389 -2369 0
-1390 -2370 0
-1391 -2371 0
-1392 -2372 0
-1389 -2473 0
-1390 -2474 0
-1391 -2475 0
-1392 -2476 0
-1389 -2633 0
-1390 -2634 0
-1391 -2635 0
-1392 -2636 0
-1389 -3205 0
-1390 -3206 0
-1391 -3207 0
-1392 -3208 0
-1393 -1441 0
-1394 -1442 0
-1395 -1443 0
-1396 -1444 0
-1393 -1449 0
-1394 -1450 0
-1395 -1451 0
-1396 -1452 0
-1393 -1461 0
-1394 -1462 0
-1395 -1463 0
-1396 -1464 0
-1393 -1709 0
-1394 -1710 0
-1395 -1711 0
-1396 -1712 0
-1393 -1781 0
-1394 -1782 0
-1395 -1783 0
-1396 -1784 0
-1393 -2145 0
-1394 -2146 0
-1395 -2147 0
-1396 -2148 0
-1393 -2241 0
-1394 -2242 0
-1395 -2243 0
-1396 -2244 0
-1393 -2477 0
-1394 -2478 0
-1395 -2479 0
-1396 -2480 0
-1393 -2637 0
-1394 -2638 0
-1395 -2639 0
-1396 -2640 0
-1393 -3125 0
-1394 -3126 0
-1395 -3127 0
-1396 -3128 0
-1393 -3141 0
-1394 -3142 0
-1395 -3143 0
-1396 -3144 0
-1393 -3209 0
-1394 -3210 0
-1395 -3211 0
-1396 -3212 0
-1397 -1401 0
-1398 -1402 0
-1399 -1403 0
-1400 -1404 0
-1397 -1413 0
-1398 -1414 0
-1399 -1415 0
-1400 -1416 0
-1397 -1869 0
-1398 -1870 0
-1399 -1871 0
-1400 -1872 0
-1397 -1957 0
-1398 -1958 0
-1399 -1959 0
-1400 -1960 0
-1397 -3145 0
-1398 -3146 0
-1399 -3147 0
-1400 -3148 0
-1401 -1713 0
-1402 -1714 0
-1403 -1715 0
-1404 -1716 0
-1401 -1893 0
-1402 -1894 0
-1403 -1895 0
-1404 -1896 0
-1401 -1961 0
-1402 -1962 0
-1403 -1963 0
-1404 -1964 0
-1401 -2945 0
-1402 -2946 0
-1403 -2947 0
-1404 -2948 0
-1401 -3145 0
-1402 -3146 0
-1403 -3147 0
-1404 -3148 0
-1405 -1409 0
-1406 -1410 0
-1407 -1411 0
-1408 -1412 0
-1405 -1413 0
-1406 -1414 0
-1407 -1415 0
-1408 -1416 0
-1405 -1521 0
-1406 -1522 0
-1407 -1523 0
-1408 -1524 0
-1405 -1809 0
-1406 -1810 0
-1407 -1811 0
-1408 -1812 0
-1405 -2245 0
-1406 -2246 0
-1407 -2247 0
-1408 -2248 0
-1405 -3149 0
-1406 -3150 0
-1407 -3151 0
-1408 -3152 0
-1405 -3189 0
-1406 -3190 0
-1407 -3191 0
-1408 -3192 0
-1409 -1533 0
-1410 -1534 0
-1411 -1535 0
-1412 -1536 0
-1409 -1817 0
-1410 -1818 0
-1411 -1819 0
-1412 -1820 0
-1409 -2257 0
-1410 -2258 0
-1411 -2259 0
-1412 -2260 0
-1409 -2645 0
-1410 -2646 0
-1411 -2647 0
-1412 -2648 0
-1409 -3149 0
-1410 -3150 0
-1411 -3151 0
-1412 -3152 0
-1409 -3153 0
-1410 -3154 0
-1411 -3155 0
-1412 -3156 0
-1409 -3197 0
-1410 -3198 0
-1411 -3199 0
-1412 -3200 0
-1413 -1909 0
-1414 -1910 0
-1415 -1911 0
-1416 -1912 0
-1417 -1421 0
-1418 -1422 0
-1419 -1423 0
-1420 -1424 0
-1417 -1465 0
-1418 -1466 0
-1419 -1467 0
-1420 -1468 0
-1417 -1833 0
-1418 -1834 0
-1419 -1835 0
-1420 -1836 0
-1417 -2529 0
-1418 -2530 0
-1419 -2531 0
-1420 -2532 0
-1417 -3057 0
-1418 -3058 0
-1419 -3059 0
-1420 -3060 0
-1417 -3157 0
-1418 -3158 0
-1419 -3159 0
-1420 -3160 0
-1417 -3341 0
-1418 -3342 0
-1419 -3343 0
-1420 -3344 0
-1421 -1437 0
-1422 -1438 0
-1423 -1439 0
-1424 -1440 0
-1421 -1441 0
-1422 -1442 0
-1423 -1443 0
-1424 -1444 0
-1421 -1465 0
-1422 -1466 0
-1423 -1467 0
-1424 -1468 0
-1421 -1785 0
-1422 -1786 0
-1423 -1787 0
-1424 -1788 0
-1421 -1841 0
-1422 -1842 0
-1423 -1843 0
-1424 -1844 0
-1421 -2113 0
-1422 -2114 0
-1423 -2115 0
-1424 -2116 0
-1421 -2389 0
-1422 -2390 0
-1423 -2391 0
-1424 -2392 0
-1421 -2657 0
-1422 -2658 0
-1423 -2659 0
-1424 -2660 0
-1421 -3345 0
-1422 -3346 0
-1423 -3347 0
-1424 -3348 0
-1425 -1437 0
-1426 -1438 0
-1427 -1439 0
-1428 -1440 0
-1425 -2121 0
-1426 -2122 0
-1427 -2123 0
-1428 -2124 0
-1425 -2401 0
-1426 -2402 0
-1427 -2403 0
-1428 -2404 0
-1425 -2669 0
-1426 -2670 0
-1427 -2671 0
-1428 -2672 0
-1425 -2953 0
-1426 -2954 0
-1427 -2955 0
-1428 -2956 0
-1425 -3061 0
-1426 -3062 0
-1427 -3063 0
-1428 -3064 0
-1425 -3221 0
-1426 -3222 0
-1427 -3223 0
-1428 -3224 0
-1429 -1433 0
-1430 -1434 0
-1431 -1435 0
-1432 -1436 0
-1429 -1441 0
-1430 -1442 0
-1431 -1443 0
-1432 -1444 0
-1429 -2529 0
-1430 -2530 0
-1431 -2531 0
-1432 -2532 0
-1429 -3161 0
-1430 -3162 0
-1431 -3163 0
-1432 -3164 0
-1433 -1449 0
-1434 -1450 0
-1435 -1451 0
-1436 -1452 0
-1433 -1877 0
-1434 -1878 0
-1435 -1879 0
-1436 -1880 0
-1433 -2157 0
-1434 -2158 0
-1435 -2159 0
-1436 -2160 0
-1433 -2533 0
-1434 -2534 0
-1435 -2535 0
-1436 -2536 0
-1437 -1441 0
-1438 -1442 0
-1439 -1443 0
-1440 -1444 0
-1437 -1445 0
-1438 -1446 0
-1439 -1447 0
-1440 -1448 0
-1437 -1469 0
-1438 -1470 0
-1439 -1471 0
-1440 -1472 0
-1437 -1769 0
-1438 -1770 0
-1439 -1771 0
-1440 -1772 0
-1437 -1897 0
-1438 -1898 0
-1439 -1899 0
-1440 -1900 0
-1437 -1917 0
-1438 -1918 0
-1439 -1919 0
-1440 -1920 0
-1437 -2125 0
-1438 -2126 0
-1439 -2127 0
-1440 -2128 0
-1437 -2441 0
-1438 -2442 0
-1439 -2443 0
-1440 -2444 0
-1437 -2965 0
-1438 -2966 0
-1439 -2967 0
-1440 -2968 0
-1437 -3065 0
-1438 -3066 0
-1439 -3067 0
-1440 -3068 0
-1437 -3069 0
-1438 -3070 0
-1439 -3071 0
-1440 -3072 0
-1437 -3221 0
-1438 -3222 0
-1439 -3223 0
-1440 -3224 0
-1437 -3369 0
-1438 -3370 0
-1439 -3371 0
-1440 -3372 0
-1441 -1449 0
-1442 -1450 0
-1443 -1451 0
-1444 -1452 0
-1441 -2281 0
-1442 -2282 0
-1443 -2283 0
-1444 -2284 0
-1441 -2445 0
-1442 -2446 0
-1443 -2447 0
-1444 -2448 0
-1441 -2537 0
-1442 -2538 0
-1443 -2539 0
-1444 -2540 0
-1441 -2969 0
-1442 -2970 0
-1443 -2971 0
-1444 -2972 0
-1441 -3161 0
-1442 -3162 0
-1443 -3163 0
-1444 -3164 0
-1441 -3373 0
-1442 -3374 0
-1443 -3375 0
-1444 -3376 0
-1445 -1449 0
-1446 -1450 0
-1447 -1451 0
-1448 -1452 0
-1445 -1565 0
-1446 -1566 0
-1447 -1567 0
-1448 -1568 0
-1445 -1901 0
-1446 -1902 0
-1447 -1903 0
-1448 -1904 0
-1445 -2165 0
-1446 -2166 0
-1447 -2167 0
-1448 -2168 0
-1445 -2449 0
-1446 -2450 0
-1447 -2451 0
-1448 -2452 0
-1445 -2685 0
-1446 -2686 0
-1447 -2687 0
-1448 -2688 0
-1445 -2973 0
-1446 -2974 0
-1447 -2975 0
-1448 -2976 0
-1445 -3225 0
-1446 -3226 0
-1447 -3227 0
-1448 -3228 0
-1445 -3233 0
-1446 -3234 0
-1447 -3235 0
-1448 -3236 0
-1449 -1905 0
-1450 -1906 0
-1451 -1907 0
-1452 -1908 0
-1449 -1993 0
-1450 -1994 0
-1451 -1995 0
-1452 -1996 0
-1449 -2169 0
-1450 -2170 0
-1451 -2171 0
-1452 -2172 0
-1449 -2541 0
-1450 -2542 0
-1451 -2543 0
-1452 -2544 0
-1449 -2689 0
-1450 -2690 0
-1451 -2691 0
-1452 -2692 0
-1449 -2977 0
-1450 -2978 0
-1451 -2979 0
-1452 -2980 0
-1449 -3229 0
-1450 -3230 0
-1451 -3231 0
-1452 -3232 0
-1453 -1457 0
-1454 -1458 0
-1455 -1459 0
-1456 -1460 0
-1453 -1461 0
-1454 -1462 0
-1455 -1463 0
-1456 -1464 0
-1453 -1465 0
-1454 -1466 0
-1455 -1467 0
-1456 -1468 0
-1453 -2177 0
-1454 -2178 0
-1455 -2179 0
-1456 -2180 0
-1453 -2545 0
-1454 -2546 0
-1455 -2547 0
-1456 -2548 0
-1453 -2553 0
-1454 -2554 0
-1455 -2555 0
-1456 -2556 0
-1453 -2977 0
-1454 -2978 0
-1455 -2979 0
-1456 -2980 0
-1457 -1461 0
-1458 -1462 0
-1459 -1463 0
-1460 -1464 0
-1457 -1469 0
-1458 -1470 0
-1459 -1471 0
-1460 -1472 0
-1457 -1581 0
-1458 -1582 0
-1459 -1583 0
-1460 -1584 0
-1457 -1953 0
-1458 -1954 0
-1459 -1955 0
-1460 -1956 0
-1457 -2193 0
-1458 -2194 0
-1459 -2195 0
-1460 -2196 0
-1457 -2705 0
-1458 -2706 0
-1459 -2707 0
-1460 -2708 0
-1457 -3001 0
-1458 -3002 0
-1459 -3003 0
-1460 -3004 0
-1461 -2197 0
-1462 -2198 0
-1463 -2199 0
-1464 -2200 0
-1461 -2557 0
-1462 -2558 0
-1463 -2559 0
-1464 -2560 0
-1461 -2709 0
-1462 -2710 0
-1463 -2711 0
-1464 -2712 0
-1465 -1469 0
-1466 -1470 0
-1467 -1471 0
-1468 -1472 0
-1465 -1925 0
-1466 -1926 0
-1467 -1927 0
-1468 -1928 0
-1465 -2217 0
-1466 -2218 0
-1467 -2219 0
-1468 -2220 0
-1465 -3389 0
-1466 -3390 0
-1467 -3391 0
-1468 -3392 0
-1469 -1589 0
-1470 -1590 0
-1471 -1591 0
-1472 -1592 0
-1469 -1961 0
-1470 -1962 0
-1471 -1963 0
-1472 -1964 0
-1469 -1989 0
-1470 -1990 0
-1471 -1991 0
-1472 -1992 0
-1469 -2253 0
-1470 -2254 0
-1471 -2255 0
-1472 -2256 0
-1469 -2549 0
-1470 -2550 0
-1471 -2551 0
-1472 -2552 0
-1469 -3025 0
-1470 -3026 0
-1471 -3027 0
-1472 -3028 0
-1469 -3149 0
-1470 -3150 0
-1471 -3151 0
-1472 -3152 0
-1473 -1493 0
-1474 -1494 0
-1475 -1495 0
-1476 -1496 0
-1473 -1497 0
-1474 -1498 0
-1475 -1499 0
-1476 -1500 0
-1473 -2185 0
-1474 -2186 0
-1475 -2187 0
-1476 -2188 0
-1477 -1813 0
-1478 -1814 0
-1479 -1815 0
-1480 -1816 0
-1477 -2197 0
-1478 -2198 0
-1479 -2199 0
-1480 -2200 0
-1477 -2585 0
-1478 -2586 0
-1479 -2587 0
-1480 -2588 0
-1477 -3209 0
-1478 -3210 0
-1479 -3211 0
-1480 -3212 0
-1481 -1485 0
-1482 -1486 0
-1483 -1487 0
-1484 -1488 0
-1481 -1489 0
-1482 -1490 0
-1483 -1491 0
-1484 -1492 0
-1481 -1497 0
-1482 -1498 0
-1483 -1499 0
-1484 -1500 0
-1481 -2021 0
-1482 -2022 0
-1483 -2023 0
-1484 -2024 0
-1481 -2221 0
-1482 -2222 0
-1483 -2223 0
-1484 -2224 0
-1481 -2593 0
-1482 -2594 0
-1483 -2595 0
-1484 -2596 0
-1481 -2741 0
-1482 -2742 0
-1483 -2743 0
-1484 -2744 0
-1481 -3169 0
-1482 -3170 0
-1483 -3171 0
-1484 -3172 0
-1481 -3213 0
-1482 -3214 0
-1483 -3215 0
-1484 -3216 0
-1481 -3217 0
-1482 -3218 0
-1483 -3219 0
-1484 -3220 0
-1485 -1501 0
-1486 -1502 0
-1487 -1503 0
-1488 -1504 0
-1485 -1845 0
-1486 -1846 0
-1487 -1847 0
-1488 -1848 0
-1489 -1509 0
-1490 -1510 0
-1491 -1511 0
-1492 -1512 0
-1489 -1641 0
-1490 -1642 0
-1491 -1643 0
-1492 -1644 0
-1489 -2033 0
-1490 -2034 0
-1491 -2035 0
-1492 -2036 0
-1489 -2229 0
-1490 -2230 0
-1491 -2231 0
-1492 -2232 0
-1489 -2601 0
-1490 -2602 0
-1491 -2603 0
-1492 -2604 0
-1489 -3177 0
-1490 -3178 0
-1491 -3179 0
-1492 -3180 0
-1489 -3217 0
-1490 -3218 0
-1491 -3219 0
-1492 -3220 0
-1493 -1497 0
-1494 -1498 0
-1495 -1499 0
-1496 -1500 0
-1493 -1505 0
-1494 -1506 0
-1495 -1507 0
-1496 -1508 0
-1493 -1669 0
-1494 -1670 0
-1495 -1671 0
-1496 -1672 0
-1493 -1857 0
-1494 -1858 0
-1495 -1859 0
-1496 -1860 0
-1493 -2013 0
-1494 -2014 0
-1495 -2015 0
-1496 -2016 0
-1493 -2573 0
-1494 -2574 0
-1495 -2575 0
-1496 -2576 0
-1493 -3165 0
-1494 -3166 0
-1495 -3167 0
-1496 -3168 0
-1493 -3221 0
-1494 -3222 0
-1495 -3223 0
-1496 -3224 0
-1497 -1501 0
-1498 -1502 0
-1499 -1503 0
-1500 -1504 0
-1497 -1509 0
-1498 -1510 0
-1499 -1511 0
-1500 -1512 0
-1497 -1645 0
-1498 -1646 0
-1499 -1647 0
-1500 -1648 0
-1497 -1773 0
-1498 -1774 0
-1499 -1775 0
-1500 -1776 0
-1497 -1865 0
-1498 -1866 0
-1499 -1867 0
-1500 -1868 0
-1497 -2025 0
-1498 -2026 0
-1499 -2027 0
-1500 -2028 0
-1497 -2233 0
-1498 -2234 0
-1499 -2235 0
-1500 -2236 0
-1497 -2761 0
-1498 -2762 0
-1499 -2763 0
-1500 -2764 0
-1497 -3169 0
-1498 -3170 0
-1499 -3171 0
-1500 -3172 0
-1497 -3225 0
-1498 -3226 0
-1499 -3227 0
-1500 -3228 0
-1501 -1869 0
-1502 -1870 0
-1503 -1871 0
-1504 -1872 0
-1501 -2029 0
-1502 -2030 0
-1503 -2031 0
-1504 -2032 0
-1501 -3229 0
-1502 -3230 0
-1503 -3231 0
-1504 -3232 0
-1505 -1509 0
-1506 -1510 0
-1507 -1511 0
-1508 -1512 0
-1505 -1689 0
-1506 -1690 0
-1507 -1691 0
-1508 -1692 0
-1505 -1881 0
-1506 -1882 0
-1507 -1883 0
-1508 -1884 0
-1505 -2577 0
-1506 -2578 0
-1507 -2579 0
-1508 -2580 0
-1505 -3173 0
-1506 -3174 0
-1507 -3175 0
-1508 -3176 0
-1505 -3221 0
-1506 -3222 0
-1507 -3223 0
-1508 -3224 0
-1509 -1649 0
-1510 -1650 0
-1511 -1651 0
-1512 -1652 0
-1509 -1777 0
-1510 -1778 0
-1511 -1779 0
-1512 -1780 0
-1509 -1889 0
-1510 -1890 0
-1511 -1891 0
-1512 -1892 0
-1509 -3177 0
-1510 -3178 0
-1511 -3179 0
-1512 -3180 0
-1509 -3225 0
-1510 -3226 0
-1511 -3227 0
-1512 -3228 0
-1513 -1517 0
-1514 -1518 0
-1515 -1519 0
-1516 -1520 0
-1513 -1529 0
-1514 -1530 0
-1515 -1531 0
-1516 -1532 0
-1513 -1553 0
-1514 -1554 0
-1515 -1555 0
-1516 -1556 0
-1513 -2293 0
-1514 -2294 0
-1515 -2295 0
-1516 -2296 0
-1513 -3061 0
-1514 -3062 0
-1515 -3063 0
-1516 -3064 0
-1513 -3289 0
-1514 -3290 0
-1515 -3291 0
-1516 -3292 0
-1517 -1533 0
-1518 -1534 0
-1519 -1535 0
-1520 -1536 0
-1517 -1557 0
-1518 -1558 0
-1519 -1559 0
-1520 -1560 0
-1517 -2401 0
-1518 -2402 0
-1519 -2403 0
-1520 -2404 0
-1517 -3293 0
-1518 -3294 0
-1519 -3295 0
-1520 -3296 0
-1517 -3413 0
-1518 -3414 0
-1519 -3415 0
-1520 -3416 0
-1521 -1525 0
-1522 -1526 0
-1523 -1527 0
-1524 -1528 0
-1521 -1533 0
-1522 -1534 0
-1523 -1535 0
-1524 -1536 0
-1521 -2417 0
-1522 -2418 0
-1523 -2419 0
-1524 -2420 0
-1521 -3237 0
-1522 -3238 0
-1523 -3239 0
-1524 -3240 0
-1525 -1537 0
-1526 -1538 0
-1527 -1539 0
-1528 -1540 0
-1525 -2321 0
-1526 -2322 0
-1527 -2323 0
-1528 -2324 0
-1525 -3241 0
-1526 -3242 0
-1527 -3243 0
-1528 -3244 0
-1525 -3285 0
-1526 -3286 0
-1527 -3287 0
-1528 -3288 0
-1529 -1533 0
-1530 -1534 0
-1531 -1535 0
-1532 -1536 0
-1529 -1541 0
-1530 -1542 0
-1531 -1543 0
-1532 -1544 0
-1529 -1705 0
-1530 -1706 0
-1531 -1707 0
-1532 -1708 0
-1529 -1941 0
-1530 -1942 0
-1531 -1943 0
-1532 -1944 0
-1529 -2437 0
-1530 -2438 0
-1531 -2439 0
-1532 -2440 0
-1529 -2613 0
-1530 -2614 0
-1531 -2615 0
-1532 -2616 0
-1529 -3065 0
-1530 -3066 0
-1531 -3067 0
-1532 -3068 0
-1529 -3245 0
-1530 -3246 0
-1531 -3247 0
-1532 -3248 0
-1529 -3289 0
-1530 -3290 0
-1531 -3291 0
-1532 -3292 0
-1533 -1537 0
-1534 -1538 0
-1535 -1539 0
-1536 -1540 0
-1533 -1545 0
-1534 -1546 0
-1535 -1547 0
-1536 -1548 0
-1533 -1577 0
-1534 -1578 0
-1535 -1579 0
-1536 -1580 0
-1533 -1701 0
-1534 -1702 0
-1535 -1703 0
-1536 -1704 0
-1533 -1709 0
-1534 -1710 0
-1535 -1711 0
-1536 -1712 0
-1533 -2441 0
-1534 -2442 0
-1535 -2443 0
-1536 -2444 0
-1533 -2645 0
-1534 -2646 0
-1535 -2647 0
-1536 -2648 0
-1533 -3237 0
-1534 -3238 0
-1535 -3239 0
-1536 -3240 0
-1533 -3249 0
-1534 -3250 0
-1535 -3251 0
-1536 -3252 0
-1533 -3293 0
-1534 -3294 0
-1535 -3295 0
-1536 -3296 0
-1533 -3425 0
-1534 -3426 0
-1535 -3427 0
-1536 -3428 0
-1537 -1577 0
-1538 -1578 0
-1539 -1579 0
-1540 -1580 0
-1537 -2325 0
-1538 -2326 0
-1539 -2327 0
-1540 -2328 0
-1537 -2449 0
-1538 -2450 0
-1539 -2451 0
-1540 -2452 0
-1537 -2649 0
-1538 -2650 0
-1539 -2651 0
-1540 -2652 0
-1537 -2677 0
-1538 -2678 0
-1539 -2679 0
-1540 -2680 0
-1537 -2837 0
-1538 -2838 0
-1539 -2839 0
-1540 -2840 0
-1537 -3241 0
-1538 -3242 0
-1539 -3243 0
-1540 -3244 0
-1537 -3253 0
-1538 -3254 0
-1539 -3255 0
-1540 -3256 0
-1537 -3301 0
-1538 -3302 0
-1539 -3303 0
-1540 -3304 0
-1537 -3305 0
-1538 -3306 0
-1539 -3307 0
-1540 -3308 0
-1541 -1545 0
-1542 -1546 0
-1543 -1547 0
-1544 -1548 0
-1541 -1721 0
-1542 -1722 0
-1543 -1723 0
-1544 -1724 0
-1541 -1961 0
-1542 -1962 0
-1543 -1963 0
-1544 -1964 0
-1541 -2069 0
-1542 -2070 0
-1543 -2071 0
-1544 -2072 0
-1541 -2621 0
-1542 -2622 0
-1543 -2623 0
-1544 -2624 0
-1541 -3069 0
-1542 -3070 0
-1543 -3071 0
-1544 -3072 0
-1545 -1549 0
-1546 -1550 0
-1547 -1551 0
-1548 -1552 0
-1545 -1717 0
-1546 -1718 0
-1547 -1719 0
-1548 -1720 0
-1545 -1725 0
-1546 -1726 0
-1547 -1727 0
-1548 -1728 0
-1545 -1965 0
-1546 -1966 0
-1547 -1967 0
-1548 -1968 0
-1545 -2073 0
-1546 -2074 0
-1547 -2075 0
-1548 -2076 0
-1545 -2309 0
-1546 -2310 0
-1547 -2311 0
-1548 -2312 0
-1545 -2497 0
-1546 -2498 0
-1547 -2499 0
-1548 -2500 0
-1545 -3257 0
-1546 -3258 0
-1547 -3259 0
-1548 -3260 0
-1545 -3261 0
-1546 -3262 0
-1547 -3263 0
-1548 -3264 0
-1549 -1733 0
-1550 -1734 0
-1551 -1735 0
-1552 -1736 0
-1549 -1741 0
-1550 -1742 0
-1551 -1743 0
-1552 -1744 0
-1549 -2501 0
-1550 -2502 0
-1551 -2503 0
-1552 -2504 0
-1549 -3073 0
-1550 -3074 0
-1551 -3075 0
-1552 -3076 0
-1549 -3261 0
-1550 -3262 0
-1551 -3263 0
-1552 -3264 0
-1553 -1557 0
-1554 -1558 0
-1555 -1559 0
-1556 -1560 0
-1553 -1561 0
-1554 -1562 0
-1555 -1563 0
-1556 -1564 0
-1553 -2845 0
-1554 -2846 0
-1555 -2847 0
-1556 -2848 0
-1553 -3077 0
-1554 -3078 0
-1555 -3079 0
-1556 -3080 0
-1553 -3329 0
-1554 -3330 0
-1555 -3331 0
-1556 -3332 0
-1553 -3461 0
-1554 -3462 0
-1555 -3463 0
-1556 -3464 0
-1557 -1577 0
-1558 -1578 0
-1559 -1579 0
-1560 -1580 0
-1557 -2113 0
-1558 -2114 0
-1559 -2115 0
-1560 -2116 0
-1557 -2849 0
-1558 -2850 0
-1559 -2851 0
-1560 -2852 0
-1557 -3081 0
-1558 -3082 0
-1559 -3083 0
-1560 -3084 0
-1557 -3333 0
-1558 -3334 0
-1559 -3335 0
-1560 -3336 0
-1557 -3465 0
-1558 -3466 0
-1559 -3467 0
-1560 -3468 0
-1561 -1565 0
-1562 -1566 0
-1563 -1567 0
-1564 -1568 0
-1561 -1569 0
-1562 -1570 0
-1563 -1571 0
-1564 -1572 0
-1561 -1593 0
-1562 -1594 0
-1563 -1595 0
-1564 -1596 0
-1561 -1977 0
-1562 -1978 0
-1563 -1979 0
-1564 -1980 0
-1561 -2045 0
-1562 -2046 0
-1563 -2047 0
-1564 -2048 0
-1561 -2337 0
-1562 -2338 0
-1563 -2339 0
-1564 -2340 0
-1561 -2697 0
-1562 -2698 0
-1563 -2699 0
-1564 -2700 0
-1561 -3085 0
-1562 -3086 0
-1563 -3087 0
-1564 -3088 0
-1561 -3341 0
-1562 -3342 0
-1563 -3343 0
-1564 -3344 0
-1565 -1573 0
-1566 -1574 0
-1567 -1575 0
-1568 -1576 0
-1565 -1593 0
-1566 -1594 0
-1567 -1595 0
-1568 -1596 0
-1565 -1981 0
-1566 -1982 0
-1567 -1983 0
-1568 -1984 0
-1565 -2313 0
-1566 -2314 0
-1567 -2315 0
-1568 -2316 0
-1565 -2345 0
-1566 -2346 0
-1567 -2347 0
-1568 -2348 0
-1565 -2685 0
-1566 -2686 0
-1567 -2687 0
-1568 -2688 0
-1565 -3321 0
-1566 -3322 0
-1567 -3323 0
-1568 -3324 0
-1565 -3345 0
-1566 -3346 0
-1567 -3347 0
-1568 -3348 0
-1569 -1573 0
-1570 -1574 0
-1571 -1575 0
-1572 -1576 0
-1569 -1601 0
-1570 -1602 0
-1571 -1603 0
-1572 -1604 0
-1569 -2349 0
-1570 -2350 0
-1571 -2351 0
-1572 -2352 0
-1569 -2701 0
-1570 -2702 0
-1571 -2703 0
-1572 -2704 0
-1569 -3097 0
-1570 -3098 0
-1571 -3099 0
-1572 -3100 0
-1573 -1601 0
-1574 -1602 0
-1575 -1603 0
-1576 -1604 0
-1573 -1917 0
-1574 -1918 0
-1575 -1919 0
-1576 -1920 0
-1573 -2353 0
-1574 -2354 0
-1575 -2355 0
-1576 -2356 0
-1573 -2641 0
-1574 -2642 0
-1575 -2643 0
-1576 -2644 0
-1573 -3101 0
-1574 -3102 0
-1575 -3103 0
-1576 -3104 0
-1577 -2065 0
-1578 -2066 0
-1579 -2067 0
-1580 -2068 0
-1577 -2357 0
-1578 -2358 0
-1579 -2359 0
-1580 -2360 0
-1577 -2533 0
-1578 -2534 0
-1579 -2535 0
-1580 -2536 0
-1577 -3333 0
-1578 -3334 0
-1579 -3335 0
-1580 -3336 0
-1577 -3481 0
-1578 -3482 0
-1579 -3483 0
-1580 -3484 0
-1581 -1585 0
-1582 -1586 0
-1583 -1587 0
-1584 -1588 0
-1581 -1589 0
-1582 -1590 0
-1583 -1591 0
-1584 -1592 0
-1581 -1593 0
-1582 -1594 0
-1583 -1595 0
-1584 -1596 0
-1581 -2365 0
-1582 -2366 0
-1583 -2367 0
-1584 -2368 0
-1581 -2705 0
-1582 -2706 0
-1583 -2707 0
-1584 -2708 0
-1581 -3125 0
-1582 -3126 0
-1583 -3127 0
-1584 -3128 0
-1585 -1597 0
-1586 -1598 0
-1587 -1599 0
-1588 -1600 0
-1585 -1601 0
-1586 -1602 0
-1587 -1603 0
-1588 -1604 0
-1585 -1949 0
-1586 -1950 0
-1587 -1951 0
-1588 -1952 0
-1585 -2373 0
-1586 -2374 0
-1587 -2375 0
-1588 -2376 0
-1585 -3141 0
-1586 -3142 0
-1587 -3143 0
-1588 -3144 0
-1589 -1593 0
-1590 -1594 0
-1591 -1595 0
-1592 -1596 0
-1589 -1597 0
-1590 -1598 0
-1591 -1599 0
-1592 -1600 0
-1589 -2093 0
-1590 -2094 0
-1591 -2095 0
-1592 -2096 0
-1589 -2117 0
-1590 -2118 0
-1591 -2119 0
-1592 -2120 0
-1589 -2433 0
-1590 -2434 0
-1591 -2435 0
-1592 -2436 0
-1589 -3161 0
-1590 -3162 0
-1591 -3163 0
-1592 -3164 0
-1589 -3237 0
-1590 -3238 0
-1591 -3239 0
-1592 -3240 0
-1589 -3257 0
-1590 -3258 0
-1591 -3259 0
-1592 -3260 0
-1593 -1601 0
-1594 -1602 0
-1595 -1603 0
-1596 -1604 0
-1593 -1765 0
-1594 -1766 0
-1595 -1767 0
-1596 -1768 0
-1593 -2097 0
-1594 -2098 0
-1595 -2099 0
-1596 -2100 0
-1593 -2441 0
-1594 -2442 0
-1595 -2443 0
-1596 -2444 0
-1593 -2717 0
-1594 -2718 0
-1595 -2719 0
-1596 -2720 0
-1593 -2861 0
-1594 -2862 0
-1595 -2863 0
-1596 -2864 0
-1593 -2865 0
-1594 -2866 0
-1595 -2867 0
-1596 -2868 0
-1593 -3241 0
-1594 -3242 0
-1595 -3243 0
-1596 -3244 0
-1593 -3377 0
-1594 -3378 0
-1595 -3379 0
-1596 -3380 0
-1593 -3389 0
-1594 -3390 0
-1595 -3391 0
-1596 -3392 0
-1597 -1601 0
-1598 -1602 0
-1599 -1603 0
-1600 -1604 0
-1597 -1769 0
-1598 -1770 0
-1599 -1771 0
-1600 -1772 0
-1597 -2469 0
-1598 -2470 0
-1599 -2471 0
-1600 -2472 0
-1597 -2569 0
-1598 -2570 0
-1599 -2571 0
-1600 -2572 0
-1597 -2709 0
-1598 -2710 0
-1599 -2711 0
-1600 -2712 0
-1597 -3249 0
-1598 -3250 0
-1599 -3251 0
-1600 -3252 0
-1597 -3261 0
-1598 -3262 0
-1599 -3263 0
-1600 -3264 0
-1601 -1989 0
-1602 -1990 0
-1603 -1991 0
-1604 -1992 0
-1601 -2477 0
-1602 -2478 0
-1603 -2479 0
-1604 -2480 0
-1601 -3253 0
-1602 -3254 0
-1603 -3255 0
-1604 -3256 0
-1601 -3381 0
-1602 -3382 0
-1603 -3383 0
-1604 -3384 0
-1605 -1661 0
-1606 -1662 0
-1607 -1663 0
-1608 -1664 0
-1605 -1669 0
-1606 -1670 0
-1607 -1671 0
-1608 -1672 0
-1605 -2009 0
-1606 -2010 0
-1607 -2011 0
-1608 -2012 0
-1609 -1613 0
-1610 -1614 0
-1611 -1615 0
-1612 -1616 0
-1609 -1617 0
-1610 -1618 0
-1611 -1619 0
-1612 -1620 0
-1609 -1625 0
-1610 -1626 0
-1611 -1627 0
-1612 -1628 0
-1609 -1661 0
-1610 -1662 0
-1611 -1663 0
-1612 -1664 0
-1609 -2129 0
-1610 -2130 0
-1611 -2131 0
-1612 -2132 0
-1609 -3165 0
-1610 -3166 0
-1611 -3167 0
-1612 -3168 0
-1609 -3289 0
-1610 -3290 0
-1611 -3291 0
-1612 -3292 0
-1613 -1621 0
-1614 -1622 0
-1615 -1623 0
-1616 -1624 0
-1613 -1665 0
-1614 -1666 0
-1615 -1667 0
-1616 -1668 0
-1613 -2573 0
-1614 -2574 0
-1615 -2575 0
-1616 -2576 0
-1613 -3293 0
-1614 -3294 0
-1615 -3295 0
-1616 -3296 0
-1617 -1621 0
-1618 -1622 0
-1619 -1623 0
-1620 -1624 0
-1617 -1629 0
-1618 -1630 0
-1619 -1631 0
-1620 -1632 0
-1617 -1633 0
-1618 -1634 0
-1619 -1635 0
-1620 -1636 0
-1617 -1661 0
-1618 -1662 0
-1619 -1663 0
-1620 -1664 0
-1617 -1789 0
-1618 -1790 0
-1619 -1791 0
-1620 -1792 0
-1617 -2745 0
-1618 -2746 0
-1619 -2747 0
-1620 -2748 0
-1617 -3169 0
-1618 -3170 0
-1619 -3171 0
-1620 -3172 0
-1617 -3281 0
-1618 -3282 0
-1619 -3283 0
-1620 -3284 0
-1617 -3297 0
-1618 -3298 0
-1619 -3299 0
-1620 -3300 0
-1621 -1633 0
-1622 -1634 0
-1623 -1635 0
-1624 -1636 0
-1621 -1665 0
-1622 -1666 0
-1623 -1667 0
-1624 -1668 0
-1621 -2177 0
-1622 -2178 0
-1623 -2179 0
-1624 -2180 0
-1621 -2749 0
-1622 -2750 0
-1623 -2751 0
-1624 -2752 0
-1621 -3285 0
-1622 -3286 0
-1623 -3287 0
-1624 -3288 0
-1621 -3301 0
-1622 -3302 0
-1623 -3303 0
-1624 -3304 0
-1625 -1629 0
-1626 -1630 0
-1627 -1631 0
-1628 -1632 0
-1625 -1685 0
-1626 -1686 0
-1627 -1687 0
-1628 -1688 0
-1625 -3173 0
-1626 -3174 0
-1627 -3175 0
-1628 -3176 0
-1625 -3289 0
-1626 -3290 0
-1627 -3291 0
-1628 -3292 0
-1629 -1685 0
-1630 -1686 0
-1631 -1687 0
-1632 -1688 0
-1629 -1793 0
-1630 -1794 0
-1631 -1795 0
-1632 -1796 0
-1629 -2757 0
-1630 -2758 0
-1631 -2759 0
-1632 -2760 0
-1629 -3177 0
-1630 -3178 0
-1631 -3179 0
-1632 -3180 0
-1629 -3297 0
-1630 -3298 0
-1631 -3299 0
-1632 -3300 0
-1633 -1637 0
-1634 -1638 0
-1635 -1639 0
-1636 -1640 0
-1633 -1713 0
-1634 -1714 0
-1635 -1715 0
-1636 -1716 0
-1633 -1801 0
-1634 -1802 0
-1635 -1803 0
-1636 -1804 0
-1633 -2193 0
-1634 -2194 0
-1635 -2195 0
-1636 -2196 0
-1633 -2877 0
-1634 -2878 0
-1635 -2879 0
-1636 -2880 0
-1633 -3309 0
-1634 -3310 0
-1635 -3311 0
-1636 -3312 0
-1633 -3313 0
-1634 -3314 0
-1635 -3315 0
-1636 -3316 0
-1637 -1717 0
-1638 -1718 0
-1639 -1719 0
-1640 -1720 0
-1637 -1997 0
-1638 -1998 0
-1639 -1999 0
-1640 -2000 0
-1637 -2757 0
-1638 -2758 0
-1639 -2759 0
-1640 -2760 0
-1637 -2881 0
-1638 -2882 0
-1639 -2883 0
-1640 -2884 0
-1637 -3317 0
-1638 -3318 0
-1639 -3319 0
-1640 -3320 0
-1641 -1649 0
-1642 -1650 0
-1643 -1651 0
-1644 -1652 0
-1641 -1657 0
-1642 -1658 0
-1643 -1659 0
-1644 -1660 0
-1641 -1745 0
-1642 -1746 0
-1643 -1747 0
-1644 -1748 0
-1641 -2397 0
-1642 -2398 0
-1643 -2399 0
-1644 -2400 0
-1641 -2769 0
-1642 -2770 0
-1643 -2771 0
-1644 -2772 0
-1641 -3265 0
-1642 -3266 0
-1643 -3267 0
-1644 -3268 0
-1645 -1649 0
-1646 -1650 0
-1647 -1651 0
-1648 -1652 0
-1645 -1681 0
-1646 -1682 0
-1647 -1683 0
-1648 -1684 0
-1645 -1749 0
-1646 -1750 0
-1647 -1751 0
-1648 -1752 0
-1645 -2005 0
-1646 -2006 0
-1647 -2007 0
-1648 -2008 0
-1645 -2041 0
-1646 -2042 0
-1647 -2043 0
-1648 -2044 0
-1645 -2401 0
-1646 -2402 0
-1647 -2403 0
-1648 -2404 0
-1645 -2885 0
-1646 -2886 0
-1647 -2887 0
-1648 -2888 0
-1645 -3321 0
-1646 -3322 0
-1647 -3323 0
-1648 -3324 0
-1649 -1697 0
-1650 -1698 0
-1651 -1699 0
-1652 -1700 0
-1649 -1753 0
-1650 -1754 0
-1651 -1755 0
-1652 -1756 0
-1649 -2013 0
-1650 -2014 0
-1651 -2015 0
-1652 -2016 0
-1649 -2045 0
-1650 -2046 0
-1651 -2047 0
-1652 -2048 0
-1649 -2405 0
-1650 -2406 0
-1651 -2407 0
-1652 -2408 0
-1649 -3265 0
-1650 -3266 0
-1651 -3267 0
-1652 -3268 0
-1649 -3321 0
-1650 -3322 0
-1651 -3323 0
-1652 -3324 0
-1653 -1657 0
-1654 -1658 0
-1655 -1659 0
-1656 -1660 0
-1653 -1681 0
-1654 -1682 0
-1655 -1683 0
-1656 -1684 0
-1653 -1705 0
-1654 -1706 0
-1655 -1707 0
-1656 -1708 0
-1653 -1709 0
-1654 -1710 0
-1655 -1711 0
-1656 -1712 0
-1653 -2409 0
-1654 -2410 0
-1655 -2411 0
-1656 -2412 0
-1653 -2785 0
-1654 -2786 0
-1655 -2787 0
-1656 -2788 0
-1653 -3325 0
-1654 -3326 0
-1655 -3327 0
-1656 -3328 0
-1657 -1697 0
-1658 -1698 0
-1659 -1699 0
-1660 -1700 0
-1657 -2413 0
-1658 -2414 0
-1659 -2415 0
-1660 -2416 0
-1657 -2589 0
-1658 -2590 0
-1659 -2591 0
-1660 -2592 0
-1657 -2797 0
-1658 -2798 0
-1659 -2799 0
-1660 -2800 0
-1657 -3325 0
-1658 -3326 0
-1659 -3327 0
-1660 -3328 0
-1661 -1665 0
-1662 -1666 0
-1663 -1667 0
-1664 -1668 0
-1661 -1669 0
-1662 -1670 0
-1663 -1671 0
-1664 -1672 0
-1661 -1677 0
-1662 -1678 0
-1663 -1679 0
-1664 -1680 0
-1661 -1685 0
-1662 -1686 0
-1663 -1687 0
-1664 -1688 0
-1661 -1713 0
-1662 -1714 0
-1663 -1715 0
-1664 -1716 0
-1661 -1773 0
-1662 -1774 0
-1663 -1775 0
-1664 -1776 0
-1661 -1825 0
-1662 -1826 0
-1663 -1827 0
-1664 -1828 0
-1661 -2149 0
-1662 -2150 0
-1663 -2151 0
-1664 -2152 0
-1661 -2893 0
-1662 -2894 0
-1663 -2895 0
-1664 -2896 0
-1661 -3181 0
-1662 -3182 0
-1663 -3183 0
-1664 -3184 0
-1661 -3329 0
-1662 -3330 0
-1663 -3331 0
-1664 -3332 0
-1665 -1673 0
-1666 -1674 0
-1667 -1675 0
-1668 -1676 0
-1665 -1713 0
-1666 -1714 0
-1667 -1715 0
-1668 -1716 0
-1665 -2217 0
-1666 -2218 0
-1667 -2219 0
-1668 -2220 0
-1665 -3333 0
-1666 -3334 0
-1667 -3335 0
-1668 -3336 0
-1669 -1673 0
-1670 -1674 0
-1671 -1675 0
-1672 -1676 0
-1669 -1681 0
-1670 -1682 0
-1671 -1683 0
-1672 -1684 0
-1669 -1689 0
-1670 -1690 0
-1671 -1691 0
-1672 -1692 0
-1669 -1717 0
-1670 -1718 0
-1671 -1719 0
-1672 -1720 0
-1669 -2421 0
-1670 -2422 0
-1671 -2423 0
-1672 -2424 0
-1669 -2725 0
-1670 -2726 0
-1671 -2727 0
-1672 -2728 0
-1669 -2897 0
-1670 -2898 0
-1671 -2899 0
-1672 -2900 0
-1669 -3337 0
-1670 -3338 0
-1671 -3339 0
-1672 -3340 0
-1673 -1717 0
-1674 -1718 0
-1675 -1719 0
-1676 -1720 0
-1673 -2049 0
-1674 -2050 0
-1675 -2051 0
-1676 -2052 0
-1673 -2425 0
-1674 -2426 0
-1675 -2427 0
-1676 -2428 0
-1677 -1681 0
-1678 -1682 0
-1679 -1683 0
-1680 -1684 0
-1677 -1693 0
-1678 -1694 0
-1679 -1695 0
-1680 -1696 0
-1677 -1757 0
-1678 -1758 0
-1679 -1759 0
-1680 -1760 0
-1677 -1773 0
-1678 -1774 0
-1679 -1775 0
-1680 -1776 0
-1677 -2021 0
-1678 -2022 0
-1679 -2023 0
-1680 -2024 0
-1677 -2133 0
-1678 -2134 0
-1679 -2135 0
-1680 -2136 0
-1677 -2429 0
-1678 -2430 0
-1679 -2431 0
-1680 -2432 0
-1677 -2801 0
-1678 -2802 0
-1679 -2803 0
-1680 -2804 0
-1677 -3341 0
-1678 -3342 0
-1679 -3343 0
-1680 -3344 0
-1681 -1697 0
-1682 -1698 0
-1683 -1699 0
-1684 -1700 0
-1681 -1721 0
-1682 -1722 0
-1683 -1723 0
-1684 -1724 0
-1681 -1725 0
-1682 -1726 0
-1683 -1727 0
-1684 -1728 0
-1681 -1757 0
-1682 -1758 0
-1683 -1759 0
-1684 -1760 0
-1681 -2029 0
-1682 -2030 0
-1683 -2031 0
-1684 -2032 0
-1681 -2053 0
-1682 -2054 0
-1683 -2055 0
-1684 -2056 0
-1681 -2441 0
-1682 -2442 0
-1683 -2443 0
-1684 -2444 0
-1681 -2729 0
-1682 -2730 0
-1683 -2731 0
-1684 -2732 0
-1681 -3345 0
-1682 -3346 0
-1683 -3347 0
-1684 -3348 0
-1685 -1689 0
-1686 -1690 0
-1687 -1691 0
-1688 -1692 0
-1685 -1693 0
-1686 -1694 0
-1687 -1695 0
-1688 -1696 0
-1685 -1729 0
-1686 -1730 0
-1687 -1731 0
-1688 -1732 0
-1685 -1777 0
-1686 -1778 0
-1687 -1779 0
-1688 -1780 0
-1685 -1833 0
-1686 -1834 0
-1687 -1835 0
-1688 -1836 0
-1685 -3185 0
-1686 -3186 0
-1687 -3187 0
-1688 -3188 0
-1685 -3329 0
-1686 -3330 0
-1687 -3331 0
-1688 -3332 0
-1689 -1697 0
-1690 -1698 0
-1691 -1699 0
-1692 -1700 0
-1689 -1733 0
-1690 -1734 0
-1691 -1735 0
-1692 -1736 0
-1689 -1841 0
-1690 -1842 0
-1691 -1843 0
-1692 -1844 0
-1689 -2061 0
-1690 -2062 0
-1691 -2063 0
-1692 -2064 0
-1689 -2461 0
-1690 -2462 0
-1691 -2463 0
-1692 -2464 0
-1689 -3337 0
-1690 -3338 0
-1691 -3339 0
-1692 -3340 0
-1693 -1697 0
-1694 -1698 0
-1695 -1699 0
-1696 -1700 0
-1693 -1761 0
-1694 -1762 0
-1695 -1763 0
-1696 -1764 0
-1693 -1777 0
-1694 -1778 0
-1695 -1779 0
-1696 -1780 0
-1693 -2033 0
-1694 -2034 0
-1695 -2035 0
-1696 -2036 0
-1693 -2465 0
-1694 -2466 0
-1695 -2467 0
-1696 -2468 0
-1693 -2805 0
-1694 -2806 0
-1695 -2807 0
-1696 -2808 0
-1693 -3341 0
-1694 -3342 0
-1695 -3343 0
-1696 -3344 0
-1697 -1737 0
-1698 -1738 0
-1699 -1739 0
-1700 -1740 0
-1697 -1741 0
-1698 -1742 0
-1699 -1743 0
-1700 -1744 0
-1697 -1761 0
-1698 -1762 0
-1699 -1763 0
-1700 -1764 0
-1697 -2069 0
-1698 -2070 0
-1699 -2071 0
-1700 -2072 0
-1697 -2477 0
-1698 -2478 0
-1699 -2479 0
-1700 -2480 0
-1697 -2733 0
-1698 -2734 0
-1699 -2735 0
-1700 -2736 0
-1697 -3345 0
-1698 -3346 0
-1699 -3347 0
-1700 -3348 0
-1701 -1709 0
-1702 -1710 0
-1703 -1711 0
-1704 -1712 0
-1701 -1717 0
-1702 -1718 0
-1703 -1719 0
-1704 -1720 0
-1701 -2593 0
-1702 -2594 0
-1703 -2595 0
-1704 -2596 0
-1701 -3349 0
-1702 -3350 0
-1703 -3351 0
-1704 -3352 0
-1701 -3513 0
-1702 -3514 0
-1703 -3515 0
-1704 -3516 0
-1705 -1709 0
-1706 -1710 0
-1707 -1711 0
-1708 -1712 0
-1705 -1721 0
-1706 -1722 0
-1707 -1723 0
-1708 -1724 0
-1705 -2505 0
-1706 -2506 0
-1707 -2507 0
-1708 -2508 0
-1705 -2737 0
-1706 -2738 0
-1707 -2739 0
-1708 -2740 0
-1705 -3353 0
-1706 -3354 0
-1707 -3355 0
-1708 -3356 0
-1709 -1725 0
-1710 -1726 0
-1711 -1727 0
-1712 -1728 0
-1709 -2145 0
-1710 -2146 0
-1711 -2147 0
-1712 -2148 0
-1709 -2597 0
-1710 -2598 0
-1711 -2599 0
-1712 -2600 0
-1709 -2789 0
-1710 -2790 0
-1711 -2791 0
-1712 -2792 0
-1709 -2905 0
-1710 -2906 0
-1711 -2907 0
-1712 -2908 0
-1709 -3357 0
-1710 -3358 0
-1711 -3359 0
-1712 -3360 0
-1713 -1717 0
-1714 -1718 0
-1715 -1719 0
-1716 -1720 0
-1713 -1729 0
-1714 -1730 0
-1715 -1731 0
-1716 -1732 0
-1713 -1861 0
-1714 -1862 0
-1715 -1863 0
-1716 -1864 0
-1713 -2161 0
-1714 -2162 0
-1715 -2163 0
-1716 -2164 0
-1713 -2253 0
-1714 -2254 0
-1715 -2255 0
-1716 -2256 0
-1713 -3189 0
-1714 -3190 0
-1715 -3191 0
-1716 -3192 0
-1713 -3361 0
-1714 -3362 0
-1715 -3363 0
-1716 -3364 0
-1717 -1725 0
-1718 -1726 0
-1719 -1727 0
-1720 -1728 0
-1717 -1733 0
-1718 -1734 0
-1719 -1735 0
-1720 -1736 0
-1717 -2169 0
-1718 -2170 0
-1719 -2171 0
-1720 -2172 0
-1717 -2749 0
-1718 -2750 0
-1719 -2751 0
-1720 -2752 0
-1717 -2921 0
-1718 -2922 0
-1719 -2923 0
-1720 -2924 0
-1717 -3193 0
-1718 -3194 0
-1719 -3195 0
-1720 -3196 0
-1717 -3365 0
-1718 -3366 0
-1719 -3367 0
-1720 -3368 0
-1721 -1725 0
-1722 -1726 0
-1723 -1727 0
-1724 -1728 0
-1721 -1737 0
-1722 -1738 0
-1723 -1739 0
-1724 -1740 0
-1721 -2037 0
-1722 -2038 0
-1723 -2039 0
-1724 -2040 0
-1721 -2173 0
-1722 -2174 0
-1723 -2175 0
-1724 -2176 0
-1721 -2513 0
-1722 -2514 0
-1723 -2515 0
-1724 -2516 0
-1721 -2753 0
-1722 -2754 0
-1723 -2755 0
-1724 -2756 0
-1721 -3369 0
-1722 -3370 0
-1723 -3371 0
-1724 -3372 0
-1725 -1741 0
-1726 -1742 0
-1727 -1743 0
-1728 -1744 0
-1725 -2077 0
-1726 -2078 0
-1727 -2079 0
-1728 -2080 0
-1725 -2517 0
-1726 -2518 0
-1727 -2519 0
-1728 -2520 0
-1725 -2805 0
-1726 -2806 0
-1727 -2807 0
-1728 -2808 0
-1725 -2929 0
-1726 -2930 0
-1727 -2931 0
-1728 -2932 0
-1725 -3373 0
-1726 -3374 0
-1727 -3375 0
-1728 -3376 0
-1729 -1733 0
-1730 -1734 0
-1731 -1735 0
-1732 -1736 0
-1729 -1885 0
-1730 -1886 0
-1731 -1887 0
-1732 -1888 0
-1729 -3197 0
-1730 -3198 0
-1731 -3199 0
-1732 -3200 0
-1729 -3361 0
-1730 -3362 0
-1731 -3363 0
-1732 -3364 0
-1733 -1741 0
-1734 -1742 0
-1735 -1743 0
-1736 -1744 0
-1733 -3201 0
-1734 -3202 0
-1735 -3203 0
-1736 -3204 0
-1733 -3365 0
-1734 -3366 0
-1735 -3367 0
-1736 -3368 0
-1737 -1741 0
-1738 -1742 0
-1739 -1743 0
-1740 -1744 0
-1737 -2521 0
-1738 -2522 0
-1739 -2523 0
-1740 -2524 0
-1737 -2761 0
-1738 -2762 0
-1739 -2763 0
-1740 -2764 0
-1737 -3205 0
-1738 -3206 0
-1739 -3207 0
-1740 -3208 0
-1737 -3369 0
-1738 -3370 0
-1739 -3371 0
-1740 -3372 0
-1741 -2081 0
-1742 -2082 0
-1743 -2083 0
-1744 -2084 0
-1741 -2525 0
-1742 -2526 0
-1743 -2527 0
-1744 -2528 0
-1741 -3209 0
-1742 -3210 0
-1743 -3211 0
-1744 -3212 0
-1741 -3373 0
-1742 -3374 0
-1743 -3375 0
-1744 -3376 0
-1745 -1753 0
-1746 -1754 0
-1747 -1755 0
-1748 -1756 0
-1745 -2817 0
-1746 -2818 0
-1747 -2819 0
-1748 -2820 0
-1745 -3301 0
-1746 -3302 0
-1747 -3303 0
-1748 -3304 0
-1749 -1753 0
-1750 -1754 0
-1751 -1755 0
-1752 -1756 0
-1749 -1757 0
-1750 -1758 0
-1751 -1759 0
-1752 -1760 0
-1749 -2573 0
-1750 -2574 0
-1751 -2575 0
-1752 -2576 0
-1749 -2949 0
-1750 -2950 0
-1751 -2951 0
-1752 -2952 0
-1749 -3285 0
-1750 -3286 0
-1751 -3287 0
-1752 -3288 0
-1749 -3377 0
-1750 -3378 0
-1751 -3379 0
-1752 -3380 0
-1753 -1761 0
-1754 -1762 0
-1755 -1763 0
-1756 -1764 0
-1753 -2021 0
-1754 -2022 0
-1755 -2023 0
-1756 -2024 0
-1753 -2089 0
-1754 -2090 0
-1755 -2091 0
-1756 -2092 0
-1753 -2289 0
-1754 -2290 0
-1755 -2291 0
-1756 -2292 0
-1753 -2577 0
-1754 -2578 0
-1755 -2579 0
-1756 -2580 0
-1753 -3229 0
-1754 -3230 0
-1755 -3231 0
-1756 -3232 0
-1753 -3301 0
-1754 -3302 0
-1755 -3303 0
-1756 -3304 0
-1753 -3377 0
-1754 -3378 0
-1755 -3379 0
-1756 -3380 0
-1753 -3381 0
-1754 -3382 0
-1755 -3383 0
-1756 -3384 0
-1757 -1761 0
-1758 -1762 0
-1759 -1763 0
-1760 -1764 0
-1757 -2101 0
-1758 -2102 0
-1759 -2103 0
-1760 -2104 0
-1757 -2185 0
-1758 -2186 0
-1759 -2187 0
-1760 -2188 0
-1757 -2549 0
-1758 -2550 0
-1759 -2551 0
-1760 -2552 0
-1757 -2581 0
-1758 -2582 0
-1759 -2583 0
-1760 -2584 0
-1757 -3389 0
-1758 -3390 0
-1759 -3391 0
-1760 -3392 0
-1761 -1933 0
-1762 -1934 0
-1763 -1935 0
-1764 -1936 0
-1761 -2105 0
-1762 -2106 0
-1763 -2107 0
-1764 -2108 0
-1761 -2189 0
-1762 -2190 0
-1763 -2191 0
-1764 -2192 0
-1761 -2557 0
-1762 -2558 0
-1763 -2559 0
-1764 -2560 0
-1761 -2585 0
-1762 -2586 0
-1763 -2587 0
-1764 -2588 0
-1761 -3305 0
-1762 -3306 0
-1763 -3307 0
-1764 -3308 0
-1761 -3389 0
-1762 -3390 0
-1763 -3391 0
-1764 -3392 0
-1765 -2593 0
-1766 -2594 0
-1767 -2595 0
-1768 -2596 0
-1765 -3001 0
-1766 -3002 0
-1767 -3003 0
-1768 -3004 0
-1765 -3009 0
-1766 -3010 0
-1767 -3011 0
-1768 -3012 0
-1769 -2125 0
-1770 -2126 0
-1771 -2127 0
-1772 -2128 0
-1769 -2277 0
-1770 -2278 0
-1771 -2279 0
-1772 -2280 0
-1769 -2817 0
-1770 -2818 0
-1771 -2819 0
-1772 -2820 0
-1769 -3005 0
-1770 -3006 0
-1771 -3007 0
-1772 -3008 0
-1769 -3349 0
-1770 -3350 0
-1771 -3351 0
-1772 -3352 0
-1769 -3365 0
-1770 -3366 0
-1771 -3367 0
-1772 -3368 0
-1769 -3545 0
-1770 -3546 0
-1771 -3547 0
-1772 -3548 0
-1773 -1777 0
-1774 -1778 0
-1775 -1779 0
-1776 -1780 0
-1773 -2005 0
-1774 -2006 0
-1775 -2007 0
-1776 -2008 0
-1773 -3393 0
-1774 -3394 0
-1775 -3395 0
-1776 -3396 0
-1777 -2013 0
-1778 -2014 0
-1779 -2015 0
-1780 -2016 0
-1777 -3393 0
-1778 -3394 0
-1779 -3395 0
-1780 -3396 0
-1781 -2665 0
-1782 -2666 0
-1783 -2667 0
-1784 -2668 0
-1781 -2845 0
-1782 -2846 0
-1783 -2847 0
-1784 -2848 0
-1781 -3413 0
-1782 -3414 0
-1783 -3415 0
-1784 -3416 0
-1781 -3425 0
-1782 -3426 0
-1783 -3427 0
-1784 -3428 0
-1785 -2113 0
-1786 -2114 0
-1787 -2115 0
-1788 -2116 0
-1785 -3429 0
-1786 -3430 0
-1787 -3431 0
-1788 -3432 0
-1785 -3557 0
-1786 -3558 0
-1787 -3559 0
-1788 -3560 0
-1789 -1793 0
-1790 -1794 0
-1791 -1795 0
-1792 -1796 0
-1789 -1797 0
-1790 -1798 0
-1791 -1799 0
-1792 -1800 0
-1789 -1801 0
-1790 -1802 0
-1791 -1803 0
-1792 -1804 0
-1789 -1825 0
-1790 -1826 0
-1791 -1827 0
-1792 -1828 0
-1789 -1829 0
-1790 -1830 0
-1791 -1831 0
-1792 -1832 0
-1789 -2873 0
-1790 -2874 0
-1791 -2875 0
-1792 -2876 0
-1789 -3401 0
-1790 -3402 0
-1791 -3403 0
-1792 -3404 0
-1793 -1805 0
-1794 -1806 0
-1795 -1807 0
-1796 -1808 0
-1793 -1833 0
-1794 -1834 0
-1795 -1835 0
-1796 -1836 0
-1793 -1837 0
-1794 -1838 0
-1795 -1839 0
-1796 -1840 0
-1793 -2129 0
-1794 -2130 0
-1795 -2131 0
-1796 -2132 0
-1793 -2881 0
-1794 -2882 0
-1795 -2883 0
-1796 -2884 0
-1793 -3265 0
-1794 -3266 0
-1795 -3267 0
-1796 -3268 0
-1793 -3401 0
-1794 -3402 0
-1795 -3403 0
-1796 -3404 0
-1793 -3405 0
-1794 -3406 0
-1795 -3407 0
-1796 -3408 0
-1797 -1813 0
-1798 -1814 0
-1799 -1815 0
-1800 -1816 0
-1797 -2177 0
-1798 -2178 0
-1799 -2179 0
-1800 -2180 0
-1797 -2613 0
-1798 -2614 0
-1799 -2615 0
-1800 -2616 0
-1797 -2889 0
-1798 -2890 0
-1799 -2891 0
-1800 -2892 0
-1797 -3409 0
-1798 -3410 0
-1799 -3411 0
-1800 -3412 0
-1801 -1805 0
-1802 -1806 0
-1803 -1807 0
-1804 -1808 0
-1801 -1813 0
-1802 -1814 0
-1803 -1815 0
-1804 -1816 0
-1801 -1861 0
-1802 -1862 0
-1803 -1863 0
-1804 -1864 0
-1801 -1869 0
-1802 -1870 0
-1803 -1871 0
-1804 -1872 0
-1801 -2365 0
-1802 -2366 0
-1803 -2367 0
-1804 -2368 0
-1801 -2877 0
-1802 -2878 0
-1803 -2879 0
-1804 -2880 0
-1801 -3413 0
-1802 -3414 0
-1803 -3415 0
-1804 -3416 0
-1805 -1821 0
-1806 -1822 0
-1807 -1823 0
-1808 -1824 0
-1805 -1885 0
-1806 -1886 0
-1807 -1887 0
-1808 -1888 0
-1805 -1893 0
-1806 -1894 0
-1807 -1895 0
-1808 -1896 0
-1805 -2141 0
-1806 -2142 0
-1807 -2143 0
-1808 -2144 0
-1805 -2373 0
-1806 -2374 0
-1807 -2375 0
-1808 -2376 0
-1805 -3413 0
-1806 -3414 0
-1807 -3415 0
-1808 -3416 0
-1809 -1813 0
-1810 -1814 0
-1811 -1815 0
-1812 -1816 0
-1809 -1817 0
-1810 -1818 0
-1811 -1819 0
-1812 -1820 0
-1809 -1997 0
-1810 -1998 0
-1811 -1999 0
-1812 -2000 0
-1809 -2325 0
-1810 -2326 0
-1811 -2327 0
-1812 -2328 0
-1809 -2745 0
-1810 -2746 0
-1811 -2747 0
-1812 -2748 0
-1809 -3417 0
-1810 -3418 0
-1811 -3419 0
-1812 -3420 0
-1809 -3421 0
-1810 -3422 0
-1811 -3423 0
-1812 -3424 0
-1813 -1821 0
-1814 -1822 0
-1815 -1823 0
-1816 -1824 0
-1813 -1909 0
-1814 -1910 0
-1815 -1911 0
-1816 -1912 0
-1813 -1997 0
-1814 -1998 0
-1815 -1999 0
-1816 -2000 0
-1813 -2197 0
-1814 -2198 0
-1815 -2199 0
-1816 -2200 0
-1813 -2753 0
-1814 -2754 0
-1815 -2755 0
-1816 -2756 0
-1813 -2893 0
-1814 -2894 0
-1815 -2895 0
-1816 -2896 0
-1813 -3045 0
-1814 -3046 0
-1815 -3047 0
-1816 -3048 0
-1813 -3425 0
-1814 -3426 0
-1815 -3427 0
-1816 -3428 0
-1817 -1821 0
-1818 -1822 0
-1819 -1823 0
-1820 -1824 0
-1817 -2001 0
-1818 -2002 0
-1819 -2003 0
-1820 -2004 0
-1817 -2757 0
-1818 -2758 0
-1819 -2759 0
-1820 -2760 0
-1817 -3421 0
-1818 -3422 0
-1819 -3423 0
-1820 -3424 0
-1821 -1913 0
-1822 -1914 0
-1823 -1915 0
-1824 -1916 0
-1821 -2001 0
-1822 -2002 0
-1823 -2003 0
-1824 -2004 0
-1821 -2761 0
-1822 -2762 0
-1823 -2763 0
-1824 -2764 0
-1821 -3053 0
-1822 -3054 0
-1823 -3055 0
-1824 -3056 0
-1821 -3425 0
-1822 -3426 0
-1823 -3427 0
-1824 -3428 0
-1825 -1829 0
-1826 -1830 0
-1827 -1831 0
-1828 -1832 0
-1825 -1833 0
-1826 -1834 0
-1827 -1835 0
-1828 -1836 0
-1825 -1857 0
-1826 -1858 0
-1827 -1859 0
-1828 -1860 0
-1825 -1861 0
-1826 -1862 0
-1827 -1863 0
-1828 -1864 0
-1825 -1921 0
-1826 -1922 0
-1827 -1923 0
-1828 -1924 0
-1825 -2005 0
-1826 -2006 0
-1827 -2007 0
-1828 -2008 0
-1825 -2201 0
-1826 -2202 0
-1827 -2203 0
-1828 -2204 0
-1825 -3045 0
-1826 -3046 0
-1827 -3047 0
-1828 -3048 0
-1825 -3429 0
-1826 -3430 0
-1827 -3431 0
-1828 -3432 0
-1825 -3577 0
-1826 -3578 0
-1827 -3579 0
-1828 -3580 0
-1829 -1837 0
-1830 -1838 0
-1831 -1839 0
-1832 -1840 0
-1829 -1865 0
-1830 -1866 0
-1831 -1867 0
-1832 -1868 0
-1829 -1869 0
-1830 -1870 0
-1831 -1871 0
-1832 -1872 0
-1829 -2205 0
-1830 -2206 0
-1831 -2207 0
-1832 -2208 0
-1829 -2385 0
-1830 -2386 0
-1831 -2387 0
-1832 -2388 0
-1829 -2917 0
-1830 -2918 0
-1831 -2919 0
-1832 -2920 0
-1829 -3049 0
-1830 -3050 0
-1831 -3051 0
-1832 -3052 0
-1829 -3433 0
-1830 -3434 0
-1831 -3435 0
-1832 -3436 0
-1833 -1837 0
-1834 -1838 0
-1835 -1839 0
-1836 -1840 0
-1833 -1841 0
-1834 -1842 0
-1835 -1843 0
-1836 -1844 0
-1833 -1881 0
-1834 -1882 0
-1835 -1883 0
-1836 -1884 0
-1833 -1885 0
-1834 -1886 0
-1835 -1887 0
-1836 -1888 0
-1833 -1925 0
-1834 -1926 0
-1835 -1927 0
-1836 -1928 0
-1833 -2009 0
-1834 -2010 0
-1835 -2011 0
-1836 -2012 0
-1833 -2013 0
-1834 -2014 0
-1835 -2015 0
-1836 -2016 0
-1833 -2209 0
-1834 -2210 0
-1835 -2211 0
-1836 -2212 0
-1833 -2921 0
-1834 -2922 0
-1835 -2923 0
-1836 -2924 0
-1833 -3053 0
-1834 -3054 0
-1835 -3055 0
-1836 -3056 0
-1833 -3273 0
-1834 -3274 0
-1835 -3275 0
-1836 -3276 0
-1833 -3429 0
-1834 -3430 0
-1835 -3431 0
-1836 -3432 0
-1833 -3437 0
-1834 -3438 0
-1835 -3439 0
-1836 -3440 0
-1833 -3581 0
-1834 -3582 0
-1835 -3583 0
-1836 -3584 0
-1837 -1889 0
-1838 -1890 0
-1839 -1891 0
-1840 -1892 0
-1837 -1893 0
-1838 -1894 0
-1839 -1895 0
-1840 -1896 0
-1837 -2149 0
-1838 -2150 0
-1839 -2151 0
-1840 -2152 0
-1837 -2393 0
-1838 -2394 0
-1839 -2395 0
-1840 -2396 0
-1837 -2925 0
-1838 -2926 0
-1839 -2927 0
-1840 -2928 0
-1837 -3433 0
-1838 -3434 0
-1839 -3435 0
-1840 -3436 0
-1837 -3441 0
-1838 -3442 0
-1839 -3443 0
-1840 -3444 0
-1841 -1897 0
-1842 -1898 0
-1843 -1899 0
-1844 -1900 0
-1841 -1925 0
-1842 -1926 0
-1843 -1927 0
-1844 -1928 0
-1841 -2629 0
-1842 -2630 0
-1843 -2631 0
-1844 -2632 0
-1845 -1849 0
-1846 -1850 0
-1847 -1851 0
-1848 -1852 0
-1845 -1853 0
-1846 -1854 0
-1847 -1855 0
-1848 -1856 0
-1845 -1869 0
-1846 -1870 0
-1847 -1871 0
-1848 -1872 0
-1845 -2409 0
-1846 -2410 0
-1847 -2411 0
-1848 -2412 0
-1845 -3445 0
-1846 -3446 0
-1847 -3447 0
-1848 -3448 0
-1845 -3501 0
-1846 -3502 0
-1847 -3503 0
-1848 -3504 0
-1849 -1877 0
-1850 -1878 0
-1851 -1879 0
-1852 -1880 0
-1849 -2445 0
-1850 -2446 0
-1851 -2447 0
-1852 -2448 0
-1849 -2901 0
-1850 -2902 0
-1851 -2903 0
-1852 -2904 0
-1849 -3449 0
-1850 -3450 0
-1851 -3451 0
-1852 -3452 0
-1849 -3509 0
-1850 -3510 0
-1851 -3511 0
-1852 -3512 0
-1853 -1893 0
-1854 -1894 0
-1855 -1895 0
-1856 -1896 0
-1853 -2413 0
-1854 -2414 0
-1855 -2415 0
-1856 -2416 0
-1853 -2937 0
-1854 -2938 0
-1855 -2939 0
-1856 -2940 0
-1853 -3445 0
-1854 -3446 0
-1855 -3447 0
-1856 -3448 0
-1857 -1861 0
-1858 -1862 0
-1859 -1863 0
-1860 -1864 0
-1857 -1865 0
-1858 -1866 0
-1859 -1867 0
-1860 -1868 0
-1857 -1873 0
-1858 -1874 0
-1859 -1875 0
-1860 -1876 0
-1857 -1881 0
-1858 -1882 0
-1859 -1883 0
-1860 -1884 0
-1857 -1957 0
-1858 -1958 0
-1859 -1959 0
-1860 -1960 0
-1857 -2337 0
-1858 -2338 0
-1859 -2339 0
-1860 -2340 0
-1857 -3453 0
-1858 -3454 0
-1859 -3455 0
-1860 -3456 0
-1861 -1869 0
-1862 -1870 0
-1863 -1871 0
-1864 -1872 0
-1861 -1885 0
-1862 -1886 0
-1863 -1887 0
-1864 -1888 0
-1861 -2049 0
-1862 -2050 0
-1863 -2051 0
-1864 -2052 0
-1861 -2341 0
-1862 -2342 0
-1863 -2343 0
-1864 -2344 0
-1861 -2433 0
-1862 -2434 0
-1863 -2435 0
-1864 -2436 0
-1861 -3457 0
-1862 -3458 0
-1863 -3459 0
-1864 -3460 0
-1865 -1869 0
-1866 -1870 0
-1867 -1871 0
-1868 -1872 0
-1865 -1889 0
-1866 -1890 0
-1867 -1891 0
-1868 -1892 0
-1865 -2041 0
-1866 -2042 0
-1867 -2043 0
-1868 -2044 0
-1865 -2233 0
-1866 -2234 0
-1867 -2235 0
-1868 -2236 0
-1865 -2437 0
-1866 -2438 0
-1867 -2439 0
-1868 -2440 0
-1865 -3281 0
-1866 -3282 0
-1867 -3283 0
-1868 -3284 0
-1865 -3461 0
-1866 -3462 0
-1867 -3463 0
-1868 -3464 0
-1869 -1877 0
-1870 -1878 0
-1871 -1879 0
-1872 -1880 0
-1869 -1893 0
-1870 -1894 0
-1871 -1895 0
-1872 -1896 0
-1869 -1909 0
-1870 -1910 0
-1871 -1911 0
-1872 -1912 0
-1869 -2441 0
-1870 -2442 0
-1871 -2443 0
-1872 -2444 0
-1869 -3285 0
-1870 -3286 0
-1871 -3287 0
-1872 -3288 0
-1869 -3465 0
-1870 -3466 0
-1871 -3467 0
-1872 -3468 0
-1873 -1897 0
-1874 -1898 0
-1875 -1899 0
-1876 -1900 0
-1873 -1957 0
-1874 -1958 0
-1875 -1959 0
-1876 -1960 0
-1873 -2345 0
-1874 -2346 0
-1875 -2347 0
-1876 -2348 0
-1873 -2873 0
-1874 -2874 0
-1875 -2875 0
-1876 -2876 0
-1877 -1905 0
-1878 -1906 0
-1879 -1907 0
-1880 -1908 0
-1877 -2157 0
-1878 -2158 0
-1879 -2159 0
-1880 -2160 0
-1877 -2453 0
-1878 -2454 0
-1879 -2455 0
-1880 -2456 0
-1877 -2925 0
-1878 -2926 0
-1879 -2927 0
-1880 -2928 0
-1877 -3469 0
-1878 -3470 0
-1879 -3471 0
-1880 -3472 0
-1881 -1885 0
-1882 -1886 0
-1883 -1887 0
-1884 -1888 0
-1881 -1889 0
-1882 -1890 0
-1883 -1891 0
-1884 -1892 0
-1881 -1897 0
-1882 -1898 0
-1883 -1899 0
-1884 -1900 0
-1881 -1961 0
-1882 -1962 0
-1883 -1963 0
-1884 -1964 0
-1881 -2061 0
-1882 -2062 0
-1883 -2063 0
-1884 -2064 0
-1881 -2349 0
-1882 -2350 0
-1883 -2351 0
-1884 -2352 0
-1881 -2877 0
-1882 -2878 0
-1883 -2879 0
-1884 -2880 0
-1881 -3277 0
-1882 -3278 0
-1883 -3279 0
-1884 -3280 0
-1881 -3289 0
-1882 -3290 0
-1883 -3291 0
-1884 -3292 0
-1881 -3453 0
-1882 -3454 0
-1883 -3455 0
-1884 -3456 0
-1881 -3473 0
-1882 -3474 0
-1883 -3475 0
-1884 -3476 0
-1885 -1893 0
-1886 -1894 0
-1887 -1895 0
-1888 -1896 0
-1885 -1965 0
-1886 -1966 0
-1887 -1967 0
-1888 -1968 0
-1885 -2065 0
-1886 -2066 0
-1887 -2067 0
-1888 -2068 0
-1885 -2469 0
-1886 -2470 0
-1887 -2471 0
-1888 -2472 0
-1885 -2773 0
-1886 -2774 0
-1887 -2775 0
-1888 -2776 0
-1885 -3293 0
-1886 -3294 0
-1887 -3295 0
-1888 -3296 0
-1885 -3457 0
-1886 -3458 0
-1887 -3459 0
-1888 -3460 0
-1889 -1893 0
-1890 -1894 0
-1891 -1895 0
-1892 -1896 0
-1889 -1901 0
-1890 -1902 0
-1891 -1903 0
-1892 -1904 0
-1889 -1969 0
-1890 -1970 0
-1891 -1971 0
-1892 -1972 0
-1889 -2045 0
-1890 -2046 0
-1891 -2047 0
-1892 -2048 0
-1889 -2473 0
-1890 -2474 0
-1891 -2475 0
-1892 -2476 0
-1889 -3297 0
-1890 -3298 0
-1891 -3299 0
-1892 -3300 0
-1889 -3461 0
-1890 -3462 0
-1891 -3463 0
-1892 -3464 0
-1893 -1905 0
-1894 -1906 0
-1895 -1907 0
-1896 -1908 0
-1893 -1913 0
-1894 -1914 0
-1895 -1915 0
-1896 -1916 0
-1893 -2161 0
-1894 -2162 0
-1895 -2163 0
-1896 -2164 0
-1893 -2477 0
-1894 -2478 0
-1895 -2479 0
-1896 -2480 0
-1893 -3301 0
-1894 -3302 0
-1895 -3303 0
-1896 -3304 0
-1893 -3465 0
-1894 -3466 0
-1895 -3467 0
-1896 -3468 0
-1897 -1901 0
-1898 -1902 0
-1899 -1903 0
-1900 -1904 0
-1897 -1961 0
-1898 -1962 0
-1899 -1963 0
-1900 -1964 0
-1897 -2353 0
-1898 -2354 0
-1899 -2355 0
-1900 -2356 0
-1897 -2881 0
-1898 -2882 0
-1899 -2883 0
-1900 -2884 0
-1901 -1905 0
-1902 -1906 0
-1903 -1907 0
-1904 -1908 0
-1901 -1969 0
-1902 -1970 0
-1903 -1971 0
-1904 -1972 0
-1901 -2165 0
-1902 -2166 0
-1903 -2167 0
-1904 -2168 0
-1901 -2501 0
-1902 -2502 0
-1903 -2503 0
-1904 -2504 0
-1905 -2169 0
-1906 -2170 0
-1907 -2171 0
-1908 -2172 0
-1905 -2489 0
-1906 -2490 0
-1907 -2491 0
-1908 -2492 0
-1905 -3469 0
-1906 -3470 0
-1907 -3471 0
-1908 -3472 0
-1909 -1913 0
-1910 -1914 0
-1911 -1915 0
-1912 -1916 0
-1909 -2057 0
-1910 -2058 0
-1911 -2059 0
-1912 -2060 0
-1909 -2261 0
-1910 -2262 0
-1911 -2263 0
-1912 -2264 0
-1909 -2333 0
-1910 -2334 0
-1911 -2335 0
-1912 -2336 0
-1909 -2505 0
-1910 -2506 0
-1911 -2507 0
-1912 -2508 0
-1909 -3057 0
-1910 -3058 0
-1911 -3059 0
-1912 -3060 0
-1909 -3481 0
-1910 -3482 0
-1911 -3483 0
-1912 -3484 0
-1913 -2073 0
-1914 -2074 0
-1915 -2075 0
-1916 -2076 0
-1913 -2509 0
-1914 -2510 0
-1915 -2511 0
-1916 -2512 0
-1913 -3305 0
-1914 -3306 0
-1915 -3307 0
-1916 -3308 0
-1913 -3481 0
-1914 -3482 0
-1915 -3483 0
-1916 -3484 0
-1917 -1989 0
-1918 -1990 0
-1919 -1991 0
-1920 -1992 0
-1917 -1993 0
-1918 -1994 0
-1919 -1995 0
-1920 -1996 0
-1917 -2277 0
-1918 -2278 0
-1919 -2279 0
-1920 -2280 0
-1917 -2353 0
-1918 -2354 0
-1919 -2355 0
-1920 -2356 0
-1917 -2693 0
-1918 -2694 0
-1919 -2695 0
-1920 -2696 0
-1917 -2913 0
-1918 -2914 0
-1919 -2915 0
-1920 -2916 0
-1917 -3325 0
-1918 -3326 0
-1919 -3327 0
-1920 -3328 0
-1917 -3525 0
-1918 -3526 0
-1919 -3527 0
-1920 -3528 0
-1921 -1925 0
-1922 -1926 0
-1923 -1927 0
-1924 -1928 0
-1921 -1957 0
-1922 -1958 0
-1923 -1959 0
-1924 -1960 0
-1921 -2017 0
-1922 -2018 0
-1923 -2019 0
-1924 -2020 0
-1921 -2389 0
-1922 -2390 0
-1923 -2391 0
-1924 -2392 0
-1921 -3485 0
-1922 -3486 0
-1923 -3487 0
-1924 -3488 0
-1925 -1933 0
-1926 -1934 0
-1927 -1935 0
-1928 -1936 0
-1925 -1961 0
-1926 -1962 0
-1927 -1963 0
-1928 -1964 0
-1925 -1965 0
-1926 -1966 0
-1927 -1967 0
-1928 -1968 0
-1925 -2029 0
-1926 -2030 0
-1927 -2031 0
-1928 -2032 0
-1925 -2217 0
-1926 -2218 0
-1927 -2219 0
-1928 -2220 0
-1925 -2293 0
-1926 -2294 0
-1927 -2295 0
-1928 -2296 0
-1925 -2397 0
-1926 -2398 0
-1927 -2399 0
-1928 -2400 0
-1925 -3073 0
-1926 -3074 0
-1927 -3075 0
-1928 -3076 0
-1925 -3485 0
-1926 -3486 0
-1927 -3487 0
-1928 -3488 0
-1925 -3489 0
-1926 -3490 0
-1927 -3491 0
-1928 -3492 0
-1925 -3617 0
-1926 -3618 0
-1927 -3619 0
-1928 -3620 0
-1929 -1933 0
-1930 -1934 0
-1931 -1935 0
-1932 -1936 0
-1929 -1973 0
-1930 -1974 0
-1931 -1975 0
-1932 -1976 0
-1929 -2025 0
-1930 -2026 0
-1931 -2027 0
-1932 -2028 0
-1929 -2289 0
-1930 -2290 0
-1931 -2291 0
-1932 -2292 0
-1929 -2705 0
-1930 -2706 0
-1931 -2707 0
-1932 -2708 0
-1929 -2989 0
-1930 -2990 0
-1931 -2991 0
-1932 -2992 0
-1929 -3345 0
-1930 -3346 0
-1931 -3347 0
-1932 -3348 0
-1929 -3409 0
-1930 -3410 0
-1931 -3411 0
-1932 -3412 0
-1933 -1973 0
-1934 -1974 0
-1935 -1975 0
-1936 -1976 0
-1933 -2029 0
-1934 -2030 0
-1935 -2031 0
-1936 -2032 0
-1933 -2297 0
-1934 -2298 0
-1935 -2299 0
-1936 -2300 0
-1933 -2709 0
-1934 -2710 0
-1935 -2711 0
-1936 -2712 0
-1937 -1941 0
-1938 -1942 0
-1939 -1943 0
-1940 -1944 0
-1937 -1957 0
-1938 -1958 0
-1939 -1959 0
-1940 -1960 0
-1937 -2409 0
-1938 -2410 0
-1939 -2411 0
-1940 -2412 0
-1937 -3417 0
-1938 -3418 0
-1939 -3419 0
-1940 -3420 0
-1941 -1945 0
-1942 -1946 0
-1943 -1947 0
-1944 -1948 0
-1941 -1949 0
-1942 -1950 0
-1943 -1951 0
-1944 -1952 0
-1941 -1961 0
-1942 -1962 0
-1943 -1963 0
-1944 -1964 0
-1941 -1985 0
-1942 -1986 0
-1943 -1987 0
-1944 -1988 0
-1941 -2413 0
-1942 -2414 0
-1943 -2415 0
-1944 -2416 0
-1941 -2813 0
-1942 -2814 0
-1943 -2815 0
-1944 -2816 0
-1941 -3349 0
-1942 -3350 0
-1943 -3351 0
-1944 -3352 0
-1941 -3421 0
-1942 -3422 0
-1943 -3423 0
-1944 -3424 0
-1941 -3621 0
-1942 -3622 0
-1943 -3623 0
-1944 -3624 0
-1945 -1953 0
-1946 -1954 0
-1947 -1955 0
-1948 -1956 0
-1945 -1969 0
-1946 -1970 0
-1947 -1971 0
-1948 -1972 0
-1945 -1985 0
-1946 -1986 0
-1947 -1987 0
-1948 -1988 0
-1945 -2085 0
-1946 -2086 0
-1947 -2087 0
-1948 -2088 0
-1945 -2557 0
-1946 -2558 0
-1947 -2559 0
-1948 -2560 0
-1945 -3089 0
-1946 -3090 0
-1947 -3091 0
-1948 -3092 0
-1949 -1953 0
-1950 -1954 0
-1951 -1955 0
-1952 -1956 0
-1949 -1973 0
-1950 -1974 0
-1951 -1975 0
-1952 -1976 0
-1949 -1989 0
-1950 -1990 0
-1951 -1991 0
-1952 -1992 0
-1949 -2373 0
-1950 -2374 0
-1951 -2375 0
-1952 -2376 0
-1949 -2821 0
-1950 -2822 0
-1951 -2823 0
-1952 -2824 0
-1949 -2997 0
-1950 -2998 0
-1951 -2999 0
-1952 -3000 0
-1949 -3357 0
-1950 -3358 0
-1951 -3359 0
-1952 -3360 0
-1949 -3425 0
-1950 -3426 0
-1951 -3427 0
-1952 -3428 0
-1953 -1989 0
-1954 -1990 0
-1955 -1991 0
-1956 -1992 0
-1953 -2377 0
-1954 -2378 0
-1955 -2379 0
-1956 -2380 0
-1953 -2741 0
-1954 -2742 0
-1955 -2743 0
-1956 -2744 0
-1953 -3001 0
-1954 -3002 0
-1955 -3003 0
-1956 -3004 0
-1953 -3097 0
-1954 -3098 0
-1955 -3099 0
-1956 -3100 0
-1957 -1961 0
-1958 -1962 0
-1959 -1963 0
-1960 -1964 0
-1957 -2441 0
-1958 -2442 0
-1959 -2443 0
-1960 -2444 0
-1957 -3417 0
-1958 -3418 0
-1959 -3419 0
-1960 -3420 0
-1957 -3493 0
-1958 -3494 0
-1959 -3495 0
-1960 -3496 0
-1961 -1965 0
-1962 -1966 0
-1963 -1967 0
-1964 -1968 0
-1961 -1969 0
-1962 -1970 0
-1963 -1971 0
-1964 -1972 0
-1961 -1973 0
-1962 -1974 0
-1963 -1975 0
-1964 -1976 0
-1961 -2037 0
-1962 -2038 0
-1963 -2039 0
-1964 -2040 0
-1961 -2093 0
-1962 -2094 0
-1963 -2095 0
-1964 -2096 0
-1961 -2253 0
-1962 -2254 0
-1963 -2255 0
-1964 -2256 0
-1961 -2477 0
-1962 -2478 0
-1963 -2479 0
-1964 -2480 0
-1961 -2945 0
-1962 -2946 0
-1963 -2947 0
-1964 -2948 0
-1961 -3365 0
-1962 -3366 0
-1963 -3367 0
-1964 -3368 0
-1961 -3421 0
-1962 -3422 0
-1963 -3423 0
-1964 -3424 0
-1961 -3493 0
-1962 -3494 0
-1963 -3495 0
-1964 -3496 0
-1961 -3497 0
-1962 -3498 0
-1963 -3499 0
-1964 -3500 0
-1965 -2309 0
-1966 -2310 0
-1967 -2311 0
-1968 -2312 0
-1965 -2481 0
-1966 -2482 0
-1967 -2483 0
-1968 -2484 0
-1969 -2097 0
-1970 -2098 0
-1971 -2099 0
-1972 -2100 0
-1969 -2257 0
-1970 -2258 0
-1971 -2259 0
-1972 -2260 0
-1969 -2485 0
-1970 -2486 0
-1971 -2487 0
-1972 -2488 0
-1969 -2757 0
-1970 -2758 0
-1971 -2759 0
-1972 -2760 0
-1969 -3105 0
-1970 -3106 0
-1971 -3107 0
-1972 -3108 0
-1973 -2037 0
-1974 -2038 0
-1975 -2039 0
-1976 -2040 0
-1973 -2109 0
-1974 -2110 0
-1975 -2111 0
-1976 -2112 0
-1973 -2493 0
-1974 -2494 0
-1975 -2495 0
-1976 -2496 0
-1973 -2949 0
-1974 -2950 0
-1975 -2951 0
-1976 -2952 0
-1973 -3373 0
-1974 -3374 0
-1975 -3375 0
-1976 -3376 0
-1973 -3425 0
-1974 -3426 0
-1975 -3427 0
-1976 -3428 0
-1977 -1981 0
-1978 -1982 0
-1979 -1983 0
-1980 -1984 0
-1977 -1989 0
-1978 -1990 0
-1979 -1991 0
-1980 -1992 0
-1977 -2405 0
-1978 -2406 0
-1979 -2407 0
-1980 -2408 0
-1977 -2565 0
-1978 -2566 0
-1979 -2567 0
-1980 -2568 0
-1977 -2765 0
-1978 -2766 0
-1979 -2767 0
-1980 -2768 0
-1977 -3137 0
-1978 -3138 0
-1979 -3139 0
-1980 -3140 0
-1977 -3445 0
-1978 -3446 0
-1979 -3447 0
-1980 -3448 0
-1977 -3465 0
-1978 -3466 0
-1979 -3467 0
-1980 -3468 0
-1977 -3537 0
-1978 -3538 0
-1979 -3539 0
-1980 -3540 0
-1981 -1993 0
-1982 -1994 0
-1983 -1995 0
-1984 -1996 0
-1981 -2273 0
-1982 -2274 0
-1983 -2275 0
-1984 -2276 0
-1981 -2313 0
-1982 -2314 0
-1983 -2315 0
-1984 -2316 0
-1981 -2769 0
-1982 -2770 0
-1983 -2771 0
-1984 -2772 0
-1981 -3017 0
-1982 -3018 0
-1983 -3019 0
-1984 -3020 0
-1981 -3141 0
-1982 -3142 0
-1983 -3143 0
-1984 -3144 0
-1981 -3449 0
-1982 -3450 0
-1983 -3451 0
-1984 -3452 0
-1981 -3469 0
-1982 -3470 0
-1983 -3471 0
-1984 -3472 0
-1981 -3541 0
-1982 -3542 0
-1983 -3543 0
-1984 -3544 0
-1985 -1989 0
-1986 -1990 0
-1987 -1991 0
-1988 -1992 0
-1985 -2113 0
-1986 -2114 0
-1987 -2115 0
-1988 -2116 0
-1985 -2461 0
-1986 -2462 0
-1987 -2463 0
-1988 -2464 0
-1985 -3153 0
-1986 -3154 0
-1987 -3155 0
-1988 -3156 0
-1985 -3661 0
-1986 -3662 0
-1987 -3663 0
-1988 -3664 0
-1989 -1993 0
-1990 -1994 0
-1991 -1995 0
-1992 -1996 0
-1989 -2117 0
-1990 -2118 0
-1991 -2119 0
-1992 -2120 0
-1989 -2477 0
-1990 -2478 0
-1991 -2479 0
-1992 -2480 0
-1989 -2789 0
-1990 -2790 0
-1991 -2791 0
-1992 -2792 0
-1989 -2961 0
-1990 -2962 0
-1991 -2963 0
-1992 -2964 0
-1989 -3025 0
-1990 -3026 0
-1991 -3027 0
-1992 -3028 0
-1989 -3157 0
-1990 -3158 0
-1991 -3159 0
-1992 -3160 0
-1989 -3481 0
-1990 -3482 0
-1991 -3483 0
-1992 -3484 0
-1989 -3537 0
-1990 -3538 0
-1991 -3539 0
-1992 -3540 0
-1993 -2317 0
-1994 -2318 0
-1995 -2319 0
-1996 -2320 0
-1993 -2489 0
-1994 -2490 0
-1995 -2491 0
-1996 -2492 0
-1993 -2797 0
-1994 -2798 0
-1995 -2799 0
-1996 -2800 0
-1993 -2977 0
-1994 -2978 0
-1995 -2979 0
-1996 -2980 0
-1993 -3541 0
-1994 -3542 0
-1995 -3543 0
-1996 -3544 0
-1997 -2001 0
-1998 -2002 0
-1999 -2003 0
-2000 -2004 0
-1997 -2137 0
-1998 -2138 0
-1999 -2139 0
-2000 -2140 0
-1997 -3165 0
-1998 -3166 0
-1999 -3167 0
-2000 -3168 0
-1997 -3513 0
-1998 -3514 0
-1999 -3515 0
-2000 -3516 0
-2001 -2145 0
-2002 -2146 0
-2003 -2147 0
-2004 -2148 0
-2001 -3173 0
-2002 -3174 0
-2003 -3175 0
-2004 -3176 0
-2001 -3513 0
-2002 -3514 0
-2003 -3515 0
-2004 -3516 0
-2005 -2013 0
-2006 -2014 0
-2007 -2015 0
-2008 -2016 0
-2005 -2017 0
-2006 -2018 0
-2007 -2019 0
-2008 -2020 0
-2005 -3521 0
-2006 -3522 0
-2007 -3523 0
-2008 -3524 0
-2009 -2013 0
-2010 -2014 0
-2011 -2015 0
-2012 -2016 0
-2009 -3173 0
-2010 -3174 0
-2011 -3175 0
-2012 -3176 0
-2009 -3517 0
-2010 -3518 0
-2011 -3519 0
-2012 -3520 0
-2013 -2021 0
-2014 -2022 0
-2015 -2023 0
-2016 -2024 0
-2013 -2029 0
-2014 -2030 0
-2015 -2031 0
-2016 -2032 0
-2013 -2337 0
-2014 -2338 0
-2015 -2339 0
-2016 -2340 0
-2013 -2765 0
-2014 -2766 0
-2015 -2767 0
-2016 -2768 0
-2013 -3521 0
-2014 -3522 0
-2015 -3523 0
-2016 -3524 0
-2013 -3525 0
-2014 -3526 0
-2015 -3527 0
-2016 -3528 0
-2017 -2029 0
-2018 -2030 0
-2019 -2031 0
-2020 -2032 0
-2017 -2417 0
-2018 -2418 0
-2019 -2419 0
-2020 -2420 0
-2017 -3533 0
-2018 -3534 0
-2019 -3535 0
-2020 -3536 0
-2021 -2029 0
-2022 -2030 0
-2023 -2031 0
-2024 -2032 0
-2021 -2033 0
-2022 -2034 0
-2023 -2035 0
-2024 -2036 0
-2021 -2221 0
-2022 -2222 0
-2023 -2223 0
-2024 -2224 0
-2021 -2429 0
-2022 -2430 0
-2023 -2431 0
-2024 -2432 0
-2021 -2577 0
-2022 -2578 0
-2023 -2579 0
-2024 -2580 0
-2021 -3501 0
-2022 -3502 0
-2023 -3503 0
-2024 -3504 0
-2021 -3529 0
-2022 -3530 0
-2023 -3531 0
-2024 -3532 0
-2021 -3537 0
-2022 -3538 0
-2023 -3539 0
-2024 -3540 0
-2025 -2029 0
-2026 -2030 0
-2027 -2031 0
-2028 -2032 0
-2025 -2037 0
-2026 -2038 0
-2027 -2039 0
-2028 -2040 0
-2025 -2437 0
-2026 -2438 0
-2027 -2439 0
-2028 -2440 0
-2025 -2589 0
-2026 -2590 0
-2027 -2591 0
-2028 -2592 0
-2025 -2813 0
-2026 -2814 0
-2027 -2815 0
-2028 -2816 0
-2025 -3205 0
-2026 -3206 0
-2027 -3207 0
-2028 -3208 0
-2025 -3397 0
-2026 -3398 0
-2027 -3399 0
-2028 -3400 0
-2025 -3505 0
-2026 -3506 0
-2027 -3507 0
-2028 -3508 0
-2029 -2037 0
-2030 -2038 0
-2031 -2039 0
-2032 -2040 0
-2029 -2441 0
-2030 -2442 0
-2031 -2443 0
-2032 -2444 0
-2029 -2817 0
-2030 -2818 0
-2031 -2819 0
-2032 -2820 0
-2029 -3037 0
-2030 -3038 0
-2031 -3039 0
-2032 -3040 0
-2029 -3209 0
-2030 -3210 0
-2031 -3211 0
-2032 -3212 0
-2029 -3509 0
-2030 -3510 0
-2031 -3511 0
-2032 -3512 0
-2029 -3533 0
-2030 -3534 0
-2031 -3535 0
-2032 -3536 0
-2029 -3541 0
-2030 -3542 0
-2031 -3543 0
-2032 -3544 0
-2033 -2229 0
-2034 -2230 0
-2035 -2231 0
-2036 -2232 0
-2033 -2465 0
-2034 -2466 0
-2035 -2467 0
-2036 -2468 0
-2033 -3041 0
-2034 -3042 0
-2035 -3043 0
-2036 -3044 0
-2033 -3537 0
-2034 -3538 0
-2035 -3539 0
-2036 -3540 0
-2037 -2265 0
-2038 -2266 0
-2039 -2267 0
-2040 -2268 0
-2037 -2513 0
-2038 -2514 0
-2039 -2515 0
-2040 -2516 0
-2037 -2605 0
-2038 -2606 0
-2039 -2607 0
-2040 -2608 0
-2037 -3029 0
-2038 -3030 0
-2039 -3031 0
-2040 -3032 0
-2037 -3221 0
-2038 -3222 0
-2039 -3223 0
-2040 -3224 0
-2037 -3513 0
-2038 -3514 0
-2039 -3515 0
-2040 -3516 0
-2037 -3545 0
-2038 -3546 0
-2039 -3547 0
-2040 -3548 0
-2041 -2045 0
-2042 -2046 0
-2043 -2047 0
-2044 -2048 0
-2041 -2053 0
-2042 -2054 0
-2043 -2055 0
-2044 -2056 0
-2041 -2401 0
-2042 -2402 0
-2043 -2403 0
-2044 -2404 0
-2041 -3577 0
-2042 -3578 0
-2043 -3579 0
-2044 -3580 0
-2045 -2069 0
-2046 -2070 0
-2047 -2071 0
-2048 -2072 0
-2045 -2089 0
-2046 -2090 0
-2047 -2091 0
-2048 -2092 0
-2045 -2097 0
-2046 -2098 0
-2047 -2099 0
-2048 -2100 0
-2045 -2337 0
-2046 -2338 0
-2047 -2339 0
-2048 -2340 0
-2045 -2405 0
-2046 -2406 0
-2047 -2407 0
-2048 -2408 0
-2045 -2633 0
-2046 -2634 0
-2047 -2635 0
-2048 -2636 0
-2045 -3401 0
-2046 -3402 0
-2047 -3403 0
-2048 -3404 0
-2045 -3581 0
-2046 -3582 0
-2047 -3583 0
-2048 -3584 0
-2049 -2057 0
-2050 -2058 0
-2051 -2059 0
-2052 -2060 0
-2049 -2065 0
-2050 -2066 0
-2051 -2067 0
-2052 -2068 0
-2049 -2157 0
-2050 -2158 0
-2051 -2159 0
-2052 -2160 0
-2049 -2425 0
-2050 -2426 0
-2051 -2427 0
-2052 -2428 0
-2049 -2917 0
-2050 -2918 0
-2051 -2919 0
-2052 -2920 0
-2049 -3553 0
-2050 -3554 0
-2051 -3555 0
-2052 -3556 0
-2049 -3685 0
-2050 -3686 0
-2051 -3687 0
-2052 -3688 0
-2053 -2057 0
-2054 -2058 0
-2055 -2059 0
-2056 -2060 0
-2053 -2069 0
-2054 -2070 0
-2055 -2071 0
-2056 -2072 0
-2053 -2077 0
-2054 -2078 0
-2055 -2079 0
-2056 -2080 0
-2053 -2101 0
-2054 -2102 0
-2055 -2103 0
-2056 -2104 0
-2053 -2153 0
-2054 -2154 0
-2055 -2155 0
-2056 -2156 0
-2053 -2441 0
-2054 -2442 0
-2055 -2443 0
-2056 -2444 0
-2053 -3557 0
-2054 -3558 0
-2055 -3559 0
-2056 -3560 0
-2053 -3577 0
-2054 -3578 0
-2055 -3579 0
-2056 -3580 0
-2057 -2073 0
-2058 -2074 0
-2059 -2075 0
-2060 -2076 0
-2057 -2077 0
-2058 -2078 0
-2059 -2079 0
-2060 -2080 0
-2057 -2157 0
-2058 -2158 0
-2059 -2159 0
-2060 -2160 0
-2057 -2445 0
-2058 -2446 0
-2059 -2447 0
-2060 -2448 0
-2057 -3057 0
-2058 -3058 0
-2059 -3059 0
-2060 -3060 0
-2057 -3561 0
-2058 -3562 0
-2059 -3563 0
-2060 -3564 0
-2061 -2065 0
-2062 -2066 0
-2063 -2067 0
-2064 -2068 0
-2061 -2069 0
-2062 -2070 0
-2063 -2071 0
-2064 -2072 0
-2061 -2165 0
-2062 -2166 0
-2063 -2167 0
-2064 -2168 0
-2061 -2461 0
-2062 -2462 0
-2063 -2463 0
-2064 -2464 0
-2065 -2073 0
-2066 -2074 0
-2067 -2075 0
-2068 -2076 0
-2065 -2169 0
-2066 -2170 0
-2067 -2171 0
-2068 -2172 0
-2065 -2357 0
-2066 -2358 0
-2067 -2359 0
-2068 -2360 0
-2065 -2653 0
-2066 -2654 0
-2067 -2655 0
-2068 -2656 0
-2065 -2925 0
-2066 -2926 0
-2067 -2927 0
-2068 -2928 0
-2065 -3553 0
-2066 -3554 0
-2067 -3555 0
-2068 -3556 0
-2065 -3693 0
-2066 -3694 0
-2067 -3695 0
-2068 -3696 0
-2069 -2073 0
-2070 -2074 0
-2071 -2075 0
-2072 -2076 0
-2069 -2081 0
-2070 -2082 0
-2071 -2083 0
-2072 -2084 0
-2069 -2105 0
-2070 -2106 0
-2071 -2107 0
-2072 -2108 0
-2069 -2109 0
-2070 -2110 0
-2071 -2111 0
-2072 -2112 0
-2069 -2165 0
-2070 -2166 0
-2071 -2167 0
-2072 -2168 0
-2069 -2173 0
-2070 -2174 0
-2071 -2175 0
-2072 -2176 0
-2069 -2477 0
-2070 -2478 0
-2071 -2479 0
-2072 -2480 0
-2069 -2845 0
-2070 -2846 0
-2071 -2847 0
-2072 -2848 0
-2069 -3049 0
-2070 -3050 0
-2071 -3051 0
-2072 -3052 0
-2069 -3069 0
-2070 -3070 0
-2071 -3071 0
-2072 -3072 0
-2069 -3409 0
-2070 -3410 0
-2071 -3411 0
-2072 -3412 0
-2069 -3557 0
-2070 -3558 0
-2071 -3559 0
-2072 -3560 0
-2069 -3565 0
-2070 -3566 0
-2071 -3567 0
-2072 -3568 0
-2069 -3581 0
-2070 -3582 0
-2071 -3583 0
-2072 -3584 0
-2073 -2081 0
-2074 -2082 0
-2075 -2083 0
-2076 -2084 0
-2073 -2169 0
-2074 -2170 0
-2075 -2171 0
-2076 -2172 0
-2073 -2481 0
-2074 -2482 0
-2075 -2483 0
-2076 -2484 0
-2073 -2657 0
-2074 -2658 0
-2075 -2659 0
-2076 -2660 0
-2073 -2849 0
-2074 -2850 0
-2075 -2851 0
-2076 -2852 0
-2073 -2933 0
-2074 -2934 0
-2075 -2935 0
-2076 -2936 0
-2073 -3561 0
-2074 -3562 0
-2075 -3563 0
-2076 -3564 0
-2077 -2081 0
-2078 -2082 0
-2079 -2083 0
-2080 -2084 0
-2077 -2517 0
-2078 -2518 0
-2079 -2519 0
-2080 -2520 0
-2081 -2525 0
-2082 -2526 0
-2083 -2527 0
-2084 -2528 0
-2081 -3425 0
-2082 -3426 0
-2083 -3427 0
-2084 -3428 0
-2085 -2097 0
-2086 -2098 0
-2087 -2099 0
-2088 -2100 0
-2085 -2113 0
-2086 -2114 0
-2087 -2115 0
-2088 -2116 0
-2085 -2409 0
-2086 -2410 0
-2087 -2411 0
-2088 -2412 0
-2085 -2709 0
-2086 -2710 0
-2087 -2711 0
-2088 -2712 0
-2085 -2869 0
-2086 -2870 0
-2087 -2871 0
-2088 -2872 0
-2085 -3089 0
-2086 -3090 0
-2087 -3091 0
-2088 -3092 0
-2085 -3117 0
-2086 -3118 0
-2087 -3119 0
-2088 -3120 0
-2085 -3449 0
-2086 -3450 0
-2087 -3451 0
-2088 -3452 0
-2085 -3549 0
-2086 -3550 0
-2087 -3551 0
-2088 -3552 0
-2085 -3613 0
-2086 -3614 0
-2087 -3615 0
-2088 -3616 0
-2085 -3709 0
-2086 -3710 0
-2087 -3711 0
-2088 -3712 0
-2089 -2097 0
-2090 -2098 0
-2091 -2099 0
-2092 -2100 0
-2089 -2105 0
-2090 -2106 0
-2091 -2107 0
-2092 -2108 0
-2089 -2233 0
-2090 -2234 0
-2091 -2235 0
-2092 -2236 0
-2089 -2237 0
-2090 -2238 0
-2091 -2239 0
-2092 -2240 0
-2089 -2429 0
-2090 -2430 0
-2091 -2431 0
-2092 -2432 0
-2089 -2705 0
-2090 -2706 0
-2091 -2707 0
-2092 -2708 0
-2089 -2877 0
-2090 -2878 0
-2091 -2879 0
-2092 -2880 0
-2089 -3145 0
-2090 -3146 0
-2091 -3147 0
-2092 -3148 0
-2089 -3465 0
-2090 -3466 0
-2091 -3467 0
-2092 -3468 0
-2093 -2097 0
-2094 -2098 0
-2095 -2099 0
-2096 -2100 0
-2093 -2121 0
-2094 -2122 0
-2095 -2123 0
-2096 -2124 0
-2093 -2433 0
-2094 -2434 0
-2095 -2435 0
-2096 -2436 0
-2093 -2637 0
-2094 -2638 0
-2095 -2639 0
-2096 -2640 0
-2097 -2109 0
-2098 -2110 0
-2099 -2111 0
-2100 -2112 0
-2097 -2121 0
-2098 -2122 0
-2099 -2123 0
-2100 -2124 0
-2097 -2241 0
-2098 -2242 0
-2099 -2243 0
-2100 -2244 0
-2097 -2441 0
-2098 -2442 0
-2099 -2443 0
-2100 -2444 0
-2097 -2641 0
-2098 -2642 0
-2099 -2643 0
-2100 -2644 0
-2097 -2713 0
-2098 -2714 0
-2099 -2715 0
-2100 -2716 0
-2097 -2881 0
-2098 -2882 0
-2099 -2883 0
-2100 -2884 0
-2097 -3105 0
-2098 -3106 0
-2099 -3107 0
-2100 -3108 0
-2097 -3469 0
-2098 -3470 0
-2099 -3471 0
-2100 -3472 0
-2097 -3549 0
-2098 -3550 0
-2099 -3551 0
-2100 -3552 0
-2097 -3617 0
-2098 -3618 0
-2099 -3619 0
-2100 -3620 0
-2101 -2105 0
-2102 -2106 0
-2103 -2107 0
-2104 -2108 0
-2101 -2245 0
-2102 -2246 0
-2103 -2247 0
-2104 -2248 0
-2101 -2549 0
-2102 -2550 0
-2103 -2551 0
-2104 -2552 0
-2101 -2621 0
-2102 -2622 0
-2103 -2623 0
-2104 -2624 0
-2105 -2109 0
-2106 -2110 0
-2107 -2111 0
-2108 -2112 0
-2105 -2257 0
-2106 -2258 0
-2107 -2259 0
-2108 -2260 0
-2105 -2269 0
-2106 -2270 0
-2107 -2271 0
-2108 -2272 0
-2105 -2297 0
-2106 -2298 0
-2107 -2299 0
-2108 -2300 0
-2105 -2557 0
-2106 -2558 0
-2107 -2559 0
-2108 -2560 0
-2105 -2625 0
-2106 -2626 0
-2107 -2627 0
-2108 -2628 0
-2105 -2893 0
-2106 -2894 0
-2107 -2895 0
-2108 -2896 0
-2105 -3481 0
-2106 -3482 0
-2107 -3483 0
-2108 -3484 0
-2105 -3569 0
-2106 -3570 0
-2107 -3571 0
-2108 -3572 0
-2109 -2265 0
-2110 -2266 0
-2111 -2267 0
-2112 -2268 0
-2109 -2505 0
-2110 -2506 0
-2111 -2507 0
-2112 -2508 0
-2109 -2561 0
-2110 -2562 0
-2111 -2563 0
-2112 -2564 0
-2109 -2857 0
-2110 -2858 0
-2111 -2859 0
-2112 -2860 0
-2109 -2897 0
-2110 -2898 0
-2111 -2899 0
-2112 -2900 0
-2109 -3617 0
-2110 -3618 0
-2111 -3619 0
-2112 -3620 0
-2113 -2117 0
-2114 -2118 0
-2115 -2119 0
-2116 -2120 0
-2113 -2121 0
-2114 -2122 0
-2115 -2123 0
-2116 -2124 0
-2113 -2125 0
-2114 -2126 0
-2115 -2127 0
-2116 -2128 0
-2113 -2273 0
-2114 -2274 0
-2115 -2275 0
-2116 -2276 0
-2113 -2629 0
-2114 -2630 0
-2115 -2631 0
-2116 -2632 0
-2113 -3009 0
-2114 -3010 0
-2115 -3011 0
-2116 -3012 0
-2113 -3081 0
-2114 -3082 0
-2115 -3083 0
-2116 -3084 0
-2113 -3249 0
-2114 -3250 0
-2115 -3251 0
-2116 -3252 0
-2113 -3553 0
-2114 -3554 0
-2115 -3555 0
-2116 -3556 0
-2113 -3629 0
-2114 -3630 0
-2115 -3631 0
-2116 -3632 0
-2113 -3637 0
-2114 -3638 0
-2115 -3639 0
-2116 -3640 0
-2113 -3749 0
-2114 -3750 0
-2115 -3751 0
-2116 -3752 0
-2117 -2273 0
-2118 -2274 0
-2119 -2275 0
-2120 -2276 0
-2117 -2637 0
-2118 -2638 0
-2119 -2639 0
-2120 -2640 0
-2117 -2905 0
-2118 -2906 0
-2119 -2907 0
-2120 -2908 0
-2117 -3013 0
-2118 -3014 0
-2119 -3015 0
-2120 -3016 0
-2117 -3157 0
-2118 -3158 0
-2119 -3159 0
-2120 -3160 0
-2117 -3161 0
-2118 -3162 0
-2119 -3163 0
-2120 -3164 0
-2117 -3561 0
-2118 -3562 0
-2119 -3563 0
-2120 -3564 0
-2117 -3761 0
-2118 -3762 0
-2119 -3763 0
-2120 -3764 0
-2121 -2281 0
-2122 -2282 0
-2123 -2283 0
-2124 -2284 0
-2121 -2529 0
-2122 -2530 0
-2123 -2531 0
-2124 -2532 0
-2121 -2689 0
-2122 -2690 0
-2123 -2691 0
-2124 -2692 0
-2121 -2921 0
-2122 -2922 0
-2123 -2923 0
-2124 -2924 0
-2121 -3261 0
-2122 -3262 0
-2123 -3263 0
-2124 -3264 0
-2121 -3485 0
-2122 -3486 0
-2123 -3487 0
-2124 -3488 0
-2121 -3553 0
-2122 -3554 0
-2123 -3555 0
-2124 -3556 0
-2121 -3769 0
-2122 -3770 0
-2123 -3771 0
-2124 -3772 0
-2125 -2693 0
-2126 -2694 0
-2127 -2695 0
-2128 -2696 0
-2125 -3113 0
-2126 -3114 0
-2127 -3115 0
-2128 -3116 0
-2125 -3657 0
-2126 -3658 0
-2127 -3659 0
-2128 -3660 0
-2125 -3777 0
-2126 -3778 0
-2127 -3779 0
-2128 -3780 0
-2129 -2133 0
-2130 -2134 0
-2131 -2135 0
-2132 -2136 0
-2129 -2141 0
-2130 -2142 0
-2131 -2143 0
-2132 -2144 0
-2129 -2149 0
-2130 -2150 0
-2131 -2151 0
-2132 -2152 0
-2129 -2177 0
-2130 -2178 0
-2131 -2179 0
-2132 -2180 0
-2129 -3165 0
-2130 -3166 0
-2131 -3167 0
-2132 -3168 0
-2129 -3573 0
-2130 -3574 0
-2131 -3575 0
-2132 -3576 0
-2133 -2185 0
-2134 -2186 0
-2135 -2187 0
-2136 -2188 0
-2133 -2577 0
-2134 -2578 0
-2135 -2579 0
-2136 -2580 0
-2133 -2877 0
-2134 -2878 0
-2135 -2879 0
-2136 -2880 0
-2133 -3577 0
-2134 -3578 0
-2135 -3579 0
-2136 -3580 0
-2133 -3581 0
-2134 -3582 0
-2135 -3583 0
-2136 -3584 0
-2137 -2145 0
-2138 -2146 0
-2139 -2147 0
-2140 -2148 0
-2137 -2157 0
-2138 -2158 0
-2139 -2159 0
-2140 -2160 0
-2137 -3165 0
-2138 -3166 0
-2139 -3167 0
-2140 -3168 0
-2137 -3585 0
-2138 -3586 0
-2139 -3587 0
-2140 -3588 0
-2141 -2145 0
-2142 -2146 0
-2143 -2147 0
-2144 -2148 0
-2141 -2161 0
-2142 -2162 0
-2143 -2163 0
-2144 -2164 0
-2141 -2197 0
-2142 -2198 0
-2143 -2199 0
-2144 -2200 0
-2141 -2325 0
-2142 -2326 0
-2143 -2327 0
-2144 -2328 0
-2145 -2169 0
-2146 -2170 0
-2147 -2171 0
-2148 -2172 0
-2145 -2197 0
-2146 -2198 0
-2147 -2199 0
-2148 -2200 0
-2145 -3173 0
-2146 -3174 0
-2147 -3175 0
-2148 -3176 0
-2145 -3585 0
-2146 -3586 0
-2147 -3587 0
-2148 -3588 0
-2149 -2161 0
-2150 -2162 0
-2151 -2163 0
-2152 -2164 0
-2149 -2221 0
-2150 -2222 0
-2151 -2223 0
-2152 -2224 0
-2149 -3181 0
-2150 -3182 0
-2151 -3183 0
-2152 -3184 0
-2153 -2157 0
-2154 -2158 0
-2155 -2159 0
-2156 -2160 0
-2153 -2165 0
-2154 -2166 0
-2155 -2167 0
-2156 -2168 0
-2153 -2245 0
-2154 -2246 0
-2155 -2247 0
-2156 -2248 0
-2153 -2593 0
-2154 -2594 0
-2155 -2595 0
-2156 -2596 0
-2153 -2801 0
-2154 -2802 0
-2155 -2803 0
-2156 -2804 0
-2153 -3593 0
-2154 -3594 0
-2155 -3595 0
-2156 -3596 0
-2157 -2169 0
-2158 -2170 0
-2159 -2171 0
-2160 -2172 0
-2157 -2249 0
-2158 -2250 0
-2159 -2251 0
-2160 -2252 0
-2157 -2785 0
-2158 -2786 0
-2159 -2787 0
-2160 -2788 0
-2157 -3181 0
-2158 -3182 0
-2159 -3183 0
-2160 -3184 0
-2157 -3597 0
-2158 -3598 0
-2159 -3599 0
-2160 -3600 0
-2161 -2169 0
-2162 -2170 0
-2163 -2171 0
-2164 -2172 0
-2161 -2261 0
-2162 -2262 0
-2163 -2263 0
-2164 -2264 0
-2161 -2341 0
-2162 -2342 0
-2163 -2343 0
-2164 -2344 0
-2161 -2789 0
-2162 -2790 0
-2163 -2791 0
-2164 -2792 0
-2161 -3501 0
-2162 -3502 0
-2163 -3503 0
-2164 -3504 0
-2161 -3589 0
-2162 -3590 0
-2163 -3591 0
-2164 -3592 0
-2161 -3601 0
-2162 -3602 0
-2163 -3603 0
-2164 -3604 0
-2165 -2169 0
-2166 -2170 0
-2167 -2171 0
-2168 -2172 0
-2165 -2173 0
-2166 -2174 0
-2167 -2175 0
-2168 -2176 0
-2165 -2257 0
-2166 -2258 0
-2167 -2259 0
-2168 -2260 0
-2165 -2265 0
-2166 -2266 0
-2167 -2267 0
-2168 -2268 0
-2165 -2345 0
-2166 -2346 0
-2167 -2347 0
-2168 -2348 0
-2165 -2601 0
-2166 -2602 0
-2167 -2603 0
-2168 -2604 0
-2165 -2805 0
-2166 -2806 0
-2167 -2807 0
-2168 -2808 0
-2165 -3169 0
-2166 -3170 0
-2167 -3171 0
-2168 -3172 0
-2165 -3505 0
-2166 -3506 0
-2167 -3507 0
-2168 -3508 0
-2165 -3593 0
-2166 -3594 0
-2167 -3595 0
-2168 -3596 0
-2165 -3605 0
-2166 -3606 0
-2167 -3607 0
-2168 -3608 0
-2169 -2261 0
-2170 -2262 0
-2171 -2263 0
-2172 -2264 0
-2169 -2609 0
-2170 -2610 0
-2171 -2611 0
-2172 -2612 0
-2169 -2797 0
-2170 -2798 0
-2171 -2799 0
-2172 -2800 0
-2169 -2937 0
-2170 -2938 0
-2171 -2939 0
-2172 -2940 0
-2169 -3185 0
-2170 -3186 0
-2171 -3187 0
-2172 -3188 0
-2169 -3273 0
-2170 -3274 0
-2171 -3275 0
-2172 -3276 0
-2169 -3509 0
-2170 -3510 0
-2171 -3511 0
-2172 -3512 0
-2169 -3597 0
-2170 -3598 0
-2171 -3599 0
-2172 -3600 0
-2169 -3609 0
-2170 -3610 0
-2171 -3611 0
-2172 -3612 0
-2173 -2269 0
-2174 -2270 0
-2175 -2271 0
-2176 -2272 0
-2173 -2605 0
-2174 -2606 0
-2175 -2607 0
-2176 -2608 0
-2173 -2941 0
-2174 -2942 0
-2175 -2943 0
-2176 -2944 0
-2177 -2181 0
-2178 -2182 0
-2179 -2183 0
-2180 -2184 0
-2177 -2185 0
-2178 -2186 0
-2179 -2187 0
-2180 -2188 0
-2177 -2193 0
-2178 -2194 0
-2179 -2195 0
-2180 -2196 0
-2177 -2197 0
-2178 -2198 0
-2179 -2199 0
-2180 -2200 0
-2177 -2217 0
-2178 -2218 0
-2179 -2219 0
-2180 -2220 0
-2177 -2221 0
-2178 -2222 0
-2179 -2223 0
-2180 -2224 0
-2177 -2613 0
-2178 -2614 0
-2179 -2615 0
-2180 -2616 0
-2177 -3193 0
-2178 -3194 0
-2179 -3195 0
-2180 -3196 0
-2177 -3509 0
-2178 -3510 0
-2179 -3511 0
-2180 -3512 0
-2177 -3613 0
-2178 -3614 0
-2179 -3615 0
-2180 -3616 0
-2181 -2189 0
-2182 -2190 0
-2183 -2191 0
-2184 -2192 0
-2181 -2225 0
-2182 -2226 0
-2183 -2227 0
-2184 -2228 0
-2181 -2229 0
-2182 -2230 0
-2183 -2231 0
-2184 -2232 0
-2181 -2617 0
-2182 -2618 0
-2183 -2619 0
-2184 -2620 0
-2181 -3201 0
-2182 -3202 0
-2183 -3203 0
-2184 -3204 0
-2181 -3613 0
-2182 -3614 0
-2183 -3615 0
-2184 -3616 0
-2185 -2189 0
-2186 -2190 0
-2187 -2191 0
-2188 -2192 0
-2185 -2581 0
-2186 -2582 0
-2187 -2583 0
-2188 -2584 0
-2185 -2621 0
-2186 -2622 0
-2187 -2623 0
-2188 -2624 0
-2185 -2733 0
-2186 -2734 0
-2187 -2735 0
-2188 -2736 0
-2185 -2945 0
-2186 -2946 0
-2187 -2947 0
-2188 -2948 0
-2185 -3617 0
-2186 -3618 0
-2187 -3619 0
-2188 -3620 0
-2189 -2585 0
-2190 -2586 0
-2191 -2587 0
-2192 -2588 0
-2189 -2625 0
-2190 -2626 0
-2191 -2627 0
-2192 -2628 0
-2189 -3617 0
-2190 -3618 0
-2191 -3619 0
-2192 -3620 0
-2193 -2197 0
-2194 -2198 0
-2195 -2199 0
-2196 -2200 0
-2193 -2253 0
-2194 -2254 0
-2195 -2255 0
-2196 -2256 0
-2193 -2257 0
-2194 -2258 0
-2195 -2259 0
-2196 -2260 0
-2193 -2365 0
-2194 -2366 0
-2195 -2367 0
-2196 -2368 0
-2193 -2741 0
-2194 -2742 0
-2195 -2743 0
-2196 -2744 0
-2193 -3289 0
-2194 -3290 0
-2195 -3291 0
-2196 -3292 0
-2193 -3513 0
-2194 -3514 0
-2195 -3515 0
-2196 -3516 0
-2193 -3621 0
-2194 -3622 0
-2195 -3623 0
-2196 -3624 0
-2197 -2261 0
-2198 -2262 0
-2199 -2263 0
-2200 -2264 0
-2197 -3029 0
-2198 -3030 0
-2199 -3031 0
-2200 -3032 0
-2197 -3197 0
-2198 -3198 0
-2199 -3199 0
-2200 -3200 0
-2197 -3293 0
-2198 -3294 0
-2199 -3295 0
-2200 -3296 0
-2197 -3625 0
-2198 -3626 0
-2199 -3627 0
-2200 -3628 0
-2201 -2205 0
-2202 -2206 0
-2203 -2207 0
-2204 -2208 0
-2201 -2209 0
-2202 -2210 0
-2203 -2211 0
-2204 -2212 0
-2201 -2217 0
-2202 -2218 0
-2203 -2219 0
-2204 -2220 0
-2201 -3293 0
-2202 -3294 0
-2203 -3295 0
-2204 -3296 0
-2201 -3629 0
-2202 -3630 0
-2203 -3631 0
-2204 -3632 0
-2201 -3797 0
-2202 -3798 0
-2203 -3799 0
-2204 -3800 0
-2205 -2221 0
-2206 -2222 0
-2207 -2223 0
-2208 -2224 0
-2205 -2233 0
-2206 -2234 0
-2207 -2235 0
-2208 -2236 0
-2205 -2809 0
-2206 -2810 0
-2207 -2811 0
-2208 -2812 0
-2205 -3301 0
-2206 -3302 0
-2207 -3303 0
-2208 -3304 0
-2209 -2225 0
-2210 -2226 0
-2211 -2227 0
-2212 -2228 0
-2209 -3629 0
-2210 -3630 0
-2211 -3631 0
-2212 -3632 0
-2209 -3801 0
-2210 -3802 0
-2211 -3803 0
-2212 -3804 0
-2213 -2289 0
-2214 -2290 0
-2215 -2291 0
-2216 -2292 0
-2213 -2393 0
-2214 -2394 0
-2215 -2395 0
-2216 -2396 0
-2213 -3221 0
-2214 -3222 0
-2215 -3223 0
-2216 -3224 0
-2213 -3525 0
-2214 -3526 0
-2215 -3527 0
-2216 -3528 0
-2213 -3573 0
-2214 -3574 0
-2215 -3575 0
-2216 -3576 0
-2213 -3581 0
-2214 -3582 0
-2215 -3583 0
-2216 -3584 0
-2217 -2221 0
-2218 -2222 0
-2219 -2223 0
-2220 -2224 0
-2217 -2225 0
-2218 -2226 0
-2219 -2227 0
-2220 -2228 0
-2217 -2253 0
-2218 -2254 0
-2219 -2255 0
-2220 -2256 0
-2217 -3637 0
-2218 -3638 0
-2219 -3639 0
-2220 -3640 0
-2217 -3805 0
-2218 -3806 0
-2219 -3807 0
-2220 -3808 0
-2221 -2229 0
-2222 -2230 0
-2223 -2231 0
-2224 -2232 0
-2221 -2257 0
-2222 -2258 0
-2223 -2259 0
-2224 -2260 0
-2221 -2261 0
-2222 -2262 0
-2223 -2263 0
-2224 -2264 0
-2221 -2389 0
-2222 -2390 0
-2223 -2391 0
-2224 -2392 0
-2221 -3305 0
-2222 -3306 0
-2223 -3307 0
-2224 -3308 0
-2221 -3633 0
-2222 -3634 0
-2223 -3635 0
-2224 -3636 0
-2221 -3641 0
-2222 -3642 0
-2223 -3643 0
-2224 -3644 0
-2221 -3809 0
-2222 -3810 0
-2223 -3811 0
-2224 -3812 0
-2225 -2229 0
-2226 -2230 0
-2227 -2231 0
-2228 -2232 0
-2225 -2645 0
-2226 -2646 0
-2227 -2647 0
-2228 -2648 0
-2225 -3037 0
-2226 -3038 0
-2227 -3039 0
-2228 -3040 0
-2225 -3637 0
-2226 -3638 0
-2227 -3639 0
-2228 -3640 0
-2225 -3813 0
-2226 -3814 0
-2227 -3815 0
-2228 -3816 0
-2229 -2397 0
-2230 -2398 0
-2231 -2399 0
-2232 -2400 0
-2229 -2649 0
-2230 -2650 0
-2231 -2651 0
-2232 -2652 0
-2229 -3641 0
-2230 -3642 0
-2231 -3643 0
-2232 -3644 0
-2233 -2237 0
-2234 -2238 0
-2235 -2239 0
-2236 -2240 0
-2233 -2257 0
-2234 -2258 0
-2235 -2259 0
-2236 -2260 0
-2233 -2401 0
-2234 -2402 0
-2235 -2403 0
-2236 -2404 0
-2233 -2813 0
-2234 -2814 0
-2235 -2815 0
-2236 -2816 0
-2233 -3313 0
-2234 -3314 0
-2235 -3315 0
-2236 -3316 0
-2233 -3645 0
-2234 -3646 0
-2235 -3647 0
-2236 -3648 0
-2237 -2241 0
-2238 -2242 0
-2239 -2243 0
-2240 -2244 0
-2237 -2269 0
-2238 -2270 0
-2239 -2271 0
-2240 -2272 0
-2237 -2449 0
-2238 -2450 0
-2239 -2451 0
-2240 -2452 0
-2237 -2821 0
-2238 -2822 0
-2239 -2823 0
-2240 -2824 0
-2241 -2281 0
-2242 -2282 0
-2243 -2283 0
-2244 -2284 0
-2241 -2597 0
-2242 -2598 0
-2243 -2599 0
-2244 -2600 0
-2241 -2665 0
-2242 -2666 0
-2243 -2667 0
-2244 -2668 0
-2241 -3225 0
-2242 -3226 0
-2243 -3227 0
-2244 -3228 0
-2241 -3321 0
-2242 -3322 0
-2243 -3323 0
-2244 -3324 0
-2245 -2249 0
-2246 -2250 0
-2247 -2251 0
-2248 -2252 0
-2245 -2257 0
-2246 -2258 0
-2247 -2259 0
-2248 -2260 0
-2245 -2417 0
-2246 -2418 0
-2247 -2419 0
-2248 -2420 0
-2245 -2745 0
-2246 -2746 0
-2247 -2747 0
-2248 -2748 0
-2245 -2781 0
-2246 -2782 0
-2247 -2783 0
-2248 -2784 0
-2245 -3649 0
-2246 -3650 0
-2247 -3651 0
-2248 -3652 0
-2249 -2261 0
-2250 -2262 0
-2251 -2263 0
-2252 -2264 0
-2249 -2749 0
-2250 -2750 0
-2251 -2751 0
-2252 -2752 0
-2249 -2829 0
-2250 -2830 0
-2251 -2831 0
-2252 -2832 0
-2249 -3653 0
-2250 -3654 0
-2251 -3655 0
-2252 -3656 0
-2253 -2257 0
-2254 -2258 0
-2255 -2259 0
-2256 -2260 0
-2253 -2433 0
-2254 -2434 0
-2255 -2435 0
-2256 -2436 0
-2253 -2789 0
-2254 -2790 0
-2255 -2791 0
-2256 -2792 0
-2253 -3189 0
-2254 -3190 0
-2255 -3191 0
-2256 -3192 0
-2253 -3657 0
-2254 -3658 0
-2255 -3659 0
-2256 -3660 0
-2257 -2261 0
-2258 -2262 0
-2259 -2263 0
-2260 -2264 0
-2257 -2265 0
-2258 -2266 0
-2259 -2267 0
-2260 -2268 0
-2257 -2269 0
-2258 -2270 0
-2259 -2271 0
-2260 -2272 0
-2257 -2441 0
-2258 -2442 0
-2259 -2443 0
-2260 -2444 0
-2257 -2757 0
-2258 -2758 0
-2259 -2759 0
-2260 -2760 0
-2257 -2793 0
-2258 -2794 0
-2259 -2795 0
-2260 -2796 0
-2257 -3329 0
-2258 -3330 0
-2259 -3331 0
-2260 -3332 0
-2257 -3649 0
-2258 -3650 0
-2259 -3651 0
-2260 -3652 0
-2257 -3661 0
-2258 -3662 0
-2259 -3663 0
-2260 -3664 0
-2261 -2445 0
-2262 -2446 0
-2263 -2447 0
-2264 -2448 0
-2261 -2833 0
-2262 -2834 0
-2263 -2835 0
-2264 -2836 0
-2261 -3333 0
-2262 -3334 0
-2263 -3335 0
-2264 -3336 0
-2261 -3653 0
-2262 -3654 0
-2263 -3655 0
-2264 -3656 0
-2261 -3665 0
-2262 -3666 0
-2263 -3667 0
-2264 -3668 0
-2265 -2453 0
-2266 -2454 0
-2267 -2455 0
-2268 -2456 0
-2265 -3337 0
-2266 -3338 0
-2267 -3339 0
-2268 -3340 0
-2269 -2457 0
-2270 -2458 0
-2271 -2459 0
-2272 -2460 0
-2269 -2761 0
-2270 -2762 0
-2271 -2763 0
-2272 -2764 0
-2269 -2993 0
-2270 -2994 0
-2271 -2995 0
-2272 -2996 0
-2269 -3341 0
-2270 -3342 0
-2271 -3343 0
-2272 -3344 0
-2273 -2277 0
-2274 -2278 0
-2275 -2279 0
-2276 -2280 0
-2273 -2281 0
-2274 -2282 0
-2275 -2283 0
-2276 -2284 0
-2273 -2769 0
-2274 -2770 0
-2275 -2771 0
-2276 -2772 0
-2273 -3357 0
-2274 -3358 0
-2275 -3359 0
-2276 -3360 0
-2273 -3597 0
-2274 -3598 0
-2275 -3599 0
-2276 -3600 0
-2273 -3821 0
-2274 -3822 0
-2275 -3823 0
-2276 -3824 0
-2277 -2285 0
-2278 -2286 0
-2279 -2287 0
-2280 -2288 0
-2277 -2693 0
-2278 -2694 0
-2279 -2695 0
-2280 -2696 0
-2277 -3609 0
-2278 -3610 0
-2279 -3611 0
-2280 -3612 0
-2281 -2285 0
-2282 -2286 0
-2283 -2287 0
-2284 -2288 0
-2281 -2697 0
-2282 -2698 0
-2283 -2699 0
-2284 -2700 0
-2281 -3373 0
-2282 -3374 0
-2283 -3375 0
-2284 -3376 0
-2281 -3533 0
-2282 -3534 0
-2283 -3535 0
-2284 -3536 0
-2281 -3597 0
-2282 -3598 0
-2283 -3599 0
-2284 -3600 0
-2285 -2701 0
-2286 -2702 0
-2287 -2703 0
-2288 -2704 0
-2285 -3229 0
-2286 -3230 0
-2287 -3231 0
-2288 -3232 0
-2285 -3541 0
-2286 -3542 0
-2287 -3543 0
-2288 -3544 0
-2285 -3609 0
-2286 -3610 0
-2287 -3611 0
-2288 -3612 0
-2289 -2705 0
-2290 -2706 0
-2291 -2707 0
-2292 -2708 0
-2289 -3541 0
-2290 -3542 0
-2291 -3543 0
-2292 -3544 0
-2289 -3613 0
-2290 -3614 0
-2291 -3615 0
-2292 -3616 0
-2289 -3617 0
-2290 -3618 0
-2291 -3619 0
-2292 -3620 0
-2293 -2297 0
-2294 -2298 0
-2295 -2299 0
-2296 -2300 0
-2293 -2301 0
-2294 -2302 0
-2295 -2303 0
-2296 -2304 0
-2293 -2309 0
-2294 -2310 0
-2295 -2311 0
-2296 -2312 0
-2293 -2421 0
-2294 -2422 0
-2295 -2423 0
-2296 -2424 0
-2293 -2441 0
-2294 -2442 0
-2295 -2443 0
-2296 -2444 0
-2293 -2837 0
-2294 -2838 0
-2295 -2839 0
-2296 -2840 0
-2293 -3553 0
-2294 -3554 0
-2295 -3555 0
-2296 -3556 0
-2293 -3669 0
-2294 -3670 0
-2295 -3671 0
-2296 -3672 0
-2293 -3829 0
-2294 -3830 0
-2295 -3831 0
-2296 -3832 0
-2297 -2305 0
-2298 -2306 0
-2299 -2307 0
-2300 -2308 0
-2297 -2441 0
-2298 -2442 0
-2299 -2443 0
-2300 -2444 0
-2297 -2457 0
-2298 -2458 0
-2299 -2459 0
-2300 -2460 0
-2297 -2709 0
-2298 -2710 0
-2299 -2711 0
-2300 -2712 0
-2297 -3045 0
-2298 -3046 0
-2299 -3047 0
-2300 -3048 0
-2297 -3257 0
-2298 -3258 0
-2299 -3259 0
-2300 -3260 0
-2297 -3561 0
-2298 -3562 0
-2299 -3563 0
-2300 -3564 0
-2297 -3673 0
-2298 -3674 0
-2299 -3675 0
-2300 -3676 0
-2301 -2305 0
-2302 -2306 0
-2303 -2307 0
-2304 -2308 0
-2301 -2461 0
-2302 -2462 0
-2303 -2463 0
-2304 -2464 0
-2301 -2477 0
-2302 -2478 0
-2303 -2479 0
-2304 -2480 0
-2301 -2645 0
-2302 -2646 0
-2303 -2647 0
-2304 -2648 0
-2301 -3105 0
-2302 -3106 0
-2303 -3107 0
-2304 -3108 0
-2301 -3669 0
-2302 -3670 0
-2303 -3671 0
-2304 -3672 0
-2301 -3833 0
-2302 -3834 0
-2303 -3835 0
-2304 -3836 0
-2305 -2477 0
-2306 -2478 0
-2307 -2479 0
-2308 -2480 0
-2305 -2493 0
-2306 -2494 0
-2307 -2495 0
-2308 -2496 0
-2305 -3053 0
-2306 -3054 0
-2307 -3055 0
-2308 -3056 0
-2305 -3109 0
-2306 -3110 0
-2307 -3111 0
-2308 -3112 0
-2305 -3261 0
-2306 -3262 0
-2307 -3263 0
-2308 -3264 0
-2305 -3673 0
-2306 -3674 0
-2307 -3675 0
-2308 -3676 0
-2309 -2517 0
-2310 -2518 0
-2311 -2519 0
-2312 -2520 0
-2309 -2849 0
-2310 -2850 0
-2311 -2851 0
-2312 -2852 0
-2309 -3145 0
-2310 -3146 0
-2311 -3147 0
-2312 -3148 0
-2313 -2317 0
-2314 -2318 0
-2315 -2319 0
-2316 -2320 0
-2313 -3061 0
-2314 -3062 0
-2315 -3063 0
-2316 -3064 0
-2313 -3721 0
-2314 -3722 0
-2315 -3723 0
-2316 -3724 0
-2313 -3749 0
-2314 -3750 0
-2315 -3751 0
-2316 -3752 0
-2317 -2853 0
-2318 -2854 0
-2319 -2855 0
-2320 -2856 0
-2317 -3065 0
-2318 -3066 0
-2319 -3067 0
-2320 -3068 0
-2317 -3241 0
-2318 -3242 0
-2319 -3243 0
-2320 -3244 0
-2317 -3749 0
-2318 -3750 0
-2319 -3751 0
-2320 -3752 0
-2317 -3773 0
-2318 -3774 0
-2319 -3775 0
-2320 -3776 0
-2321 -2325 0
-2322 -2326 0
-2323 -2327 0
-2324 -2328 0
-2321 -2329 0
-2322 -2330 0
-2323 -2331 0
-2324 -2332 0
-2321 -3677 0
-2322 -3678 0
-2323 -3679 0
-2324 -3680 0
-2325 -2333 0
-2326 -2334 0
-2327 -2335 0
-2328 -2336 0
-2325 -2357 0
-2326 -2358 0
-2327 -2359 0
-2328 -2360 0
-2325 -3169 0
-2326 -3170 0
-2327 -3171 0
-2328 -3172 0
-2325 -3677 0
-2326 -3678 0
-2327 -3679 0
-2328 -3680 0
-2325 -3681 0
-2326 -3682 0
-2327 -3683 0
-2328 -3684 0
-2329 -2333 0
-2330 -2334 0
-2331 -2335 0
-2332 -2336 0
-2329 -2749 0
-2330 -2750 0
-2331 -2751 0
-2332 -2752 0
-2329 -2889 0
-2330 -2890 0
-2331 -2891 0
-2332 -2892 0
-2329 -3685 0
-2330 -3686 0
-2331 -3687 0
-2332 -3688 0
-2333 -2897 0
-2334 -2898 0
-2335 -2899 0
-2336 -2900 0
-2333 -3685 0
-2334 -3686 0
-2335 -3687 0
-2336 -3688 0
-2333 -3693 0
-2334 -3694 0
-2335 -3695 0
-2336 -3696 0
-2337 -2341 0
-2338 -2342 0
-2339 -2343 0
-2340 -2344 0
-2337 -2345 0
-2338 -2346 0
-2339 -2347 0
-2340 -2348 0
-2337 -2349 0
-2338 -2350 0
-2339 -2351 0
-2340 -2352 0
-2337 -2429 0
-2338 -2430 0
-2339 -2431 0
-2340 -2432 0
-2337 -2441 0
-2338 -2442 0
-2339 -2443 0
-2340 -2444 0
-2337 -2765 0
-2338 -2766 0
-2339 -2767 0
-2340 -2768 0
-2337 -3057 0
-2338 -3058 0
-2339 -3059 0
-2340 -3060 0
-2337 -3697 0
-2338 -3698 0
-2339 -3699 0
-2340 -3700 0
-2341 -2445 0
-2342 -2446 0
-2343 -2447 0
-2344 -2448 0
-2341 -2905 0
-2342 -2906 0
-2343 -2907 0
-2344 -2908 0
-2345 -2353 0
-2346 -2354 0
-2347 -2355 0
-2348 -2356 0
-2345 -2361 0
-2346 -2362 0
-2347 -2363 0
-2348 -2364 0
-2345 -2441 0
-2346 -2442 0
-2347 -2443 0
-2348 -2444 0
-2345 -2453 0
-2346 -2454 0
-2347 -2455 0
-2348 -2456 0
-2345 -2769 0
-2346 -2770 0
-2347 -2771 0
-2348 -2772 0
-2345 -2929 0
-2346 -2930 0
-2347 -2931 0
-2348 -2932 0
-2345 -3061 0
-2346 -3062 0
-2347 -3063 0
-2348 -3064 0
-2345 -3701 0
-2346 -3702 0
-2347 -3703 0
-2348 -3704 0
-2349 -2353 0
-2350 -2354 0
-2351 -2355 0
-2352 -2356 0
-2349 -2465 0
-2350 -2466 0
-2351 -2467 0
-2352 -2468 0
-2349 -2477 0
-2350 -2478 0
-2351 -2479 0
-2352 -2480 0
-2349 -3277 0
-2350 -3278 0
-2351 -3279 0
-2352 -3280 0
-2349 -3573 0
-2350 -3574 0
-2351 -3575 0
-2352 -3576 0
-2349 -3697 0
-2350 -3698 0
-2351 -3699 0
-2352 -3700 0
-2353 -2477 0
-2354 -2478 0
-2355 -2479 0
-2356 -2480 0
-2353 -2489 0
-2354 -2490 0
-2355 -2491 0
-2356 -2492 0
-2353 -3265 0
-2354 -3266 0
-2355 -3267 0
-2356 -3268 0
-2353 -3701 0
-2354 -3702 0
-2355 -3703 0
-2356 -3704 0
-2357 -3181 0
-2358 -3182 0
-2359 -3183 0
-2360 -3184 0
-2357 -3841 0
-2358 -3842 0
-2359 -3843 0
-2360 -3844 0
-2361 -2517 0
-2362 -2518 0
-2363 -2519 0
-2364 -2520 0
-2361 -3277 0
-2362 -3278 0
-2363 -3279 0
-2364 -3280 0
-2361 -3585 0
-2362 -3586 0
-2363 -3587 0
-2364 -3588 0
-2365 -2369 0
-2366 -2370 0
-2367 -2371 0
-2368 -2372 0
-2365 -2373 0
-2366 -2374 0
-2367 -2375 0
-2368 -2376 0
-2365 -2433 0
-2366 -2434 0
-2367 -2435 0
-2368 -2436 0
-2365 -2441 0
-2366 -2442 0
-2367 -2443 0
-2368 -2444 0
-2365 -3289 0
-2366 -3290 0
-2367 -3291 0
-2368 -3292 0
-2365 -3585 0
-2366 -3586 0
-2367 -3587 0
-2368 -3588 0
-2365 -3705 0
-2366 -3706 0
-2367 -3707 0
-2368 -3708 0
-2369 -2377 0
-2370 -2378 0
-2371 -2379 0
-2372 -2380 0
-2369 -2381 0
-2370 -2382 0
-2371 -2383 0
-2372 -2384 0
-2369 -2441 0
-2370 -2442 0
-2371 -2443 0
-2372 -2444 0
-2369 -2449 0
-2370 -2450 0
-2371 -2451 0
-2372 -2452 0
-2369 -2737 0
-2370 -2738 0
-2371 -2739 0
-2372 -2740 0
-2369 -2949 0
-2370 -2950 0
-2371 -2951 0
-2372 -2952 0
-2369 -3297 0
-2370 -3298 0
-2371 -3299 0
-2372 -3300 0
-2369 -3401 0
-2370 -3402 0
-2371 -3403 0
-2372 -3404 0
-2369 -3709 0
-2370 -3710 0
-2371 -3711 0
-2372 -3712 0
-2373 -2377 0
-2374 -2378 0
-2375 -2379 0
-2376 -2380 0
-2373 -2469 0
-2374 -2470 0
-2375 -2471 0
-2376 -2472 0
-2373 -2477 0
-2374 -2478 0
-2375 -2479 0
-2376 -2480 0
-2373 -3073 0
-2374 -3074 0
-2375 -3075 0
-2376 -3076 0
-2373 -3705 0
-2374 -3706 0
-2375 -3707 0
-2376 -3708 0
-2377 -2477 0
-2378 -2478 0
-2379 -2479 0
-2380 -2480 0
-2377 -2485 0
-2378 -2486 0
-2379 -2487 0
-2380 -2488 0
-2377 -2741 0
-2378 -2742 0
-2379 -2743 0
-2380 -2744 0
-2377 -3317 0
-2378 -3318 0
-2379 -3319 0
-2380 -3320 0
-2377 -3405 0
-2378 -3406 0
-2379 -3407 0
-2380 -3408 0
-2377 -3709 0
-2378 -3710 0
-2379 -3711 0
-2380 -3712 0
-2381 -2505 0
-2382 -2506 0
-2383 -2507 0
-2384 -2508 0
-2381 -3409 0
-2382 -3410 0
-2383 -3411 0
-2384 -3412 0
-2385 -2389 0
-2386 -2390 0
-2387 -2391 0
-2388 -2392 0
-2385 -2393 0
-2386 -2394 0
-2387 -2395 0
-2388 -2396 0
-2385 -2437 0
-2386 -2438 0
-2387 -2439 0
-2388 -2440 0
-2385 -2441 0
-2386 -2442 0
-2387 -2443 0
-2388 -2444 0
-2385 -2809 0
-2386 -2810 0
-2387 -2811 0
-2388 -2812 0
-2385 -3077 0
-2386 -3078 0
-2387 -3079 0
-2388 -3080 0
-2385 -3409 0
-2386 -3410 0
-2387 -3411 0
-2388 -3412 0
-2385 -3713 0
-2386 -3714 0
-2387 -3715 0
-2388 -3716 0
-2389 -2397 0
-2390 -2398 0
-2391 -2399 0
-2392 -2400 0
-2389 -2441 0
-2390 -2442 0
-2391 -2443 0
-2392 -2444 0
-2389 -2445 0
-2390 -2446 0
-2391 -2447 0
-2392 -2448 0
-2389 -3081 0
-2390 -3082 0
-2391 -3083 0
-2392 -3084 0
-2389 -3717 0
-2390 -3718 0
-2391 -3719 0
-2392 -3720 0
-2389 -3845 0
-2390 -3846 0
-2391 -3847 0
-2392 -3848 0
-2393 -2397 0
-2394 -2398 0
-2395 -2399 0
-2396 -2400 0
-2393 -2473 0
-2394 -2474 0
-2395 -2475 0
-2396 -2476 0
-2393 -2477 0
-2394 -2478 0
-2395 -2479 0
-2396 -2480 0
-2393 -2545 0
-2394 -2546 0
-2395 -2547 0
-2396 -2548 0
-2393 -2589 0
-2394 -2590 0
-2395 -2591 0
-2396 -2592 0
-2393 -3089 0
-2394 -3090 0
-2395 -3091 0
-2396 -3092 0
-2393 -3337 0
-2394 -3338 0
-2395 -3339 0
-2396 -3340 0
-2393 -3713 0
-2394 -3714 0
-2395 -3715 0
-2396 -3716 0
-2397 -2477 0
-2398 -2478 0
-2399 -2479 0
-2400 -2480 0
-2397 -2481 0
-2398 -2482 0
-2399 -2483 0
-2400 -2484 0
-2397 -2837 0
-2398 -2838 0
-2399 -2839 0
-2400 -2840 0
-2397 -3093 0
-2398 -3094 0
-2399 -3095 0
-2400 -3096 0
-2397 -3717 0
-2398 -3718 0
-2399 -3719 0
-2400 -3720 0
-2401 -2405 0
-2402 -2406 0
-2403 -2407 0
-2404 -2408 0
-2401 -2441 0
-2402 -2442 0
-2403 -2443 0
-2404 -2444 0
-2401 -2953 0
-2402 -2954 0
-2403 -2955 0
-2404 -2956 0
-2401 -3413 0
-2402 -3414 0
-2403 -3415 0
-2404 -3416 0
-2401 -3721 0
-2402 -3722 0
-2403 -3723 0
-2404 -3724 0
-2401 -3797 0
-2402 -3798 0
-2403 -3799 0
-2404 -3800 0
-2405 -2477 0
-2406 -2478 0
-2407 -2479 0
-2408 -2480 0
-2405 -2765 0
-2406 -2766 0
-2407 -2767 0
-2408 -2768 0
-2405 -2957 0
-2406 -2958 0
-2407 -2959 0
-2408 -2960 0
-2405 -3721 0
-2406 -3722 0
-2407 -3723 0
-2408 -3724 0
-2405 -3801 0
-2406 -3802 0
-2407 -3803 0
-2408 -3804 0
-2409 -2413 0
-2410 -2414 0
-2411 -2415 0
-2412 -2416 0
-2409 -2441 0
-2410 -2442 0
-2411 -2443 0
-2412 -2444 0
-2409 -2869 0
-2410 -2870 0
-2411 -2871 0
-2412 -2872 0
-2409 -3213 0
-2410 -3214 0
-2411 -3215 0
-2412 -3216 0
-2409 -3677 0
-2410 -3678 0
-2411 -3679 0
-2412 -3680 0
-2409 -3725 0
-2410 -3726 0
-2411 -3727 0
-2412 -3728 0
-2409 -3849 0
-2410 -3850 0
-2411 -3851 0
-2412 -3852 0
-2413 -2477 0
-2414 -2478 0
-2415 -2479 0
-2416 -2480 0
-2413 -3217 0
-2414 -3218 0
-2415 -3219 0
-2416 -3220 0
-2413 -3349 0
-2414 -3350 0
-2415 -3351 0
-2416 -3352 0
-2413 -3681 0
-2414 -3682 0
-2415 -3683 0
-2416 -3684 0
-2413 -3725 0
-2414 -3726 0
-2415 -3727 0
-2416 -3728 0
-2413 -3853 0
-2414 -3854 0
-2415 -3855 0
-2416 -3856 0
-2417 -2441 0
-2418 -2442 0
-2419 -2443 0
-2420 -2444 0
-2417 -2873 0
-2418 -2874 0
-2419 -2875 0
-2420 -2876 0
-2417 -3729 0
-2418 -3730 0
-2419 -3731 0
-2420 -3732 0
-2421 -2425 0
-2422 -2426 0
-2423 -2427 0
-2424 -2428 0
-2421 -2441 0
-2422 -2442 0
-2423 -2443 0
-2424 -2444 0
-2421 -2461 0
-2422 -2462 0
-2423 -2463 0
-2424 -2464 0
-2421 -2593 0
-2422 -2594 0
-2423 -2595 0
-2424 -2596 0
-2421 -2901 0
-2422 -2902 0
-2423 -2903 0
-2424 -2904 0
-2421 -3421 0
-2422 -3422 0
-2423 -3423 0
-2424 -3424 0
-2421 -3733 0
-2422 -3734 0
-2423 -3735 0
-2424 -3736 0
-2421 -3857 0
-2422 -3858 0
-2423 -3859 0
-2424 -3860 0
-2425 -2445 0
-2426 -2446 0
-2427 -2447 0
-2428 -2448 0
-2425 -3861 0
-2426 -3862 0
-2427 -3863 0
-2428 -3864 0
-2429 -2441 0
-2430 -2442 0
-2431 -2443 0
-2432 -2444 0
-2429 -2465 0
-2430 -2466 0
-2431 -2467 0
-2432 -2468 0
-2429 -2549 0
-2430 -2550 0
-2431 -2551 0
-2432 -2552 0
-2429 -2877 0
-2430 -2878 0
-2431 -2879 0
-2432 -2880 0
-2429 -3589 0
-2430 -3590 0
-2431 -3591 0
-2432 -3592 0
-2429 -3737 0
-2430 -3738 0
-2431 -3739 0
-2432 -3740 0
-2433 -2441 0
-2434 -2442 0
-2435 -2443 0
-2436 -2444 0
-2433 -2469 0
-2434 -2470 0
-2435 -2471 0
-2436 -2472 0
-2433 -2529 0
-2434 -2530 0
-2435 -2531 0
-2436 -2532 0
-2433 -2905 0
-2434 -2906 0
-2435 -2907 0
-2436 -2908 0
-2433 -3741 0
-2434 -3742 0
-2435 -3743 0
-2436 -3744 0
-2437 -2441 0
-2438 -2442 0
-2439 -2443 0
-2440 -2444 0
-2437 -2473 0
-2438 -2474 0
-2439 -2475 0
-2440 -2476 0
-2437 -2513 0
-2438 -2514 0
-2439 -2515 0
-2440 -2516 0
-2437 -2813 0
-2438 -2814 0
-2439 -2815 0
-2440 -2816 0
-2437 -2909 0
-2438 -2910 0
-2439 -2911 0
-2440 -2912 0
-2437 -3281 0
-2438 -3282 0
-2439 -3283 0
-2440 -3284 0
-2437 -3593 0
-2438 -3594 0
-2439 -3595 0
-2440 -3596 0
-2437 -3745 0
-2438 -3746 0
-2439 -3747 0
-2440 -3748 0
-2441 -2445 0
-2442 -2446 0
-2443 -2447 0
-2444 -2448 0
-2441 -2449 0
-2442 -2450 0
-2443 -2451 0
-2444 -2452 0
-2441 -2453 0
-2442 -2454 0
-2443 -2455 0
-2444 -2456 0
-2441 -2457 0
-2442 -2458 0
-2443 -2459 0
-2444 -2460 0
-2441 -2477 0
-2442 -2478 0
-2443 -2479 0
-2444 -2480 0
-2441 -2497 0
-2442 -2498 0
-2443 -2499 0
-2444 -2500 0
-2441 -2505 0
-2442 -2506 0
-2443 -2507 0
-2444 -2508 0
-2441 -2513 0
-2442 -2514 0
-2443 -2515 0
-2444 -2516 0
-2441 -2517 0
-2442 -2518 0
-2443 -2519 0
-2444 -2520 0
-2441 -2529 0
-2442 -2530 0
-2443 -2531 0
-2444 -2532 0
-2441 -2533 0
-2442 -2534 0
-2443 -2535 0
-2444 -2536 0
-2441 -2549 0
-2442 -2550 0
-2443 -2551 0
-2444 -2552 0
-2441 -2553 0
-2442 -2554 0
-2443 -2555 0
-2444 -2556 0
-2441 -2593 0
-2442 -2594 0
-2443 -2595 0
-2444 -2596 0
-2441 -2597 0
-2442 -2598 0
-2443 -2599 0
-2444 -2600 0
-2441 -2777 0
-2442 -2778 0
-2443 -2779 0
-2444 -2780 0
-2441 -2817 0
-2442 -2818 0
-2443 -2819 0
-2444 -2820 0
-2441 -2881 0
-2442 -2882 0
-2443 -2883 0
-2444 -2884 0
-2441 -2913 0
-2442 -2914 0
-2443 -2915 0
-2444 -2916 0
-2441 -2965 0
-2442 -2966 0
-2443 -2967 0
-2444 -2968 0
-2441 -3113 0
-2442 -3114 0
-2443 -3115 0
-2444 -3116 0
-2441 -3165 0
-2442 -3166 0
-2443 -3167 0
-2444 -3168 0
-2441 -3285 0
-2442 -3286 0
-2443 -3287 0
-2444 -3288 0
-2441 -3329 0
-2442 -3330 0
-2443 -3331 0
-2444 -3332 0
-2441 -3425 0
-2442 -3426 0
-2443 -3427 0
-2444 -3428 0
-2441 -3429 0
-2442 -3430 0
-2443 -3431 0
-2444 -3432 0
-2441 -3597 0
-2442 -3598 0
-2443 -3599 0
-2444 -3600 0
-2441 -3677 0
-2442 -3678 0
-2443 -3679 0
-2444 -3680 0
-2441 -3685 0
-2442 -3686 0
-2443 -3687 0
-2444 -3688 0
-2441 -3729 0
-2442 -3730 0
-2443 -3731 0
-2444 -3732 0
-2441 -3749 0
-2442 -3750 0
-2443 -3751 0
-2444 -3752 0
-2441 -3797 0
-2442 -3798 0
-2443 -3799 0
-2444 -3800 0
-2441 -3805 0
-2442 -3806 0
-2443 -3807 0
-2444 -3808 0
-2441 -3865 0
-2442 -3866 0
-2443 -3867 0
-2444 -3868 0
-2445 -2481 0
-2446 -2482 0
-2447 -2483 0
-2448 -2484 0
-2445 -2517 0
-2446 -2518 0
-2447 -2519 0
-2448 -2520 0
-2445 -2969 0
-2446 -2970 0
-2447 -2971 0
-2448 -2972 0
-2445 -3333 0
-2446 -3334 0
-2447 -3335 0
-2448 -3336 0
-2445 -3753 0
-2446 -3754 0
-2447 -3755 0
-2448 -3756 0
-2449 -2485 0
-2450 -2486 0
-2451 -2487 0
-2452 -2488 0
-2449 -2533 0
-2450 -2534 0
-2451 -2535 0
-2452 -2536 0
-2449 -2781 0
-2450 -2782 0
-2451 -2783 0
-2452 -2784 0
-2449 -2973 0
-2450 -2974 0
-2451 -2975 0
-2452 -2976 0
-2449 -3169 0
-2450 -3170 0
-2451 -3171 0
-2452 -3172 0
-2449 -3433 0
-2450 -3434 0
-2451 -3435 0
-2452 -3436 0
-2449 -3809 0
-2450 -3810 0
-2451 -3811 0
-2452 -3812 0
-2453 -2489 0
-2454 -2490 0
-2455 -2491 0
-2456 -2492 0
-2453 -2553 0
-2454 -2554 0
-2455 -2555 0
-2456 -2556 0
-2453 -2785 0
-2454 -2786 0
-2455 -2787 0
-2456 -2788 0
-2453 -2841 0
-2454 -2842 0
-2455 -2843 0
-2456 -2844 0
-2453 -3117 0
-2454 -3118 0
-2455 -3119 0
-2456 -3120 0
-2453 -3337 0
-2454 -3338 0
-2455 -3339 0
-2456 -3340 0
-2453 -3757 0
-2454 -3758 0
-2455 -3759 0
-2456 -3760 0
-2457 -2493 0
-2458 -2494 0
-2459 -2495 0
-2460 -2496 0
-2457 -2597 0
-2458 -2598 0
-2459 -2599 0
-2460 -2600 0
-2457 -2825 0
-2458 -2826 0
-2459 -2827 0
-2460 -2828 0
-2457 -2885 0
-2458 -2886 0
-2459 -2887 0
-2460 -2888 0
-2457 -3121 0
-2458 -3122 0
-2459 -3123 0
-2460 -3124 0
-2457 -3341 0
-2458 -3342 0
-2459 -3343 0
-2460 -3344 0
-2457 -3761 0
-2458 -3762 0
-2459 -3763 0
-2460 -3764 0
-2461 -2477 0
-2462 -2478 0
-2463 -2479 0
-2464 -2480 0
-2461 -2601 0
-2462 -2602 0
-2463 -2603 0
-2464 -2604 0
-2461 -2629 0
-2462 -2630 0
-2463 -2631 0
-2464 -2632 0
-2461 -3733 0
-2462 -3734 0
-2463 -3735 0
-2464 -3736 0
-2461 -3869 0
-2462 -3870 0
-2463 -3871 0
-2464 -3872 0
-2465 -2477 0
-2466 -2478 0
-2467 -2479 0
-2468 -2480 0
-2465 -2557 0
-2466 -2558 0
-2467 -2559 0
-2468 -2560 0
-2465 -2649 0
-2466 -2650 0
-2467 -2651 0
-2468 -2652 0
-2465 -3361 0
-2466 -3362 0
-2467 -3363 0
-2468 -3364 0
-2465 -3601 0
-2466 -3602 0
-2467 -3603 0
-2468 -3604 0
-2465 -3737 0
-2466 -3738 0
-2467 -3739 0
-2468 -3740 0
-2469 -2477 0
-2470 -2478 0
-2471 -2479 0
-2472 -2480 0
-2469 -2537 0
-2470 -2538 0
-2471 -2539 0
-2472 -2540 0
-2469 -2653 0
-2470 -2654 0
-2471 -2655 0
-2472 -2656 0
-2469 -3221 0
-2470 -3222 0
-2471 -3223 0
-2472 -3224 0
-2469 -3293 0
-2470 -3294 0
-2471 -3295 0
-2472 -3296 0
-2469 -3689 0
-2470 -3690 0
-2471 -3691 0
-2472 -3692 0
-2469 -3741 0
-2470 -3742 0
-2471 -3743 0
-2472 -3744 0
-2473 -2477 0
-2474 -2478 0
-2475 -2479 0
-2476 -2480 0
-2473 -2521 0
-2474 -2522 0
-2475 -2523 0
-2476 -2524 0
-2473 -2633 0
-2474 -2634 0
-2475 -2635 0
-2476 -2636 0
-2473 -3297 0
-2474 -3298 0
-2475 -3299 0
-2476 -3300 0
-2473 -3605 0
-2474 -3606 0
-2475 -3607 0
-2476 -3608 0
-2473 -3745 0
-2474 -3746 0
-2475 -3747 0
-2476 -3748 0
-2477 -2481 0
-2478 -2482 0
-2479 -2483 0
-2480 -2484 0
-2477 -2485 0
-2478 -2486 0
-2479 -2487 0
-2480 -2488 0
-2477 -2489 0
-2478 -2490 0
-2479 -2491 0
-2480 -2492 0
-2477 -2493 0
-2478 -2494 0
-2479 -2495 0
-2480 -2496 0
-2477 -2501 0
-2478 -2502 0
-2479 -2503 0
-2480 -2504 0
-2477 -2509 0
-2478 -2510 0
-2479 -2511 0
-2480 -2512 0
-2477 -2521 0
-2478 -2522 0
-2479 -2523 0
-2480 -2524 0
-2477 -2525 0
-2478 -2526 0
-2479 -2527 0
-2480 -2528 0
-2477 -2537 0
-2478 -2538 0
-2479 -2539 0
-2480 -2540 0
-2477 -2541 0
-2478 -2542 0
-2479 -2543 0
-2480 -2544 0
-2477 -2557 0
-2478 -2558 0
-2479 -2559 0
-2480 -2560 0
-2477 -2561 0
-2478 -2562 0
-2479 -2563 0
-2480 -2564 0
-2477 -2601 0
-2478 -2602 0
-2479 -2603 0
-2480 -2604 0
-2477 -2605 0
-2478 -2606 0
-2479 -2607 0
-2480 -2608 0
-2477 -2637 0
-2478 -2638 0
-2479 -2639 0
-2480 -2640 0
-2477 -2789 0
-2478 -2790 0
-2479 -2791 0
-2480 -2792 0
-2477 -2845 0
-2478 -2846 0
-2479 -2847 0
-2480 -2848 0
-2477 -2981 0
-2478 -2982 0
-2479 -2983 0
-2480 -2984 0
-2477 -3129 0
-2478 -3130 0
-2479 -3131 0
-2480 -3132 0
-2477 -3173 0
-2478 -3174 0
-2479 -3175 0
-2480 -3176 0
-2477 -3225 0
-2478 -3226 0
-2479 -3227 0
-2480 -3228 0
-2477 -3301 0
-2478 -3302 0
-2479 -3303 0
-2480 -3304 0
-2477 -3365 0
-2478 -3366 0
-2479 -3367 0
-2480 -3368 0
-2477 -3437 0
-2478 -3438 0
-2479 -3439 0
-2480 -3440 0
-2477 -3609 0
-2478 -3610 0
-2479 -3611 0
-2480 -3612 0
-2477 -3613 0
-2478 -3614 0
-2479 -3615 0
-2480 -3616 0
-2477 -3681 0
-2478 -3682 0
-2479 -3683 0
-2480 -3684 0
-2477 -3693 0
-2478 -3694 0
-2479 -3695 0
-2480 -3696 0
-2477 -3749 0
-2478 -3750 0
-2479 -3751 0
-2480 -3752 0
-2477 -3765 0
-2478 -3766 0
-2479 -3767 0
-2480 -3768 0
-2477 -3801 0
-2478 -3802 0
-2479 -3803 0
-2480 -3804 0
-2477 -3813 0
-2478 -3814 0
-2479 -3815 0
-2480 -3816 0
-2477 -3873 0
-2478 -3874 0
-2479 -3875 0
-2480 -3876 0
-2481 -2525 0
-2482 -2526 0
-2483 -2527 0
-2484 -2528 0
-2481 -2849 0
-2482 -2850 0
-2483 -2851 0
-2484 -2852 0
-2481 -2985 0
-2482 -2986 0
-2483 -2987 0
-2484 -2988 0
-2481 -3229 0
-2482 -3230 0
-2483 -3231 0
-2484 -3232 0
-2481 -3753 0
-2482 -3754 0
-2483 -3755 0
-2484 -3756 0
-2485 -2541 0
-2486 -2542 0
-2487 -2543 0
-2488 -2544 0
-2485 -2641 0
-2486 -2642 0
-2487 -2643 0
-2488 -2644 0
-2485 -2793 0
-2486 -2794 0
-2487 -2795 0
-2488 -2796 0
-2485 -3177 0
-2486 -3178 0
-2487 -3179 0
-2488 -3180 0
-2485 -3441 0
-2486 -3442 0
-2487 -3443 0
-2488 -3444 0
-2489 -2561 0
-2490 -2562 0
-2491 -2563 0
-2492 -2564 0
-2489 -2797 0
-2490 -2798 0
-2491 -2799 0
-2492 -2800 0
-2489 -2853 0
-2490 -2854 0
-2491 -2855 0
-2492 -2856 0
-2489 -3133 0
-2490 -3134 0
-2491 -3135 0
-2492 -3136 0
-2489 -3757 0
-2490 -3758 0
-2491 -3759 0
-2492 -3760 0
-2493 -2605 0
-2494 -2606 0
-2495 -2607 0
-2496 -2608 0
-2493 -3137 0
-2494 -3138 0
-2495 -3139 0
-2496 -3140 0
-2493 -3373 0
-2494 -3374 0
-2495 -3375 0
-2496 -3376 0
-2493 -3761 0
-2494 -3762 0
-2495 -3763 0
-2496 -3764 0
-2497 -2501 0
-2498 -2502 0
-2499 -2503 0
-2500 -2504 0
-2497 -2801 0
-2498 -2802 0
-2499 -2803 0
-2500 -2804 0
-2497 -2933 0
-2498 -2934 0
-2499 -2935 0
-2500 -2936 0
-2497 -2989 0
-2498 -2990 0
-2499 -2991 0
-2500 -2992 0
-2497 -3145 0
-2498 -3146 0
-2499 -3147 0
-2500 -3148 0
-2497 -3685 0
-2498 -3686 0
-2499 -3687 0
-2500 -3688 0
-2497 -3769 0
-2498 -3770 0
-2499 -3771 0
-2500 -3772 0
-2501 -2805 0
-2502 -2806 0
-2503 -2807 0
-2504 -2808 0
-2501 -3617 0
-2502 -3618 0
-2503 -3619 0
-2504 -3620 0
-2501 -3693 0
-2502 -3694 0
-2503 -3695 0
-2504 -3696 0
-2501 -3769 0
-2502 -3770 0
-2503 -3771 0
-2504 -3772 0
-2505 -2509 0
-2506 -2510 0
-2507 -2511 0
-2508 -2512 0
-2505 -2833 0
-2506 -2834 0
-2507 -2835 0
-2508 -2836 0
-2505 -2897 0
-2506 -2898 0
-2507 -2899 0
-2508 -2900 0
-2505 -3149 0
-2506 -3150 0
-2507 -3151 0
-2508 -3152 0
-2505 -3773 0
-2506 -3774 0
-2507 -3775 0
-2508 -3776 0
-2505 -3805 0
-2506 -3806 0
-2507 -3807 0
-2508 -3808 0
-2509 -2657 0
-2510 -2658 0
-2511 -2659 0
-2512 -2660 0
-2509 -3153 0
-2510 -3154 0
-2511 -3155 0
-2512 -3156 0
-2509 -3233 0
-2510 -3234 0
-2511 -3235 0
-2512 -3236 0
-2509 -3305 0
-2510 -3306 0
-2511 -3307 0
-2512 -3308 0
-2509 -3773 0
-2510 -3774 0
-2511 -3775 0
-2512 -3776 0
-2509 -3813 0
-2510 -3814 0
-2511 -3815 0
-2512 -3816 0
-2513 -2517 0
-2514 -2518 0
-2515 -2519 0
-2516 -2520 0
-2513 -2521 0
-2514 -2522 0
-2515 -2523 0
-2516 -2524 0
-2513 -2661 0
-2514 -2662 0
-2515 -2663 0
-2516 -2664 0
-2513 -2941 0
-2514 -2942 0
-2515 -2943 0
-2516 -2944 0
-2513 -3309 0
-2514 -3310 0
-2515 -3311 0
-2516 -3312 0
-2513 -3453 0
-2514 -3454 0
-2515 -3455 0
-2516 -3456 0
-2513 -3777 0
-2514 -3778 0
-2515 -3779 0
-2516 -3780 0
-2517 -2525 0
-2518 -2526 0
-2519 -2527 0
-2520 -2528 0
-2517 -2677 0
-2518 -2678 0
-2519 -2679 0
-2520 -2680 0
-2517 -2997 0
-2518 -2998 0
-2519 -2999 0
-2520 -3000 0
-2517 -3361 0
-2518 -3362 0
-2519 -3363 0
-2520 -3364 0
-2517 -3457 0
-2518 -3458 0
-2519 -3459 0
-2520 -3460 0
-2521 -2525 0
-2522 -2526 0
-2523 -2527 0
-2524 -2528 0
-2521 -2669 0
-2522 -2670 0
-2523 -2671 0
-2524 -2672 0
-2521 -3313 0
-2522 -3314 0
-2523 -3315 0
-2524 -3316 0
-2521 -3473 0
-2522 -3474 0
-2523 -3475 0
-2524 -3476 0
-2521 -3621 0
-2522 -3622 0
-2523 -3623 0
-2524 -3624 0
-2521 -3777 0
-2522 -3778 0
-2523 -3779 0
-2524 -3780 0
-2525 -3005 0
-2526 -3006 0
-2527 -3007 0
-2528 -3008 0
-2525 -3625 0
-2526 -3626 0
-2527 -3627 0
-2528 -3628 0
-2529 -2533 0
-2530 -2534 0
-2531 -2535 0
-2532 -2536 0
-2529 -2537 0
-2530 -2538 0
-2531 -2539 0
-2532 -2540 0
-2529 -2921 0
-2530 -2922 0
-2531 -2923 0
-2532 -2924 0
-2529 -3477 0
-2530 -3478 0
-2531 -3479 0
-2532 -3480 0
-2529 -3781 0
-2530 -3782 0
-2531 -3783 0
-2532 -3784 0
-2529 -3889 0
-2530 -3890 0
-2531 -3891 0
-2532 -3892 0
-2533 -2541 0
-2534 -2542 0
-2535 -2543 0
-2536 -2544 0
-2533 -2925 0
-2534 -2926 0
-2535 -2927 0
-2536 -2928 0
-2533 -3021 0
-2534 -3022 0
-2535 -3023 0
-2536 -3024 0
-2533 -3181 0
-2534 -3182 0
-2535 -3183 0
-2536 -3184 0
-2533 -3481 0
-2534 -3482 0
-2535 -3483 0
-2536 -3484 0
-2533 -3633 0
-2534 -3634 0
-2535 -3635 0
-2536 -3636 0
-2533 -3785 0
-2534 -3786 0
-2535 -3787 0
-2536 -3788 0
-2537 -2541 0
-2538 -2542 0
-2539 -2543 0
-2540 -2544 0
-2537 -3333 0
-2538 -3334 0
-2539 -3335 0
-2540 -3336 0
-2537 -3637 0
-2538 -3638 0
-2539 -3639 0
-2540 -3640 0
-2537 -3781 0
-2538 -3782 0
-2539 -3783 0
-2540 -3784 0
-2537 -3893 0
-2538 -3894 0
-2539 -3895 0
-2540 -3896 0
-2541 -2689 0
-2542 -2690 0
-2543 -2691 0
-2544 -2692 0
-2541 -3185 0
-2542 -3186 0
-2543 -3187 0
-2544 -3188 0
-2541 -3641 0
-2542 -3642 0
-2543 -3643 0
-2544 -3644 0
-2541 -3785 0
-2542 -3786 0
-2543 -3787 0
-2544 -3788 0
-2545 -2557 0
-2546 -2558 0
-2547 -2559 0
-2548 -2560 0
-2545 -3385 0
-2546 -3386 0
-2547 -3387 0
-2548 -3388 0
-2545 -3641 0
-2546 -3642 0
-2547 -3643 0
-2548 -3644 0
-2549 -2553 0
-2550 -2554 0
-2551 -2555 0
-2552 -2556 0
-2549 -2557 0
-2550 -2558 0
-2551 -2559 0
-2552 -2560 0
-2549 -2945 0
-2550 -2946 0
-2551 -2947 0
-2552 -2948 0
-2549 -2961 0
-2550 -2962 0
-2551 -2963 0
-2552 -2964 0
-2549 -3189 0
-2550 -3190 0
-2551 -3191 0
-2552 -3192 0
-2549 -3653 0
-2550 -3654 0
-2551 -3655 0
-2552 -3656 0
-2549 -3789 0
-2550 -3790 0
-2551 -3791 0
-2552 -3792 0
-2553 -2561 0
-2554 -2562 0
-2555 -2563 0
-2556 -2564 0
-2553 -2829 0
-2554 -2830 0
-2555 -2831 0
-2556 -2832 0
-2553 -2977 0
-2554 -2978 0
-2555 -2979 0
-2556 -2980 0
-2553 -3193 0
-2554 -3194 0
-2555 -3195 0
-2556 -3196 0
-2553 -3385 0
-2554 -3386 0
-2555 -3387 0
-2556 -3388 0
-2553 -3485 0
-2554 -3486 0
-2555 -3487 0
-2556 -3488 0
-2553 -3793 0
-2554 -3794 0
-2555 -3795 0
-2556 -3796 0
-2557 -2561 0
-2558 -2562 0
-2559 -2563 0
-2560 -2564 0
-2557 -2709 0
-2558 -2710 0
-2559 -2711 0
-2560 -2712 0
-2557 -3197 0
-2558 -3198 0
-2559 -3199 0
-2560 -3200 0
-2557 -3665 0
-2558 -3666 0
-2559 -3667 0
-2560 -3668 0
-2557 -3789 0
-2558 -3790 0
-2559 -3791 0
-2560 -3792 0
-2561 -2833 0
-2562 -2834 0
-2563 -2835 0
-2564 -2836 0
-2561 -2857 0
-2562 -2858 0
-2563 -2859 0
-2564 -2860 0
-2561 -3201 0
-2562 -3202 0
-2563 -3203 0
-2564 -3204 0
-2561 -3489 0
-2562 -3490 0
-2563 -3491 0
-2564 -3492 0
-2561 -3793 0
-2562 -3794 0
-2563 -3795 0
-2564 -3796 0
-2565 -2569 0
-2566 -2570 0
-2567 -2571 0
-2568 -2572 0
-2565 -2957 0
-2566 -2958 0
-2567 -2959 0
-2568 -2960 0
-2565 -3725 0
-2566 -3726 0
-2567 -3727 0
-2568 -3728 0
-2565 -3749 0
-2566 -3750 0
-2567 -3751 0
-2568 -3752 0
-2569 -2721 0
-2570 -2722 0
-2571 -2723 0
-2572 -2724 0
-2569 -3221 0
-2570 -3222 0
-2571 -3223 0
-2572 -3224 0
-2569 -3377 0
-2570 -3378 0
-2571 -3379 0
-2572 -3380 0
-2569 -3749 0
-2570 -3750 0
-2571 -3751 0
-2572 -3752 0
-2569 -3769 0
-2570 -3770 0
-2571 -3771 0
-2572 -3772 0
-2573 -2577 0
-2574 -2578 0
-2575 -2579 0
-2576 -2580 0
-2573 -2581 0
-2574 -2582 0
-2575 -2583 0
-2576 -2584 0
-2573 -2725 0
-2574 -2726 0
-2575 -2727 0
-2576 -2728 0
-2573 -3797 0
-2574 -3798 0
-2575 -3799 0
-2576 -3800 0
-2577 -2585 0
-2578 -2586 0
-2579 -2587 0
-2580 -2588 0
-2577 -2877 0
-2578 -2878 0
-2579 -2879 0
-2580 -2880 0
-2577 -3797 0
-2578 -3798 0
-2579 -3799 0
-2580 -3800 0
-2577 -3801 0
-2578 -3802 0
-2579 -3803 0
-2580 -3804 0
-2581 -2585 0
-2582 -2586 0
-2583 -2587 0
-2584 -2588 0
-2581 -3189 0
-2582 -3190 0
-2583 -3191 0
-2584 -3192 0
-2581 -3805 0
-2582 -3806 0
-2583 -3807 0
-2584 -3808 0
-2585 -2893 0
-2586 -2894 0
-2587 -2895 0
-2588 -2896 0
-2585 -3197 0
-2586 -3198 0
-2587 -3199 0
-2588 -3200 0
-2585 -3805 0
-2586 -3806 0
-2587 -3807 0
-2588 -3808 0
-2585 -3813 0
-2586 -3814 0
-2587 -3815 0
-2588 -3816 0
-2589 -2605 0
-2590 -2606 0
-2591 -2607 0
-2592 -2608 0
-2589 -2909 0
-2590 -2910 0
-2591 -2911 0
-2592 -2912 0
-2589 -3217 0
-2590 -3218 0
-2591 -3219 0
-2592 -3220 0
-2589 -3397 0
-2590 -3398 0
-2591 -3399 0
-2592 -3400 0
-2593 -2597 0
-2594 -2598 0
-2595 -2599 0
-2596 -2600 0
-2593 -2601 0
-2594 -2602 0
-2595 -2603 0
-2596 -2604 0
-2593 -3513 0
-2594 -3514 0
-2595 -3515 0
-2596 -3516 0
-2593 -3517 0
-2594 -3518 0
-2595 -3519 0
-2596 -3520 0
-2593 -3817 0
-2594 -3818 0
-2595 -3819 0
-2596 -3820 0
-2597 -2605 0
-2598 -2606 0
-2599 -2607 0
-2600 -2608 0
-2597 -3393 0
-2598 -3394 0
-2599 -3395 0
-2600 -3396 0
-2597 -3521 0
-2598 -3522 0
-2599 -3523 0
-2600 -3524 0
-2597 -3821 0
-2598 -3822 0
-2599 -3823 0
-2600 -3824 0
-2601 -2605 0
-2602 -2606 0
-2603 -2607 0
-2604 -2608 0
-2601 -2769 0
-2602 -2770 0
-2603 -2771 0
-2604 -2772 0
-2601 -3041 0
-2602 -3042 0
-2603 -3043 0
-2604 -3044 0
-2601 -3817 0
-2602 -3818 0
-2603 -3819 0
-2604 -3820 0
-2605 -2941 0
-2606 -2942 0
-2607 -2943 0
-2608 -2944 0
-2605 -3525 0
-2606 -3526 0
-2607 -3527 0
-2608 -3528 0
-2605 -3821 0
-2606 -3822 0
-2607 -3823 0
-2608 -3824 0
-2609 -2677 0
-2610 -2678 0
-2611 -2679 0
-2612 -2680 0
-2609 -2937 0
-2610 -2938 0
-2611 -2939 0
-2612 -2940 0
-2609 -3065 0
-2610 -3066 0
-2611 -3067 0
-2612 -3068 0
-2609 -3677 0
-2610 -3678 0
-2611 -3679 0
-2612 -3680 0
-2609 -3837 0
-2610 -3838 0
-2611 -3839 0
-2612 -3840 0
-2609 -3841 0
-2610 -3842 0
-2611 -3843 0
-2612 -3844 0
-2613 -2617 0
-2614 -2618 0
-2615 -2619 0
-2616 -2620 0
-2613 -2621 0
-2614 -2622 0
-2615 -2623 0
-2616 -2624 0
-2613 -2737 0
-2614 -2738 0
-2615 -2739 0
-2616 -2740 0
-2613 -3281 0
-2614 -3282 0
-2615 -3283 0
-2616 -3284 0
-2613 -3417 0
-2614 -3418 0
-2615 -3419 0
-2616 -3420 0
-2613 -3677 0
-2614 -3678 0
-2615 -3679 0
-2616 -3680 0
-2613 -3825 0
-2614 -3826 0
-2615 -3827 0
-2616 -3828 0
-2617 -2625 0
-2618 -2626 0
-2619 -2627 0
-2620 -2628 0
-2617 -2645 0
-2618 -2646 0
-2619 -2647 0
-2620 -2648 0
-2617 -2649 0
-2618 -2650 0
-2619 -2651 0
-2620 -2652 0
-2617 -2741 0
-2618 -2742 0
-2619 -2743 0
-2620 -2744 0
-2617 -3297 0
-2618 -3298 0
-2619 -3299 0
-2620 -3300 0
-2617 -3421 0
-2618 -3422 0
-2619 -3423 0
-2620 -3424 0
-2617 -3681 0
-2618 -3682 0
-2619 -3683 0
-2620 -3684 0
-2617 -3825 0
-2618 -3826 0
-2619 -3827 0
-2620 -3828 0
-2621 -2625 0
-2622 -2626 0
-2623 -2627 0
-2624 -2628 0
-2621 -2745 0
-2622 -2746 0
-2623 -2747 0
-2624 -2748 0
-2621 -2753 0
-2622 -2754 0
-2623 -2755 0
-2624 -2756 0
-2621 -2945 0
-2622 -2946 0
-2623 -2947 0
-2624 -2948 0
-2621 -3049 0
-2622 -3050 0
-2623 -3051 0
-2624 -3052 0
-2621 -3685 0
-2622 -3686 0
-2623 -3687 0
-2624 -3688 0
-2621 -3829 0
-2622 -3830 0
-2623 -3831 0
-2624 -3832 0
-2625 -2757 0
-2626 -2758 0
-2627 -2759 0
-2628 -2760 0
-2625 -2761 0
-2626 -2762 0
-2627 -2763 0
-2628 -2764 0
-2625 -2893 0
-2626 -2894 0
-2627 -2895 0
-2628 -2896 0
-2625 -3693 0
-2626 -3694 0
-2627 -3695 0
-2628 -3696 0
-2625 -3829 0
-2626 -3830 0
-2627 -3831 0
-2628 -3832 0
-2625 -3833 0
-2626 -3834 0
-2627 -3835 0
-2628 -3836 0
-2629 -2637 0
-2630 -2638 0
-2631 -2639 0
-2632 -2640 0
-2629 -2653 0
-2630 -2654 0
-2631 -2655 0
-2632 -2656 0
-2629 -2769 0
-2630 -2770 0
-2631 -2771 0
-2632 -2772 0
-2629 -3909 0
-2630 -3910 0
-2631 -3911 0
-2632 -3912 0
-2633 -2637 0
-2634 -2638 0
-2635 -2639 0
-2636 -2640 0
-2633 -2669 0
-2634 -2670 0
-2635 -2671 0
-2636 -2672 0
-2633 -2685 0
-2634 -2686 0
-2635 -2687 0
-2636 -2688 0
-2633 -2705 0
-2634 -2706 0
-2635 -2707 0
-2636 -2708 0
-2633 -2713 0
-2634 -2714 0
-2635 -2715 0
-2636 -2716 0
-2633 -2957 0
-2634 -2958 0
-2635 -2959 0
-2636 -2960 0
-2633 -3401 0
-2634 -3402 0
-2635 -3403 0
-2636 -3404 0
-2633 -3701 0
-2634 -3702 0
-2635 -3703 0
-2636 -3704 0
-2637 -2641 0
-2638 -2642 0
-2639 -2643 0
-2640 -2644 0
-2637 -2657 0
-2638 -2658 0
-2639 -2659 0
-2640 -2660 0
-2637 -2669 0
-2638 -2670 0
-2639 -2671 0
-2640 -2672 0
-2637 -2689 0
-2638 -2690 0
-2639 -2691 0
-2640 -2692 0
-2637 -2709 0
-2638 -2710 0
-2639 -2711 0
-2640 -2712 0
-2637 -2769 0
-2638 -2770 0
-2639 -2771 0
-2640 -2772 0
-2637 -2905 0
-2638 -2906 0
-2639 -2907 0
-2640 -2908 0
-2637 -3321 0
-2638 -3322 0
-2639 -3323 0
-2640 -3324 0
-2637 -3437 0
-2638 -3438 0
-2639 -3439 0
-2640 -3440 0
-2637 -3913 0
-2638 -3914 0
-2639 -3915 0
-2640 -3916 0
-2641 -2673 0
-2642 -2674 0
-2643 -2675 0
-2644 -2676 0
-2641 -2689 0
-2642 -2690 0
-2643 -2691 0
-2644 -2692 0
-2641 -2913 0
-2642 -2914 0
-2643 -2915 0
-2644 -2916 0
-2641 -3101 0
-2642 -3102 0
-2643 -3103 0
-2644 -3104 0
-2641 -3265 0
-2642 -3266 0
-2643 -3267 0
-2644 -3268 0
-2641 -3441 0
-2642 -3442 0
-2643 -3443 0
-2644 -3444 0
-2641 -3469 0
-2642 -3470 0
-2643 -3471 0
-2644 -3472 0
-2645 -2649 0
-2646 -2650 0
-2647 -2651 0
-2648 -2652 0
-2645 -2653 0
-2646 -2654 0
-2647 -2655 0
-2648 -2656 0
-2645 -2789 0
-2646 -2790 0
-2647 -2791 0
-2648 -2792 0
-2645 -3329 0
-2646 -3330 0
-2647 -3331 0
-2648 -3332 0
-2645 -3921 0
-2646 -3922 0
-2647 -3923 0
-2648 -3924 0
-2649 -2793 0
-2650 -2794 0
-2651 -2795 0
-2652 -2796 0
-2649 -2837 0
-2650 -2838 0
-2651 -2839 0
-2652 -2840 0
-2653 -2657 0
-2654 -2658 0
-2655 -2659 0
-2656 -2660 0
-2653 -2797 0
-2654 -2798 0
-2655 -2799 0
-2656 -2800 0
-2653 -3337 0
-2654 -3338 0
-2655 -3339 0
-2656 -3340 0
-2653 -3925 0
-2654 -3926 0
-2655 -3927 0
-2656 -3928 0
-2657 -2797 0
-2658 -2798 0
-2659 -2799 0
-2660 -2800 0
-2657 -2985 0
-2658 -2986 0
-2659 -2987 0
-2660 -2988 0
-2657 -3249 0
-2658 -3250 0
-2659 -3251 0
-2660 -3252 0
-2657 -3345 0
-2658 -3346 0
-2659 -3347 0
-2660 -3348 0
-2661 -2665 0
-2662 -2666 0
-2663 -2667 0
-2664 -2668 0
-2661 -2669 0
-2662 -2670 0
-2663 -2671 0
-2664 -2672 0
-2661 -2697 0
-2662 -2698 0
-2663 -2699 0
-2664 -2700 0
-2661 -2841 0
-2662 -2842 0
-2663 -2843 0
-2664 -2844 0
-2661 -3257 0
-2662 -3258 0
-2663 -3259 0
-2664 -3260 0
-2661 -3453 0
-2662 -3454 0
-2663 -3455 0
-2664 -3456 0
-2665 -2673 0
-2666 -2674 0
-2667 -2675 0
-2668 -2676 0
-2665 -2681 0
-2666 -2682 0
-2667 -2683 0
-2668 -2684 0
-2665 -2697 0
-2666 -2698 0
-2667 -2699 0
-2668 -2700 0
-2665 -3461 0
-2666 -3462 0
-2667 -3463 0
-2668 -3464 0
-2665 -3865 0
-2666 -3866 0
-2667 -3867 0
-2668 -3868 0
-2669 -2673 0
-2670 -2674 0
-2671 -2675 0
-2672 -2676 0
-2669 -2701 0
-2670 -2702 0
-2671 -2703 0
-2672 -2704 0
-2669 -2853 0
-2670 -2854 0
-2671 -2855 0
-2672 -2856 0
-2669 -3261 0
-2670 -3262 0
-2671 -3263 0
-2672 -3264 0
-2669 -3413 0
-2670 -3414 0
-2671 -3415 0
-2672 -3416 0
-2669 -3473 0
-2670 -3474 0
-2671 -3475 0
-2672 -3476 0
-2669 -3705 0
-2670 -3706 0
-2671 -3707 0
-2672 -3708 0
-2673 -2701 0
-2674 -2702 0
-2675 -2703 0
-2676 -2704 0
-2673 -2941 0
-2674 -2942 0
-2675 -2943 0
-2676 -2944 0
-2673 -3269 0
-2674 -3270 0
-2675 -3271 0
-2676 -3272 0
-2673 -3709 0
-2674 -3710 0
-2675 -3711 0
-2676 -3712 0
-2673 -3873 0
-2674 -3874 0
-2675 -3875 0
-2676 -3876 0
-2677 -3553 0
-2678 -3554 0
-2679 -3555 0
-2680 -3556 0
-2677 -3861 0
-2678 -3862 0
-2679 -3863 0
-2680 -3864 0
-2681 -3001 0
-2682 -3002 0
-2683 -3003 0
-2684 -3004 0
-2681 -3557 0
-2682 -3558 0
-2683 -3559 0
-2684 -3560 0
-2681 -3865 0
-2682 -3866 0
-2683 -3867 0
-2684 -3868 0
-2685 -2689 0
-2686 -2690 0
-2687 -2691 0
-2688 -2692 0
-2685 -2701 0
-2686 -2702 0
-2687 -2703 0
-2688 -2704 0
-2685 -2717 0
-2686 -2718 0
-2687 -2719 0
-2688 -2720 0
-2685 -2721 0
-2686 -2722 0
-2687 -2723 0
-2688 -2724 0
-2685 -3017 0
-2686 -3018 0
-2687 -3019 0
-2688 -3020 0
-2685 -3433 0
-2686 -3434 0
-2687 -3435 0
-2688 -3436 0
-2685 -3565 0
-2686 -3566 0
-2687 -3567 0
-2688 -3568 0
-2685 -3713 0
-2686 -3714 0
-2687 -3715 0
-2688 -3716 0
-2689 -2701 0
-2690 -2702 0
-2691 -2703 0
-2692 -2704 0
-2689 -3273 0
-2690 -3274 0
-2691 -3275 0
-2692 -3276 0
-2689 -3717 0
-2690 -3718 0
-2691 -3719 0
-2692 -3720 0
-2693 -2701 0
-2694 -2702 0
-2695 -2703 0
-2696 -2704 0
-2693 -3445 0
-2694 -3446 0
-2695 -3447 0
-2696 -3448 0
-2693 -3725 0
-2694 -3726 0
-2695 -3727 0
-2696 -3728 0
-2693 -3885 0
-2694 -3886 0
-2695 -3887 0
-2696 -3888 0
-2697 -2701 0
-2698 -2702 0
-2699 -2703 0
-2700 -2704 0
-2697 -3729 0
-2698 -3730 0
-2699 -3731 0
-2700 -3732 0
-2697 -3889 0
-2698 -3890 0
-2699 -3891 0
-2700 -3892 0
-2701 -3277 0
-2702 -3278 0
-2703 -3279 0
-2704 -3280 0
-2701 -3465 0
-2702 -3466 0
-2703 -3467 0
-2704 -3468 0
-2701 -3749 0
-2702 -3750 0
-2703 -3751 0
-2704 -3752 0
-2701 -3893 0
-2702 -3894 0
-2703 -3895 0
-2704 -3896 0
-2705 -2709 0
-2706 -2710 0
-2707 -2711 0
-2708 -2712 0
-2705 -2713 0
-2706 -2714 0
-2707 -2715 0
-2708 -2716 0
-2705 -2717 0
-2706 -2718 0
-2707 -2719 0
-2708 -2720 0
-2705 -2813 0
-2706 -2814 0
-2707 -2815 0
-2708 -2816 0
-2705 -2821 0
-2706 -2822 0
-2707 -2823 0
-2708 -2824 0
-2705 -3097 0
-2706 -3098 0
-2707 -3099 0
-2708 -3100 0
-2705 -3289 0
-2706 -3290 0
-2707 -3291 0
-2708 -3292 0
-2705 -3493 0
-2706 -3494 0
-2707 -3495 0
-2708 -3496 0
-2705 -3749 0
-2706 -3750 0
-2707 -3751 0
-2708 -3752 0
-2705 -3825 0
-2706 -3826 0
-2707 -3827 0
-2708 -3828 0
-2705 -3829 0
-2706 -3830 0
-2707 -3831 0
-2708 -3832 0
-2709 -2817 0
-2710 -2818 0
-2711 -2819 0
-2712 -2820 0
-2709 -2825 0
-2710 -2826 0
-2711 -2827 0
-2712 -2828 0
-2709 -3293 0
-2710 -3294 0
-2711 -3295 0
-2712 -3296 0
-2709 -3377 0
-2710 -3378 0
-2711 -3379 0
-2712 -3380 0
-2709 -3753 0
-2710 -3754 0
-2711 -3755 0
-2712 -3756 0
-2709 -3937 0
-2710 -3938 0
-2711 -3939 0
-2712 -3940 0
-2713 -2721 0
-2714 -2722 0
-2715 -2723 0
-2716 -2724 0
-2713 -2965 0
-2714 -2966 0
-2715 -2967 0
-2716 -2968 0
-2713 -3101 0
-2714 -3102 0
-2715 -3103 0
-2716 -3104 0
-2713 -3757 0
-2714 -3758 0
-2715 -3759 0
-2716 -3760 0
-2717 -2721 0
-2718 -2722 0
-2719 -2723 0
-2720 -2724 0
-2717 -2865 0
-2718 -2866 0
-2719 -2867 0
-2720 -2868 0
-2717 -3105 0
-2718 -3106 0
-2719 -3107 0
-2720 -3108 0
-2717 -3329 0
-2718 -3330 0
-2719 -3331 0
-2720 -3332 0
-2717 -3569 0
-2718 -3570 0
-2719 -3571 0
-2720 -3572 0
-2717 -3785 0
-2718 -3786 0
-2719 -3787 0
-2720 -3788 0
-2721 -3021 0
-2722 -3022 0
-2723 -3023 0
-2724 -3024 0
-2721 -3337 0
-2722 -3338 0
-2723 -3339 0
-2724 -3340 0
-2725 -2729 0
-2726 -2730 0
-2727 -2731 0
-2728 -2732 0
-2725 -2745 0
-2726 -2746 0
-2727 -2747 0
-2728 -2748 0
-2725 -2749 0
-2726 -2750 0
-2727 -2751 0
-2728 -2752 0
-2729 -2733 0
-2730 -2734 0
-2731 -2735 0
-2732 -2736 0
-2729 -2753 0
-2730 -2754 0
-2731 -2755 0
-2732 -2756 0
-2729 -3285 0
-2730 -3286 0
-2731 -3287 0
-2732 -3288 0
-2729 -3845 0
-2730 -3846 0
-2731 -3847 0
-2732 -3848 0
-2733 -2761 0
-2734 -2762 0
-2735 -2763 0
-2736 -2764 0
-2733 -3049 0
-2734 -3050 0
-2735 -3051 0
-2736 -3052 0
-2733 -3301 0
-2734 -3302 0
-2735 -3303 0
-2736 -3304 0
-2733 -3845 0
-2734 -3846 0
-2735 -3847 0
-2736 -3848 0
-2737 -2741 0
-2738 -2742 0
-2739 -2743 0
-2740 -2744 0
-2737 -2753 0
-2738 -2754 0
-2739 -2755 0
-2740 -2756 0
-2737 -2777 0
-2738 -2778 0
-2739 -2779 0
-2740 -2780 0
-2737 -2781 0
-2738 -2782 0
-2739 -2783 0
-2740 -2784 0
-2737 -3849 0
-2738 -3850 0
-2739 -3851 0
-2740 -3852 0
-2741 -2761 0
-2742 -2762 0
-2743 -2763 0
-2744 -2764 0
-2741 -2789 0
-2742 -2790 0
-2743 -2791 0
-2744 -2792 0
-2741 -2793 0
-2742 -2794 0
-2743 -2795 0
-2744 -2796 0
-2741 -3305 0
-2742 -3306 0
-2743 -3307 0
-2744 -3308 0
-2741 -3513 0
-2742 -3514 0
-2743 -3515 0
-2744 -3516 0
-2741 -3573 0
-2742 -3574 0
-2743 -3575 0
-2744 -3576 0
-2741 -3849 0
-2742 -3850 0
-2743 -3851 0
-2744 -3852 0
-2741 -3853 0
-2742 -3854 0
-2743 -3855 0
-2744 -3856 0
-2745 -2749 0
-2746 -2750 0
-2747 -2751 0
-2748 -2752 0
-2745 -2753 0
-2746 -2754 0
-2747 -2755 0
-2748 -2756 0
-2745 -2757 0
-2746 -2758 0
-2747 -2759 0
-2748 -2760 0
-2745 -2873 0
-2746 -2874 0
-2747 -2875 0
-2748 -2876 0
-2745 -3169 0
-2746 -3170 0
-2747 -3171 0
-2748 -3172 0
-2745 -3857 0
-2746 -3858 0
-2747 -3859 0
-2748 -3860 0
-2749 -3193 0
-2750 -3194 0
-2751 -3195 0
-2752 -3196 0
-2749 -3861 0
-2750 -3862 0
-2751 -3863 0
-2752 -3864 0
-2753 -2761 0
-2754 -2762 0
-2755 -2763 0
-2756 -2764 0
-2753 -2801 0
-2754 -2802 0
-2755 -2803 0
-2756 -2804 0
-2753 -3029 0
-2754 -3030 0
-2755 -3031 0
-2756 -3032 0
-2753 -3309 0
-2754 -3310 0
-2755 -3311 0
-2756 -3312 0
-2753 -3577 0
-2754 -3578 0
-2755 -3579 0
-2756 -3580 0
-2753 -3865 0
-2754 -3866 0
-2755 -3867 0
-2756 -3868 0
-2757 -2761 0
-2758 -2762 0
-2759 -2763 0
-2760 -2764 0
-2757 -2881 0
-2758 -2882 0
-2759 -2883 0
-2760 -2884 0
-2757 -3177 0
-2758 -3178 0
-2759 -3179 0
-2760 -3180 0
-2757 -3857 0
-2758 -3858 0
-2759 -3859 0
-2760 -3860 0
-2757 -3869 0
-2758 -3870 0
-2759 -3871 0
-2760 -3872 0
-2761 -2805 0
-2762 -2806 0
-2763 -2807 0
-2764 -2808 0
-2761 -2885 0
-2762 -2886 0
-2763 -2887 0
-2764 -2888 0
-2761 -3033 0
-2762 -3034 0
-2763 -3035 0
-2764 -3036 0
-2761 -3205 0
-2762 -3206 0
-2763 -3207 0
-2764 -3208 0
-2761 -3313 0
-2762 -3314 0
-2763 -3315 0
-2764 -3316 0
-2761 -3581 0
-2762 -3582 0
-2763 -3583 0
-2764 -3584 0
-2761 -3865 0
-2762 -3866 0
-2763 -3867 0
-2764 -3868 0
-2761 -3873 0
-2762 -3874 0
-2763 -3875 0
-2764 -3876 0
-2765 -2769 0
-2766 -2770 0
-2767 -2771 0
-2768 -2772 0
-2765 -2773 0
-2766 -2774 0
-2767 -2775 0
-2768 -2776 0
-2765 -2789 0
-2766 -2790 0
-2767 -2791 0
-2768 -2792 0
-2765 -2817 0
-2766 -2818 0
-2767 -2819 0
-2768 -2820 0
-2765 -2901 0
-2766 -2902 0
-2767 -2903 0
-2768 -2904 0
-2765 -3333 0
-2766 -3334 0
-2767 -3335 0
-2768 -3336 0
-2765 -3837 0
-2766 -3838 0
-2767 -3839 0
-2768 -3840 0
-2769 -2797 0
-2770 -2798 0
-2771 -2799 0
-2772 -2800 0
-2769 -2817 0
-2770 -2818 0
-2771 -2819 0
-2772 -2820 0
-2769 -3061 0
-2770 -3062 0
-2771 -3063 0
-2772 -3064 0
-2773 -2805 0
-2774 -2806 0
-2775 -2807 0
-2776 -2808 0
-2773 -2925 0
-2774 -2926 0
-2775 -2927 0
-2776 -2928 0
-2773 -3221 0
-2774 -3222 0
-2775 -3223 0
-2776 -3224 0
-2773 -3797 0
-2774 -3798 0
-2775 -3799 0
-2776 -3800 0
-2773 -3837 0
-2774 -3838 0
-2775 -3839 0
-2776 -3840 0
-2777 -2781 0
-2778 -2782 0
-2779 -2783 0
-2780 -2784 0
-2777 -2785 0
-2778 -2786 0
-2779 -2787 0
-2780 -2788 0
-2777 -2789 0
-2778 -2790 0
-2779 -2791 0
-2780 -2792 0
-2777 -2801 0
-2778 -2802 0
-2779 -2803 0
-2780 -2804 0
-2777 -2829 0
-2778 -2830 0
-2779 -2831 0
-2780 -2832 0
-2777 -3165 0
-2778 -3166 0
-2779 -3167 0
-2780 -3168 0
-2777 -3877 0
-2778 -3878 0
-2779 -3879 0
-2780 -3880 0
-2781 -2793 0
-2782 -2794 0
-2783 -2795 0
-2784 -2796 0
-2781 -3169 0
-2782 -3170 0
-2783 -3171 0
-2784 -3172 0
-2785 -2797 0
-2786 -2798 0
-2787 -2799 0
-2788 -2800 0
-2785 -2829 0
-2786 -2830 0
-2787 -2831 0
-2788 -2832 0
-2785 -3881 0
-2786 -3882 0
-2787 -3883 0
-2788 -3884 0
-2789 -2793 0
-2790 -2794 0
-2791 -2795 0
-2792 -2796 0
-2789 -2797 0
-2790 -2798 0
-2791 -2799 0
-2792 -2800 0
-2789 -2805 0
-2790 -2806 0
-2791 -2807 0
-2792 -2808 0
-2789 -2833 0
-2790 -2834 0
-2791 -2835 0
-2792 -2836 0
-2789 -2905 0
-2790 -2906 0
-2791 -2907 0
-2792 -2908 0
-2789 -3173 0
-2790 -3174 0
-2791 -3175 0
-2792 -3176 0
-2789 -3393 0
-2790 -3394 0
-2791 -3395 0
-2792 -3396 0
-2789 -3501 0
-2790 -3502 0
-2791 -3503 0
-2792 -3504 0
-2789 -3841 0
-2790 -3842 0
-2791 -3843 0
-2792 -3844 0
-2789 -3877 0
-2790 -3878 0
-2791 -3879 0
-2792 -3880 0
-2789 -3885 0
-2790 -3886 0
-2791 -3887 0
-2792 -3888 0
-2793 -2913 0
-2794 -2914 0
-2795 -2915 0
-2796 -2916 0
-2793 -3177 0
-2794 -3178 0
-2795 -3179 0
-2796 -3180 0
-2797 -2833 0
-2798 -2834 0
-2799 -2835 0
-2800 -2836 0
-2797 -3065 0
-2798 -3066 0
-2799 -3067 0
-2800 -3068 0
-2797 -3349 0
-2798 -3350 0
-2799 -3351 0
-2800 -3352 0
-2797 -3397 0
-2798 -3398 0
-2799 -3399 0
-2800 -3400 0
-2797 -3509 0
-2798 -3510 0
-2799 -3511 0
-2800 -3512 0
-2797 -3881 0
-2798 -3882 0
-2799 -3883 0
-2800 -3884 0
-2801 -2805 0
-2802 -2806 0
-2803 -2807 0
-2804 -2808 0
-2801 -3889 0
-2802 -3890 0
-2803 -3891 0
-2804 -3892 0
-2805 -2929 0
-2806 -2930 0
-2807 -2931 0
-2808 -2932 0
-2805 -3041 0
-2806 -3042 0
-2807 -3043 0
-2808 -3044 0
-2805 -3361 0
-2806 -3362 0
-2807 -3363 0
-2808 -3364 0
-2805 -3805 0
-2806 -3806 0
-2807 -3807 0
-2808 -3808 0
-2805 -3841 0
-2806 -3842 0
-2807 -3843 0
-2808 -3844 0
-2805 -3889 0
-2806 -3890 0
-2807 -3891 0
-2808 -3892 0
-2805 -3893 0
-2806 -3894 0
-2807 -3895 0
-2808 -3896 0
-2809 -2813 0
-2810 -2814 0
-2811 -2815 0
-2812 -2816 0
-2809 -2817 0
-2810 -2818 0
-2811 -2819 0
-2812 -2820 0
-2809 -3077 0
-2810 -3078 0
-2811 -3079 0
-2812 -3080 0
-2809 -3613 0
-2810 -3614 0
-2811 -3615 0
-2812 -3616 0
-2813 -2817 0
-2814 -2818 0
-2815 -2819 0
-2816 -2820 0
-2813 -2821 0
-2814 -2822 0
-2815 -2823 0
-2816 -2824 0
-2813 -2953 0
-2814 -2954 0
-2815 -2955 0
-2816 -2956 0
-2813 -3217 0
-2814 -3218 0
-2815 -3219 0
-2816 -3220 0
-2813 -3385 0
-2814 -3386 0
-2815 -3387 0
-2816 -3388 0
-2813 -3621 0
-2814 -3622 0
-2815 -3623 0
-2816 -3624 0
-2813 -3817 0
-2814 -3818 0
-2815 -3819 0
-2816 -3820 0
-2813 -3857 0
-2814 -3858 0
-2815 -3859 0
-2816 -3860 0
-2817 -2825 0
-2818 -2826 0
-2819 -2827 0
-2820 -2828 0
-2817 -2833 0
-2818 -2834 0
-2819 -2835 0
-2820 -2836 0
-2817 -3113 0
-2818 -3114 0
-2819 -3115 0
-2820 -3116 0
-2817 -3625 0
-2818 -3626 0
-2819 -3627 0
-2820 -3628 0
-2817 -3629 0
-2818 -3630 0
-2819 -3631 0
-2820 -3632 0
-2817 -3861 0
-2818 -3862 0
-2819 -3863 0
-2820 -3864 0
-2817 -3941 0
-2818 -3942 0
-2819 -3943 0
-2820 -3944 0
-2821 -2825 0
-2822 -2826 0
-2823 -2827 0
-2824 -2828 0
-2821 -2973 0
-2822 -2974 0
-2823 -2975 0
-2824 -2976 0
-2821 -3389 0
-2822 -3390 0
-2823 -3391 0
-2824 -3392 0
-2821 -3821 0
-2822 -3822 0
-2823 -3823 0
-2824 -3824 0
-2821 -3849 0
-2822 -3850 0
-2823 -3851 0
-2824 -3852 0
-2821 -3865 0
-2822 -3866 0
-2823 -3867 0
-2824 -3868 0
-2825 -2977 0
-2826 -2978 0
-2827 -2979 0
-2828 -2980 0
-2825 -3121 0
-2826 -3122 0
-2827 -3123 0
-2828 -3124 0
-2825 -3537 0
-2826 -3538 0
-2827 -3539 0
-2828 -3540 0
-2829 -2833 0
-2830 -2834 0
-2831 -2835 0
-2832 -2836 0
-2829 -3193 0
-2830 -3194 0
-2831 -3195 0
-2832 -3196 0
-2829 -3897 0
-2830 -3898 0
-2831 -3899 0
-2832 -3900 0
-2833 -2969 0
-2834 -2970 0
-2835 -2971 0
-2836 -2972 0
-2833 -3149 0
-2834 -3150 0
-2835 -3151 0
-2836 -3152 0
-2833 -3201 0
-2834 -3202 0
-2835 -3203 0
-2836 -3204 0
-2833 -3637 0
-2834 -3638 0
-2835 -3639 0
-2836 -3640 0
-2833 -3897 0
-2834 -3898 0
-2835 -3899 0
-2836 -3900 0
-2837 -2845 0
-2838 -2846 0
-2839 -2847 0
-2840 -2848 0
-2837 -2849 0
-2838 -2850 0
-2839 -2851 0
-2840 -2852 0
-2837 -2901 0
-2838 -2902 0
-2839 -2903 0
-2840 -2904 0
-2837 -2913 0
-2838 -2914 0
-2839 -2915 0
-2840 -2916 0
-2837 -3093 0
-2838 -3094 0
-2839 -3095 0
-2840 -3096 0
-2837 -3433 0
-2838 -3434 0
-2839 -3435 0
-2840 -3436 0
-2837 -3553 0
-2838 -3554 0
-2839 -3555 0
-2840 -3556 0
-2837 -3949 0
-2838 -3950 0
-2839 -3951 0
-2840 -3952 0
-2841 -2853 0
-2842 -2854 0
-2843 -2855 0
-2844 -2856 0
-2841 -3117 0
-2842 -3118 0
-2843 -3119 0
-2844 -3120 0
-2841 -3257 0
-2842 -3258 0
-2843 -3259 0
-2844 -3260 0
-2841 -3901 0
-2842 -3902 0
-2843 -3903 0
-2844 -3904 0
-2841 -3917 0
-2842 -3918 0
-2843 -3919 0
-2844 -3920 0
-2845 -2849 0
-2846 -2850 0
-2847 -2851 0
-2848 -2852 0
-2845 -2853 0
-2846 -2854 0
-2847 -2855 0
-2848 -2856 0
-2845 -2857 0
-2846 -2858 0
-2847 -2859 0
-2848 -2860 0
-2845 -2941 0
-2846 -2942 0
-2847 -2943 0
-2848 -2944 0
-2845 -3129 0
-2846 -3130 0
-2847 -3131 0
-2848 -3132 0
-2845 -3245 0
-2846 -3246 0
-2847 -3247 0
-2848 -3248 0
-2845 -3461 0
-2846 -3462 0
-2847 -3463 0
-2848 -3464 0
-2845 -3825 0
-2846 -3826 0
-2847 -3827 0
-2848 -3828 0
-2845 -3905 0
-2846 -3906 0
-2847 -3907 0
-2848 -3908 0
-2845 -3921 0
-2846 -3922 0
-2847 -3923 0
-2848 -3924 0
-2849 -2937 0
-2850 -2938 0
-2851 -2939 0
-2852 -2940 0
-2849 -3249 0
-2850 -3250 0
-2851 -3251 0
-2852 -3252 0
-2849 -3465 0
-2850 -3466 0
-2851 -3467 0
-2852 -3468 0
-2853 -2857 0
-2854 -2858 0
-2855 -2859 0
-2856 -2860 0
-2853 -3065 0
-2854 -3066 0
-2855 -3067 0
-2856 -3068 0
-2853 -3133 0
-2854 -3134 0
-2855 -3135 0
-2856 -3136 0
-2853 -3261 0
-2854 -3262 0
-2855 -3263 0
-2856 -3264 0
-2853 -3549 0
-2854 -3550 0
-2855 -3551 0
-2856 -3552 0
-2853 -3909 0
-2854 -3910 0
-2855 -3911 0
-2856 -3912 0
-2853 -3925 0
-2854 -3926 0
-2855 -3927 0
-2856 -3928 0
-2857 -2861 0
-2858 -2862 0
-2859 -2863 0
-2860 -2864 0
-2857 -3001 0
-2858 -3002 0
-2859 -3003 0
-2860 -3004 0
-2857 -3149 0
-2858 -3150 0
-2859 -3151 0
-2860 -3152 0
-2857 -3253 0
-2858 -3254 0
-2859 -3255 0
-2860 -3256 0
-2857 -3421 0
-2858 -3422 0
-2859 -3423 0
-2860 -3424 0
-2857 -3669 0
-2858 -3670 0
-2859 -3671 0
-2860 -3672 0
-2857 -3933 0
-2858 -3934 0
-2859 -3935 0
-2860 -3936 0
-2861 -3001 0
-2862 -3002 0
-2863 -3003 0
-2864 -3004 0
-2861 -3425 0
-2862 -3426 0
-2863 -3427 0
-2864 -3428 0
-2861 -3569 0
-2862 -3570 0
-2863 -3571 0
-2864 -3572 0
-2861 -3673 0
-2862 -3674 0
-2863 -3675 0
-2864 -3676 0
-2861 -3937 0
-2862 -3938 0
-2863 -3939 0
-2864 -3940 0
-2865 -3009 0
-2866 -3010 0
-2867 -3011 0
-2868 -3012 0
-2865 -3013 0
-2866 -3014 0
-2867 -3015 0
-2868 -3016 0
-2865 -3429 0
-2866 -3430 0
-2867 -3431 0
-2868 -3432 0
-2865 -3673 0
-2866 -3674 0
-2867 -3675 0
-2868 -3676 0
-2869 -2881 0
-2870 -2882 0
-2871 -2883 0
-2872 -2884 0
-2869 -2901 0
-2870 -2902 0
-2871 -2903 0
-2872 -2904 0
-2869 -3293 0
-2870 -3294 0
-2871 -3295 0
-2872 -3296 0
-2873 -2881 0
-2874 -2882 0
-2875 -2883 0
-2876 -2884 0
-2873 -2889 0
-2874 -2890 0
-2875 -2891 0
-2876 -2892 0
-2873 -2917 0
-2874 -2918 0
-2875 -2919 0
-2876 -2920 0
-2873 -3901 0
-2874 -3902 0
-2875 -3903 0
-2876 -3904 0
-2877 -2881 0
-2878 -2882 0
-2879 -2883 0
-2880 -2884 0
-2877 -2893 0
-2878 -2894 0
-2879 -2895 0
-2880 -2896 0
-2877 -2945 0
-2878 -2946 0
-2879 -2947 0
-2880 -2948 0
-2877 -3289 0
-2878 -3290 0
-2879 -3291 0
-2880 -3292 0
-2877 -3837 0
-2878 -3838 0
-2879 -3839 0
-2880 -3840 0
-2877 -3905 0
-2878 -3906 0
-2879 -3907 0
-2880 -3908 0
-2881 -2885 0
-2882 -2886 0
-2883 -2887 0
-2884 -2888 0
-2881 -2897 0
-2882 -2898 0
-2883 -2899 0
-2884 -2900 0
-2881 -2921 0
-2882 -2922 0
-2883 -2923 0
-2884 -2924 0
-2881 -2925 0
-2882 -2926 0
-2883 -2927 0
-2884 -2928 0
-2881 -2945 0
-2882 -2946 0
-2883 -2947 0
-2884 -2948 0
-2881 -3165 0
-2882 -3166 0
-2883 -3167 0
-2884 -3168 0
-2881 -3265 0
-2882 -3266 0
-2883 -3267 0
-2884 -3268 0
-2881 -3901 0
-2882 -3902 0
-2883 -3903 0
-2884 -3904 0
-2881 -3909 0
-2882 -3910 0
-2883 -3911 0
-2884 -3912 0
-2885 -2929 0
-2886 -2930 0
-2887 -2931 0
-2888 -2932 0
-2885 -2933 0
-2886 -2934 0
-2887 -2935 0
-2888 -2936 0
-2885 -2949 0
-2886 -2950 0
-2887 -2951 0
-2888 -2952 0
-2885 -3413 0
-2886 -3414 0
-2887 -3415 0
-2888 -3416 0
-2885 -3581 0
-2886 -3582 0
-2887 -3583 0
-2888 -3584 0
-2885 -3913 0
-2886 -3914 0
-2887 -3915 0
-2888 -3916 0
-2889 -2897 0
-2890 -2898 0
-2891 -2899 0
-2892 -2900 0
-2889 -3193 0
-2890 -3194 0
-2891 -3195 0
-2892 -3196 0
-2889 -3417 0
-2890 -3418 0
-2891 -3419 0
-2892 -3420 0
-2889 -3917 0
-2890 -3918 0
-2891 -3919 0
-2892 -3920 0
-2893 -2897 0
-2894 -2898 0
-2895 -2899 0
-2896 -2900 0
-2893 -3045 0
-2894 -3046 0
-2895 -3047 0
-2896 -3048 0
-2893 -3197 0
-2894 -3198 0
-2895 -3199 0
-2896 -3200 0
-2893 -3841 0
-2894 -3842 0
-2895 -3843 0
-2896 -3844 0
-2893 -3921 0
-2894 -3922 0
-2895 -3923 0
-2896 -3924 0
-2897 -3201 0
-2898 -3202 0
-2899 -3203 0
-2900 -3204 0
-2897 -3421 0
-2898 -3422 0
-2899 -3423 0
-2900 -3424 0
-2897 -3917 0
-2898 -3918 0
-2899 -3919 0
-2900 -3920 0
-2897 -3925 0
-2898 -3926 0
-2899 -3927 0
-2900 -3928 0
-2901 -2913 0
-2902 -2914 0
-2903 -2915 0
-2904 -2916 0
-2901 -2925 0
-2902 -2926 0
-2903 -2927 0
-2904 -2928 0
-2901 -2937 0
-2902 -2938 0
-2903 -2939 0
-2904 -2940 0
-2901 -3333 0
-2902 -3334 0
-2903 -3335 0
-2904 -3336 0
-2901 -3681 0
-2902 -3682 0
-2903 -3683 0
-2904 -3684 0
-2901 -3961 0
-2902 -3962 0
-2903 -3963 0
-2904 -3964 0
-2905 -2913 0
-2906 -2914 0
-2907 -2915 0
-2908 -2916 0
-2905 -2929 0
-2906 -2930 0
-2907 -2931 0
-2908 -2932 0
-2905 -2969 0
-2906 -2970 0
-2907 -2971 0
-2908 -2972 0
-2905 -3521 0
-2906 -3522 0
-2907 -3523 0
-2908 -3524 0
-2909 -2913 0
-2910 -2914 0
-2911 -2915 0
-2912 -2916 0
-2909 -2941 0
-2910 -2942 0
-2911 -2943 0
-2912 -2944 0
-2909 -2973 0
-2910 -2974 0
-2911 -2975 0
-2912 -2976 0
-2909 -3217 0
-2910 -3218 0
-2911 -3219 0
-2912 -3220 0
-2909 -3341 0
-2910 -3342 0
-2911 -3343 0
-2912 -3344 0
-2909 -3593 0
-2910 -3594 0
-2911 -3595 0
-2912 -3596 0
-2913 -2933 0
-2914 -2934 0
-2915 -2935 0
-2916 -2936 0
-2913 -2941 0
-2914 -2942 0
-2915 -2943 0
-2916 -2944 0
-2913 -2961 0
-2914 -2962 0
-2915 -2963 0
-2916 -2964 0
-2913 -2977 0
-2914 -2978 0
-2915 -2979 0
-2916 -2980 0
-2913 -3265 0
-2914 -3266 0
-2915 -3267 0
-2916 -3268 0
-2913 -3325 0
-2914 -3326 0
-2915 -3327 0
-2916 -3328 0
-2913 -3445 0
-2914 -3446 0
-2915 -3447 0
-2916 -3448 0
-2913 -3597 0
-2914 -3598 0
-2915 -3599 0
-2916 -3600 0
-2917 -2925 0
-2918 -2926 0
-2919 -2927 0
-2920 -2928 0
-2917 -3685 0
-2918 -3686 0
-2919 -3687 0
-2920 -3688 0
-2921 -2925 0
-2922 -2926 0
-2923 -2927 0
-2924 -2928 0
-2921 -2929 0
-2922 -2930 0
-2923 -2931 0
-2924 -2932 0
-2921 -3273 0
-2922 -3274 0
-2923 -3275 0
-2924 -3276 0
-2921 -3689 0
-2922 -3690 0
-2923 -3691 0
-2924 -3692 0
-2921 -3965 0
-2922 -3966 0
-2923 -3967 0
-2924 -3968 0
-2925 -2933 0
-2926 -2934 0
-2927 -2935 0
-2928 -2936 0
-2925 -3181 0
-2926 -3182 0
-2927 -3183 0
-2928 -3184 0
-2925 -3337 0
-2926 -3338 0
-2927 -3339 0
-2928 -3340 0
-2925 -3693 0
-2926 -3694 0
-2927 -3695 0
-2928 -3696 0
-2925 -3929 0
-2926 -3930 0
-2927 -3931 0
-2928 -3932 0
-2929 -2933 0
-2930 -2934 0
-2931 -2935 0
-2932 -2936 0
-2929 -3457 0
-2930 -3458 0
-2931 -3459 0
-2932 -3460 0
-2933 -3229 0
-2934 -3230 0
-2935 -3231 0
-2936 -3232 0
-2933 -3345 0
-2934 -3346 0
-2935 -3347 0
-2936 -3348 0
-2933 -3465 0
-2934 -3466 0
-2935 -3467 0
-2936 -3468 0
-2933 -3845 0
-2934 -3846 0
-2935 -3847 0
-2936 -3848 0
-2937 -3349 0
-2938 -3350 0
-2939 -3351 0
-2940 -3352 0
-2941 -2993 0
-2942 -2994 0
-2943 -2995 0
-2944 -2996 0
-2941 -3001 0
-2942 -3002 0
-2943 -3003 0
-2944 -3004 0
-2941 -3269 0
-2942 -3270 0
-2943 -3271 0
-2944 -3272 0
-2941 -3353 0
-2942 -3354 0
-2943 -3355 0
-2944 -3356 0
-2941 -3481 0
-2942 -3482 0
-2943 -3483 0
-2944 -3484 0
-2941 -3697 0
-2942 -3698 0
-2943 -3699 0
-2944 -3700 0
-2941 -3849 0
-2942 -3850 0
-2943 -3851 0
-2944 -3852 0
-2945 -2949 0
-2946 -2950 0
-2947 -2951 0
-2948 -2952 0
-2945 -3029 0
-2946 -3030 0
-2947 -3031 0
-2948 -3032 0
-2945 -3189 0
-2946 -3190 0
-2947 -3191 0
-2948 -3192 0
-2945 -3301 0
-2946 -3302 0
-2947 -3303 0
-2948 -3304 0
-2945 -3861 0
-2946 -3862 0
-2947 -3863 0
-2948 -3864 0
-2945 -3933 0
-2946 -3934 0
-2947 -3935 0
-2948 -3936 0
-2949 -3029 0
-2950 -3030 0
-2951 -3031 0
-2952 -3032 0
-2949 -3937 0
-2950 -3938 0
-2951 -3939 0
-2952 -3940 0
-2953 -2957 0
-2954 -2958 0
-2955 -2959 0
-2956 -2960 0
-2953 -2965 0
-2954 -2966 0
-2955 -2967 0
-2956 -2968 0
-2953 -3009 0
-2954 -3010 0
-2955 -3011 0
-2956 -3012 0
-2953 -3485 0
-2954 -3486 0
-2955 -3487 0
-2956 -3488 0
-2953 -3705 0
-2954 -3706 0
-2955 -3707 0
-2956 -3708 0
-2953 -3901 0
-2954 -3902 0
-2955 -3903 0
-2956 -3904 0
-2957 -2981 0
-2958 -2982 0
-2959 -2983 0
-2960 -2984 0
-2957 -3017 0
-2958 -3018 0
-2959 -3019 0
-2960 -3020 0
-2957 -3489 0
-2958 -3490 0
-2959 -3491 0
-2960 -3492 0
-2957 -3909 0
-2958 -3910 0
-2959 -3911 0
-2960 -3912 0
-2961 -2977 0
-2962 -2978 0
-2963 -2979 0
-2964 -2980 0
-2961 -2993 0
-2962 -2994 0
-2963 -2995 0
-2964 -2996 0
-2961 -3301 0
-2962 -3302 0
-2963 -3303 0
-2964 -3304 0
-2961 -3501 0
-2962 -3502 0
-2963 -3503 0
-2964 -3504 0
-2961 -3653 0
-2962 -3654 0
-2963 -3655 0
-2964 -3656 0
-2965 -2969 0
-2966 -2970 0
-2967 -2971 0
-2968 -2972 0
-2965 -2973 0
-2966 -2974 0
-2967 -2975 0
-2968 -2976 0
-2965 -2981 0
-2966 -2982 0
-2967 -2983 0
-2968 -2984 0
-2965 -2989 0
-2966 -2990 0
-2967 -2991 0
-2968 -2992 0
-2965 -2997 0
-2966 -2998 0
-2967 -2999 0
-2968 -3000 0
-2965 -3021 0
-2966 -3022 0
-2967 -3023 0
-2968 -3024 0
-2965 -3325 0
-2966 -3326 0
-2967 -3327 0
-2968 -3328 0
-2965 -3881 0
-2966 -3882 0
-2967 -3883 0
-2968 -3884 0
-2965 -3917 0
-2966 -3918 0
-2967 -3919 0
-2968 -3920 0
-2969 -2977 0
-2970 -2978 0
-2971 -2979 0
-2972 -2980 0
-2969 -2985 0
-2970 -2986 0
-2971 -2987 0
-2972 -2988 0
-2969 -2997 0
-2970 -2998 0
-2971 -2999 0
-2972 -3000 0
-2969 -3237 0
-2970 -3238 0
-2971 -3239 0
-2972 -3240 0
-2969 -3533 0
-2970 -3534 0
-2971 -3535 0
-2972 -3536 0
-2969 -3637 0
-2970 -3638 0
-2971 -3639 0
-2972 -3640 0
-2973 -2977 0
-2974 -2978 0
-2975 -2979 0
-2976 -2980 0
-2973 -3001 0
-2974 -3002 0
-2975 -3003 0
-2976 -3004 0
-2973 -3021 0
-2974 -3022 0
-2975 -3023 0
-2976 -3024 0
-2973 -3389 0
-2974 -3390 0
-2975 -3391 0
-2976 -3392 0
-2973 -3505 0
-2974 -3506 0
-2975 -3507 0
-2976 -3508 0
-2973 -3713 0
-2974 -3714 0
-2975 -3715 0
-2976 -3716 0
-2977 -3001 0
-2978 -3002 0
-2979 -3003 0
-2980 -3004 0
-2977 -3241 0
-2978 -3242 0
-2979 -3243 0
-2980 -3244 0
-2977 -3509 0
-2978 -3510 0
-2979 -3511 0
-2980 -3512 0
-2977 -3641 0
-2978 -3642 0
-2979 -3643 0
-2980 -3644 0
-2977 -3717 0
-2978 -3718 0
-2979 -3719 0
-2980 -3720 0
-2981 -2985 0
-2982 -2986 0
-2983 -2987 0
-2984 -2988 0
-2981 -3005 0
-2982 -3006 0
-2983 -3007 0
-2984 -3008 0
-2981 -3245 0
-2982 -3246 0
-2983 -3247 0
-2984 -3248 0
-2981 -3613 0
-2982 -3614 0
-2983 -3615 0
-2984 -3616 0
-2981 -3925 0
-2982 -3926 0
-2983 -3927 0
-2984 -3928 0
-2985 -3005 0
-2986 -3006 0
-2987 -3007 0
-2988 -3008 0
-2985 -3249 0
-2986 -3250 0
-2987 -3251 0
-2988 -3252 0
-2985 -3541 0
-2986 -3542 0
-2987 -3543 0
-2988 -3544 0
-2989 -3345 0
-2990 -3346 0
-2991 -3347 0
-2992 -3348 0
-2989 -3493 0
-2990 -3494 0
-2991 -3495 0
-2992 -3496 0
-2989 -3917 0
-2990 -3918 0
-2991 -3919 0
-2992 -3920 0
-2993 -3001 0
-2994 -3002 0
-2995 -3003 0
-2996 -3004 0
-2993 -3121 0
-2994 -3122 0
-2995 -3123 0
-2996 -3124 0
-2993 -3313 0
-2994 -3314 0
-2995 -3315 0
-2996 -3316 0
-2993 -3737 0
-2994 -3738 0
-2995 -3739 0
-2996 -3740 0
-2997 -3001 0
-2998 -3002 0
-2999 -3003 0
-3000 -3004 0
-2997 -3005 0
-2998 -3006 0
-2999 -3007 0
-3000 -3008 0
-2997 -3025 0
-2998 -3026 0
-2999 -3027 0
-3000 -3028 0
-2997 -3357 0
-2998 -3358 0
-2999 -3359 0
-3000 -3360 0
-2997 -3657 0
-2998 -3658 0
-2999 -3659 0
-3000 -3660 0
-2997 -3741 0
-2998 -3742 0
-2999 -3743 0
-3000 -3744 0
-3001 -3025 0
-3002 -3026 0
-3003 -3027 0
-3004 -3028 0
-3001 -3125 0
-3002 -3126 0
-3003 -3127 0
-3004 -3128 0
-3001 -3317 0
-3002 -3318 0
-3003 -3319 0
-3004 -3320 0
-3001 -3513 0
-3002 -3514 0
-3003 -3515 0
-3004 -3516 0
-3001 -3661 0
-3002 -3662 0
-3003 -3663 0
-3004 -3664 0
-3001 -3749 0
-3002 -3750 0
-3003 -3751 0
-3004 -3752 0
-3001 -3941 0
-3002 -3942 0
-3003 -3943 0
-3004 -3944 0
-3005 -3545 0
-3006 -3546 0
-3007 -3547 0
-3008 -3548 0
-3005 -3625 0
-3006 -3626 0
-3007 -3627 0
-3008 -3628 0
-3009 -3013 0
-3010 -3014 0
-3011 -3015 0
-3012 -3016 0
-3009 -3017 0
-3010 -3018 0
-3011 -3019 0
-3012 -3020 0
-3009 -3021 0
-3010 -3022 0
-3011 -3023 0
-3012 -3024 0
-3009 -3517 0
-3010 -3518 0
-3011 -3519 0
-3012 -3520 0
-3009 -3749 0
-3010 -3750 0
-3011 -3751 0
-3012 -3752 0
-3013 -3321 0
-3014 -3322 0
-3015 -3323 0
-3016 -3324 0
-3013 -3521 0
-3014 -3522 0
-3015 -3523 0
-3016 -3524 0
-3013 -3761 0
-3014 -3762 0
-3015 -3763 0
-3016 -3764 0
-3017 -3765 0
-3018 -3766 0
-3019 -3767 0
-3020 -3768 0
-3017 -3929 0
-3018 -3930 0
-3019 -3931 0
-3020 -3932 0
-3021 -3025 0
-3022 -3026 0
-3023 -3027 0
-3024 -3028 0
-3021 -3337 0
-3022 -3338 0
-3023 -3339 0
-3024 -3340 0
-3021 -3633 0
-3022 -3634 0
-3023 -3635 0
-3024 -3636 0
-3021 -3773 0
-3022 -3774 0
-3023 -3775 0
-3024 -3776 0
-3025 -3161 0
-3026 -3162 0
-3027 -3163 0
-3028 -3164 0
-3025 -3365 0
-3026 -3366 0
-3027 -3367 0
-3028 -3368 0
-3025 -3653 0
-3026 -3654 0
-3027 -3655 0
-3028 -3656 0
-3025 -3781 0
-3026 -3782 0
-3027 -3783 0
-3028 -3784 0
-3025 -3897 0
-3026 -3898 0
-3027 -3899 0
-3028 -3900 0
-3029 -3033 0
-3030 -3034 0
-3031 -3035 0
-3032 -3036 0
-3029 -3309 0
-3030 -3310 0
-3031 -3311 0
-3032 -3312 0
-3029 -3797 0
-3030 -3798 0
-3031 -3799 0
-3032 -3800 0
-3029 -3941 0
-3030 -3942 0
-3031 -3943 0
-3032 -3944 0
-3033 -3041 0
-3034 -3042 0
-3035 -3043 0
-3036 -3044 0
-3033 -3313 0
-3034 -3314 0
-3035 -3315 0
-3036 -3316 0
-3033 -3801 0
-3034 -3802 0
-3035 -3803 0
-3036 -3804 0
-3033 -3941 0
-3034 -3942 0
-3035 -3943 0
-3036 -3944 0
-3037 -3041 0
-3038 -3042 0
-3039 -3043 0
-3040 -3044 0
-3037 -3329 0
-3038 -3330 0
-3039 -3331 0
-3040 -3332 0
-3037 -3813 0
-3038 -3814 0
-3039 -3815 0
-3040 -3816 0
-3041 -3361 0
-3042 -3362 0
-3043 -3363 0
-3044 -3364 0
-3045 -3049 0
-3046 -3050 0
-3047 -3051 0
-3048 -3052 0
-3045 -3053 0
-3046 -3054 0
-3047 -3055 0
-3048 -3056 0
-3045 -3057 0
-3046 -3058 0
-3047 -3059 0
-3048 -3060 0
-3045 -3165 0
-3046 -3166 0
-3047 -3167 0
-3048 -3168 0
-3045 -3293 0
-3046 -3294 0
-3047 -3295 0
-3048 -3296 0
-3045 -3577 0
-3046 -3578 0
-3047 -3579 0
-3048 -3580 0
-3045 -3945 0
-3046 -3946 0
-3047 -3947 0
-3048 -3948 0
-3049 -3057 0
-3050 -3058 0
-3051 -3059 0
-3052 -3060 0
-3049 -3169 0
-3050 -3170 0
-3051 -3171 0
-3052 -3172 0
-3049 -3301 0
-3050 -3302 0
-3051 -3303 0
-3052 -3304 0
-3049 -3409 0
-3050 -3410 0
-3051 -3411 0
-3052 -3412 0
-3049 -3685 0
-3050 -3686 0
-3051 -3687 0
-3052 -3688 0
-3049 -3949 0
-3050 -3950 0
-3051 -3951 0
-3052 -3952 0
-3053 -3073 0
-3054 -3074 0
-3055 -3075 0
-3056 -3076 0
-3053 -3173 0
-3054 -3174 0
-3055 -3175 0
-3056 -3176 0
-3053 -3581 0
-3054 -3582 0
-3055 -3583 0
-3056 -3584 0
-3053 -3689 0
-3054 -3690 0
-3055 -3691 0
-3056 -3692 0
-3053 -3945 0
-3054 -3946 0
-3055 -3947 0
-3056 -3948 0
-3057 -3181 0
-3058 -3182 0
-3059 -3183 0
-3060 -3184 0
-3057 -3333 0
-3058 -3334 0
-3059 -3335 0
-3060 -3336 0
-3057 -3953 0
-3058 -3954 0
-3059 -3955 0
-3060 -3956 0
-3061 -3065 0
-3062 -3066 0
-3063 -3067 0
-3064 -3068 0
-3061 -3113 0
-3062 -3114 0
-3063 -3115 0
-3064 -3116 0
-3061 -3117 0
-3062 -3118 0
-3063 -3119 0
-3064 -3120 0
-3061 -3457 0
-3062 -3458 0
-3063 -3459 0
-3064 -3460 0
-3061 -3553 0
-3062 -3554 0
-3063 -3555 0
-3064 -3556 0
-3061 -3957 0
-3062 -3958 0
-3063 -3959 0
-3064 -3960 0
-3065 -3069 0
-3066 -3070 0
-3067 -3071 0
-3068 -3072 0
-3065 -3149 0
-3066 -3150 0
-3067 -3151 0
-3068 -3152 0
-3065 -3349 0
-3066 -3350 0
-3067 -3351 0
-3068 -3352 0
-3065 -3477 0
-3066 -3478 0
-3067 -3479 0
-3068 -3480 0
-3065 -3593 0
-3066 -3594 0
-3067 -3595 0
-3068 -3596 0
-3065 -3677 0
-3066 -3678 0
-3067 -3679 0
-3068 -3680 0
-3065 -3957 0
-3066 -3958 0
-3067 -3959 0
-3068 -3960 0
-3069 -3365 0
-3070 -3366 0
-3071 -3367 0
-3072 -3368 0
-3069 -3685 0
-3070 -3686 0
-3071 -3687 0
-3072 -3688 0
-3069 -3917 0
-3070 -3918 0
-3071 -3919 0
-3072 -3920 0
-3069 -3965 0
-3070 -3966 0
-3071 -3967 0
-3072 -3968 0
-3073 -3201 0
-3074 -3202 0
-3075 -3203 0
-3076 -3204 0
-3073 -3209 0
-3074 -3210 0
-3075 -3211 0
-3076 -3212 0
-3073 -3617 0
-3074 -3618 0
-3075 -3619 0
-3076 -3620 0
-3077 -3081 0
-3078 -3082 0
-3079 -3083 0
-3080 -3084 0
-3077 -3085 0
-3078 -3086 0
-3079 -3087 0
-3080 -3088 0
-3077 -3089 0
-3078 -3090 0
-3079 -3091 0
-3080 -3092 0
-3077 -3113 0
-3078 -3114 0
-3079 -3115 0
-3080 -3116 0
-3077 -3213 0
-3078 -3214 0
-3079 -3215 0
-3080 -3216 0
-3077 -3825 0
-3078 -3826 0
-3079 -3827 0
-3080 -3828 0
-3081 -3093 0
-3082 -3094 0
-3083 -3095 0
-3084 -3096 0
-3081 -3113 0
-3082 -3114 0
-3083 -3115 0
-3084 -3116 0
-3081 -3985 0
-3082 -3986 0
-3083 -3987 0
-3084 -3988 0
-3085 -3097 0
-3086 -3098 0
-3087 -3099 0
-3088 -3100 0
-3085 -3121 0
-3086 -3122 0
-3087 -3123 0
-3088 -3124 0
-3085 -3213 0
-3086 -3214 0
-3087 -3215 0
-3088 -3216 0
-3085 -3401 0
-3086 -3402 0
-3087 -3403 0
-3088 -3404 0
-3085 -3729 0
-3086 -3730 0
-3087 -3731 0
-3088 -3732 0
-3089 -3093 0
-3090 -3094 0
-3091 -3095 0
-3092 -3096 0
-3089 -3097 0
-3090 -3098 0
-3091 -3099 0
-3092 -3100 0
-3089 -3105 0
-3090 -3106 0
-3091 -3107 0
-3092 -3108 0
-3089 -3129 0
-3090 -3130 0
-3091 -3131 0
-3092 -3132 0
-3089 -3217 0
-3090 -3218 0
-3091 -3219 0
-3092 -3220 0
-3089 -3733 0
-3090 -3734 0
-3091 -3735 0
-3092 -3736 0
-3093 -3129 0
-3094 -3130 0
-3095 -3131 0
-3096 -3132 0
-3093 -3993 0
-3094 -3994 0
-3095 -3995 0
-3096 -3996 0
-3097 -3101 0
-3098 -3102 0
-3099 -3103 0
-3100 -3104 0
-3097 -3109 0
-3098 -3110 0
-3099 -3111 0
-3100 -3112 0
-3097 -3137 0
-3098 -3138 0
-3099 -3139 0
-3100 -3140 0
-3097 -3157 0
-3098 -3158 0
-3099 -3159 0
-3100 -3160 0
-3097 -3217 0
-3098 -3218 0
-3099 -3219 0
-3100 -3220 0
-3097 -3405 0
-3098 -3406 0
-3099 -3407 0
-3100 -3408 0
-3097 -3573 0
-3098 -3574 0
-3099 -3575 0
-3100 -3576 0
-3097 -3749 0
-3098 -3750 0
-3099 -3751 0
-3100 -3752 0
-3097 -3949 0
-3098 -3950 0
-3099 -3951 0
-3100 -3952 0
-3101 -3141 0
-3102 -3142 0
-3103 -3143 0
-3104 -3144 0
-3101 -3325 0
-3102 -3326 0
-3103 -3327 0
-3104 -3328 0
-3101 -3757 0
-3102 -3758 0
-3103 -3759 0
-3104 -3760 0
-3105 -3109 0
-3106 -3110 0
-3107 -3111 0
-3108 -3112 0
-3105 -3225 0
-3106 -3226 0
-3107 -3227 0
-3108 -3228 0
-3105 -3329 0
-3106 -3330 0
-3107 -3331 0
-3108 -3332 0
-3105 -3441 0
-3106 -3442 0
-3107 -3443 0
-3108 -3444 0
-3105 -3833 0
-3106 -3834 0
-3107 -3835 0
-3108 -3836 0
-3105 -3929 0
-3106 -3930 0
-3107 -3931 0
-3108 -3932 0
-3109 -3225 0
-3110 -3226 0
-3111 -3227 0
-3112 -3228 0
-3109 -3341 0
-3110 -3342 0
-3111 -3343 0
-3112 -3344 0
-3109 -3381 0
-3110 -3382 0
-3111 -3383 0
-3112 -3384 0
-3109 -3581 0
-3110 -3582 0
-3111 -3583 0
-3112 -3584 0
-3109 -3769 0
-3110 -3770 0
-3111 -3771 0
-3112 -3772 0
-3109 -3949 0
-3110 -3950 0
-3111 -3951 0
-3112 -3952 0
-3113 -3117 0
-3114 -3118 0
-3115 -3119 0
-3116 -3120 0
-3113 -3121 0
-3114 -3122 0
-3115 -3123 0
-3116 -3124 0
-3113 -3129 0
-3114 -3130 0
-3115 -3131 0
-3116 -3132 0
-3113 -3145 0
-3114 -3146 0
-3115 -3147 0
-3116 -3148 0
-3113 -3149 0
-3114 -3150 0
-3115 -3151 0
-3116 -3152 0
-3113 -3445 0
-3114 -3446 0
-3115 -3447 0
-3116 -3448 0
-3113 -3973 0
-3114 -3974 0
-3115 -3975 0
-3116 -3976 0
-3113 -3997 0
-3114 -3998 0
-3115 -3999 0
-3116 -4000 0
-3117 -3125 0
-3118 -3126 0
-3119 -3127 0
-3120 -3128 0
-3117 -3133 0
-3118 -3134 0
-3119 -3135 0
-3120 -3136 0
-3117 -3449 0
-3118 -3450 0
-3119 -3451 0
-3120 -3452 0
-3117 -3733 0
-3118 -3734 0
-3119 -3735 0
-3120 -3736 0
-3117 -3977 0
-3118 -3978 0
-3119 -3979 0
-3120 -3980 0
-3121 -3125 0
-3122 -3126 0
-3123 -3127 0
-3124 -3128 0
-3121 -3137 0
-3122 -3138 0
-3123 -3139 0
-3124 -3140 0
-3121 -3241 0
-3122 -3242 0
-3123 -3243 0
-3124 -3244 0
-3121 -3413 0
-3122 -3414 0
-3123 -3415 0
-3124 -3416 0
-3121 -3737 0
-3122 -3738 0
-3123 -3739 0
-3124 -3740 0
-3125 -3141 0
-3126 -3142 0
-3127 -3143 0
-3128 -3144 0
-3125 -3161 0
-3126 -3162 0
-3127 -3163 0
-3128 -3164 0
-3125 -3585 0
-3126 -3586 0
-3127 -3587 0
-3128 -3588 0
-3125 -3749 0
-3126 -3750 0
-3127 -3751 0
-3128 -3752 0
-3129 -3133 0
-3130 -3134 0
-3131 -3135 0
-3132 -3136 0
-3129 -3137 0
-3130 -3138 0
-3131 -3139 0
-3132 -3140 0
-3129 -3153 0
-3130 -3154 0
-3131 -3155 0
-3132 -3156 0
-3129 -3645 0
-3130 -3646 0
-3131 -3647 0
-3132 -3648 0
-3129 -3981 0
-3130 -3982 0
-3131 -3983 0
-3132 -3984 0
-3133 -3141 0
-3134 -3142 0
-3135 -3143 0
-3136 -3144 0
-3133 -3349 0
-3134 -3350 0
-3135 -3351 0
-3136 -3352 0
-3137 -3141 0
-3138 -3142 0
-3139 -3143 0
-3140 -3144 0
-3137 -3253 0
-3138 -3254 0
-3139 -3255 0
-3140 -3256 0
-3141 -3357 0
-3142 -3358 0
-3143 -3359 0
-3144 -3360 0
-3141 -3765 0
-3142 -3766 0
-3143 -3767 0
-3144 -3768 0
-3145 -3465 0
-3146 -3466 0
-3147 -3467 0
-3148 -3468 0
-3145 -3493 0
-3146 -3494 0
-3147 -3495 0
-3148 -3496 0
-3149 -3153 0
-3150 -3154 0
-3151 -3155 0
-3152 -3156 0
-3149 -3237 0
-3150 -3238 0
-3151 -3239 0
-3152 -3240 0
-3149 -3421 0
-3150 -3422 0
-3151 -3423 0
-3152 -3424 0
-3149 -3649 0
-3150 -3650 0
-3151 -3651 0
-3152 -3652 0
-3149 -3973 0
-3150 -3974 0
-3151 -3975 0
-3152 -3976 0
-3153 -3249 0
-3154 -3250 0
-3155 -3251 0
-3156 -3252 0
-3153 -3661 0
-3154 -3662 0
-3155 -3663 0
-3156 -3664 0
-3153 -3981 0
-3154 -3982 0
-3155 -3983 0
-3156 -3984 0
-3157 -3437 0
-3158 -3438 0
-3159 -3439 0
-3160 -3440 0
-3157 -3781 0
-3158 -3782 0
-3159 -3783 0
-3160 -3784 0
-3157 -3953 0
-3158 -3954 0
-3159 -3955 0
-3160 -3956 0
-3161 -3781 0
-3162 -3782 0
-3163 -3783 0
-3164 -3784 0
-3165 -3169 0
-3166 -3170 0
-3167 -3171 0
-3168 -3172 0
-3165 -3173 0
-3166 -3174 0
-3167 -3175 0
-3168 -3176 0
-3165 -3181 0
-3166 -3182 0
-3167 -3183 0
-3168 -3184 0
-3165 -3189 0
-3166 -3190 0
-3167 -3191 0
-3168 -3192 0
-3165 -3193 0
-3166 -3194 0
-3167 -3195 0
-3168 -3196 0
-3165 -3957 0
-3166 -3958 0
-3167 -3959 0
-3168 -3960 0
-3169 -3177 0
-3170 -3178 0
-3171 -3179 0
-3172 -3180 0
-3169 -3181 0
-3170 -3182 0
-3171 -3183 0
-3172 -3184 0
-3169 -3505 0
-3170 -3506 0
-3171 -3507 0
-3172 -3508 0
-3169 -3961 0
-3170 -3962 0
-3171 -3963 0
-3172 -3964 0
-3173 -3177 0
-3174 -3178 0
-3175 -3179 0
-3176 -3180 0
-3173 -3185 0
-3174 -3186 0
-3175 -3187 0
-3176 -3188 0
-3173 -3197 0
-3174 -3198 0
-3175 -3199 0
-3176 -3200 0
-3173 -3201 0
-3174 -3202 0
-3175 -3203 0
-3176 -3204 0
-3173 -3957 0
-3174 -3958 0
-3175 -3959 0
-3176 -3960 0
-3177 -3185 0
-3178 -3186 0
-3179 -3187 0
-3180 -3188 0
-3177 -3265 0
-3178 -3266 0
-3179 -3267 0
-3180 -3268 0
-3177 -3961 0
-3178 -3962 0
-3179 -3963 0
-3180 -3964 0
-3181 -3185 0
-3182 -3186 0
-3183 -3187 0
-3184 -3188 0
-3181 -3841 0
-3182 -3842 0
-3183 -3843 0
-3184 -3844 0
-3181 -3969 0
-3182 -3970 0
-3183 -3971 0
-3184 -3972 0
-3185 -3273 0
-3186 -3274 0
-3187 -3275 0
-3188 -3276 0
-3185 -3969 0
-3186 -3970 0
-3187 -3971 0
-3188 -3972 0
-3189 -3193 0
-3190 -3194 0
-3191 -3195 0
-3192 -3196 0
-3189 -3197 0
-3190 -3198 0
-3191 -3199 0
-3192 -3200 0
-3189 -3501 0
-3190 -3502 0
-3191 -3503 0
-3192 -3504 0
-3189 -3973 0
-3190 -3974 0
-3191 -3975 0
-3192 -3976 0
-3193 -3201 0
-3194 -3202 0
-3195 -3203 0
-3196 -3204 0
-3193 -3417 0
-3194 -3418 0
-3195 -3419 0
-3196 -3420 0
-3193 -3509 0
-3194 -3510 0
-3195 -3511 0
-3196 -3512 0
-3193 -3977 0
-3194 -3978 0
-3195 -3979 0
-3196 -3980 0
-3197 -3201 0
-3198 -3202 0
-3199 -3203 0
-3200 -3204 0
-3197 -3293 0
-3198 -3294 0
-3199 -3295 0
-3200 -3296 0
-3197 -3973 0
-3198 -3974 0
-3199 -3975 0
-3200 -3976 0
-3197 -3981 0
-3198 -3982 0
-3199 -3983 0
-3200 -3984 0
-3201 -3209 0
-3202 -3210 0
-3203 -3211 0
-3204 -3212 0
-3201 -3421 0
-3202 -3422 0
-3203 -3423 0
-3204 -3424 0
-3201 -3977 0
-3202 -3978 0
-3203 -3979 0
-3204 -3980 0
-3205 -3209 0
-3206 -3210 0
-3207 -3211 0
-3208 -3212 0
-3205 -3233 0
-3206 -3234 0
-3207 -3235 0
-3208 -3236 0
-3205 -3621 0
-3206 -3622 0
-3207 -3623 0
-3208 -3624 0
-3209 -3425 0
-3210 -3426 0
-3211 -3427 0
-3212 -3428 0
-3209 -3625 0
-3210 -3626 0
-3211 -3627 0
-3212 -3628 0
-3209 -3813 0
-3210 -3814 0
-3211 -3815 0
-3212 -3816 0
-3213 -3217 0
-3214 -3218 0
-3215 -3219 0
-3216 -3220 0
-3213 -3529 0
-3214 -3530 0
-3215 -3531 0
-3216 -3532 0
-3213 -3633 0
-3214 -3634 0
-3215 -3635 0
-3216 -3636 0
-3213 -3849 0
-3214 -3850 0
-3215 -3851 0
-3216 -3852 0
-3217 -3225 0
-3218 -3226 0
-3219 -3227 0
-3220 -3228 0
-3217 -3537 0
-3218 -3538 0
-3219 -3539 0
-3220 -3540 0
-3217 -3641 0
-3218 -3642 0
-3219 -3643 0
-3220 -3644 0
-3217 -3817 0
-3218 -3818 0
-3219 -3819 0
-3220 -3820 0
-3217 -3853 0
-3218 -3854 0
-3219 -3855 0
-3220 -3856 0
-3217 -3961 0
-3218 -3962 0
-3219 -3963 0
-3220 -3964 0
-3221 -3225 0
-3222 -3226 0
-3223 -3227 0
-3224 -3228 0
-3221 -3337 0
-3222 -3338 0
-3223 -3339 0
-3224 -3340 0
-3221 -3453 0
-3222 -3454 0
-3223 -3455 0
-3224 -3456 0
-3221 -3525 0
-3222 -3526 0
-3223 -3527 0
-3224 -3528 0
-3221 -3797 0
-3222 -3798 0
-3223 -3799 0
-3224 -3800 0
-3221 -3957 0
-3222 -3958 0
-3223 -3959 0
-3224 -3960 0
-3221 -3965 0
-3222 -3966 0
-3223 -3967 0
-3224 -3968 0
-3225 -3229 0
-3226 -3230 0
-3227 -3231 0
-3228 -3232 0
-3225 -3233 0
-3226 -3234 0
-3227 -3235 0
-3228 -3236 0
-3225 -3321 0
-3226 -3322 0
-3227 -3323 0
-3228 -3324 0
-3225 -3393 0
-3226 -3394 0
-3227 -3395 0
-3228 -3396 0
-3225 -3461 0
-3226 -3462 0
-3227 -3463 0
-3228 -3464 0
-3225 -3645 0
-3226 -3646 0
-3227 -3647 0
-3228 -3648 0
-3225 -3873 0
-3226 -3874 0
-3227 -3875 0
-3228 -3876 0
-3225 -3961 0
-3226 -3962 0
-3227 -3963 0
-3228 -3964 0
-3229 -3465 0
-3230 -3466 0
-3231 -3467 0
-3232 -3468 0
-3229 -3541 0
-3230 -3542 0
-3231 -3543 0
-3232 -3544 0
-3233 -3345 0
-3234 -3346 0
-3235 -3347 0
-3236 -3348 0
-3233 -3661 0
-3234 -3662 0
-3235 -3663 0
-3236 -3664 0
-3233 -3809 0
-3234 -3810 0
-3235 -3811 0
-3236 -3812 0
-3237 -3241 0
-3238 -3242 0
-3239 -3243 0
-3240 -3244 0
-3237 -3249 0
-3238 -3250 0
-3239 -3251 0
-3240 -3252 0
-3237 -3257 0
-3238 -3258 0
-3239 -3259 0
-3240 -3260 0
-3237 -3729 0
-3238 -3730 0
-3239 -3731 0
-3240 -3732 0
-3241 -3253 0
-3242 -3254 0
-3243 -3255 0
-3244 -3256 0
-3241 -3549 0
-3242 -3550 0
-3243 -3551 0
-3244 -3552 0
-3241 -3677 0
-3242 -3678 0
-3243 -3679 0
-3244 -3680 0
-3241 -3985 0
-3242 -3986 0
-3243 -3987 0
-3244 -3988 0
-3245 -3249 0
-3246 -3250 0
-3247 -3251 0
-3248 -3252 0
-3245 -3353 0
-3246 -3354 0
-3247 -3355 0
-3248 -3356 0
-3245 -3745 0
-3246 -3746 0
-3247 -3747 0
-3248 -3748 0
-3245 -3825 0
-3246 -3826 0
-3247 -3827 0
-3248 -3828 0
-3249 -3253 0
-3250 -3254 0
-3251 -3255 0
-3252 -3256 0
-3249 -3261 0
-3250 -3262 0
-3251 -3263 0
-3252 -3264 0
-3249 -3349 0
-3250 -3350 0
-3251 -3351 0
-3252 -3352 0
-3249 -3357 0
-3250 -3358 0
-3251 -3359 0
-3252 -3360 0
-3249 -3749 0
-3250 -3750 0
-3251 -3751 0
-3252 -3752 0
-3249 -3989 0
-3250 -3990 0
-3251 -3991 0
-3252 -3992 0
-3253 -3681 0
-3254 -3682 0
-3255 -3683 0
-3256 -3684 0
-3253 -3993 0
-3254 -3994 0
-3255 -3995 0
-3256 -3996 0
-3257 -3261 0
-3258 -3262 0
-3259 -3263 0
-3260 -3264 0
-3257 -3561 0
-3258 -3562 0
-3259 -3563 0
-3260 -3564 0
-3261 -3365 0
-3262 -3366 0
-3263 -3367 0
-3264 -3368 0
-3261 -3373 0
-3262 -3374 0
-3263 -3375 0
-3264 -3376 0
-3261 -3477 0
-3262 -3478 0
-3263 -3479 0
-3264 -3480 0
-3261 -3689 0
-3262 -3690 0
-3263 -3691 0
-3264 -3692 0
-3261 -3769 0
-3262 -3770 0
-3263 -3771 0
-3264 -3772 0
-3265 -3269 0
-3266 -3270 0
-3267 -3271 0
-3268 -3272 0
-3265 -3273 0
-3266 -3274 0
-3267 -3275 0
-3268 -3276 0
-3265 -3301 0
-3266 -3302 0
-3267 -3303 0
-3268 -3304 0
-3269 -3277 0
-3270 -3278 0
-3271 -3279 0
-3272 -3280 0
-3269 -3313 0
-3270 -3314 0
-3271 -3315 0
-3272 -3316 0
-3269 -3317 0
-3270 -3318 0
-3271 -3319 0
-3272 -3320 0
-3269 -3693 0
-3270 -3694 0
-3271 -3695 0
-3272 -3696 0
-3273 -3277 0
-3274 -3278 0
-3275 -3279 0
-3276 -3280 0
-3273 -3333 0
-3274 -3334 0
-3275 -3335 0
-3276 -3336 0
-3277 -3361 0
-3278 -3362 0
-3279 -3363 0
-3280 -3364 0
-3277 -3365 0
-3278 -3366 0
-3279 -3367 0
-3280 -3368 0
-3277 -3837 0
-3278 -3838 0
-3279 -3839 0
-3280 -3840 0
-3277 -3957 0
-3278 -3958 0
-3279 -3959 0
-3280 -3960 0
-3281 -3285 0
-3282 -3286 0
-3283 -3287 0
-3284 -3288 0
-3281 -3297 0
-3282 -3298 0
-3283 -3299 0
-3284 -3300 0
-3281 -3309 0
-3282 -3310 0
-3283 -3311 0
-3284 -3312 0
-3285 -3301 0
-3286 -3302 0
-3287 -3303 0
-3288 -3304 0
-3285 -3309 0
-3286 -3310 0
-3287 -3311 0
-3288 -3312 0
-3285 -3985 0
-3286 -3986 0
-3287 -3987 0
-3288 -3988 0
-3289 -3293 0
-3290 -3294 0
-3291 -3295 0
-3292 -3296 0
-3289 -3297 0
-3290 -3298 0
-3291 -3299 0
-3292 -3300 0
-3289 -3329 0
-3290 -3330 0
-3291 -3331 0
-3292 -3332 0
-3289 -3573 0
-3290 -3574 0
-3291 -3575 0
-3292 -3576 0
-3289 -3957 0
-3290 -3958 0
-3291 -3959 0
-3292 -3960 0
-3293 -3301 0
-3294 -3302 0
-3295 -3303 0
-3296 -3304 0
-3293 -3333 0
-3294 -3334 0
-3295 -3335 0
-3296 -3336 0
-3293 -3797 0
-3294 -3798 0
-3295 -3799 0
-3296 -3800 0
-3293 -3989 0
-3294 -3990 0
-3295 -3991 0
-3296 -3992 0
-3297 -3301 0
-3298 -3302 0
-3299 -3303 0
-3300 -3304 0
-3297 -3313 0
-3298 -3314 0
-3299 -3315 0
-3300 -3316 0
-3297 -3329 0
-3298 -3330 0
-3299 -3331 0
-3300 -3332 0
-3297 -3401 0
-3298 -3402 0
-3299 -3403 0
-3300 -3404 0
-3297 -3857 0
-3298 -3858 0
-3299 -3859 0
-3300 -3860 0
-3297 -3961 0
-3298 -3962 0
-3299 -3963 0
-3300 -3964 0
-3301 -3305 0
-3302 -3306 0
-3303 -3307 0
-3304 -3308 0
-3301 -3313 0
-3302 -3314 0
-3303 -3315 0
-3304 -3316 0
-3301 -3333 0
-3302 -3334 0
-3303 -3335 0
-3304 -3336 0
-3301 -3501 0
-3302 -3502 0
-3303 -3503 0
-3304 -3504 0
-3301 -3613 0
-3302 -3614 0
-3303 -3615 0
-3304 -3616 0
-3301 -3861 0
-3302 -3862 0
-3303 -3863 0
-3304 -3864 0
-3301 -3985 0
-3302 -3986 0
-3303 -3987 0
-3304 -3988 0
-3301 -3993 0
-3302 -3994 0
-3303 -3995 0
-3304 -3996 0
-3305 -3809 0
-3306 -3810 0
-3307 -3811 0
-3308 -3812 0
-3309 -3313 0
-3310 -3314 0
-3311 -3315 0
-3312 -3316 0
-3309 -3997 0
-3310 -3998 0
-3311 -3999 0
-3312 -4000 0
-3313 -3317 0
-3314 -3318 0
-3315 -3319 0
-3316 -3320 0
-3313 -3361 0
-3314 -3362 0
-3315 -3363 0
-3316 -3364 0
-3313 -3413 0
-3314 -3414 0
-3315 -3415 0
-3316 -3416 0
-3313 -3621 0
-3314 -3622 0
-3315 -3623 0
-3316 -3624 0
-3313 -3905 0
-3314 -3906 0
-3315 -3907 0
-3316 -3908 0
-3313 -3997 0
-3314 -3998 0
-3315 -3999 0
-3316 -4000 0
-3317 -3365 0
-3318 -3366 0
-3319 -3367 0
-3320 -3368 0
-3317 -3513 0
-3318 -3514 0
-3319 -3515 0
-3320 -3516 0
-3317 -3869 0
-3318 -3870 0
-3319 -3871 0
-3320 -3872 0
-3317 -3909 0
-3318 -3910 0
-3319 -3911 0
-3320 -3912 0
-3321 -3345 0
-3322 -3346 0
-3323 -3347 0
-3324 -3348 0
-3321 -3377 0
-3322 -3378 0
-3323 -3379 0
-3324 -3380 0
-3321 -3521 0
-3322 -3522 0
-3323 -3523 0
-3324 -3524 0
-3321 -3721 0
-3322 -3722 0
-3323 -3723 0
-3324 -3724 0
-3321 -3913 0
-3322 -3914 0
-3323 -3915 0
-3324 -3916 0
-3325 -3345 0
-3326 -3346 0
-3327 -3347 0
-3328 -3348 0
-3325 -3353 0
-3326 -3354 0
-3327 -3355 0
-3328 -3356 0
-3325 -3357 0
-3326 -3358 0
-3327 -3359 0
-3328 -3360 0
-3325 -3725 0
-3326 -3726 0
-3327 -3727 0
-3328 -3728 0
-3325 -3881 0
-3326 -3882 0
-3327 -3883 0
-3328 -3884 0
-3329 -3333 0
-3330 -3334 0
-3331 -3335 0
-3332 -3336 0
-3329 -3337 0
-3330 -3338 0
-3331 -3339 0
-3332 -3340 0
-3329 -3341 0
-3330 -3342 0
-3331 -3343 0
-3332 -3344 0
-3329 -3361 0
-3330 -3362 0
-3331 -3363 0
-3332 -3364 0
-3329 -3385 0
-3330 -3386 0
-3331 -3387 0
-3332 -3388 0
-3329 -3393 0
-3330 -3394 0
-3331 -3395 0
-3332 -3396 0
-3329 -3429 0
-3330 -3430 0
-3331 -3431 0
-3332 -3432 0
-3329 -3921 0
-3330 -3922 0
-3331 -3923 0
-3332 -3924 0
-3329 -3969 0
-3330 -3970 0
-3331 -3971 0
-3332 -3972 0
-3333 -3361 0
-3334 -3362 0
-3335 -3363 0
-3336 -3364 0
-3333 -3637 0
-3334 -3638 0
-3335 -3639 0
-3336 -3640 0
-3337 -3345 0
-3338 -3346 0
-3339 -3347 0
-3340 -3348 0
-3337 -3365 0
-3338 -3366 0
-3339 -3367 0
-3340 -3368 0
-3337 -3385 0
-3338 -3386 0
-3339 -3387 0
-3340 -3388 0
-3337 -3397 0
-3338 -3398 0
-3339 -3399 0
-3340 -3400 0
-3337 -3733 0
-3338 -3734 0
-3339 -3735 0
-3340 -3736 0
-3337 -3925 0
-3338 -3926 0
-3339 -3927 0
-3340 -3928 0
-3341 -3345 0
-3342 -3346 0
-3343 -3347 0
-3344 -3348 0
-3341 -3389 0
-3342 -3390 0
-3343 -3391 0
-3344 -3392 0
-3341 -3393 0
-3342 -3394 0
-3343 -3395 0
-3344 -3396 0
-3341 -3537 0
-3342 -3538 0
-3343 -3539 0
-3344 -3540 0
-3341 -3581 0
-3342 -3582 0
-3343 -3583 0
-3344 -3584 0
-3341 -3737 0
-3342 -3738 0
-3343 -3739 0
-3344 -3740 0
-3341 -3889 0
-3342 -3890 0
-3343 -3891 0
-3344 -3892 0
-3345 -3369 0
-3346 -3370 0
-3347 -3371 0
-3348 -3372 0
-3345 -3373 0
-3346 -3374 0
-3347 -3375 0
-3348 -3376 0
-3345 -3389 0
-3346 -3390 0
-3347 -3391 0
-3348 -3392 0
-3345 -3397 0
-3346 -3398 0
-3347 -3399 0
-3348 -3400 0
-3345 -3541 0
-3346 -3542 0
-3347 -3543 0
-3348 -3544 0
-3345 -3557 0
-3346 -3558 0
-3347 -3559 0
-3348 -3560 0
-3345 -3749 0
-3346 -3750 0
-3347 -3751 0
-3348 -3752 0
-3345 -3845 0
-3346 -3846 0
-3347 -3847 0
-3348 -3848 0
-3349 -3357 0
-3350 -3358 0
-3351 -3359 0
-3352 -3360 0
-3349 -3365 0
-3350 -3366 0
-3351 -3367 0
-3352 -3368 0
-3349 -3817 0
-3350 -3818 0
-3351 -3819 0
-3352 -3820 0
-3353 -3357 0
-3354 -3358 0
-3355 -3359 0
-3356 -3360 0
-3353 -3369 0
-3354 -3370 0
-3355 -3371 0
-3356 -3372 0
-3353 -3773 0
-3354 -3774 0
-3355 -3775 0
-3356 -3776 0
-3353 -3849 0
-3354 -3850 0
-3355 -3851 0
-3356 -3852 0
-3357 -3373 0
-3358 -3374 0
-3359 -3375 0
-3360 -3376 0
-3357 -3821 0
-3358 -3822 0
-3359 -3823 0
-3360 -3824 0
-3357 -3885 0
-3358 -3886 0
-3359 -3887 0
-3360 -3888 0
-3361 -3365 0
-3362 -3366 0
-3363 -3367 0
-3364 -3368 0
-3361 -3457 0
-3362 -3458 0
-3363 -3459 0
-3364 -3460 0
-3361 -3601 0
-3362 -3602 0
-3363 -3603 0
-3364 -3604 0
-3361 -3657 0
-3362 -3658 0
-3363 -3659 0
-3364 -3660 0
-3361 -3973 0
-3362 -3974 0
-3363 -3975 0
-3364 -3976 0
-3365 -3373 0
-3366 -3374 0
-3367 -3375 0
-3368 -3376 0
-3365 -3609 0
-3366 -3610 0
-3367 -3611 0
-3368 -3612 0
-3365 -3861 0
-3366 -3862 0
-3367 -3863 0
-3368 -3864 0
-3365 -3977 0
-3366 -3978 0
-3367 -3979 0
-3368 -3980 0
-3369 -3373 0
-3370 -3374 0
-3371 -3375 0
-3372 -3376 0
-3369 -3545 0
-3370 -3546 0
-3371 -3547 0
-3372 -3548 0
-3369 -3777 0
-3370 -3778 0
-3371 -3779 0
-3372 -3780 0
-3369 -3865 0
-3370 -3866 0
-3371 -3867 0
-3372 -3868 0
-3373 -3893 0
-3374 -3894 0
-3375 -3895 0
-3376 -3896 0
-3377 -3381 0
-3378 -3382 0
-3379 -3383 0
-3380 -3384 0
-3377 -3389 0
-3378 -3390 0
-3379 -3391 0
-3380 -3392 0
-3377 -3529 0
-3378 -3530 0
-3379 -3531 0
-3380 -3532 0
-3377 -3797 0
-3378 -3798 0
-3379 -3799 0
-3380 -3800 0
-3377 -3937 0
-3378 -3938 0
-3379 -3939 0
-3380 -3940 0
-3377 -3985 0
-3378 -3986 0
-3379 -3987 0
-3380 -3988 0
-3381 -3537 0
-3382 -3538 0
-3383 -3539 0
-3384 -3540 0
-3381 -3801 0
-3382 -3802 0
-3383 -3803 0
-3384 -3804 0
-3381 -3993 0
-3382 -3994 0
-3383 -3995 0
-3384 -3996 0
-3385 -3389 0
-3386 -3390 0
-3387 -3391 0
-3388 -3392 0
-3385 -3485 0
-3386 -3486 0
-3387 -3487 0
-3388 -3488 0
-3385 -3641 0
-3386 -3642 0
-3387 -3643 0
-3388 -3644 0
-3389 -3617 0
-3390 -3618 0
-3391 -3619 0
-3392 -3620 0
-3389 -3789 0
-3390 -3790 0
-3391 -3791 0
-3392 -3792 0
-3389 -3805 0
-3390 -3806 0
-3391 -3807 0
-3392 -3808 0
-3393 -3397 0
-3394 -3398 0
-3395 -3399 0
-3396 -3400 0
-3393 -3521 0
-3394 -3522 0
-3395 -3523 0
-3396 -3524 0
-3397 -3593 0
-3398 -3594 0
-3399 -3595 0
-3400 -3596 0
-3397 -3817 0
-3398 -3818 0
-3399 -3819 0
-3400 -3820 0
-3401 -3405 0
-3402 -3406 0
-3403 -3407 0
-3404 -3408 0
-3401 -3409 0
-3402 -3410 0
-3403 -3411 0
-3404 -3412 0
-3401 -3413 0
-3402 -3414 0
-3403 -3415 0
-3404 -3416 0
-3401 -3429 0
-3402 -3430 0
-3403 -3431 0
-3404 -3432 0
-3401 -3433 0
-3402 -3434 0
-3403 -3435 0
-3404 -3436 0
-3401 -3901 0
-3402 -3902 0
-3403 -3903 0
-3404 -3904 0
-3405 -3437 0
-3406 -3438 0
-3407 -3439 0
-3408 -3440 0
-3405 -3441 0
-3406 -3442 0
-3407 -3443 0
-3408 -3444 0
-3405 -3573 0
-3406 -3574 0
-3407 -3575 0
-3408 -3576 0
-3405 -3909 0
-3406 -3910 0
-3407 -3911 0
-3408 -3912 0
-3409 -3425 0
-3410 -3426 0
-3411 -3427 0
-3412 -3428 0
-3409 -3505 0
-3410 -3506 0
-3411 -3507 0
-3412 -3508 0
-3409 -3613 0
-3410 -3614 0
-3411 -3615 0
-3412 -3616 0
-3409 -3825 0
-3410 -3826 0
-3411 -3827 0
-3412 -3828 0
-3409 -3917 0
-3410 -3918 0
-3411 -3919 0
-3412 -3920 0
-3413 -3425 0
-3414 -3426 0
-3415 -3427 0
-3416 -3428 0
-3413 -3457 0
-3414 -3458 0
-3415 -3459 0
-3416 -3460 0
-3413 -3465 0
-3414 -3466 0
-3415 -3467 0
-3416 -3468 0
-3413 -3549 0
-3414 -3550 0
-3415 -3551 0
-3416 -3552 0
-3413 -3705 0
-3414 -3706 0
-3415 -3707 0
-3416 -3708 0
-3413 -3905 0
-3414 -3906 0
-3415 -3907 0
-3416 -3908 0
-3417 -3421 0
-3418 -3422 0
-3419 -3423 0
-3420 -3424 0
-3417 -3677 0
-3418 -3678 0
-3419 -3679 0
-3420 -3680 0
-3421 -3425 0
-3422 -3426 0
-3423 -3427 0
-3424 -3428 0
-3421 -3513 0
-3422 -3514 0
-3423 -3515 0
-3424 -3516 0
-3421 -3681 0
-3422 -3682 0
-3423 -3683 0
-3424 -3684 0
-3421 -3857 0
-3422 -3858 0
-3423 -3859 0
-3424 -3860 0
-3425 -3477 0
-3426 -3478 0
-3427 -3479 0
-3428 -3480 0
-3425 -3481 0
-3426 -3482 0
-3427 -3483 0
-3428 -3484 0
-3425 -3513 0
-3426 -3514 0
-3427 -3515 0
-3428 -3516 0
-3425 -3625 0
-3426 -3626 0
-3427 -3627 0
-3428 -3628 0
-3425 -3865 0
-3426 -3866 0
-3427 -3867 0
-3428 -3868 0
-3425 -3921 0
-3426 -3922 0
-3427 -3923 0
-3428 -3924 0
-3425 -3945 0
-3426 -3946 0
-3427 -3947 0
-3428 -3948 0
-3429 -3433 0
-3430 -3434 0
-3431 -3435 0
-3432 -3436 0
-3429 -3437 0
-3430 -3438 0
-3431 -3439 0
-3432 -3440 0
-3429 -3453 0
-3430 -3454 0
-3431 -3455 0
-3432 -3456 0
-3429 -3457 0
-3430 -3458 0
-3431 -3459 0
-3432 -3460 0
-3429 -3485 0
-3430 -3486 0
-3431 -3487 0
-3432 -3488 0
-3429 -3517 0
-3430 -3518 0
-3431 -3519 0
-3432 -3520 0
-3429 -3521 0
-3430 -3522 0
-3431 -3523 0
-3432 -3524 0
-3429 -3629 0
-3430 -3630 0
-3431 -3631 0
-3432 -3632 0
-3429 -3945 0
-3430 -3946 0
-3431 -3947 0
-3432 -3948 0
-3429 -4005 0
-3430 -4006 0
-3431 -4007 0
-3432 -4008 0
-3433 -3441 0
-3434 -3442 0
-3435 -3443 0
-3436 -3444 0
-3433 -3461 0
-3434 -3462 0
-3435 -3463 0
-3436 -3464 0
-3433 -3465 0
-3434 -3466 0
-3435 -3467 0
-3436 -3468 0
-3433 -3713 0
-3434 -3714 0
-3435 -3715 0
-3436 -3716 0
-3433 -3949 0
-3434 -3950 0
-3435 -3951 0
-3436 -3952 0
-3437 -3441 0
-3438 -3442 0
-3439 -3443 0
-3440 -3444 0
-3437 -3473 0
-3438 -3474 0
-3439 -3475 0
-3440 -3476 0
-3437 -3489 0
-3438 -3490 0
-3439 -3491 0
-3440 -3492 0
-3437 -3525 0
-3438 -3526 0
-3439 -3527 0
-3440 -3528 0
-3441 -3929 0
-3442 -3930 0
-3443 -3931 0
-3444 -3932 0
-3445 -3449 0
-3446 -3450 0
-3447 -3451 0
-3448 -3452 0
-3445 -3465 0
-3446 -3466 0
-3447 -3467 0
-3448 -3468 0
-3445 -3725 0
-3446 -3726 0
-3447 -3727 0
-3448 -3728 0
-3449 -3469 0
-3450 -3470 0
-3451 -3471 0
-3452 -3472 0
-3449 -3753 0
-3450 -3754 0
-3451 -3755 0
-3452 -3756 0
-3449 -4001 0
-3450 -4002 0
-3451 -4003 0
-3452 -4004 0
-3453 -3457 0
-3454 -3458 0
-3455 -3459 0
-3456 -3460 0
-3453 -3461 0
-3454 -3462 0
-3455 -3463 0
-3456 -3464 0
-3453 -3473 0
-3454 -3474 0
-3455 -3475 0
-3456 -3476 0
-3453 -3493 0
-3454 -3494 0
-3455 -3495 0
-3456 -3496 0
-3453 -3697 0
-3454 -3698 0
-3455 -3699 0
-3456 -3700 0
-3457 -3465 0
-3458 -3466 0
-3459 -3467 0
-3460 -3468 0
-3457 -3477 0
-3458 -3478 0
-3459 -3479 0
-3460 -3480 0
-3457 -3553 0
-3458 -3554 0
-3459 -3555 0
-3460 -3556 0
-3457 -3741 0
-3458 -3742 0
-3459 -3743 0
-3460 -3744 0
-3461 -3465 0
-3462 -3466 0
-3463 -3467 0
-3464 -3468 0
-3461 -3645 0
-3462 -3646 0
-3463 -3647 0
-3464 -3648 0
-3461 -3745 0
-3462 -3746 0
-3463 -3747 0
-3464 -3748 0
-3465 -3469 0
-3466 -3470 0
-3467 -3471 0
-3468 -3472 0
-3465 -3481 0
-3466 -3482 0
-3467 -3483 0
-3468 -3484 0
-3465 -3589 0
-3466 -3590 0
-3467 -3591 0
-3468 -3592 0
-3465 -3749 0
-3466 -3750 0
-3467 -3751 0
-3468 -3752 0
-3465 -3837 0
-3466 -3838 0
-3467 -3839 0
-3468 -3840 0
-3465 -3985 0
-3466 -3986 0
-3467 -3987 0
-3468 -3988 0
-3469 -3597 0
-3470 -3598 0
-3471 -3599 0
-3472 -3600 0
-3469 -3757 0
-3470 -3758 0
-3471 -3759 0
-3472 -3760 0
-3469 -3929 0
-3470 -3930 0
-3471 -3931 0
-3472 -3932 0
-3473 -3497 0
-3474 -3498 0
-3475 -3499 0
-3476 -3500 0
-3473 -3905 0
-3474 -3906 0
-3475 -3907 0
-3476 -3908 0
-3477 -3481 0
-3478 -3482 0
-3479 -3483 0
-3480 -3484 0
-3477 -3689 0
-3478 -3690 0
-3479 -3691 0
-3480 -3692 0
-3477 -3889 0
-3478 -3890 0
-3479 -3891 0
-3480 -3892 0
-3481 -3561 0
-3482 -3562 0
-3483 -3563 0
-3484 -3564 0
-3481 -3665 0
-3482 -3666 0
-3483 -3667 0
-3484 -3668 0
-3481 -3693 0
-3482 -3694 0
-3483 -3695 0
-3484 -3696 0
-3481 -3773 0
-3482 -3774 0
-3483 -3775 0
-3484 -3776 0
-3481 -3841 0
-3482 -3842 0
-3483 -3843 0
-3484 -3844 0
-3481 -3953 0
-3482 -3954 0
-3483 -3955 0
-3484 -3956 0
-3485 -3489 0
-3486 -3490 0
-3487 -3491 0
-3488 -3492 0
-3485 -3493 0
-3486 -3494 0
-3487 -3495 0
-3488 -3496 0
-3485 -3533 0
-3486 -3534 0
-3487 -3535 0
-3488 -3536 0
-3485 -3717 0
-3486 -3718 0
-3487 -3719 0
-3488 -3720 0
-3489 -3497 0
-3490 -3498 0
-3491 -3499 0
-3492 -3500 0
-3489 -3541 0
-3490 -3542 0
-3491 -3543 0
-3492 -3544 0
-3489 -3637 0
-3490 -3638 0
-3491 -3639 0
-3492 -3640 0
-3489 -3669 0
-3490 -3670 0
-3491 -3671 0
-3492 -3672 0
-3493 -3497 0
-3494 -3498 0
-3495 -3499 0
-3496 -3500 0
-3493 -3749 0
-3494 -3750 0
-3495 -3751 0
-3496 -3752 0
-3497 -3545 0
-3498 -3546 0
-3499 -3547 0
-3500 -3548 0
-3497 -3657 0
-3498 -3658 0
-3499 -3659 0
-3500 -3660 0
-3497 -3765 0
-3498 -3766 0
-3499 -3767 0
-3500 -3768 0
-3497 -3933 0
-3498 -3934 0
-3499 -3935 0
-3500 -3936 0
-3501 -3509 0
-3502 -3510 0
-3503 -3511 0
-3504 -3512 0
-3505 -3509 0
-3506 -3510 0
-3507 -3511 0
-3508 -3512 0
-3505 -3513 0
-3506 -3514 0
-3507 -3515 0
-3508 -3516 0
-3505 -3805 0
-3506 -3806 0
-3507 -3807 0
-3508 -3808 0
-3509 -3513 0
-3510 -3514 0
-3511 -3515 0
-3512 -3516 0
-3509 -3677 0
-3510 -3678 0
-3511 -3679 0
-3512 -3680 0
-3509 -4001 0
-3510 -4002 0
-3511 -4003 0
-3512 -4004 0
-3513 -3585 0
-3514 -3586 0
-3515 -3587 0
-3516 -3588 0
-3513 -3957 0
-3514 -3958 0
-3515 -3959 0
-3516 -3960 0
-3517 -3521 0
-3518 -3522 0
-3519 -3523 0
-3520 -3524 0
-3517 -3957 0
-3518 -3958 0
-3519 -3959 0
-3520 -3960 0
-3521 -3525 0
-3522 -3526 0
-3523 -3527 0
-3524 -3528 0
-3521 -3529 0
-3522 -3530 0
-3523 -3531 0
-3524 -3532 0
-3521 -3533 0
-3522 -3534 0
-3523 -3535 0
-3524 -3536 0
-3525 -3537 0
-3526 -3538 0
-3527 -3539 0
-3528 -3540 0
-3525 -3541 0
-3526 -3542 0
-3527 -3543 0
-3528 -3544 0
-3525 -3697 0
-3526 -3698 0
-3527 -3699 0
-3528 -3700 0
-3529 -3533 0
-3530 -3534 0
-3531 -3535 0
-3532 -3536 0
-3529 -3537 0
-3530 -3538 0
-3531 -3539 0
-3532 -3540 0
-3529 -3633 0
-3530 -3634 0
-3531 -3635 0
-3532 -3636 0
-3529 -3797 0
-3530 -3798 0
-3531 -3799 0
-3532 -3800 0
-3533 -3541 0
-3534 -3542 0
-3535 -3543 0
-3536 -3544 0
-3533 -3729 0
-3534 -3730 0
-3535 -3731 0
-3536 -3732 0
-3537 -3541 0
-3538 -3542 0
-3539 -3543 0
-3540 -3544 0
-3537 -3641 0
-3538 -3642 0
-3539 -3643 0
-3540 -3644 0
-3537 -3737 0
-3538 -3738 0
-3539 -3739 0
-3540 -3740 0
-3537 -3801 0
-3538 -3802 0
-3539 -3803 0
-3540 -3804 0
-3541 -3545 0
-3542 -3546 0
-3543 -3547 0
-3544 -3548 0
-3541 -3749 0
-3542 -3750 0
-3543 -3751 0
-3544 -3752 0
-3541 -4001 0
-3542 -4002 0
-3543 -4003 0
-3544 -4004 0
-3545 -3777 0
-3546 -3778 0
-3547 -3779 0
-3548 -3780 0
-3545 -3941 0
-3546 -3942 0
-3547 -3943 0
-3548 -3944 0
-3549 -3553 0
-3550 -3554 0
-3551 -3555 0
-3552 -3556 0
-3549 -3677 0
-3550 -3678 0
-3551 -3679 0
-3552 -3680 0
-3553 -3561 0
-3554 -3562 0
-3555 -3563 0
-3556 -3564 0
-3553 -3597 0
-3554 -3598 0
-3555 -3599 0
-3556 -3600 0
-3553 -4013 0
-3554 -4014 0
-3555 -4015 0
-3556 -4016 0
-3557 -3561 0
-3558 -3562 0
-3559 -3563 0
-3560 -3564 0
-3557 -3565 0
-3558 -3566 0
-3559 -3567 0
-3560 -3568 0
-3557 -3593 0
-3558 -3594 0
-3559 -3595 0
-3560 -3596 0
-3557 -3749 0
-3558 -3750 0
-3559 -3751 0
-3560 -3752 0
-3557 -4005 0
-3558 -4006 0
-3559 -4007 0
-3560 -4008 0
-3561 -3597 0
-3562 -3598 0
-3563 -3599 0
-3564 -3600 0
-3561 -3753 0
-3562 -3754 0
-3563 -3755 0
-3564 -3756 0
-3561 -3953 0
-3562 -3954 0
-3563 -3955 0
-3564 -3956 0
-3565 -3569 0
-3566 -3570 0
-3567 -3571 0
-3568 -3572 0
-3565 -3605 0
-3566 -3606 0
-3567 -3607 0
-3568 -3608 0
-3565 -3765 0
-3566 -3766 0
-3567 -3767 0
-3568 -3768 0
-3565 -3949 0
-3566 -3950 0
-3567 -3951 0
-3568 -3952 0
-3569 -3661 0
-3570 -3662 0
-3571 -3663 0
-3572 -3664 0
-3569 -3673 0
-3570 -3674 0
-3571 -3675 0
-3572 -3676 0
-3569 -3833 0
-3570 -3834 0
-3571 -3835 0
-3572 -3836 0
-3569 -3921 0
-3570 -3922 0
-3571 -3923 0
-3572 -3924 0
-3573 -3581 0
-3574 -3582 0
-3575 -3583 0
-3576 -3584 0
-3573 -3613 0
-3574 -3614 0
-3575 -3615 0
-3576 -3616 0
-3573 -3957 0
-3574 -3958 0
-3575 -3959 0
-3576 -3960 0
-3577 -3581 0
-3578 -3582 0
-3579 -3583 0
-3580 -3584 0
-3577 -3797 0
-3578 -3798 0
-3579 -3799 0
-3580 -3800 0
-3577 -4005 0
-3578 -4006 0
-3579 -4007 0
-3580 -4008 0
-3581 -3617 0
-3582 -3618 0
-3583 -3619 0
-3584 -3620 0
-3581 -3801 0
-3582 -3802 0
-3583 -3803 0
-3584 -3804 0
-3581 -3905 0
-3582 -3906 0
-3583 -3907 0
-3584 -3908 0
-3581 -3965 0
-3582 -3966 0
-3583 -3967 0
-3584 -3968 0
-3581 -4005 0
-3582 -4006 0
-3583 -4007 0
-3584 -4008 0
-3585 -3597 0
-3586 -3598 0
-3587 -3599 0
-3588 -3600 0
-3585 -3957 0
-3586 -3958 0
-3587 -3959 0
-3588 -3960 0
-3589 -3597 0
-3590 -3598 0
-3591 -3599 0
-3592 -3600 0
-3589 -3601 0
-3590 -3602 0
-3591 -3603 0
-3592 -3604 0
-3589 -3653 0
-3590 -3654 0
-3591 -3655 0
-3592 -3656 0
-3589 -3837 0
-3590 -3838 0
-3591 -3839 0
-3592 -3840 0
-3589 -3877 0
-3590 -3878 0
-3591 -3879 0
-3592 -3880 0
-3593 -3597 0
-3594 -3598 0
-3595 -3599 0
-3596 -3600 0
-3593 -3605 0
-3594 -3606 0
-3595 -3607 0
-3596 -3608 0
-3593 -3649 0
-3594 -3650 0
-3595 -3651 0
-3596 -3652 0
-3593 -3817 0
-3594 -3818 0
-3595 -3819 0
-3596 -3820 0
-3593 -3889 0
-3594 -3890 0
-3595 -3891 0
-3596 -3892 0
-3597 -3609 0
-3598 -3610 0
-3599 -3611 0
-3600 -3612 0
-3597 -3653 0
-3598 -3654 0
-3599 -3655 0
-3600 -3656 0
-3597 -3881 0
-3598 -3882 0
-3599 -3883 0
-3600 -3884 0
-3597 -3969 0
-3598 -3970 0
-3599 -3971 0
-3600 -3972 0
-3601 -3609 0
-3602 -3610 0
-3603 -3611 0
-3604 -3612 0
-3601 -3665 0
-3602 -3666 0
-3603 -3667 0
-3604 -3668 0
-3601 -3885 0
-3602 -3886 0
-3603 -3887 0
-3604 -3888 0
-3605 -3609 0
-3606 -3610 0
-3607 -3611 0
-3608 -3612 0
-3605 -3661 0
-3606 -3662 0
-3607 -3663 0
-3608 -3664 0
-3605 -3701 0
-3606 -3702 0
-3607 -3703 0
-3608 -3704 0
-3605 -3893 0
-3606 -3894 0
-3607 -3895 0
-3608 -3896 0
-3605 -3961 0
-3606 -3962 0
-3607 -3963 0
-3608 -3964 0
-3609 -3665 0
-3610 -3666 0
-3611 -3667 0
-3612 -3668 0
-3609 -4001 0
-3610 -4002 0
-3611 -4003 0
-3612 -4004 0
-3613 -3617 0
-3614 -3618 0
-3615 -3619 0
-3616 -3620 0
-3613 -3621 0
-3614 -3622 0
-3615 -3623 0
-3616 -3624 0
-3613 -3625 0
-3614 -3626 0
-3615 -3627 0
-3616 -3628 0
-3613 -3637 0
-3614 -3638 0
-3615 -3639 0
-3616 -3640 0
-3613 -3641 0
-3614 -3642 0
-3615 -3643 0
-3616 -3644 0
-3613 -3825 0
-3614 -3826 0
-3615 -3827 0
-3616 -3828 0
-3613 -3977 0
-3614 -3978 0
-3615 -3979 0
-3616 -3980 0
-3613 -4001 0
-3614 -4002 0
-3615 -4003 0
-3616 -4004 0
-3617 -3805 0
-3618 -3806 0
-3619 -3807 0
-3620 -3808 0
-3617 -3829 0
-3618 -3830 0
-3619 -3831 0
-3620 -3832 0
-3617 -3933 0
-3618 -3934 0
-3619 -3935 0
-3620 -3936 0
-3621 -3625 0
-3622 -3626 0
-3623 -3627 0
-3624 -3628 0
-3621 -3657 0
-3622 -3658 0
-3623 -3659 0
-3624 -3660 0
-3621 -3661 0
-3622 -3662 0
-3623 -3663 0
-3624 -3664 0
-3621 -3705 0
-3622 -3706 0
-3623 -3707 0
-3624 -3708 0
-3621 -3853 0
-3622 -3854 0
-3623 -3855 0
-3624 -3856 0
-3625 -3665 0
-3626 -3666 0
-3627 -3667 0
-3628 -3668 0
-3625 -3941 0
-3626 -3942 0
-3627 -3943 0
-3628 -3944 0
-3625 -3981 0
-3626 -3982 0
-3627 -3983 0
-3628 -3984 0
-3625 -3989 0
-3626 -3990 0
-3627 -3991 0
-3628 -3992 0
-3629 -3637 0
-3630 -3638 0
-3631 -3639 0
-3632 -3640 0
-3629 -3989 0
-3630 -3990 0
-3631 -3991 0
-3632 -3992 0
-3629 -4017 0
-3630 -4018 0
-3631 -4019 0
-3632 -4020 0
-3633 -3641 0
-3634 -3642 0
-3635 -3643 0
-3636 -3644 0
-3633 -3649 0
-3634 -3650 0
-3635 -3651 0
-3636 -3652 0
-3633 -3653 0
-3634 -3654 0
-3635 -3655 0
-3636 -3656 0
-3637 -3641 0
-3638 -3642 0
-3639 -3643 0
-3640 -3644 0
-3637 -3657 0
-3638 -3658 0
-3639 -3659 0
-3640 -3660 0
-3637 -4021 0
-3638 -4022 0
-3639 -4023 0
-3640 -4024 0
-3641 -3661 0
-3642 -3662 0
-3643 -3663 0
-3644 -3664 0
-3641 -3665 0
-3642 -3666 0
-3643 -3667 0
-3644 -3668 0
-3641 -3717 0
-3642 -3718 0
-3643 -3719 0
-3644 -3720 0
-3645 -3661 0
-3646 -3662 0
-3647 -3663 0
-3648 -3664 0
-3645 -3721 0
-3646 -3722 0
-3647 -3723 0
-3648 -3724 0
-3649 -3653 0
-3650 -3654 0
-3651 -3655 0
-3652 -3656 0
-3649 -3661 0
-3650 -3662 0
-3651 -3663 0
-3652 -3664 0
-3649 -3729 0
-3650 -3730 0
-3651 -3731 0
-3652 -3732 0
-3649 -3857 0
-3650 -3858 0
-3651 -3859 0
-3652 -3860 0
-3653 -3665 0
-3654 -3666 0
-3655 -3667 0
-3656 -3668 0
-3653 -3861 0
-3654 -3862 0
-3655 -3863 0
-3656 -3864 0
-3653 -3897 0
-3654 -3898 0
-3655 -3899 0
-3656 -3900 0
-3657 -3661 0
-3658 -3662 0
-3659 -3663 0
-3660 -3664 0
-3657 -3741 0
-3658 -3742 0
-3659 -3743 0
-3660 -3744 0
-3657 -3885 0
-3658 -3886 0
-3659 -3887 0
-3660 -3888 0
-3657 -3973 0
-3658 -3974 0
-3659 -3975 0
-3660 -3976 0
-3661 -3665 0
-3662 -3666 0
-3663 -3667 0
-3664 -3668 0
-3661 -3749 0
-3662 -3750 0
-3663 -3751 0
-3664 -3752 0
-3661 -3869 0
-3662 -3870 0
-3663 -3871 0
-3664 -3872 0
-3665 -3753 0
-3666 -3754 0
-3667 -3755 0
-3668 -3756 0
-3669 -3673 0
-3670 -3674 0
-3671 -3675 0
-3672 -3676 0
-3669 -3733 0
-3670 -3734 0
-3671 -3735 0
-3672 -3736 0
-3669 -3749 0
-3670 -3750 0
-3671 -3751 0
-3672 -3752 0
-3673 -3749 0
-3674 -3750 0
-3675 -3751 0
-3676 -3752 0
-3673 -3761 0
-3674 -3762 0
-3675 -3763 0
-3676 -3764 0
-3673 -3945 0
-3674 -3946 0
-3675 -3947 0
-3676 -3948 0
-3677 -3681 0
-3678 -3682 0
-3679 -3683 0
-3680 -3684 0
-3677 -3685 0
-3678 -3686 0
-3679 -3687 0
-3680 -3688 0
-3677 -4009 0
-3678 -4010 0
-3679 -4011 0
-3680 -4012 0
-3681 -3693 0
-3682 -3694 0
-3683 -3695 0
-3684 -3696 0
-3681 -3961 0
-3682 -3962 0
-3683 -3963 0
-3684 -3964 0
-3681 -4009 0
-3682 -4010 0
-3683 -4011 0
-3684 -4012 0
-3685 -3693 0
-3686 -3694 0
-3687 -3695 0
-3688 -3696 0
-3685 -3861 0
-3686 -3862 0
-3687 -3863 0
-3688 -3864 0
-3685 -3917 0
-3686 -3918 0
-3687 -3919 0
-3688 -3920 0
-3685 -4013 0
-3686 -4014 0
-3687 -4015 0
-3688 -4016 0
-3689 -3693 0
-3690 -3694 0
-3691 -3695 0
-3692 -3696 0
-3689 -3965 0
-3690 -3966 0
-3691 -3967 0
-3692 -3968 0
-3693 -3841 0
-3694 -3842 0
-3695 -3843 0
-3696 -3844 0
-3693 -3925 0
-3694 -3926 0
-3695 -3927 0
-3696 -3928 0
-3693 -4013 0
-3694 -4014 0
-3695 -4015 0
-3696 -4016 0
-3697 -3701 0
-3698 -3702 0
-3699 -3703 0
-3700 -3704 0
-3697 -3737 0
-3698 -3738 0
-3699 -3739 0
-3700 -3740 0
-3697 -3749 0
-3698 -3750 0
-3699 -3751 0
-3700 -3752 0
-3697 -3953 0
-3698 -3954 0
-3699 -3955 0
-3700 -3956 0
-3701 -3749 0
-3702 -3750 0
-3703 -3751 0
-3704 -3752 0
-3701 -3757 0
-3702 -3758 0
-3703 -3759 0
-3704 -3760 0
-3705 -3709 0
-3706 -3710 0
-3707 -3711 0
-3708 -3712 0
-3705 -3741 0
-3706 -3742 0
-3707 -3743 0
-3708 -3744 0
-3705 -3749 0
-3706 -3750 0
-3707 -3751 0
-3708 -3752 0
-3709 -3749 0
-3710 -3750 0
-3711 -3751 0
-3712 -3752 0
-3709 -3849 0
-3710 -3850 0
-3711 -3851 0
-3712 -3852 0
-3709 -3937 0
-3710 -3938 0
-3711 -3939 0
-3712 -3940 0
-3713 -3717 0
-3714 -3718 0
-3715 -3719 0
-3716 -3720 0
-3713 -3745 0
-3714 -3746 0
-3715 -3747 0
-3716 -3748 0
-3713 -3749 0
-3714 -3750 0
-3715 -3751 0
-3716 -3752 0
-3717 -3749 0
-3718 -3750 0
-3719 -3751 0
-3720 -3752 0
-3717 -3753 0
-3718 -3754 0
-3719 -3755 0
-3720 -3756 0
-3721 -3749 0
-3722 -3750 0
-3723 -3751 0
-3724 -3752 0
-3721 -4017 0
-3722 -4018 0
-3723 -4019 0
-3724 -4020 0
-3725 -3749 0
-3726 -3750 0
-3727 -3751 0
-3728 -3752 0
-3725 -4009 0
-3726 -4010 0
-3727 -4011 0
-3728 -4012 0
-3729 -3749 0
-3730 -3750 0
-3731 -3751 0
-3732 -3752 0
-3729 -3901 0
-3730 -3902 0
-3731 -3903 0
-3732 -3904 0
-3733 -3749 0
-3734 -3750 0
-3735 -3751 0
-3736 -3752 0
-3733 -3817 0
-3734 -3818 0
-3735 -3819 0
-3736 -3820 0
-3737 -3749 0
-3738 -3750 0
-3739 -3751 0
-3740 -3752 0
-3737 -3789 0
-3738 -3790 0
-3739 -3791 0
-3740 -3792 0
-3737 -3905 0
-3738 -3906 0
-3739 -3907 0
-3740 -3908 0
-3741 -3749 0
-3742 -3750 0
-3743 -3751 0
-3744 -3752 0
-3741 -3781 0
-3742 -3782 0
-3743 -3783 0
-3744 -3784 0
-3745 -3749 0
-3746 -3750 0
-3747 -3751 0
-3748 -3752 0
-3745 -3777 0
-3746 -3778 0
-3747 -3779 0
-3748 -3780 0
-3749 -3753 0
-3750 -3754 0
-3751 -3755 0
-3752 -3756 0
-3749 -3757 0
-3750 -3758 0
-3751 -3759 0
-3752 -3760 0
-3749 -3761 0
-3750 -3762 0
-3751 -3763 0
-3752 -3764 0
-3749 -3765 0
-3750 -3766 0
-3751 -3767 0
-3752 -3768 0
-3749 -3769 0
-3750 -3770 0
-3751 -3771 0
-3752 -3772 0
-3749 -3773 0
-3750 -3774 0
-3751 -3775 0
-3752 -3776 0
-3749 -3777 0
-3750 -3778 0
-3751 -3779 0
-3752 -3780 0
-3749 -3781 0
-3750 -3782 0
-3751 -3783 0
-3752 -3784 0
-3749 -3785 0
-3750 -3786 0
-3751 -3787 0
-3752 -3788 0
-3749 -3789 0
-3750 -3790 0
-3751 -3791 0
-3752 -3792 0
-3749 -3793 0
-3750 -3794 0
-3751 -3795 0
-3752 -3796 0
-3749 -3817 0
-3750 -3818 0
-3751 -3819 0
-3752 -3820 0
-3749 -3821 0
-3750 -3822 0
-3751 -3823 0
-3752 -3824 0
-3749 -3877 0
-3750 -3878 0
-3751 -3879 0
-3752 -3880 0
-3749 -3909 0
-3750 -3910 0
-3751 -3911 0
-3752 -3912 0
-3749 -3957 0
-3750 -3958 0
-3751 -3959 0
-3752 -3960 0
-3749 -3985 0
-3750 -3986 0
-3751 -3987 0
-3752 -3988 0
-3749 -4009 0
-3750 -4010 0
-3751 -4011 0
-3752 -4012 0
-3749 -4013 0
-3750 -4014 0
-3751 -4015 0
-3752 -4016 0
-3749 -4017 0
-3750 -4018 0
-3751 -4019 0
-3752 -4020 0
-3749 -4021 0
-3750 -4022 0
-3751 -4023 0
-3752 -4024 0
-3749 -7769 0
-3750 -7770 0
-3751 -7771 0
-3752 -7772 0
-3757 -3793 0
-3758 -3794 0
-3759 -3795 0
-3760 -3796 0
-3757 -3881 0
-3758 -3882 0
-3759 -3883 0
-3760 -3884 0
-3761 -3821 0
-3762 -3822 0
-3763 -3823 0
-3764 -3824 0
-3761 -3913 0
-3762 -3914 0
-3763 -3915 0
-3764 -3916 0
-3765 -3885 0
-3766 -3886 0
-3767 -3887 0
-3768 -3888 0
-3765 -3993 0
-3766 -3994 0
-3767 -3995 0
-3768 -3996 0
-3769 -3889 0
-3770 -3890 0
-3771 -3891 0
-3772 -3892 0
-3769 -3965 0
-3770 -3966 0
-3771 -3967 0
-3772 -3968 0
-3769 -4013 0
-3770 -4014 0
-3771 -4015 0
-3772 -4016 0
-3773 -3925 0
-3774 -3926 0
-3775 -3927 0
-3776 -3928 0
-3773 -4021 0
-3774 -4022 0
-3775 -4023 0
-3776 -4024 0
-3777 -3997 0
-3778 -3998 0
-3779 -3999 0
-3780 -4000 0
-3781 -3785 0
-3782 -3786 0
-3783 -3787 0
-3784 -3788 0
-3785 -3929 0
-3786 -3930 0
-3787 -3931 0
-3788 -3932 0
-3785 -3969 0
-3786 -3970 0
-3787 -3971 0
-3788 -3972 0
-3789 -3793 0
-3790 -3794 0
-3791 -3795 0
-3792 -3796 0
-3789 -3933 0
-3790 -3934 0
-3791 -3935 0
-3792 -3936 0
-3789 -3973 0
-3790 -3974 0
-3791 -3975 0
-3792 -3976 0
-3793 -3897 0
-3794 -3898 0
-3795 -3899 0
-3796 -3900 0
-3793 -3977 0
-3794 -3978 0
-3795 -3979 0
-3796 -3980 0
-3797 -3801 0
-3798 -3802 0
-3799 -3803 0
-3800 -3804 0
-3797 -3805 0
-3798 -3806 0
-3799 -3807 0
-3800 -3808 0
-3797 -4017 0
-3798 -4018 0
-3799 -4019 0
-3800 -4020 0
-3801 -3813 0
-3802 -3814 0
-3803 -3815 0
-3804 -3816 0
-3801 -3905 0
-3802 -3906 0
-3803 -3907 0
-3804 -3908 0
-3801 -4017 0
-3802 -4018 0
-3803 -4019 0
-3804 -4020 0
-3805 -3809 0
-3806 -3810 0
-3807 -3811 0
-3808 -3812 0
-3805 -3813 0
-3806 -3814 0
-3807 -3815 0
-3808 -3816 0
-3805 -3973 0
-3806 -3974 0
-3807 -3975 0
-3808 -3976 0
-3805 -4021 0
-3806 -4022 0
-3807 -4023 0
-3808 -4024 0
-3809 -3845 0
-3810 -3846 0
-3811 -3847 0
-3812 -3848 0
-3813 -3921 0
-3814 -3922 0
-3815 -3923 0
-3816 -3924 0
-3813 -3981 0
-3814 -3982 0
-3815 -3983 0
-3816 -3984 0
-3813 -4021 0
-3814 -4022 0
-3815 -4023 0
-3816 -4024 0
-3817 -3821 0
-3818 -3822 0
-3819 -3823 0
-3820 -3824 0
-3825 -3829 0
-3826 -3830 0
-3827 -3831 0
-3828 -3832 0
-3825 -3849 0
-3826 -3850 0
-3827 -3851 0
-3828 -3852 0
-3825 -4009 0
-3826 -4010 0
-3827 -4011 0
-3828 -4012 0
-3829 -3833 0
-3830 -3834 0
-3831 -3835 0
-3832 -3836 0
-3829 -3857 0
-3830 -3858 0
-3831 -3859 0
-3832 -3860 0
-3829 -3865 0
-3830 -3866 0
-3831 -3867 0
-3832 -3868 0
-3829 -3933 0
-3830 -3934 0
-3831 -3935 0
-3832 -3936 0
-3829 -3949 0
-3830 -3950 0
-3831 -3951 0
-3832 -3952 0
-3829 -4013 0
-3830 -4014 0
-3831 -4015 0
-3832 -4016 0
-3833 -3869 0
-3834 -3870 0
-3835 -3871 0
-3836 -3872 0
-3833 -3873 0
-3834 -3874 0
-3835 -3875 0
-3836 -3876 0
-3833 -3921 0
-3834 -3922 0
-3835 -3923 0
-3836 -3924 0
-3837 -3841 0
-3838 -3842 0
-3839 -3843 0
-3840 -3844 0
-3837 -3861 0
-3838 -3862 0
-3839 -3863 0
-3840 -3864 0
-3837 -3957 0
-3838 -3958 0
-3839 -3959 0
-3840 -3960 0
-3845 -3865 0
-3846 -3866 0
-3847 -3867 0
-3848 -3868 0
-3845 -3985 0
-3846 -3986 0
-3847 -3987 0
-3848 -3988 0
-3849 -3853 0
-3850 -3854 0
-3851 -3855 0
-3852 -3856 0
-3849 -3865 0
-3850 -3866 0
-3851 -3867 0
-3852 -3868 0
-3849 -3877 0
-3850 -3878 0
-3851 -3879 0
-3852 -3880 0
-3853 -3873 0
-3854 -3874 0
-3855 -3875 0
-3856 -3876 0
-3853 -3885 0
-3854 -3886 0
-3855 -3887 0
-3856 -3888 0
-3857 -3861 0
-3858 -3862 0
-3859 -3863 0
-3860 -3864 0
-3857 -3865 0
-3858 -3866 0
-3859 -3867 0
-3860 -3868 0
-3857 -3869 0
-3858 -3870 0
-3859 -3871 0
-3860 -3872 0
-3857 -3901 0
-3858 -3902 0
-3859 -3903 0
-3860 -3904 0
-3857 -3961 0
-3858 -3962 0
-3859 -3963 0
-3860 -3964 0
-3861 -3977 0
-3862 -3978 0
-3863 -3979 0
-3864 -3980 0
-3865 -3873 0
-3866 -3874 0
-3867 -3875 0
-3868 -3876 0
-3865 -3889 0
-3866 -3890 0
-3867 -3891 0
-3868 -3892 0
-3865 -3941 0
-3866 -3942 0
-3867 -3943 0
-3868 -3944 0
-3865 -3997 0
-3866 -3998 0
-3867 -3999 0
-3868 -4000 0
-3865 -4005 0
-3866 -4006 0
-3867 -4007 0
-3868 -4008 0
-3869 -3873 0
-3870 -3874 0
-3871 -3875 0
-3872 -3876 0
-3869 -3909 0
-3870 -3910 0
-3871 -3911 0
-3872 -3912 0
-3873 -3893 0
-3874 -3894 0
-3875 -3895 0
-3876 -3896 0
-3873 -3913 0
-3874 -3914 0
-3875 -3915 0
-3876 -3916 0
-3877 -3881 0
-3878 -3882 0
-3879 -3883 0
-3880 -3884 0
-3877 -3885 0
-3878 -3886 0
-3879 -3887 0
-3880 -3888 0
-3877 -3889 0
-3878 -3890 0
-3879 -3891 0
-3880 -3892 0
-3877 -3897 0
-3878 -3898 0
-3879 -3899 0
-3880 -3900 0
-3877 -3957 0
-3878 -3958 0
-3879 -3959 0
-3880 -3960 0
-3881 -3897 0
-3882 -3898 0
-3883 -3899 0
-3884 -3900 0
-3885 -3893 0
-3886 -3894 0
-3887 -3895 0
-3888 -3896 0
-3889 -3893 0
-3890 -3894 0
-3891 -3895 0
-3892 -3896 0
-3889 -3965 0
-3890 -3966 0
-3891 -3967 0
-3892 -3968 0
-3893 -4021 0
-3894 -4022 0
-3895 -4023 0
-3896 -4024 0
-3897 -3977 0
-3898 -3978 0
-3899 -3979 0
-3900 -3980 0
-3901 -3909 0
-3902 -3910 0
-3903 -3911 0
-3904 -3912 0
-3901 -3917 0
-3902 -3918 0
-3903 -3919 0
-3904 -3920 0
-3905 -3909 0
-3906 -3910 0
-3907 -3911 0
-3908 -3912 0
-3905 -3921 0
-3906 -3922 0
-3907 -3923 0
-3908 -3924 0
-3905 -3933 0
-3906 -3934 0
-3907 -3935 0
-3908 -3936 0
-3909 -3913 0
-3910 -3914 0
-3911 -3915 0
-3912 -3916 0
-3909 -3925 0
-3910 -3926 0
-3911 -3927 0
-3912 -3928 0
-3909 -3929 0
-3910 -3930 0
-3911 -3931 0
-3912 -3932 0
-3909 -3933 0
-3910 -3934 0
-3911 -3935 0
-3912 -3936 0
-3909 -3957 0
-3910 -3958 0
-3911 -3959 0
-3912 -3960 0
-3913 -3937 0
-3914 -3938 0
-3915 -3939 0
-3916 -3940 0
-3917 -3925 0
-3918 -3926 0
-3919 -3927 0
-3920 -3928 0
-3917 -3977 0
-3918 -3978 0
-3919 -3979 0
-3920 -3980 0
-3921 -3925 0
-3922 -3926 0
-3923 -3927 0
-3924 -3928 0
-3921 -3945 0
-3922 -3946 0
-3923 -3947 0
-3924 -3948 0
-3921 -3981 0
-3922 -3982 0
-3923 -3983 0
-3924 -3984 0
-3929 -3969 0
-3930 -3970 0
-3931 -3971 0
-3932 -3972 0
-3933 -3937 0
-3934 -3938 0
-3935 -3939 0
-3936 -3940 0
-3933 -3941 0
-3934 -3942 0
-3935 -3943 0
-3936 -3944 0
-3933 -3973 0
-3934 -3974 0
-3935 -3975 0
-3936 -3976 0
-3933 -3993 0
-3934 -3994 0
-3935 -3995 0
-3936 -3996 0
-3937 -3941 0
-3938 -3942 0
-3939 -3943 0
-3940 -3944 0
-3941 -3997 0
-3942 -3998 0
-3943 -3999 0
-3944 -4000 0
-3941 -4017 0
-3942 -4018 0
-3943 -4019 0
-3944 -4020 0
-3945 -3949 0
-3946 -3950 0
-3947 -3951 0
-3948 -3952 0
-3945 -3953 0
-3946 -3954 0
-3947 -3955 0
-3948 -3956 0
-3945 -3957 0
-3946 -3958 0
-3947 -3959 0
-3948 -3960 0
-3945 -3989 0
-3946 -3990 0
-3947 -3991 0
-3948 -3992 0
-3945 -4005 0
-3946 -4006 0
-3947 -4007 0
-3948 -4008 0
-3949 -3953 0
-3950 -3954 0
-3951 -3955 0
-3952 -3956 0
-3949 -3961 0
-3950 -3962 0
-3951 -3963 0
-3952 -3964 0
-3949 -3993 0
-3950 -3994 0
-3951 -3995 0
-3952 -3996 0
-3949 -4013 0
-3950 -4014 0
-3951 -4015 0
-3952 -4016 0
-3953 -3969 0
-3954 -3970 0
-3955 -3971 0
-3956 -3972 0
-3957 -3961 0
-3958 -3962 0
-3959 -3963 0
-3960 -3964 0
-3957 -3965 0
-3958 -3966 0
-3959 -3967 0
-3960 -3968 0
-3957 -3969 0
-3958 -3970 0
-3959 -3971 0
-3960 -3972 0
-3957 -3973 0
-3958 -3974 0
-3959 -3975 0
-3960 -3976 0
-3957 -3977 0
-3958 -3978 0
-3959 -3979 0
-3960 -3980 0
-3961 -3969 0
-3962 -3970 0
-3963 -3971 0
-3964 -3972 0
-3973 -3977 0
-3974 -3978 0
-3975 -3979 0
-3976 -3980 0
-3973 -3981 0
-3974 -3982 0
-3975 -3983 0
-3976 -3984 0
-3977 -4001 0
-3978 -4002 0
-3979 -4003 0
-3980 -4004 0
-3981 -3989 0
-3982 -3990 0
-3983 -3991 0
-3984 -3992 0
-3985 -3993 0
-3986 -3994 0
-3987 -3995 0
-3988 -3996 0
-3985 -3997 0
-3986 -3998 0
-3987 -3999 0
-3988 -4000 0
-3989 -3993 0
-3990 -3994 0
-3991 -3995 0
-3992 -3996 0
-3989 -4017 0
-3990 -4018 0
-3991 -4019 0
-3992 -4020 0
-4001 -4009 0
-4002 -4010 0
-4003 -4011 0
-4004 -4012 0
-4005 -4017 0
-4006 -4018 0
-4007 -4019 0
-4008 -4020 0
-4009 -4013 0
-4010 -4014 0
-4011 -4015 0
-4012 -4016 0
-4017 -4021 0
-4018 -4022 0
-4019 -4023 0
-4020 -4024 0
-4025 -4057 0
-4026 -4058 0
-4027 -4059 0
-4028 -4060 0
-4025 -4101 0
-4026 -4102 0
-4027 -4103 0
-4028 -4104 0
-4025 -4201 0
-4026 -4202 0
-4027 -4203 0
-4028 -4204 0
-4025 -4225 0
-4026 -4226 0
-4027 -4227 0
-4028 -4228 0
-4025 -4261 0
-4026 -4262 0
-4027 -4263 0
-4028 -4264 0
-4025 -4269 0
-4026 -4270 0
-4027 -4271 0
-4028 -4272 0
-4025 -4289 0
-4026 -4290 0
-4027 -4291 0
-4028 -4292 0
-4025 -4293 0
-4026 -4294 0
-4027 -4295 0
-4028 -4296 0
-4029 -4041 0
-4030 -4042 0
-4031 -4043 0
-4032 -4044 0
-4029 -4125 0
-4030 -4126 0
-4031 -4127 0
-4032 -4128 0
-4029 -4177 0
-4030 -4178 0
-4031 -4179 0
-4032 -4180 0
-4029 -4385 0
-4030 -4386 0
-4031 -4387 0
-4032 -4388 0
-4029 -4413 0
-4030 -4414 0
-4031 -4415 0
-4032 -4416 0
-4029 -4549 0
-4030 -4550 0
-4031 -4551 0
-4032 -4552 0
-4033 -4065 0
-4034 -4066 0
-4035 -4067 0
-4036 -4068 0
-4033 -4153 0
-4034 -4154 0
-4035 -4155 0
-4036 -4156 0
-4033 -4189 0
-4034 -4190 0
-4035 -4191 0
-4036 -4192 0
-4033 -4349 0
-4034 -4350 0
-4035 -4351 0
-4036 -4352 0
-4033 -4433 0
-4034 -4434 0
-4035 -4435 0
-4036 -4436 0
-4033 -4501 0
-4034 -4502 0
-4035 -4503 0
-4036 -4504 0
-4033 -4733 0
-4034 -4734 0
-4035 -4735 0
-4036 -4736 0
-4037 -4061 0
-4038 -4062 0
-4039 -4063 0
-4040 -4064 0
-4037 -4113 0
-4038 -4114 0
-4039 -4115 0
-4040 -4116 0
-4037 -4249 0
-4038 -4250 0
-4039 -4251 0
-4040 -4252 0
-4037 -4385 0
-4038 -4386 0
-4039 -4387 0
-4040 -4388 0
-4037 -4445 0
-4038 -4446 0
-4039 -4447 0
-4040 -4448 0
-4037 -4461 0
-4038 -4462 0
-4039 -4463 0
-4040 -4464 0
-4037 -4793 0
-4038 -4794 0
-4039 -4795 0
-4040 -4796 0
-4041 -4045 0
-4042 -4046 0
-4043 -4047 0
-4044 -4048 0
-4041 -4049 0
-4042 -4050 0
-4043 -4051 0
-4044 -4052 0
-4041 -4229 0
-4042 -4230 0
-4043 -4231 0
-4044 -4232 0
-4041 -4313 0
-4042 -4314 0
-4043 -4315 0
-4044 -4316 0
-4041 -4589 0
-4042 -4590 0
-4043 -4591 0
-4044 -4592 0
-4041 -4657 0
-4042 -4658 0
-4043 -4659 0
-4044 -4660 0
-4041 -4889 0
-4042 -4890 0
-4043 -4891 0
-4044 -4892 0
-4045 -4053 0
-4046 -4054 0
-4047 -4055 0
-4048 -4056 0
-4045 -4081 0
-4046 -4082 0
-4047 -4083 0
-4048 -4084 0
-4045 -4149 0
-4046 -4150 0
-4047 -4151 0
-4048 -4152 0
-4045 -4317 0
-4046 -4318 0
-4047 -4319 0
-4048 -4320 0
-4045 -4445 0
-4046 -4446 0
-4047 -4447 0
-4048 -4448 0
-4045 -4589 0
-4046 -4590 0
-4047 -4591 0
-4048 -4592 0
-4045 -4597 0
-4046 -4598 0
-4047 -4599 0
-4048 -4600 0
-4045 -4661 0
-4046 -4662 0
-4047 -4663 0
-4048 -4664 0
-4045 -4717 0
-4046 -4718 0
-4047 -4719 0
-4048 -4720 0
-4045 -4897 0
-4046 -4898 0
-4047 -4899 0
-4048 -4900 0
-4049 -4053 0
-4050 -4054 0
-4051 -4055 0
-4052 -4056 0
-4049 -4089 0
-4050 -4090 0
-4051 -4091 0
-4052 -4092 0
-4049 -4321 0
-4050 -4322 0
-4051 -4323 0
-4052 -4324 0
-4049 -4601 0
-4050 -4602 0
-4051 -4603 0
-4052 -4604 0
-4049 -4753 0
-4050 -4754 0
-4051 -4755 0
-4052 -4756 0
-4053 -4093 0
-4054 -4094 0
-4055 -4095 0
-4056 -4096 0
-4053 -4197 0
-4054 -4198 0
-4055 -4199 0
-4056 -4200 0
-4053 -4225 0
-4054 -4226 0
-4055 -4227 0
-4056 -4228 0
-4053 -4325 0
-4054 -4326 0
-4055 -4327 0
-4056 -4328 0
-4053 -4477 0
-4054 -4478 0
-4055 -4479 0
-4056 -4480 0
-4053 -4601 0
-4054 -4602 0
-4055 -4603 0
-4056 -4604 0
-4053 -4605 0
-4054 -4606 0
-4055 -4607 0
-4056 -4608 0
-4053 -4717 0
-4054 -4718 0
-4055 -4719 0
-4056 -4720 0
-4053 -4757 0
-4054 -4758 0
-4055 -4759 0
-4056 -4760 0
-4053 -4909 0
-4054 -4910 0
-4055 -4911 0
-4056 -4912 0
-4057 -4117 0
-4058 -4118 0
-4059 -4119 0
-4060 -4120 0
-4057 -4161 0
-4058 -4162 0
-4059 -4163 0
-4060 -4164 0
-4057 -4329 0
-4058 -4330 0
-4059 -4331 0
-4060 -4332 0
-4057 -4537 0
-4058 -4538 0
-4059 -4539 0
-4060 -4540 0
-4057 -4717 0
-4058 -4718 0
-4059 -4719 0
-4060 -4720 0
-4057 -4993 0
-4058 -4994 0
-4059 -4995 0
-4060 -4996 0
-4061 -4065 0
-4062 -4066 0
-4063 -4067 0
-4064 -4068 0
-4061 -4069 0
-4062 -4070 0
-4063 -4071 0
-4064 -4072 0
-4061 -4113 0
-4062 -4114 0
-4063 -4115 0
-4064 -4116 0
-4061 -4361 0
-4062 -4362 0
-4063 -4363 0
-4064 -4364 0
-4061 -4557 0
-4062 -4558 0
-4063 -4559 0
-4064 -4560 0
-4061 -4665 0
-4062 -4666 0
-4063 -4667 0
-4064 -4668 0
-4061 -4817 0
-4062 -4818 0
-4063 -4819 0
-4064 -4820 0
-4061 -5041 0
-4062 -5042 0
-4063 -5043 0
-4064 -5044 0
-4065 -4073 0
-4066 -4074 0
-4067 -4075 0
-4068 -4076 0
-4065 -4285 0
-4066 -4286 0
-4067 -4287 0
-4068 -4288 0
-4065 -4305 0
-4066 -4306 0
-4067 -4307 0
-4068 -4308 0
-4065 -4365 0
-4066 -4366 0
-4067 -4367 0
-4068 -4368 0
-4065 -4561 0
-4066 -4562 0
-4067 -4563 0
-4068 -4564 0
-4065 -4669 0
-4066 -4670 0
-4067 -4671 0
-4068 -4672 0
-4065 -4717 0
-4066 -4718 0
-4067 -4719 0
-4068 -4720 0
-4065 -4817 0
-4066 -4818 0
-4067 -4819 0
-4068 -4820 0
-4065 -4825 0
-4066 -4826 0
-4067 -4827 0
-4068 -4828 0
-4065 -5053 0
-4066 -5054 0
-4067 -5055 0
-4068 -5056 0
-4069 -4073 0
-4070 -4074 0
-4071 -4075 0
-4072 -4076 0
-4069 -4129 0
-4070 -4130 0
-4071 -4131 0
-4072 -4132 0
-4069 -4377 0
-4070 -4378 0
-4071 -4379 0
-4072 -4380 0
-4069 -4565 0
-4070 -4566 0
-4071 -4567 0
-4072 -4568 0
-4069 -4745 0
-4070 -4746 0
-4071 -4747 0
-4072 -4748 0
-4069 -4829 0
-4070 -4830 0
-4071 -4831 0
-4072 -4832 0
-4073 -4105 0
-4074 -4106 0
-4075 -4107 0
-4076 -4108 0
-4073 -4133 0
-4074 -4134 0
-4075 -4135 0
-4076 -4136 0
-4073 -4289 0
-4074 -4290 0
-4075 -4291 0
-4076 -4292 0
-4073 -4569 0
-4074 -4570 0
-4075 -4571 0
-4076 -4572 0
-4073 -4717 0
-4074 -4718 0
-4075 -4719 0
-4076 -4720 0
-4073 -4749 0
-4074 -4750 0
-4075 -4751 0
-4076 -4752 0
-4073 -4829 0
-4074 -4830 0
-4075 -4831 0
-4076 -4832 0
-4073 -4833 0
-4074 -4834 0
-4075 -4835 0
-4076 -4836 0
-4077 -4085 0
-4078 -4086 0
-4079 -4087 0
-4080 -4088 0
-4077 -4125 0
-4078 -4126 0
-4079 -4127 0
-4080 -4128 0
-4077 -4229 0
-4078 -4230 0
-4079 -4231 0
-4080 -4232 0
-4077 -4433 0
-4078 -4434 0
-4079 -4435 0
-4080 -4436 0
-4077 -4641 0
-4078 -4642 0
-4079 -4643 0
-4080 -4644 0
-4077 -4913 0
-4078 -4914 0
-4079 -4915 0
-4080 -4916 0
-4081 -4085 0
-4082 -4086 0
-4083 -4087 0
-4084 -4088 0
-4081 -4089 0
-4082 -4090 0
-4083 -4091 0
-4084 -4092 0
-4081 -4149 0
-4082 -4150 0
-4083 -4151 0
-4084 -4152 0
-4081 -4281 0
-4082 -4282 0
-4083 -4283 0
-4084 -4284 0
-4081 -4665 0
-4082 -4666 0
-4083 -4667 0
-4084 -4668 0
-4081 -4921 0
-4082 -4922 0
-4083 -4923 0
-4084 -4924 0
-4081 -4925 0
-4082 -4926 0
-4083 -4927 0
-4084 -4928 0
-4081 -4997 0
-4082 -4998 0
-4083 -4999 0
-4084 -5000 0
-4081 -5009 0
-4082 -5010 0
-4083 -5011 0
-4084 -5012 0
-4081 -5165 0
-4082 -5166 0
-4083 -5167 0
-4084 -5168 0
-4085 -4141 0
-4086 -4142 0
-4087 -4143 0
-4088 -4144 0
-4085 -4189 0
-4086 -4190 0
-4087 -4191 0
-4088 -4192 0
-4085 -4441 0
-4086 -4442 0
-4087 -4443 0
-4088 -4444 0
-4085 -4929 0
-4086 -4930 0
-4087 -4931 0
-4088 -4932 0
-4085 -4933 0
-4086 -4934 0
-4087 -4935 0
-4088 -4936 0
-4085 -5021 0
-4086 -5022 0
-4087 -5023 0
-4088 -5024 0
-4089 -4093 0
-4090 -4094 0
-4091 -4095 0
-4092 -4096 0
-4089 -4165 0
-4090 -4166 0
-4091 -4167 0
-4092 -4168 0
-4089 -4273 0
-4090 -4274 0
-4091 -4275 0
-4092 -4276 0
-4089 -4301 0
-4090 -4302 0
-4091 -4303 0
-4092 -4304 0
-4089 -4393 0
-4090 -4394 0
-4091 -4395 0
-4092 -4396 0
-4089 -4489 0
-4090 -4490 0
-4091 -4491 0
-4092 -4492 0
-4089 -4981 0
-4090 -4982 0
-4091 -4983 0
-4092 -4984 0
-4089 -5037 0
-4090 -5038 0
-4091 -5039 0
-4092 -5040 0
-4089 -5057 0
-4090 -5058 0
-4091 -5059 0
-4092 -5060 0
-4089 -5249 0
-4090 -5250 0
-4091 -5251 0
-4092 -5252 0
-4093 -4309 0
-4094 -4310 0
-4095 -4311 0
-4096 -4312 0
-4093 -4497 0
-4094 -4498 0
-4095 -4499 0
-4096 -4500 0
-4093 -4981 0
-4094 -4982 0
-4095 -4983 0
-4096 -4984 0
-4093 -5049 0
-4094 -5050 0
-4095 -5051 0
-4096 -5052 0
-4093 -5061 0
-4094 -5062 0
-4095 -5063 0
-4096 -5064 0
-4093 -5257 0
-4094 -5258 0
-4095 -5259 0
-4096 -5260 0
-4097 -4121 0
-4098 -4122 0
-4099 -4123 0
-4100 -4124 0
-4097 -4293 0
-4098 -4294 0
-4099 -4295 0
-4100 -4296 0
-4097 -4417 0
-4098 -4418 0
-4099 -4419 0
-4100 -4420 0
-4097 -4849 0
-4098 -4850 0
-4099 -4851 0
-4100 -4852 0
-4097 -4989 0
-4098 -4990 0
-4099 -4991 0
-4100 -4992 0
-4097 -4993 0
-4098 -4994 0
-4099 -4995 0
-4100 -4996 0
-4097 -5041 0
-4098 -5042 0
-4099 -5043 0
-4100 -5044 0
-4097 -5053 0
-4098 -5054 0
-4099 -5055 0
-4100 -5056 0
-4101 -4105 0
-4102 -4106 0
-4103 -4107 0
-4104 -4108 0
-4101 -4125 0
-4102 -4126 0
-4103 -4127 0
-4104 -4128 0
-4101 -4129 0
-4102 -4130 0
-4103 -4131 0
-4104 -4132 0
-4101 -4329 0
-4102 -4330 0
-4103 -4331 0
-4104 -4332 0
-4101 -4509 0
-4102 -4510 0
-4103 -4511 0
-4104 -4512 0
-4101 -4585 0
-4102 -4586 0
-4103 -4587 0
-4104 -4588 0
-4101 -4917 0
-4102 -4918 0
-4103 -4919 0
-4104 -4920 0
-4101 -5069 0
-4102 -5070 0
-4103 -5071 0
-4104 -5072 0
-4101 -5109 0
-4102 -5110 0
-4103 -5111 0
-4104 -5112 0
-4101 -5113 0
-4102 -5114 0
-4103 -5115 0
-4104 -5116 0
-4101 -5373 0
-4102 -5374 0
-4103 -5375 0
-4104 -5376 0
-4105 -4109 0
-4106 -4110 0
-4107 -4111 0
-4108 -4112 0
-4105 -4241 0
-4106 -4242 0
-4107 -4243 0
-4108 -4244 0
-4105 -4333 0
-4106 -4334 0
-4107 -4335 0
-4108 -4336 0
-4105 -4453 0
-4106 -4454 0
-4107 -4455 0
-4108 -4456 0
-4105 -4933 0
-4106 -4934 0
-4107 -4935 0
-4108 -4936 0
-4105 -4941 0
-4106 -4942 0
-4107 -4943 0
-4108 -4944 0
-4105 -5077 0
-4106 -5078 0
-4107 -5079 0
-4108 -5080 0
-4105 -5117 0
-4106 -5118 0
-4107 -5119 0
-4108 -5120 0
-4105 -5237 0
-4106 -5238 0
-4107 -5239 0
-4108 -5240 0
-4109 -4189 0
-4110 -4190 0
-4111 -4191 0
-4112 -4192 0
-4109 -4245 0
-4110 -4246 0
-4111 -4247 0
-4112 -4248 0
-4109 -4341 0
-4110 -4342 0
-4111 -4343 0
-4112 -4344 0
-4109 -4461 0
-4110 -4462 0
-4111 -4463 0
-4112 -4464 0
-4109 -4949 0
-4110 -4950 0
-4111 -4951 0
-4112 -4952 0
-4109 -5081 0
-4110 -5082 0
-4111 -5083 0
-4112 -5084 0
-4109 -5241 0
-4110 -5242 0
-4111 -5243 0
-4112 -5244 0
-4113 -4117 0
-4114 -4118 0
-4115 -4119 0
-4116 -4120 0
-4113 -4125 0
-4114 -4126 0
-4115 -4127 0
-4116 -4128 0
-4113 -4353 0
-4114 -4354 0
-4115 -4355 0
-4116 -4356 0
-4113 -4633 0
-4114 -4634 0
-4115 -4635 0
-4116 -4636 0
-4113 -5001 0
-4114 -5002 0
-4115 -5003 0
-4116 -5004 0
-4113 -5129 0
-4114 -5130 0
-4115 -5131 0
-4116 -5132 0
-4113 -5177 0
-4114 -5178 0
-4115 -5179 0
-4116 -5180 0
-4113 -5181 0
-4114 -5182 0
-4115 -5183 0
-4116 -5184 0
-4113 -5493 0
-4114 -5494 0
-4115 -5495 0
-4116 -5496 0
-4117 -4121 0
-4118 -4122 0
-4119 -4123 0
-4120 -4124 0
-4117 -4137 0
-4118 -4138 0
-4119 -4139 0
-4120 -4140 0
-4117 -4357 0
-4118 -4358 0
-4119 -4359 0
-4120 -4360 0
-4117 -5017 0
-4118 -5018 0
-4119 -5019 0
-4120 -5020 0
-4117 -5197 0
-4118 -5198 0
-4119 -5199 0
-4120 -5200 0
-4117 -5221 0
-4118 -5222 0
-4119 -5223 0
-4120 -5224 0
-4121 -4137 0
-4122 -4138 0
-4123 -4139 0
-4124 -4140 0
-4121 -4157 0
-4122 -4158 0
-4123 -4159 0
-4124 -4160 0
-4121 -4293 0
-4122 -4294 0
-4123 -4295 0
-4124 -4296 0
-4121 -4649 0
-4122 -4650 0
-4123 -4651 0
-4124 -4652 0
-4121 -5205 0
-4122 -5206 0
-4123 -5207 0
-4124 -5208 0
-4121 -5229 0
-4122 -5230 0
-4123 -5231 0
-4124 -5232 0
-4125 -4129 0
-4126 -4130 0
-4127 -4131 0
-4128 -4132 0
-4125 -4137 0
-4126 -4138 0
-4127 -4139 0
-4128 -4140 0
-4125 -4141 0
-4126 -4142 0
-4127 -4143 0
-4128 -4144 0
-4125 -4229 0
-4126 -4230 0
-4127 -4231 0
-4128 -4232 0
-4125 -4717 0
-4126 -4718 0
-4127 -4719 0
-4128 -4720 0
-4125 -5025 0
-4126 -5026 0
-4127 -5027 0
-4128 -5028 0
-4125 -5133 0
-4126 -5134 0
-4127 -5135 0
-4128 -5136 0
-4125 -5149 0
-4126 -5150 0
-4127 -5151 0
-4128 -5152 0
-4125 -5261 0
-4126 -5262 0
-4127 -5263 0
-4128 -5264 0
-4125 -5269 0
-4126 -5270 0
-4127 -5271 0
-4128 -5272 0
-4125 -5297 0
-4126 -5298 0
-4127 -5299 0
-4128 -5300 0
-4125 -5517 0
-4126 -5518 0
-4127 -5519 0
-4128 -5520 0
-4129 -4133 0
-4130 -4134 0
-4131 -4135 0
-4132 -4136 0
-4129 -4233 0
-4130 -4234 0
-4131 -4235 0
-4132 -4236 0
-4129 -4381 0
-4130 -4382 0
-4131 -4383 0
-4132 -4384 0
-4129 -4565 0
-4130 -4566 0
-4131 -4567 0
-4132 -4568 0
-4129 -4737 0
-4130 -4738 0
-4131 -4739 0
-4132 -4740 0
-4129 -5141 0
-4130 -5142 0
-4131 -5143 0
-4132 -5144 0
-4129 -5153 0
-4130 -5154 0
-4131 -5155 0
-4132 -5156 0
-4129 -5265 0
-4130 -5266 0
-4131 -5267 0
-4132 -5268 0
-4129 -5273 0
-4130 -5274 0
-4131 -5275 0
-4132 -5276 0
-4133 -4241 0
-4134 -4242 0
-4135 -4243 0
-4136 -4244 0
-4133 -4389 0
-4134 -4390 0
-4135 -4391 0
-4136 -4392 0
-4133 -4569 0
-4134 -4570 0
-4135 -4571 0
-4136 -4572 0
-4133 -5145 0
-4134 -5146 0
-4135 -5147 0
-4136 -5148 0
-4133 -5157 0
-4134 -5158 0
-4135 -5159 0
-4136 -5160 0
-4133 -5273 0
-4134 -5274 0
-4135 -5275 0
-4136 -5276 0
-4137 -4181 0
-4138 -4182 0
-4139 -4183 0
-4140 -4184 0
-4137 -4393 0
-4138 -4394 0
-4139 -4395 0
-4140 -4396 0
-4137 -4757 0
-4138 -4758 0
-4139 -4759 0
-4140 -4760 0
-4137 -5277 0
-4138 -5278 0
-4139 -5279 0
-4140 -5280 0
-4137 -5281 0
-4138 -5282 0
-4139 -5283 0
-4140 -5284 0
-4137 -5297 0
-4138 -5298 0
-4139 -5299 0
-4140 -5300 0
-4141 -4305 0
-4142 -4306 0
-4143 -4307 0
-4144 -4308 0
-4141 -4773 0
-4142 -4774 0
-4143 -4775 0
-4144 -4776 0
-4141 -4777 0
-4142 -4778 0
-4143 -4779 0
-4144 -4780 0
-4141 -5037 0
-4142 -5038 0
-4143 -5039 0
-4144 -5040 0
-4141 -5285 0
-4142 -5286 0
-4143 -5287 0
-4144 -5288 0
-4145 -4165 0
-4146 -4166 0
-4147 -4167 0
-4148 -4168 0
-4145 -4177 0
-4146 -4178 0
-4147 -4179 0
-4148 -4180 0
-4145 -4221 0
-4146 -4222 0
-4147 -4223 0
-4148 -4224 0
-4145 -4461 0
-4146 -4462 0
-4147 -4463 0
-4148 -4464 0
-4145 -4581 0
-4146 -4582 0
-4147 -4583 0
-4148 -4584 0
-4145 -5305 0
-4146 -5306 0
-4147 -5307 0
-4148 -5308 0
-4149 -4161 0
-4150 -4162 0
-4151 -4163 0
-4152 -4164 0
-4149 -4165 0
-4150 -4166 0
-4151 -4167 0
-4152 -4168 0
-4149 -4337 0
-4150 -4338 0
-4151 -4339 0
-4152 -4340 0
-4149 -4429 0
-4150 -4430 0
-4151 -4431 0
-4152 -4432 0
-4149 -5309 0
-4150 -5310 0
-4151 -5311 0
-4152 -5312 0
-4149 -5313 0
-4150 -5314 0
-4151 -5315 0
-4152 -5316 0
-4153 -4157 0
-4154 -4158 0
-4155 -4159 0
-4156 -4160 0
-4153 -4169 0
-4154 -4170 0
-4155 -4171 0
-4156 -4172 0
-4153 -4285 0
-4154 -4286 0
-4155 -4287 0
-4156 -4288 0
-4153 -5141 0
-4154 -5142 0
-4155 -5143 0
-4156 -5144 0
-4153 -5341 0
-4154 -5342 0
-4155 -5343 0
-4156 -5344 0
-4153 -5357 0
-4154 -5358 0
-4155 -5359 0
-4156 -5360 0
-4157 -4173 0
-4158 -4174 0
-4159 -4175 0
-4160 -4176 0
-4157 -4177 0
-4158 -4178 0
-4159 -4179 0
-4160 -4180 0
-4157 -4181 0
-4158 -4182 0
-4159 -4183 0
-4160 -4184 0
-4157 -4445 0
-4158 -4446 0
-4159 -4447 0
-4160 -4448 0
-4157 -4649 0
-4158 -4650 0
-4159 -4651 0
-4160 -4652 0
-4157 -4693 0
-4158 -4694 0
-4159 -4695 0
-4160 -4696 0
-4157 -5345 0
-4158 -5346 0
-4159 -5347 0
-4160 -5348 0
-4157 -5361 0
-4158 -5362 0
-4159 -5363 0
-4160 -5364 0
-4161 -4165 0
-4162 -4166 0
-4163 -4167 0
-4164 -4168 0
-4161 -4169 0
-4162 -4170 0
-4163 -4171 0
-4164 -4172 0
-4161 -4357 0
-4162 -4358 0
-4163 -4359 0
-4164 -4360 0
-4161 -5377 0
-4162 -5378 0
-4163 -5379 0
-4164 -5380 0
-4161 -5393 0
-4162 -5394 0
-4163 -5395 0
-4164 -5396 0
-4161 -5653 0
-4162 -5654 0
-4163 -5655 0
-4164 -5656 0
-4165 -4177 0
-4166 -4178 0
-4167 -4179 0
-4168 -4180 0
-4165 -4273 0
-4166 -4274 0
-4167 -4275 0
-4168 -4276 0
-4165 -4701 0
-4166 -4702 0
-4167 -4703 0
-4168 -4704 0
-4165 -5381 0
-4166 -5382 0
-4167 -5383 0
-4168 -5384 0
-4165 -5397 0
-4166 -5398 0
-4167 -5399 0
-4168 -5400 0
-4165 -5657 0
-4166 -5658 0
-4167 -5659 0
-4168 -5660 0
-4169 -4177 0
-4170 -4178 0
-4171 -4179 0
-4172 -4180 0
-4169 -4225 0
-4170 -4226 0
-4171 -4227 0
-4172 -4228 0
-4169 -4361 0
-4170 -4362 0
-4171 -4363 0
-4172 -4364 0
-4169 -4705 0
-4170 -4706 0
-4171 -4707 0
-4172 -4708 0
-4169 -4765 0
-4170 -4766 0
-4171 -4767 0
-4172 -4768 0
-4169 -4853 0
-4170 -4854 0
-4171 -4855 0
-4172 -4856 0
-4169 -5385 0
-4170 -5386 0
-4171 -5387 0
-4172 -5388 0
-4169 -5405 0
-4170 -5406 0
-4171 -5407 0
-4172 -5408 0
-4173 -4177 0
-4174 -4178 0
-4175 -4179 0
-4176 -4180 0
-4173 -4189 0
-4174 -4190 0
-4175 -4191 0
-4176 -4192 0
-4173 -4197 0
-4174 -4198 0
-4175 -4199 0
-4176 -4200 0
-4173 -4297 0
-4174 -4298 0
-4175 -4299 0
-4176 -4300 0
-4173 -4377 0
-4174 -4378 0
-4175 -4379 0
-4176 -4380 0
-4173 -4485 0
-4174 -4486 0
-4175 -4487 0
-4176 -4488 0
-4173 -4629 0
-4174 -4630 0
-4175 -4631 0
-4176 -4632 0
-4173 -4713 0
-4174 -4714 0
-4175 -4715 0
-4176 -4716 0
-4173 -4857 0
-4174 -4858 0
-4175 -4859 0
-4176 -4860 0
-4173 -5409 0
-4174 -5410 0
-4175 -5411 0
-4176 -5412 0
-4173 -5493 0
-4174 -5494 0
-4175 -5495 0
-4176 -5496 0
-4177 -4193 0
-4178 -4194 0
-4179 -4195 0
-4180 -4196 0
-4177 -4201 0
-4178 -4202 0
-4179 -4203 0
-4180 -4204 0
-4177 -4277 0
-4178 -4278 0
-4179 -4279 0
-4180 -4280 0
-4177 -4313 0
-4178 -4314 0
-4179 -4315 0
-4180 -4316 0
-4177 -4549 0
-4178 -4550 0
-4179 -4551 0
-4180 -4552 0
-4177 -4717 0
-4178 -4718 0
-4179 -4719 0
-4180 -4720 0
-4177 -4861 0
-4178 -4862 0
-4179 -4863 0
-4180 -4864 0
-4177 -5389 0
-4178 -5390 0
-4179 -5391 0
-4180 -5392 0
-4177 -5413 0
-4178 -5414 0
-4179 -5415 0
-4180 -5416 0
-4177 -5497 0
-4178 -5498 0
-4179 -5499 0
-4180 -5500 0
-4181 -4185 0
-4182 -4186 0
-4183 -4187 0
-4184 -4188 0
-4181 -4189 0
-4182 -4190 0
-4183 -4191 0
-4184 -4192 0
-4181 -4193 0
-4182 -4194 0
-4183 -4195 0
-4184 -4196 0
-4181 -4321 0
-4182 -4322 0
-4183 -4323 0
-4184 -4324 0
-4181 -4489 0
-4182 -4490 0
-4183 -4491 0
-4184 -4492 0
-4181 -4645 0
-4182 -4646 0
-4183 -4647 0
-4184 -4648 0
-4181 -4881 0
-4182 -4882 0
-4183 -4883 0
-4184 -4884 0
-4181 -5441 0
-4182 -5442 0
-4183 -5443 0
-4184 -5444 0
-4181 -5701 0
-4182 -5702 0
-4183 -5703 0
-4184 -5704 0
-4185 -4205 0
-4186 -4206 0
-4187 -4207 0
-4188 -4208 0
-4185 -4209 0
-4186 -4210 0
-4187 -4211 0
-4188 -4212 0
-4185 -4325 0
-4186 -4326 0
-4187 -4327 0
-4188 -4328 0
-4185 -4497 0
-4186 -4498 0
-4187 -4499 0
-4188 -4500 0
-4185 -4653 0
-4186 -4654 0
-4187 -4655 0
-4188 -4656 0
-4185 -5441 0
-4186 -5442 0
-4187 -5443 0
-4188 -5444 0
-4185 -5717 0
-4186 -5718 0
-4187 -5719 0
-4188 -5720 0
-4189 -4193 0
-4190 -4194 0
-4191 -4195 0
-4192 -4196 0
-4189 -4197 0
-4190 -4198 0
-4191 -4199 0
-4192 -4200 0
-4189 -4205 0
-4190 -4206 0
-4191 -4207 0
-4192 -4208 0
-4189 -4217 0
-4190 -4218 0
-4191 -4219 0
-4192 -4220 0
-4189 -4305 0
-4190 -4306 0
-4191 -4307 0
-4192 -4308 0
-4189 -4341 0
-4190 -4342 0
-4191 -4343 0
-4192 -4344 0
-4189 -4349 0
-4190 -4350 0
-4191 -4351 0
-4192 -4352 0
-4189 -4517 0
-4190 -4518 0
-4191 -4519 0
-4192 -4520 0
-4189 -4905 0
-4190 -4906 0
-4191 -4907 0
-4192 -4908 0
-4189 -5197 0
-4190 -5198 0
-4191 -5199 0
-4192 -5200 0
-4189 -5321 0
-4190 -5322 0
-4191 -5323 0
-4192 -5324 0
-4189 -5329 0
-4190 -5330 0
-4191 -5331 0
-4192 -5332 0
-4189 -5457 0
-4190 -5458 0
-4191 -5459 0
-4192 -5460 0
-4189 -5513 0
-4190 -5514 0
-4191 -5515 0
-4192 -5516 0
-4189 -5741 0
-4190 -5742 0
-4191 -5743 0
-4192 -5744 0
-4193 -4201 0
-4194 -4202 0
-4195 -4203 0
-4196 -4204 0
-4193 -4209 0
-4194 -4210 0
-4195 -4211 0
-4196 -4212 0
-4193 -4565 0
-4194 -4566 0
-4195 -4567 0
-4196 -4568 0
-4193 -4685 0
-4194 -4686 0
-4195 -4687 0
-4196 -4688 0
-4193 -4785 0
-4194 -4786 0
-4195 -4787 0
-4196 -4788 0
-4193 -5201 0
-4194 -5202 0
-4195 -5203 0
-4196 -5204 0
-4193 -5449 0
-4194 -5450 0
-4195 -5451 0
-4196 -5452 0
-4193 -5461 0
-4194 -5462 0
-4195 -5463 0
-4196 -5464 0
-4193 -5745 0
-4194 -5746 0
-4195 -5747 0
-4196 -5748 0
-4197 -4201 0
-4198 -4202 0
-4199 -4203 0
-4200 -4204 0
-4197 -4213 0
-4198 -4214 0
-4199 -4215 0
-4200 -4216 0
-4197 -4237 0
-4198 -4238 0
-4199 -4239 0
-4200 -4240 0
-4197 -4309 0
-4198 -4310 0
-4199 -4311 0
-4200 -4312 0
-4197 -4409 0
-4198 -4410 0
-4199 -4411 0
-4200 -4412 0
-4197 -4533 0
-4198 -4534 0
-4199 -4535 0
-4200 -4536 0
-4197 -4689 0
-4198 -4690 0
-4199 -4691 0
-4200 -4692 0
-4197 -4909 0
-4198 -4910 0
-4199 -4911 0
-4200 -4912 0
-4197 -4913 0
-4198 -4914 0
-4199 -4915 0
-4200 -4916 0
-4197 -5205 0
-4198 -5206 0
-4199 -5207 0
-4200 -5208 0
-4197 -5465 0
-4198 -5466 0
-4199 -5467 0
-4200 -5468 0
-4197 -5517 0
-4198 -5518 0
-4199 -5519 0
-4200 -5520 0
-4201 -4401 0
-4202 -4402 0
-4203 -4403 0
-4204 -4404 0
-4201 -4537 0
-4202 -4538 0
-4203 -4539 0
-4204 -4540 0
-4201 -4789 0
-4202 -4790 0
-4203 -4791 0
-4204 -4792 0
-4201 -4917 0
-4202 -4918 0
-4203 -4919 0
-4204 -4920 0
-4201 -5209 0
-4202 -5210 0
-4203 -5211 0
-4204 -5212 0
-4201 -5453 0
-4202 -5454 0
-4203 -5455 0
-4204 -5456 0
-4201 -5469 0
-4202 -5470 0
-4203 -5471 0
-4204 -5472 0
-4201 -5521 0
-4202 -5522 0
-4203 -5523 0
-4204 -5524 0
-4205 -4209 0
-4206 -4210 0
-4207 -4211 0
-4208 -4212 0
-4205 -4213 0
-4206 -4214 0
-4207 -4215 0
-4208 -4216 0
-4205 -4521 0
-4206 -4522 0
-4207 -4523 0
-4208 -4524 0
-4205 -4717 0
-4206 -4718 0
-4207 -4719 0
-4208 -4720 0
-4205 -5221 0
-4206 -5222 0
-4207 -5223 0
-4208 -5224 0
-4205 -5325 0
-4206 -5326 0
-4207 -5327 0
-4208 -5328 0
-4205 -5333 0
-4206 -5334 0
-4207 -5335 0
-4208 -5336 0
-4205 -5457 0
-4206 -5458 0
-4207 -5459 0
-4208 -5460 0
-4205 -5525 0
-4206 -5526 0
-4207 -5527 0
-4208 -5528 0
-4205 -5757 0
-4206 -5758 0
-4207 -5759 0
-4208 -5760 0
-4209 -4569 0
-4210 -4570 0
-4211 -4571 0
-4212 -4572 0
-4209 -4721 0
-4210 -4722 0
-4211 -4723 0
-4212 -4724 0
-4209 -5225 0
-4210 -5226 0
-4211 -5227 0
-4212 -5228 0
-4209 -5461 0
-4210 -5462 0
-4211 -5463 0
-4212 -5464 0
-4209 -5761 0
-4210 -5762 0
-4211 -5763 0
-4212 -5764 0
-4213 -4245 0
-4214 -4246 0
-4215 -4247 0
-4216 -4248 0
-4213 -4725 0
-4214 -4726 0
-4215 -4727 0
-4216 -4728 0
-4213 -5229 0
-4214 -5230 0
-4215 -5231 0
-4216 -5232 0
-4213 -5465 0
-4214 -5466 0
-4215 -5467 0
-4216 -5468 0
-4213 -5529 0
-4214 -5530 0
-4215 -5531 0
-4216 -5532 0
-4217 -4257 0
-4218 -4258 0
-4219 -4259 0
-4220 -4260 0
-4217 -4369 0
-4218 -4370 0
-4219 -4371 0
-4220 -4372 0
-4217 -4397 0
-4218 -4398 0
-4219 -4399 0
-4220 -4400 0
-4217 -4797 0
-4218 -4798 0
-4219 -4799 0
-4220 -4800 0
-4217 -5289 0
-4218 -5290 0
-4219 -5291 0
-4220 -5292 0
-4217 -5425 0
-4218 -5426 0
-4219 -5427 0
-4220 -5428 0
-4217 -5433 0
-4218 -5434 0
-4219 -5435 0
-4220 -5436 0
-4217 -5489 0
-4218 -5490 0
-4219 -5491 0
-4220 -5492 0
-4221 -4225 0
-4222 -4226 0
-4223 -4227 0
-4224 -4228 0
-4221 -4273 0
-4222 -4274 0
-4223 -4275 0
-4224 -4276 0
-4221 -4277 0
-4222 -4278 0
-4223 -4279 0
-4224 -4280 0
-4221 -4877 0
-4222 -4878 0
-4223 -4879 0
-4224 -4880 0
-4221 -5541 0
-4222 -5542 0
-4223 -5543 0
-4224 -5544 0
-4221 -5553 0
-4222 -5554 0
-4223 -5555 0
-4224 -5556 0
-4221 -5633 0
-4222 -5634 0
-4223 -5635 0
-4224 -5636 0
-4221 -5833 0
-4222 -5834 0
-4223 -5835 0
-4224 -5836 0
-4225 -4477 0
-4226 -4478 0
-4227 -4479 0
-4228 -4480 0
-4225 -4689 0
-4226 -4690 0
-4227 -4691 0
-4228 -4692 0
-4225 -5069 0
-4226 -5070 0
-4227 -5071 0
-4228 -5072 0
-4225 -5545 0
-4226 -5546 0
-4227 -5547 0
-4228 -5548 0
-4225 -5557 0
-4226 -5558 0
-4227 -5559 0
-4228 -5560 0
-4225 -5641 0
-4226 -5642 0
-4227 -5643 0
-4228 -5644 0
-4229 -4233 0
-4230 -4234 0
-4231 -4235 0
-4232 -4236 0
-4229 -4281 0
-4230 -4282 0
-4231 -4283 0
-4232 -4284 0
-4229 -5077 0
-4230 -5078 0
-4231 -5079 0
-4232 -5080 0
-4229 -5337 0
-4230 -5338 0
-4231 -5339 0
-4232 -5340 0
-4229 -5573 0
-4230 -5574 0
-4231 -5575 0
-4232 -5576 0
-4229 -5681 0
-4230 -5682 0
-4231 -5683 0
-4232 -5684 0
-4229 -5885 0
-4230 -5886 0
-4231 -5887 0
-4232 -5888 0
-4233 -4237 0
-4234 -4238 0
-4235 -4239 0
-4236 -4240 0
-4233 -4241 0
-4234 -4242 0
-4235 -4243 0
-4236 -4244 0
-4233 -4261 0
-4234 -4262 0
-4235 -4263 0
-4236 -4264 0
-4233 -4281 0
-4234 -4282 0
-4235 -4283 0
-4236 -4284 0
-4233 -4381 0
-4234 -4382 0
-4235 -4383 0
-4236 -4384 0
-4233 -4421 0
-4234 -4422 0
-4235 -4423 0
-4236 -4424 0
-4233 -4609 0
-4234 -4610 0
-4235 -4611 0
-4236 -4612 0
-4233 -4929 0
-4234 -4930 0
-4235 -4931 0
-4236 -4932 0
-4233 -5341 0
-4234 -5342 0
-4235 -5343 0
-4236 -5344 0
-4233 -5581 0
-4234 -5582 0
-4235 -5583 0
-4236 -5584 0
-4233 -5697 0
-4234 -5698 0
-4235 -5699 0
-4236 -5700 0
-4237 -4245 0
-4238 -4246 0
-4239 -4247 0
-4240 -4248 0
-4237 -4261 0
-4238 -4262 0
-4239 -4263 0
-4240 -4264 0
-4237 -4385 0
-4238 -4386 0
-4239 -4387 0
-4240 -4388 0
-4237 -4589 0
-4238 -4590 0
-4239 -4591 0
-4240 -4592 0
-4237 -4613 0
-4238 -4614 0
-4239 -4615 0
-4240 -4616 0
-4237 -4913 0
-4238 -4914 0
-4239 -4915 0
-4240 -4916 0
-4237 -5345 0
-4238 -5346 0
-4239 -5347 0
-4240 -5348 0
-4237 -5585 0
-4238 -5586 0
-4239 -5587 0
-4240 -5588 0
-4237 -5665 0
-4238 -5666 0
-4239 -5667 0
-4240 -5668 0
-4237 -5701 0
-4238 -5702 0
-4239 -5703 0
-4240 -5704 0
-4241 -4245 0
-4242 -4246 0
-4243 -4247 0
-4244 -4248 0
-4241 -4269 0
-4242 -4270 0
-4243 -4271 0
-4244 -4272 0
-4241 -4389 0
-4242 -4390 0
-4243 -4391 0
-4244 -4392 0
-4241 -4425 0
-4242 -4426 0
-4243 -4427 0
-4244 -4428 0
-4241 -4501 0
-4242 -4502 0
-4243 -4503 0
-4244 -4504 0
-4241 -4617 0
-4242 -4618 0
-4243 -4619 0
-4244 -4620 0
-4241 -4933 0
-4242 -4934 0
-4243 -4935 0
-4244 -4936 0
-4241 -5357 0
-4242 -5358 0
-4243 -5359 0
-4244 -5360 0
-4241 -5581 0
-4242 -5582 0
-4243 -5583 0
-4244 -5584 0
-4241 -5589 0
-4242 -5590 0
-4243 -5591 0
-4244 -5592 0
-4241 -5713 0
-4242 -5714 0
-4243 -5715 0
-4244 -5716 0
-4245 -4269 0
-4246 -4270 0
-4247 -4271 0
-4248 -4272 0
-4245 -4349 0
-4246 -4350 0
-4247 -4351 0
-4248 -4352 0
-4245 -4597 0
-4246 -4598 0
-4247 -4599 0
-4248 -4600 0
-4245 -4621 0
-4246 -4622 0
-4247 -4623 0
-4248 -4624 0
-4245 -4865 0
-4246 -4866 0
-4247 -4867 0
-4248 -4868 0
-4245 -5361 0
-4246 -5362 0
-4247 -5363 0
-4248 -5364 0
-4245 -5585 0
-4246 -5586 0
-4247 -5587 0
-4248 -5588 0
-4245 -5593 0
-4246 -5594 0
-4247 -5595 0
-4248 -5596 0
-4245 -5669 0
-4246 -5670 0
-4247 -5671 0
-4248 -5672 0
-4245 -5717 0
-4246 -5718 0
-4247 -5719 0
-4248 -5720 0
-4249 -4265 0
-4250 -4266 0
-4251 -4267 0
-4252 -4268 0
-4249 -4269 0
-4250 -4270 0
-4251 -4271 0
-4252 -4272 0
-4249 -4297 0
-4250 -4298 0
-4251 -4299 0
-4252 -4300 0
-4249 -4361 0
-4250 -4362 0
-4251 -4363 0
-4252 -4364 0
-4249 -4633 0
-4250 -4634 0
-4251 -4635 0
-4252 -4636 0
-4249 -4793 0
-4250 -4794 0
-4251 -4795 0
-4252 -4796 0
-4249 -4953 0
-4250 -4954 0
-4251 -4955 0
-4252 -4956 0
-4249 -4965 0
-4250 -4966 0
-4251 -4967 0
-4252 -4968 0
-4249 -5413 0
-4250 -5414 0
-4251 -5415 0
-4252 -5416 0
-4249 -5601 0
-4250 -5602 0
-4251 -5603 0
-4252 -5604 0
-4249 -5605 0
-4250 -5606 0
-4251 -5607 0
-4252 -5608 0
-4253 -4269 0
-4254 -4270 0
-4255 -4271 0
-4256 -4272 0
-4253 -4449 0
-4254 -4450 0
-4255 -4451 0
-4256 -4452 0
-4253 -4669 0
-4254 -4670 0
-4255 -4671 0
-4256 -4672 0
-4253 -4821 0
-4254 -4822 0
-4255 -4823 0
-4256 -4824 0
-4253 -4981 0
-4254 -4982 0
-4255 -4983 0
-4256 -4984 0
-4253 -5557 0
-4254 -5558 0
-4255 -5559 0
-4256 -5560 0
-4253 -5765 0
-4254 -5766 0
-4255 -5767 0
-4256 -5768 0
-4253 -5973 0
-4254 -5974 0
-4255 -5975 0
-4256 -5976 0
-4257 -4261 0
-4258 -4262 0
-4259 -4263 0
-4260 -4264 0
-4257 -4265 0
-4258 -4266 0
-4259 -4267 0
-4260 -4268 0
-4257 -4457 0
-4258 -4458 0
-4259 -4459 0
-4260 -4460 0
-4257 -4493 0
-4258 -4494 0
-4259 -4495 0
-4260 -4496 0
-4257 -4681 0
-4258 -4682 0
-4259 -4683 0
-4260 -4684 0
-4257 -5449 0
-4258 -5450 0
-4259 -5451 0
-4260 -5452 0
-4257 -5541 0
-4258 -5542 0
-4259 -5543 0
-4260 -5544 0
-4257 -5609 0
-4258 -5610 0
-4259 -5611 0
-4260 -5612 0
-4261 -4269 0
-4262 -4270 0
-4263 -4271 0
-4264 -4272 0
-4261 -4301 0
-4262 -4302 0
-4263 -4303 0
-4264 -4304 0
-4261 -4461 0
-4262 -4462 0
-4263 -4463 0
-4264 -4464 0
-4261 -4969 0
-4262 -4970 0
-4263 -4971 0
-4264 -4972 0
-4261 -5097 0
-4262 -5098 0
-4263 -5099 0
-4264 -5100 0
-4261 -5109 0
-4262 -5110 0
-4263 -5111 0
-4264 -5112 0
-4261 -5453 0
-4262 -5454 0
-4263 -5455 0
-4264 -5456 0
-4261 -5545 0
-4262 -5546 0
-4263 -5547 0
-4264 -5548 0
-4261 -5613 0
-4262 -5614 0
-4263 -5615 0
-4264 -5616 0
-4261 -5769 0
-4262 -5770 0
-4263 -5771 0
-4264 -5772 0
-4261 -5777 0
-4262 -5778 0
-4263 -5779 0
-4264 -5780 0
-4265 -4269 0
-4266 -4270 0
-4267 -4271 0
-4268 -4272 0
-4265 -4305 0
-4266 -4306 0
-4267 -4307 0
-4268 -4308 0
-4265 -4469 0
-4266 -4470 0
-4267 -4471 0
-4268 -4472 0
-4265 -4505 0
-4266 -4506 0
-4267 -4507 0
-4268 -4508 0
-4265 -4709 0
-4266 -4710 0
-4267 -4711 0
-4268 -4712 0
-4265 -4829 0
-4266 -4830 0
-4267 -4831 0
-4268 -4832 0
-4265 -4945 0
-4266 -4946 0
-4267 -4947 0
-4268 -4948 0
-4265 -5461 0
-4266 -5462 0
-4267 -5463 0
-4268 -5464 0
-4265 -5553 0
-4266 -5554 0
-4267 -5555 0
-4268 -5556 0
-4265 -5565 0
-4266 -5566 0
-4267 -5567 0
-4268 -5568 0
-4265 -5609 0
-4266 -5610 0
-4267 -5611 0
-4268 -5612 0
-4265 -5617 0
-4266 -5618 0
-4267 -5619 0
-4268 -5620 0
-4265 -5993 0
-4266 -5994 0
-4267 -5995 0
-4268 -5996 0
-4269 -4309 0
-4270 -4310 0
-4271 -4311 0
-4272 -4312 0
-4269 -4397 0
-4270 -4398 0
-4271 -4399 0
-4272 -4400 0
-4269 -4473 0
-4270 -4474 0
-4271 -4475 0
-4272 -4476 0
-4269 -4529 0
-4270 -4530 0
-4271 -4531 0
-4272 -4532 0
-4269 -4717 0
-4270 -4718 0
-4271 -4719 0
-4272 -4720 0
-4269 -4977 0
-4270 -4978 0
-4271 -4979 0
-4272 -4980 0
-4269 -4985 0
-4270 -4986 0
-4271 -4987 0
-4272 -4988 0
-4269 -5105 0
-4270 -5106 0
-4271 -5107 0
-4272 -5108 0
-4269 -5113 0
-4270 -5114 0
-4271 -5115 0
-4272 -5116 0
-4269 -5469 0
-4270 -5470 0
-4271 -5471 0
-4272 -5472 0
-4269 -5473 0
-4270 -5474 0
-4271 -5475 0
-4272 -5476 0
-4269 -5557 0
-4270 -5558 0
-4271 -5559 0
-4272 -5560 0
-4269 -5613 0
-4270 -5614 0
-4271 -5615 0
-4272 -5616 0
-4269 -5621 0
-4270 -5622 0
-4271 -5623 0
-4272 -5624 0
-4269 -5773 0
-4270 -5774 0
-4271 -5775 0
-4272 -5776 0
-4269 -5781 0
-4270 -5782 0
-4271 -5783 0
-4272 -5784 0
-4273 -4277 0
-4274 -4278 0
-4275 -4279 0
-4276 -4280 0
-4273 -4837 0
-4274 -4838 0
-4275 -4839 0
-4276 -4840 0
-4273 -5721 0
-4274 -5722 0
-4275 -5723 0
-4276 -5724 0
-4273 -6017 0
-4274 -6018 0
-4275 -6019 0
-4276 -6020 0
-4277 -4841 0
-4278 -4842 0
-4279 -4843 0
-4280 -4844 0
-4277 -5009 0
-4278 -5010 0
-4279 -5011 0
-4280 -5012 0
-4277 -5137 0
-4278 -5138 0
-4279 -5139 0
-4280 -5140 0
-4277 -5729 0
-4278 -5730 0
-4279 -5731 0
-4280 -5732 0
-4281 -4301 0
-4282 -4302 0
-4283 -4303 0
-4284 -4304 0
-4281 -4781 0
-4282 -4782 0
-4283 -4783 0
-4284 -4784 0
-4281 -5165 0
-4282 -5166 0
-4283 -5167 0
-4284 -5168 0
-4281 -5793 0
-4282 -5794 0
-4283 -5795 0
-4284 -5796 0
-4285 -4289 0
-4286 -4290 0
-4287 -4291 0
-4288 -4292 0
-4285 -5037 0
-4286 -5038 0
-4287 -5039 0
-4288 -5040 0
-4285 -5505 0
-4286 -5506 0
-4287 -5507 0
-4288 -5508 0
-4285 -5641 0
-4286 -5642 0
-4287 -5643 0
-4288 -5644 0
-4285 -5765 0
-4286 -5766 0
-4287 -5767 0
-4288 -5768 0
-4289 -4293 0
-4290 -4294 0
-4291 -4295 0
-4292 -4296 0
-4289 -4453 0
-4290 -4454 0
-4291 -4455 0
-4292 -4456 0
-4289 -5521 0
-4290 -5522 0
-4291 -5523 0
-4292 -5524 0
-4289 -5641 0
-4290 -5642 0
-4291 -5643 0
-4292 -5644 0
-4289 -5769 0
-4290 -5770 0
-4291 -5771 0
-4292 -5772 0
-4289 -5773 0
-4290 -5774 0
-4291 -5775 0
-4292 -5776 0
-4293 -4481 0
-4294 -4482 0
-4295 -4483 0
-4296 -4484 0
-4293 -4805 0
-4294 -4806 0
-4295 -4807 0
-4296 -4808 0
-4293 -5777 0
-4294 -5778 0
-4295 -5779 0
-4296 -5780 0
-4293 -5781 0
-4294 -5782 0
-4295 -5783 0
-4296 -5784 0
-4297 -4305 0
-4298 -4306 0
-4299 -4307 0
-4300 -4308 0
-4297 -4309 0
-4298 -4310 0
-4299 -4311 0
-4300 -4312 0
-4297 -4813 0
-4298 -4814 0
-4299 -4815 0
-4300 -4816 0
-4297 -5045 0
-4298 -5046 0
-4299 -5047 0
-4300 -5048 0
-4297 -5181 0
-4298 -5182 0
-4299 -5183 0
-4300 -5184 0
-4297 -5657 0
-4298 -5658 0
-4299 -5659 0
-4300 -5660 0
-4301 -4309 0
-4302 -4310 0
-4303 -4311 0
-4304 -4312 0
-4301 -4837 0
-4302 -4838 0
-4303 -4839 0
-4304 -4840 0
-4301 -5249 0
-4302 -5250 0
-4303 -5251 0
-4304 -5252 0
-4301 -5261 0
-4302 -5262 0
-4303 -5263 0
-4304 -5264 0
-4301 -5785 0
-4302 -5786 0
-4303 -5787 0
-4304 -5788 0
-4305 -4309 0
-4306 -4310 0
-4307 -4311 0
-4308 -4312 0
-4305 -4517 0
-4306 -4518 0
-4307 -4519 0
-4308 -4520 0
-4305 -4561 0
-4306 -4562 0
-4307 -4563 0
-4308 -4564 0
-4305 -5037 0
-4306 -5038 0
-4307 -5039 0
-4308 -5040 0
-4305 -5253 0
-4306 -5254 0
-4307 -5255 0
-4308 -5256 0
-4305 -5721 0
-4306 -5722 0
-4307 -5723 0
-4308 -5724 0
-4305 -5737 0
-4306 -5738 0
-4307 -5739 0
-4308 -5740 0
-4305 -5789 0
-4306 -5790 0
-4307 -5791 0
-4308 -5792 0
-4305 -6057 0
-4306 -6058 0
-4307 -6059 0
-4308 -6060 0
-4309 -4385 0
-4310 -4386 0
-4311 -4387 0
-4312 -4388 0
-4309 -4845 0
-4310 -4846 0
-4311 -4847 0
-4312 -4848 0
-4309 -5257 0
-4310 -5258 0
-4311 -5259 0
-4312 -5260 0
-4309 -5269 0
-4310 -5270 0
-4311 -5271 0
-4312 -5272 0
-4309 -5785 0
-4310 -5786 0
-4311 -5787 0
-4312 -5788 0
-4313 -4317 0
-4314 -4318 0
-4315 -4319 0
-4316 -4320 0
-4313 -4889 0
-4314 -4890 0
-4315 -4891 0
-4316 -4892 0
-4313 -5077 0
-4314 -5078 0
-4315 -5079 0
-4316 -5080 0
-4313 -5801 0
-4314 -5802 0
-4315 -5803 0
-4316 -5804 0
-4313 -5821 0
-4314 -5822 0
-4315 -5823 0
-4316 -5824 0
-4313 -5833 0
-4314 -5834 0
-4315 -5835 0
-4316 -5836 0
-4317 -4897 0
-4318 -4898 0
-4319 -4899 0
-4320 -4900 0
-4317 -5085 0
-4318 -5086 0
-4319 -5087 0
-4320 -5088 0
-4317 -5801 0
-4318 -5802 0
-4319 -5803 0
-4320 -5804 0
-4317 -5825 0
-4318 -5826 0
-4319 -5827 0
-4320 -5828 0
-4317 -5841 0
-4318 -5842 0
-4319 -5843 0
-4320 -5844 0
-4321 -4325 0
-4322 -4326 0
-4323 -4327 0
-4324 -4328 0
-4321 -4489 0
-4322 -4490 0
-4323 -4491 0
-4324 -4492 0
-4321 -5805 0
-4322 -5806 0
-4323 -5807 0
-4324 -5808 0
-4321 -5845 0
-4322 -5846 0
-4323 -5847 0
-4324 -5848 0
-4321 -6073 0
-4322 -6074 0
-4323 -6075 0
-4324 -6076 0
-4325 -4345 0
-4326 -4346 0
-4327 -4347 0
-4328 -4348 0
-4325 -4349 0
-4326 -4350 0
-4327 -4351 0
-4328 -4352 0
-4325 -4497 0
-4326 -4498 0
-4327 -4499 0
-4328 -4500 0
-4325 -4913 0
-4326 -4914 0
-4327 -4915 0
-4328 -4916 0
-4325 -5069 0
-4326 -5070 0
-4327 -5071 0
-4328 -5072 0
-4325 -5805 0
-4326 -5806 0
-4327 -5807 0
-4328 -5808 0
-4325 -5853 0
-4326 -5854 0
-4327 -5855 0
-4328 -5856 0
-4325 -6089 0
-4326 -6090 0
-4327 -6091 0
-4328 -6092 0
-4329 -4333 0
-4330 -4334 0
-4331 -4335 0
-4332 -4336 0
-4329 -4337 0
-4330 -4338 0
-4331 -4339 0
-4332 -4340 0
-4329 -4353 0
-4330 -4354 0
-4331 -4355 0
-4332 -4356 0
-4329 -5845 0
-4330 -5846 0
-4331 -5847 0
-4332 -5848 0
-4329 -5853 0
-4330 -5854 0
-4331 -5855 0
-4332 -5856 0
-4329 -6153 0
-4330 -6154 0
-4331 -6155 0
-4332 -6156 0
-4333 -4337 0
-4334 -4338 0
-4335 -4339 0
-4336 -4340 0
-4333 -4341 0
-4334 -4342 0
-4335 -4343 0
-4336 -4344 0
-4333 -4369 0
-4334 -4370 0
-4335 -4371 0
-4336 -4372 0
-4333 -4617 0
-4334 -4618 0
-4335 -4619 0
-4336 -4620 0
-4333 -5125 0
-4334 -5126 0
-4335 -5127 0
-4336 -5128 0
-4333 -5629 0
-4334 -5630 0
-4335 -5631 0
-4336 -5632 0
-4333 -5877 0
-4334 -5878 0
-4335 -5879 0
-4336 -5880 0
-4333 -5901 0
-4334 -5902 0
-4335 -5903 0
-4336 -5904 0
-4337 -4429 0
-4338 -4430 0
-4339 -4431 0
-4340 -4432 0
-4337 -4709 0
-4338 -4710 0
-4339 -4711 0
-4340 -4712 0
-4337 -5633 0
-4338 -5634 0
-4339 -5635 0
-4340 -5636 0
-4337 -5881 0
-4338 -5882 0
-4339 -5883 0
-4340 -5884 0
-4337 -5905 0
-4338 -5906 0
-4339 -5907 0
-4340 -5908 0
-4341 -4369 0
-4342 -4370 0
-4343 -4371 0
-4344 -4372 0
-4341 -4621 0
-4342 -4622 0
-4343 -4623 0
-4344 -4624 0
-4341 -5129 0
-4342 -5130 0
-4343 -5131 0
-4344 -5132 0
-4341 -5893 0
-4342 -5894 0
-4343 -5895 0
-4344 -5896 0
-4341 -5917 0
-4342 -5918 0
-4343 -5919 0
-4344 -5920 0
-4345 -4349 0
-4346 -4350 0
-4347 -4351 0
-4348 -4352 0
-4345 -4393 0
-4346 -4394 0
-4347 -4395 0
-4348 -4396 0
-4345 -4785 0
-4346 -4786 0
-4347 -4787 0
-4348 -4788 0
-4345 -5133 0
-4346 -5134 0
-4347 -5135 0
-4348 -5136 0
-4345 -5325 0
-4346 -5326 0
-4347 -5327 0
-4348 -5328 0
-4345 -6029 0
-4346 -6030 0
-4347 -6031 0
-4348 -6032 0
-4345 -6185 0
-4346 -6186 0
-4347 -6187 0
-4348 -6188 0
-4349 -4397 0
-4350 -4398 0
-4351 -4399 0
-4352 -4400 0
-4349 -4401 0
-4350 -4402 0
-4351 -4403 0
-4352 -4404 0
-4349 -4561 0
-4350 -4562 0
-4351 -4563 0
-4352 -4564 0
-4349 -4621 0
-4350 -4622 0
-4351 -4623 0
-4352 -4624 0
-4349 -4925 0
-4350 -4926 0
-4351 -4927 0
-4352 -4928 0
-4349 -5141 0
-4350 -5142 0
-4351 -5143 0
-4352 -5144 0
-4349 -5673 0
-4350 -5674 0
-4351 -5675 0
-4352 -5676 0
-4349 -5937 0
-4350 -5938 0
-4351 -5939 0
-4352 -5940 0
-4349 -6033 0
-4350 -6034 0
-4351 -6035 0
-4352 -6036 0
-4349 -6193 0
-4350 -6194 0
-4351 -6195 0
-4352 -6196 0
-4353 -4369 0
-4354 -4370 0
-4355 -4371 0
-4356 -4372 0
-4353 -4413 0
-4354 -4414 0
-4355 -4415 0
-4356 -4416 0
-4353 -4573 0
-4354 -4574 0
-4355 -4575 0
-4356 -4576 0
-4353 -4653 0
-4354 -4654 0
-4355 -4655 0
-4356 -4656 0
-4353 -4937 0
-4354 -4938 0
-4355 -4939 0
-4356 -4940 0
-4353 -5693 0
-4354 -5694 0
-4355 -5695 0
-4356 -5696 0
-4353 -5941 0
-4354 -5942 0
-4355 -5943 0
-4356 -5944 0
-4353 -5945 0
-4354 -5946 0
-4355 -5947 0
-4356 -5948 0
-4353 -6205 0
-4354 -6206 0
-4355 -6207 0
-4356 -6208 0
-4357 -4361 0
-4358 -4362 0
-4359 -4363 0
-4360 -4364 0
-4357 -4369 0
-4358 -4370 0
-4359 -4371 0
-4360 -4372 0
-4357 -4393 0
-4358 -4394 0
-4359 -4395 0
-4360 -4396 0
-4357 -4669 0
-4358 -4670 0
-4359 -4671 0
-4360 -4672 0
-4357 -5033 0
-4358 -5034 0
-4359 -5035 0
-4360 -5036 0
-4357 -5721 0
-4358 -5722 0
-4359 -5723 0
-4360 -5724 0
-4357 -5829 0
-4358 -5830 0
-4359 -5831 0
-4360 -5832 0
-4357 -5957 0
-4358 -5958 0
-4359 -5959 0
-4360 -5960 0
-4357 -5961 0
-4358 -5962 0
-4359 -5963 0
-4360 -5964 0
-4357 -6213 0
-4358 -6214 0
-4359 -6215 0
-4360 -6216 0
-4361 -4365 0
-4362 -4366 0
-4363 -4367 0
-4364 -4368 0
-4361 -4377 0
-4362 -4378 0
-4363 -4379 0
-4364 -4380 0
-4361 -4397 0
-4362 -4398 0
-4363 -4399 0
-4364 -4400 0
-4361 -4477 0
-4362 -4478 0
-4363 -4479 0
-4364 -4480 0
-4361 -4633 0
-4362 -4634 0
-4363 -4635 0
-4364 -4636 0
-4361 -5041 0
-4362 -5042 0
-4363 -5043 0
-4364 -5044 0
-4361 -5213 0
-4362 -5214 0
-4363 -5215 0
-4364 -5216 0
-4361 -5245 0
-4362 -5246 0
-4363 -5247 0
-4364 -5248 0
-4361 -5729 0
-4362 -5730 0
-4363 -5731 0
-4364 -5732 0
-4361 -5833 0
-4362 -5834 0
-4363 -5835 0
-4364 -5836 0
-4361 -5969 0
-4362 -5970 0
-4363 -5971 0
-4364 -5972 0
-4365 -4405 0
-4366 -4406 0
-4367 -4407 0
-4368 -4408 0
-4365 -5053 0
-4366 -5054 0
-4367 -5055 0
-4368 -5056 0
-4365 -5253 0
-4366 -5254 0
-4367 -5255 0
-4368 -5256 0
-4365 -5841 0
-4366 -5842 0
-4367 -5843 0
-4368 -5844 0
-4365 -5969 0
-4366 -5970 0
-4367 -5971 0
-4368 -5972 0
-4369 -4373 0
-4370 -4374 0
-4371 -4375 0
-4372 -4376 0
-4369 -4377 0
-4370 -4378 0
-4371 -4379 0
-4372 -4380 0
-4369 -4417 0
-4370 -4418 0
-4371 -4419 0
-4372 -4420 0
-4369 -4457 0
-4370 -4458 0
-4371 -4459 0
-4372 -4460 0
-4369 -4717 0
-4370 -4718 0
-4371 -4719 0
-4372 -4720 0
-4369 -5173 0
-4370 -5174 0
-4371 -5175 0
-4372 -5176 0
-4369 -5737 0
-4370 -5738 0
-4371 -5739 0
-4372 -5740 0
-4369 -5829 0
-4370 -5830 0
-4371 -5831 0
-4372 -5832 0
-4369 -5977 0
-4370 -5978 0
-4371 -5979 0
-4372 -5980 0
-4369 -5981 0
-4370 -5982 0
-4371 -5983 0
-4372 -5984 0
-4373 -4461 0
-4374 -4462 0
-4375 -4463 0
-4376 -4464 0
-4373 -4553 0
-4374 -4554 0
-4375 -4555 0
-4376 -4556 0
-4373 -4725 0
-4374 -4726 0
-4375 -4727 0
-4376 -4728 0
-4373 -4809 0
-4374 -4810 0
-4375 -4811 0
-4376 -4812 0
-4373 -5365 0
-4374 -5366 0
-4375 -5367 0
-4376 -5368 0
-4373 -5989 0
-4374 -5990 0
-4375 -5991 0
-4376 -5992 0
-4377 -4409 0
-4378 -4410 0
-4379 -4411 0
-4380 -4412 0
-4377 -4417 0
-4378 -4418 0
-4379 -4419 0
-4380 -4420 0
-4377 -4485 0
-4378 -4486 0
-4379 -4487 0
-4380 -4488 0
-4377 -4737 0
-4378 -4738 0
-4379 -4739 0
-4380 -4740 0
-4377 -5237 0
-4378 -5238 0
-4379 -5239 0
-4380 -5240 0
-4377 -5745 0
-4378 -5746 0
-4379 -5747 0
-4380 -5748 0
-4377 -5833 0
-4378 -5834 0
-4379 -5835 0
-4380 -5836 0
-4377 -5993 0
-4378 -5994 0
-4379 -5995 0
-4380 -5996 0
-4381 -4385 0
-4382 -4386 0
-4383 -4387 0
-4384 -4388 0
-4381 -4389 0
-4382 -4390 0
-4383 -4391 0
-4384 -4392 0
-4381 -4397 0
-4382 -4398 0
-4383 -4399 0
-4384 -4400 0
-4381 -4661 0
-4382 -4662 0
-4383 -4663 0
-4384 -4664 0
-4381 -4817 0
-4382 -4818 0
-4383 -4819 0
-4384 -4820 0
-4381 -4997 0
-4382 -4998 0
-4383 -4999 0
-4384 -5000 0
-4381 -5405 0
-4382 -5406 0
-4383 -5407 0
-4384 -5408 0
-4381 -5865 0
-4382 -5866 0
-4383 -5867 0
-4384 -5868 0
-4381 -5889 0
-4382 -5890 0
-4383 -5891 0
-4384 -5892 0
-4381 -5997 0
-4382 -5998 0
-4383 -5999 0
-4384 -6000 0
-4381 -6041 0
-4382 -6042 0
-4383 -6043 0
-4384 -6044 0
-4381 -6257 0
-4382 -6258 0
-4383 -6259 0
-4384 -6260 0
-4385 -4401 0
-4386 -4402 0
-4387 -4403 0
-4388 -4404 0
-4385 -4557 0
-4386 -4558 0
-4387 -4559 0
-4388 -4560 0
-4385 -4589 0
-4386 -4590 0
-4387 -4591 0
-4388 -4592 0
-4385 -5001 0
-4386 -5002 0
-4387 -5003 0
-4388 -5004 0
-4385 -5269 0
-4386 -5270 0
-4387 -5271 0
-4388 -5272 0
-4385 -5413 0
-4386 -5414 0
-4387 -5415 0
-4388 -5416 0
-4385 -5869 0
-4386 -5870 0
-4387 -5871 0
-4388 -5872 0
-4385 -5897 0
-4386 -5898 0
-4387 -5899 0
-4388 -5900 0
-4385 -6001 0
-4386 -6002 0
-4387 -6003 0
-4388 -6004 0
-4385 -6049 0
-4386 -6050 0
-4387 -6051 0
-4388 -6052 0
-4385 -6261 0
-4386 -6262 0
-4387 -6263 0
-4388 -6264 0
-4389 -4405 0
-4390 -4406 0
-4391 -4407 0
-4392 -4408 0
-4389 -4825 0
-4390 -4826 0
-4391 -4827 0
-4392 -4828 0
-4389 -5285 0
-4390 -5286 0
-4391 -5287 0
-4392 -5288 0
-4389 -5765 0
-4390 -5766 0
-4391 -5767 0
-4392 -5768 0
-4389 -5873 0
-4390 -5874 0
-4391 -5875 0
-4392 -5876 0
-4389 -5913 0
-4390 -5914 0
-4391 -5915 0
-4392 -5916 0
-4389 -5997 0
-4390 -5998 0
-4391 -5999 0
-4392 -6000 0
-4389 -6053 0
-4390 -6054 0
-4391 -6055 0
-4392 -6056 0
-4393 -4397 0
-4394 -4398 0
-4395 -4399 0
-4396 -4400 0
-4393 -4489 0
-4394 -4490 0
-4395 -4491 0
-4396 -4492 0
-4393 -4701 0
-4394 -4702 0
-4395 -4703 0
-4396 -4704 0
-4393 -5429 0
-4394 -5430 0
-4395 -5431 0
-4396 -5432 0
-4393 -6005 0
-4394 -6006 0
-4395 -6007 0
-4396 -6008 0
-4393 -6277 0
-4394 -6278 0
-4395 -6279 0
-4396 -6280 0
-4397 -4401 0
-4398 -4402 0
-4399 -4403 0
-4400 -4404 0
-4397 -4405 0
-4398 -4406 0
-4399 -4407 0
-4400 -4408 0
-4397 -4409 0
-4398 -4410 0
-4399 -4411 0
-4400 -4412 0
-4397 -4493 0
-4398 -4494 0
-4399 -4495 0
-4400 -4496 0
-4397 -4717 0
-4398 -4718 0
-4399 -4719 0
-4400 -4720 0
-4397 -5009 0
-4398 -5010 0
-4399 -5011 0
-4400 -5012 0
-4397 -5193 0
-4398 -5194 0
-4399 -5195 0
-4400 -5196 0
-4397 -5289 0
-4398 -5290 0
-4399 -5291 0
-4400 -5292 0
-4397 -5437 0
-4398 -5438 0
-4399 -5439 0
-4400 -5440 0
-4397 -5929 0
-4398 -5930 0
-4399 -5931 0
-4400 -5932 0
-4397 -6009 0
-4398 -6010 0
-4399 -6011 0
-4400 -6012 0
-4397 -6041 0
-4398 -6042 0
-4399 -6043 0
-4400 -6044 0
-4397 -6289 0
-4398 -6290 0
-4399 -6291 0
-4400 -6292 0
-4401 -4601 0
-4402 -4602 0
-4403 -4603 0
-4404 -4604 0
-4401 -4729 0
-4402 -4730 0
-4403 -4731 0
-4404 -4732 0
-4401 -4981 0
-4402 -4982 0
-4403 -4983 0
-4404 -4984 0
-4401 -5017 0
-4402 -5018 0
-4403 -5019 0
-4404 -5020 0
-4401 -5209 0
-4402 -5210 0
-4403 -5211 0
-4404 -5212 0
-4401 -5281 0
-4402 -5282 0
-4403 -5283 0
-4404 -5284 0
-4401 -5441 0
-4402 -5442 0
-4403 -5443 0
-4404 -5444 0
-4401 -6013 0
-4402 -6014 0
-4403 -6015 0
-4404 -6016 0
-4401 -6049 0
-4402 -6050 0
-4403 -6051 0
-4404 -6052 0
-4405 -4505 0
-4406 -4506 0
-4407 -4507 0
-4408 -4508 0
-4405 -4741 0
-4406 -4742 0
-4407 -4743 0
-4408 -4744 0
-4405 -5217 0
-4406 -5218 0
-4407 -5219 0
-4408 -5220 0
-4405 -5293 0
-4406 -5294 0
-4407 -5295 0
-4408 -5296 0
-4405 -5933 0
-4406 -5934 0
-4407 -5935 0
-4408 -5936 0
-4405 -6009 0
-4406 -6010 0
-4407 -6011 0
-4408 -6012 0
-4405 -6053 0
-4406 -6054 0
-4407 -6055 0
-4408 -6056 0
-4409 -4749 0
-4410 -4750 0
-4411 -4751 0
-4412 -4752 0
-4409 -5021 0
-4410 -5022 0
-4411 -5023 0
-4412 -5024 0
-4409 -5777 0
-4410 -5778 0
-4411 -5779 0
-4412 -5780 0
-4409 -5929 0
-4410 -5930 0
-4411 -5931 0
-4412 -5932 0
-4413 -4417 0
-4414 -4418 0
-4415 -4419 0
-4416 -4420 0
-4413 -5037 0
-4414 -5038 0
-4415 -5039 0
-4416 -5040 0
-4413 -5297 0
-4414 -5298 0
-4415 -5299 0
-4416 -5300 0
-4413 -5497 0
-4414 -5498 0
-4415 -5499 0
-4416 -5500 0
-4413 -6037 0
-4414 -6038 0
-4415 -6039 0
-4416 -6040 0
-4413 -6049 0
-4414 -6050 0
-4415 -6051 0
-4416 -6052 0
-4417 -4545 0
-4418 -4546 0
-4419 -4547 0
-4420 -4548 0
-4417 -4761 0
-4418 -4762 0
-4419 -4763 0
-4420 -4764 0
-4417 -4849 0
-4418 -4850 0
-4419 -4851 0
-4420 -4852 0
-4417 -5513 0
-4418 -5514 0
-4419 -5515 0
-4420 -5516 0
-4417 -6017 0
-4418 -6018 0
-4419 -6019 0
-4420 -6020 0
-4417 -6057 0
-4418 -6058 0
-4419 -6059 0
-4420 -6060 0
-4421 -4425 0
-4422 -4426 0
-4423 -4427 0
-4424 -4428 0
-4421 -4433 0
-4422 -4434 0
-4423 -4435 0
-4424 -4436 0
-4421 -4453 0
-4422 -4454 0
-4423 -4455 0
-4424 -4456 0
-4421 -4461 0
-4422 -4462 0
-4423 -4463 0
-4424 -4464 0
-4421 -4609 0
-4422 -4610 0
-4423 -4611 0
-4424 -4612 0
-4421 -4661 0
-4422 -4662 0
-4423 -4663 0
-4424 -4664 0
-4421 -4857 0
-4422 -4858 0
-4423 -4859 0
-4424 -4860 0
-4421 -5809 0
-4422 -5810 0
-4423 -5811 0
-4424 -5812 0
-4421 -6061 0
-4422 -6062 0
-4423 -6063 0
-4424 -6064 0
-4421 -6065 0
-4422 -6066 0
-4423 -6067 0
-4424 -6068 0
-4421 -6153 0
-4422 -6154 0
-4423 -6155 0
-4424 -6156 0
-4425 -4465 0
-4426 -4466 0
-4427 -4467 0
-4428 -4468 0
-4425 -4473 0
-4426 -4474 0
-4427 -4475 0
-4428 -4476 0
-4425 -4617 0
-4426 -4618 0
-4427 -4619 0
-4428 -4620 0
-4425 -4869 0
-4426 -4870 0
-4427 -4871 0
-4428 -4872 0
-4425 -5813 0
-4426 -5814 0
-4427 -5815 0
-4428 -5816 0
-4425 -6065 0
-4426 -6066 0
-4427 -6067 0
-4428 -6068 0
-4429 -4437 0
-4430 -4438 0
-4431 -4439 0
-4432 -4440 0
-4429 -4537 0
-4430 -4538 0
-4431 -4539 0
-4432 -4540 0
-4429 -5149 0
-4430 -5150 0
-4431 -5151 0
-4432 -5152 0
-4429 -6069 0
-4430 -6070 0
-4431 -6071 0
-4432 -6072 0
-4429 -6085 0
-4430 -6086 0
-4431 -6087 0
-4432 -6088 0
-4429 -6353 0
-4430 -6354 0
-4431 -6355 0
-4432 -6356 0
-4433 -4437 0
-4434 -4438 0
-4435 -4439 0
-4436 -4440 0
-4433 -4441 0
-4434 -4442 0
-4435 -4443 0
-4436 -4444 0
-4433 -4481 0
-4434 -4482 0
-4435 -4483 0
-4436 -4484 0
-4433 -4485 0
-4434 -4486 0
-4435 -4487 0
-4436 -4488 0
-4433 -4533 0
-4434 -4534 0
-4435 -4535 0
-4436 -4536 0
-4433 -4717 0
-4434 -4718 0
-4435 -4719 0
-4436 -4720 0
-4433 -5077 0
-4434 -5078 0
-4435 -5079 0
-4436 -5080 0
-4433 -5329 0
-4434 -5330 0
-4435 -5331 0
-4436 -5332 0
-4433 -5817 0
-4434 -5818 0
-4435 -5819 0
-4436 -5820 0
-4433 -6073 0
-4434 -6074 0
-4435 -6075 0
-4436 -6076 0
-4433 -6089 0
-4434 -6090 0
-4435 -6091 0
-4436 -6092 0
-4433 -6153 0
-4434 -6154 0
-4435 -6155 0
-4436 -6156 0
-4437 -4441 0
-4438 -4442 0
-4439 -4443 0
-4440 -4444 0
-4437 -4537 0
-4438 -4538 0
-4439 -4539 0
-4440 -4540 0
-4437 -4721 0
-4438 -4722 0
-4439 -4723 0
-4440 -4724 0
-4437 -4881 0
-4438 -4882 0
-4439 -4883 0
-4440 -4884 0
-4437 -5153 0
-4438 -5154 0
-4439 -5155 0
-4440 -5156 0
-4437 -6077 0
-4438 -6078 0
-4439 -6079 0
-4440 -6080 0
-4437 -6093 0
-4438 -6094 0
-4439 -6095 0
-4440 -6096 0
-4441 -4773 0
-4442 -4774 0
-4443 -4775 0
-4444 -4776 0
-4441 -4905 0
-4442 -4906 0
-4443 -4907 0
-4444 -4908 0
-4441 -5833 0
-4442 -5834 0
-4443 -5835 0
-4444 -5836 0
-4441 -6097 0
-4442 -6098 0
-4443 -6099 0
-4444 -6100 0
-4441 -6101 0
-4442 -6102 0
-4443 -6103 0
-4444 -6104 0
-4445 -4449 0
-4446 -4450 0
-4447 -4451 0
-4448 -4452 0
-4445 -4461 0
-4446 -4462 0
-4447 -4463 0
-4448 -4464 0
-4445 -4477 0
-4446 -4478 0
-4447 -4479 0
-4448 -4480 0
-4445 -4489 0
-4446 -4490 0
-4447 -4491 0
-4448 -4492 0
-4445 -4665 0
-4446 -4666 0
-4447 -4667 0
-4448 -4668 0
-4445 -4945 0
-4446 -4946 0
-4447 -4947 0
-4448 -4948 0
-4445 -5349 0
-4446 -5350 0
-4447 -5351 0
-4448 -5352 0
-4445 -5381 0
-4446 -5382 0
-4447 -5383 0
-4448 -5384 0
-4445 -5869 0
-4446 -5870 0
-4447 -5871 0
-4448 -5872 0
-4445 -6105 0
-4446 -6106 0
-4447 -6107 0
-4448 -6108 0
-4445 -6197 0
-4446 -6198 0
-4447 -6199 0
-4448 -6200 0
-4445 -6389 0
-4446 -6390 0
-4447 -6391 0
-4448 -6392 0
-4449 -4473 0
-4450 -4474 0
-4451 -4475 0
-4452 -4476 0
-4449 -4497 0
-4450 -4498 0
-4451 -4499 0
-4452 -4500 0
-4449 -4669 0
-4450 -4670 0
-4451 -4671 0
-4452 -4672 0
-4449 -4957 0
-4450 -4958 0
-4451 -4959 0
-4452 -4960 0
-4449 -5185 0
-4450 -5186 0
-4451 -5187 0
-4452 -5188 0
-4449 -5397 0
-4450 -5398 0
-4451 -5399 0
-4452 -5400 0
-4449 -6105 0
-4450 -6106 0
-4451 -6107 0
-4452 -6108 0
-4449 -6201 0
-4450 -6202 0
-4451 -6203 0
-4452 -6204 0
-4449 -6397 0
-4450 -6398 0
-4451 -6399 0
-4452 -6400 0
-4453 -4461 0
-4454 -4462 0
-4455 -4463 0
-4456 -4464 0
-4453 -4465 0
-4454 -4466 0
-4455 -4467 0
-4456 -4468 0
-4453 -4481 0
-4454 -4482 0
-4455 -4483 0
-4456 -4484 0
-4453 -4677 0
-4454 -4678 0
-4455 -4679 0
-4456 -4680 0
-4453 -4941 0
-4454 -4942 0
-4455 -4943 0
-4456 -4944 0
-4453 -5125 0
-4454 -5126 0
-4455 -5127 0
-4456 -5128 0
-4453 -5417 0
-4454 -5418 0
-4455 -5419 0
-4456 -5420 0
-4453 -5889 0
-4454 -5890 0
-4455 -5891 0
-4456 -5892 0
-4453 -6109 0
-4454 -6110 0
-4455 -6111 0
-4456 -6112 0
-4457 -4461 0
-4458 -4462 0
-4459 -4463 0
-4460 -4464 0
-4457 -4469 0
-4458 -4470 0
-4459 -4471 0
-4460 -4472 0
-4457 -4509 0
-4458 -4510 0
-4459 -4511 0
-4460 -4512 0
-4457 -4545 0
-4458 -4546 0
-4459 -4547 0
-4460 -4548 0
-4457 -4681 0
-4458 -4682 0
-4459 -4683 0
-4460 -4684 0
-4457 -4861 0
-4458 -4862 0
-4459 -4863 0
-4460 -4864 0
-4457 -6113 0
-4458 -6114 0
-4459 -6115 0
-4460 -6116 0
-4461 -4473 0
-4462 -4474 0
-4463 -4475 0
-4464 -4476 0
-4461 -4485 0
-4462 -4486 0
-4463 -4487 0
-4464 -4488 0
-4461 -4509 0
-4462 -4510 0
-4463 -4511 0
-4464 -4512 0
-4461 -4549 0
-4462 -4550 0
-4463 -4551 0
-4464 -4552 0
-4461 -4865 0
-4462 -4866 0
-4463 -4867 0
-4464 -4868 0
-4461 -4949 0
-4462 -4950 0
-4463 -4951 0
-4464 -4952 0
-4461 -5129 0
-4462 -5130 0
-4463 -5131 0
-4464 -5132 0
-4461 -5365 0
-4462 -5366 0
-4463 -5367 0
-4464 -5368 0
-4461 -5897 0
-4462 -5898 0
-4463 -5899 0
-4464 -5900 0
-4461 -6117 0
-4462 -6118 0
-4463 -6119 0
-4464 -6120 0
-4461 -6205 0
-4462 -6206 0
-4463 -6207 0
-4464 -6208 0
-4465 -4473 0
-4466 -4474 0
-4467 -4475 0
-4468 -4476 0
-4465 -4705 0
-4466 -4706 0
-4467 -4707 0
-4468 -4708 0
-4465 -4953 0
-4466 -4954 0
-4467 -4955 0
-4468 -4956 0
-4465 -5421 0
-4466 -5422 0
-4467 -5423 0
-4468 -5424 0
-4465 -5913 0
-4466 -5914 0
-4467 -5915 0
-4468 -5916 0
-4465 -6109 0
-4466 -6110 0
-4467 -6111 0
-4468 -6112 0
-4469 -4473 0
-4470 -4474 0
-4471 -4475 0
-4472 -4476 0
-4469 -4513 0
-4470 -4514 0
-4471 -4515 0
-4472 -4516 0
-4469 -4709 0
-4470 -4710 0
-4471 -4711 0
-4472 -4712 0
-4469 -4873 0
-4470 -4874 0
-4471 -4875 0
-4472 -4876 0
-4469 -6113 0
-4470 -6114 0
-4471 -6115 0
-4472 -6116 0
-4473 -4513 0
-4474 -4514 0
-4475 -4515 0
-4476 -4516 0
-4473 -4717 0
-4474 -4718 0
-4475 -4719 0
-4476 -4720 0
-4473 -4961 0
-4474 -4962 0
-4475 -4963 0
-4476 -4964 0
-4473 -5925 0
-4474 -5926 0
-4475 -5927 0
-4476 -5928 0
-4473 -6117 0
-4474 -6118 0
-4475 -6119 0
-4476 -6120 0
-4473 -6209 0
-4474 -6210 0
-4475 -6211 0
-4476 -6212 0
-4477 -4485 0
-4478 -4486 0
-4479 -4487 0
-4480 -4488 0
-4477 -5205 0
-4478 -5206 0
-4479 -5207 0
-4480 -5208 0
-4477 -6197 0
-4478 -6198 0
-4479 -6199 0
-4480 -6200 0
-4477 -6401 0
-4478 -6402 0
-4479 -6403 0
-4480 -6404 0
-4481 -4485 0
-4482 -4486 0
-4483 -4487 0
-4484 -4488 0
-4481 -4553 0
-4482 -4554 0
-4483 -4555 0
-4484 -4556 0
-4481 -4577 0
-4482 -4578 0
-4483 -4579 0
-4484 -4580 0
-4481 -4805 0
-4482 -4806 0
-4483 -4807 0
-4484 -4808 0
-4481 -5433 0
-4482 -5434 0
-4483 -5435 0
-4484 -5436 0
-4481 -5929 0
-4482 -5930 0
-4483 -5931 0
-4484 -5932 0
-4481 -6121 0
-4482 -6122 0
-4483 -6123 0
-4484 -6124 0
-4481 -6125 0
-4482 -6126 0
-4483 -6127 0
-4484 -6128 0
-4485 -4753 0
-4486 -4754 0
-4487 -4755 0
-4488 -4756 0
-4485 -4813 0
-4486 -4814 0
-4487 -4815 0
-4488 -4816 0
-4485 -4885 0
-4486 -4886 0
-4487 -4887 0
-4488 -4888 0
-4485 -5093 0
-4486 -5094 0
-4487 -5095 0
-4488 -5096 0
-4485 -6129 0
-4486 -6130 0
-4487 -6131 0
-4488 -6132 0
-4485 -6205 0
-4486 -6206 0
-4487 -6207 0
-4488 -6208 0
-4489 -4493 0
-4490 -4494 0
-4491 -4495 0
-4492 -4496 0
-4489 -4497 0
-4490 -4498 0
-4491 -4499 0
-4492 -4500 0
-4489 -4509 0
-4490 -4510 0
-4491 -4511 0
-4492 -4512 0
-4489 -4517 0
-4490 -4518 0
-4491 -4519 0
-4492 -4520 0
-4489 -4557 0
-4490 -4558 0
-4491 -4559 0
-4492 -4560 0
-4489 -5261 0
-4490 -5262 0
-4491 -5263 0
-4492 -5264 0
-4489 -5553 0
-4490 -5554 0
-4491 -5555 0
-4492 -5556 0
-4489 -6069 0
-4490 -6070 0
-4491 -6071 0
-4492 -6072 0
-4489 -6133 0
-4490 -6134 0
-4491 -6135 0
-4492 -6136 0
-4489 -6221 0
-4490 -6222 0
-4491 -6223 0
-4492 -6224 0
-4489 -6237 0
-4490 -6238 0
-4491 -6239 0
-4492 -6240 0
-4489 -6461 0
-4490 -6462 0
-4491 -6463 0
-4492 -6464 0
-4493 -4505 0
-4494 -4506 0
-4495 -4507 0
-4496 -4508 0
-4493 -4557 0
-4494 -4558 0
-4495 -4559 0
-4496 -4560 0
-4493 -4861 0
-4494 -4862 0
-4495 -4863 0
-4496 -4864 0
-4493 -5137 0
-4494 -5138 0
-4495 -5139 0
-4496 -5140 0
-4493 -5265 0
-4494 -5266 0
-4495 -5267 0
-4496 -5268 0
-4493 -5437 0
-4494 -5438 0
-4495 -5439 0
-4496 -5440 0
-4493 -5449 0
-4494 -5450 0
-4495 -5451 0
-4496 -5452 0
-4493 -6077 0
-4494 -6078 0
-4495 -6079 0
-4496 -6080 0
-4493 -6137 0
-4494 -6138 0
-4495 -6139 0
-4496 -6140 0
-4493 -6477 0
-4494 -6478 0
-4495 -6479 0
-4496 -6480 0
-4497 -4505 0
-4498 -4506 0
-4499 -4507 0
-4500 -4508 0
-4497 -4513 0
-4498 -4514 0
-4499 -4515 0
-4500 -4516 0
-4497 -4521 0
-4498 -4522 0
-4499 -4523 0
-4500 -4524 0
-4497 -4561 0
-4498 -4562 0
-4499 -4563 0
-4500 -4564 0
-4497 -5269 0
-4498 -5270 0
-4499 -5271 0
-4500 -5272 0
-4497 -5353 0
-4498 -5354 0
-4499 -5355 0
-4500 -5356 0
-4497 -6085 0
-4498 -6086 0
-4499 -6087 0
-4500 -6088 0
-4497 -6133 0
-4498 -6134 0
-4499 -6135 0
-4500 -6136 0
-4497 -6229 0
-4498 -6230 0
-4499 -6231 0
-4500 -6232 0
-4497 -6245 0
-4498 -6246 0
-4499 -6247 0
-4500 -6248 0
-4497 -6497 0
-4498 -6498 0
-4499 -6499 0
-4500 -6500 0
-4501 -4505 0
-4502 -4506 0
-4503 -4507 0
-4504 -4508 0
-4501 -4525 0
-4502 -4526 0
-4503 -4527 0
-4504 -4528 0
-4501 -4529 0
-4502 -4530 0
-4503 -4531 0
-4504 -4532 0
-4501 -4825 0
-4502 -4826 0
-4503 -4827 0
-4504 -4828 0
-4501 -4869 0
-4502 -4870 0
-4503 -4871 0
-4504 -4872 0
-4501 -5357 0
-4502 -5358 0
-4503 -5359 0
-4504 -5360 0
-4501 -5457 0
-4502 -5458 0
-4503 -5459 0
-4504 -5460 0
-4501 -5937 0
-4502 -5938 0
-4503 -5939 0
-4504 -5940 0
-4501 -6089 0
-4502 -6090 0
-4503 -6091 0
-4504 -6092 0
-4501 -6233 0
-4502 -6234 0
-4503 -6235 0
-4504 -6236 0
-4505 -4525 0
-4506 -4526 0
-4507 -4527 0
-4508 -4528 0
-4505 -4561 0
-4506 -4562 0
-4507 -4563 0
-4508 -4564 0
-4505 -4873 0
-4506 -4874 0
-4507 -4875 0
-4508 -4876 0
-4505 -5273 0
-4506 -5274 0
-4507 -5275 0
-4508 -5276 0
-4505 -5461 0
-4506 -5462 0
-4507 -5463 0
-4508 -5464 0
-4505 -6093 0
-4506 -6094 0
-4507 -6095 0
-4508 -6096 0
-4505 -6137 0
-4506 -6138 0
-4507 -6139 0
-4508 -6140 0
-4505 -6513 0
-4506 -6514 0
-4507 -6515 0
-4508 -6516 0
-4509 -4513 0
-4510 -4514 0
-4511 -4515 0
-4512 -4516 0
-4509 -4565 0
-4510 -4566 0
-4511 -4567 0
-4512 -4568 0
-4509 -4917 0
-4510 -4918 0
-4511 -4919 0
-4512 -4920 0
-4509 -5565 0
-4510 -5566 0
-4511 -5567 0
-4512 -5568 0
-4509 -5941 0
-4510 -5942 0
-4511 -5943 0
-4512 -5944 0
-4509 -6069 0
-4510 -6070 0
-4511 -6071 0
-4512 -6072 0
-4509 -6141 0
-4510 -6142 0
-4511 -6143 0
-4512 -6144 0
-4509 -6517 0
-4510 -6518 0
-4511 -6519 0
-4512 -6520 0
-4513 -4569 0
-4514 -4570 0
-4515 -4571 0
-4516 -4572 0
-4513 -4785 0
-4514 -4786 0
-4515 -4787 0
-4516 -4788 0
-4513 -5369 0
-4514 -5370 0
-4515 -5371 0
-4516 -5372 0
-4513 -5569 0
-4514 -5570 0
-4515 -5571 0
-4516 -5572 0
-4513 -5945 0
-4514 -5946 0
-4515 -5947 0
-4516 -5948 0
-4513 -6085 0
-4514 -6086 0
-4515 -6087 0
-4516 -6088 0
-4513 -6141 0
-4514 -6142 0
-4515 -6143 0
-4516 -6144 0
-4513 -6521 0
-4514 -6522 0
-4515 -6523 0
-4516 -6524 0
-4517 -4521 0
-4518 -4522 0
-4519 -4523 0
-4520 -4524 0
-4517 -4925 0
-4518 -4926 0
-4519 -4927 0
-4520 -4928 0
-4517 -5377 0
-4518 -5378 0
-4519 -5379 0
-4520 -5380 0
-4517 -5957 0
-4518 -5958 0
-4519 -5959 0
-4520 -5960 0
-4517 -6145 0
-4518 -6146 0
-4519 -6147 0
-4520 -6148 0
-4517 -6273 0
-4518 -6274 0
-4519 -6275 0
-4520 -6276 0
-4517 -6533 0
-4518 -6534 0
-4519 -6535 0
-4520 -6536 0
-4521 -4525 0
-4522 -4526 0
-4523 -4527 0
-4524 -4528 0
-4521 -4593 0
-4522 -4594 0
-4523 -4595 0
-4524 -4596 0
-4521 -5393 0
-4522 -5394 0
-4523 -5395 0
-4524 -5396 0
-4521 -5961 0
-4522 -5962 0
-4523 -5963 0
-4524 -5964 0
-4521 -6145 0
-4522 -6146 0
-4523 -6147 0
-4524 -6148 0
-4521 -6541 0
-4522 -6542 0
-4523 -6543 0
-4524 -6544 0
-4525 -4605 0
-4526 -4606 0
-4527 -4607 0
-4528 -4608 0
-4525 -4901 0
-4526 -4902 0
-4527 -4903 0
-4528 -4904 0
-4525 -5405 0
-4526 -5406 0
-4527 -5407 0
-4528 -5408 0
-4525 -5969 0
-4526 -5970 0
-4527 -5971 0
-4528 -5972 0
-4525 -6101 0
-4526 -6102 0
-4527 -6103 0
-4528 -6104 0
-4529 -4961 0
-4530 -4962 0
-4531 -4963 0
-4532 -4964 0
-4529 -5221 0
-4530 -5222 0
-4531 -5223 0
-4532 -5224 0
-4529 -5473 0
-4530 -5474 0
-4531 -5475 0
-4532 -5476 0
-4529 -6013 0
-4530 -6014 0
-4531 -6015 0
-4532 -6016 0
-4529 -6129 0
-4530 -6130 0
-4531 -6131 0
-4532 -6132 0
-4529 -6309 0
-4530 -6310 0
-4531 -6311 0
-4532 -6312 0
-4533 -4537 0
-4534 -4538 0
-4535 -4539 0
-4536 -4540 0
-4533 -4553 0
-4534 -4554 0
-4535 -4555 0
-4536 -4556 0
-4533 -4613 0
-4534 -4614 0
-4535 -4615 0
-4536 -4616 0
-4533 -4845 0
-4534 -4846 0
-4535 -4847 0
-4536 -4848 0
-4533 -5021 0
-4534 -5022 0
-4535 -5023 0
-4536 -5024 0
-4533 -5161 0
-4534 -5162 0
-4535 -5163 0
-4536 -5164 0
-4533 -5625 0
-4534 -5626 0
-4535 -5627 0
-4536 -5628 0
-4533 -6173 0
-4534 -6174 0
-4535 -6175 0
-4536 -6176 0
-4533 -6185 0
-4534 -6186 0
-4535 -6187 0
-4536 -6188 0
-4537 -5017 0
-4538 -5018 0
-4539 -5019 0
-4540 -5020 0
-4537 -6177 0
-4538 -6178 0
-4539 -6179 0
-4540 -6180 0
-4537 -6189 0
-4538 -6190 0
-4539 -6191 0
-4540 -6192 0
-4541 -4553 0
-4542 -4554 0
-4543 -4555 0
-4544 -4556 0
-4541 -4625 0
-4542 -4626 0
-4543 -4627 0
-4544 -4628 0
-4541 -4989 0
-4542 -4990 0
-4543 -4991 0
-4544 -4992 0
-4541 -5629 0
-4542 -5630 0
-4543 -5631 0
-4544 -5632 0
-4541 -6017 0
-4542 -6018 0
-4543 -6019 0
-4544 -6020 0
-4541 -6213 0
-4542 -6214 0
-4543 -6215 0
-4544 -6216 0
-4545 -4549 0
-4546 -4550 0
-4547 -4551 0
-4548 -4552 0
-4545 -4565 0
-4546 -4566 0
-4547 -4567 0
-4548 -4568 0
-4545 -4693 0
-4546 -4694 0
-4547 -4695 0
-4548 -4696 0
-4545 -5513 0
-4546 -5514 0
-4547 -5515 0
-4548 -5516 0
-4545 -6157 0
-4546 -6158 0
-4547 -6159 0
-4548 -6160 0
-4549 -4565 0
-4550 -4566 0
-4551 -4567 0
-4552 -4568 0
-4549 -4841 0
-4550 -4842 0
-4551 -4843 0
-4552 -4844 0
-4549 -4889 0
-4550 -4890 0
-4551 -4891 0
-4552 -4892 0
-4549 -5517 0
-4550 -5518 0
-4551 -5519 0
-4552 -5520 0
-4549 -5665 0
-4550 -5666 0
-4551 -5667 0
-4552 -5668 0
-4549 -6261 0
-4550 -6262 0
-4551 -6263 0
-4552 -6264 0
-4553 -5013 0
-4554 -5014 0
-4555 -5015 0
-4556 -5016 0
-4553 -5681 0
-4554 -5682 0
-4555 -5683 0
-4556 -5684 0
-4553 -6265 0
-4554 -6266 0
-4555 -6267 0
-4556 -6268 0
-4553 -6277 0
-4554 -6278 0
-4555 -6279 0
-4556 -6280 0
-4557 -4561 0
-4558 -4562 0
-4559 -4563 0
-4560 -4564 0
-4557 -4565 0
-4558 -4566 0
-4559 -4567 0
-4560 -4568 0
-4557 -4921 0
-4558 -4922 0
-4559 -4923 0
-4560 -4924 0
-4557 -5001 0
-4558 -5002 0
-4559 -5003 0
-4560 -5004 0
-4557 -5729 0
-4558 -5730 0
-4559 -5731 0
-4560 -5732 0
-4557 -6177 0
-4558 -6178 0
-4559 -6179 0
-4560 -6180 0
-4557 -6293 0
-4558 -6294 0
-4559 -6295 0
-4560 -6296 0
-4557 -6617 0
-4558 -6618 0
-4559 -6619 0
-4560 -6620 0
-4561 -4569 0
-4562 -4570 0
-4563 -4571 0
-4564 -4572 0
-4561 -4925 0
-4562 -4926 0
-4563 -4927 0
-4564 -4928 0
-4561 -5005 0
-4562 -5006 0
-4563 -5007 0
-4564 -5008 0
-4561 -5505 0
-4562 -5506 0
-4563 -5507 0
-4564 -5508 0
-4561 -6189 0
-4562 -6190 0
-4563 -6191 0
-4564 -6192 0
-4561 -6293 0
-4562 -6294 0
-4563 -6295 0
-4564 -6296 0
-4561 -6297 0
-4562 -6298 0
-4563 -6299 0
-4564 -6300 0
-4561 -6625 0
-4562 -6626 0
-4563 -6627 0
-4564 -6628 0
-4565 -4569 0
-4566 -4570 0
-4567 -4571 0
-4568 -4572 0
-4565 -4929 0
-4566 -4930 0
-4567 -4931 0
-4568 -4932 0
-4565 -5745 0
-4566 -5746 0
-4567 -5747 0
-4568 -5748 0
-4565 -6037 0
-4566 -6038 0
-4567 -6039 0
-4568 -6040 0
-4565 -6177 0
-4566 -6178 0
-4567 -6179 0
-4568 -6180 0
-4565 -6301 0
-4566 -6302 0
-4567 -6303 0
-4568 -6304 0
-4569 -4933 0
-4570 -4934 0
-4571 -4935 0
-4572 -4936 0
-4569 -5285 0
-4570 -5286 0
-4571 -5287 0
-4572 -5288 0
-4569 -5521 0
-4570 -5522 0
-4571 -5523 0
-4572 -5524 0
-4569 -5761 0
-4570 -5762 0
-4571 -5763 0
-4572 -5764 0
-4569 -6049 0
-4570 -6050 0
-4571 -6051 0
-4572 -6052 0
-4569 -6189 0
-4570 -6190 0
-4571 -6191 0
-4572 -6192 0
-4569 -6301 0
-4570 -6302 0
-4571 -6303 0
-4572 -6304 0
-4569 -6305 0
-4570 -6306 0
-4571 -6307 0
-4572 -6308 0
-4573 -4577 0
-4574 -4578 0
-4575 -4579 0
-4576 -4580 0
-4573 -4581 0
-4574 -4582 0
-4575 -4583 0
-4576 -4584 0
-4573 -4673 0
-4574 -4674 0
-4575 -4675 0
-4576 -4676 0
-4573 -4937 0
-4574 -4938 0
-4575 -4939 0
-4576 -4940 0
-4573 -5069 0
-4574 -5070 0
-4575 -5071 0
-4576 -5072 0
-4573 -6069 0
-4574 -6070 0
-4575 -6071 0
-4576 -6072 0
-4573 -6313 0
-4574 -6314 0
-4575 -6315 0
-4576 -6316 0
-4573 -6641 0
-4574 -6642 0
-4575 -6643 0
-4576 -6644 0
-4577 -4585 0
-4578 -4586 0
-4579 -4587 0
-4580 -4588 0
-4577 -4697 0
-4578 -4698 0
-4579 -4699 0
-4580 -4700 0
-4577 -4945 0
-4578 -4946 0
-4579 -4947 0
-4580 -4948 0
-4577 -6077 0
-4578 -6078 0
-4579 -6079 0
-4580 -6080 0
-4577 -6317 0
-4578 -6318 0
-4579 -6319 0
-4580 -6320 0
-4581 -4585 0
-4582 -4586 0
-4583 -4587 0
-4584 -4588 0
-4581 -4701 0
-4582 -4702 0
-4583 -4703 0
-4584 -4704 0
-4581 -4717 0
-4582 -4718 0
-4583 -4719 0
-4584 -4720 0
-4581 -4877 0
-4582 -4878 0
-4583 -4879 0
-4584 -4880 0
-4581 -5073 0
-4582 -5074 0
-4583 -5075 0
-4584 -5076 0
-4581 -5365 0
-4582 -5366 0
-4583 -5367 0
-4584 -5368 0
-4581 -6085 0
-4582 -6086 0
-4583 -6087 0
-4584 -6088 0
-4581 -6313 0
-4582 -6314 0
-4583 -6315 0
-4584 -6316 0
-4581 -6321 0
-4582 -6322 0
-4583 -6323 0
-4584 -6324 0
-4581 -6645 0
-4582 -6646 0
-4583 -6647 0
-4584 -6648 0
-4585 -4717 0
-4586 -4718 0
-4587 -4719 0
-4588 -4720 0
-4585 -4737 0
-4586 -4738 0
-4587 -4739 0
-4588 -4740 0
-4585 -4957 0
-4586 -4958 0
-4587 -4959 0
-4588 -4960 0
-4585 -5301 0
-4586 -5302 0
-4587 -5303 0
-4588 -5304 0
-4585 -5373 0
-4586 -5374 0
-4587 -5375 0
-4588 -5376 0
-4585 -5565 0
-4586 -5566 0
-4587 -5567 0
-4588 -5568 0
-4585 -6093 0
-4586 -6094 0
-4587 -6095 0
-4588 -6096 0
-4585 -6317 0
-4586 -6318 0
-4587 -6319 0
-4588 -6320 0
-4585 -6325 0
-4586 -6326 0
-4587 -6327 0
-4588 -6328 0
-4589 -4597 0
-4590 -4598 0
-4591 -4599 0
-4592 -4600 0
-4589 -4601 0
-4590 -4602 0
-4591 -4603 0
-4592 -4604 0
-4589 -4921 0
-4590 -4922 0
-4591 -4923 0
-4592 -4924 0
-4589 -5309 0
-4590 -5310 0
-4591 -5311 0
-4592 -5312 0
-4589 -5573 0
-4590 -5574 0
-4591 -5575 0
-4592 -5576 0
-4589 -5801 0
-4590 -5802 0
-4591 -5803 0
-4592 -5804 0
-4589 -6333 0
-4590 -6334 0
-4591 -6335 0
-4592 -6336 0
-4589 -6421 0
-4590 -6422 0
-4591 -6423 0
-4592 -6424 0
-4589 -6461 0
-4590 -6462 0
-4591 -6463 0
-4592 -6464 0
-4589 -6685 0
-4590 -6686 0
-4591 -6687 0
-4592 -6688 0
-4593 -4597 0
-4594 -4598 0
-4595 -4599 0
-4596 -4600 0
-4593 -5445 0
-4594 -5446 0
-4595 -5447 0
-4596 -5448 0
-4593 -5537 0
-4594 -5538 0
-4595 -5539 0
-4596 -5540 0
-4593 -6489 0
-4594 -6490 0
-4595 -6491 0
-4596 -6492 0
-4593 -6689 0
-4594 -6690 0
-4595 -6691 0
-4596 -6692 0
-4597 -4605 0
-4598 -4606 0
-4599 -4607 0
-4600 -4608 0
-4597 -4925 0
-4598 -4926 0
-4599 -4927 0
-4600 -4928 0
-4597 -5121 0
-4598 -5122 0
-4599 -5123 0
-4600 -5124 0
-4597 -5313 0
-4598 -5314 0
-4599 -5315 0
-4600 -5316 0
-4597 -6105 0
-4598 -6106 0
-4599 -6107 0
-4600 -6108 0
-4597 -6333 0
-4598 -6334 0
-4599 -6335 0
-4600 -6336 0
-4597 -6425 0
-4598 -6426 0
-4599 -6427 0
-4600 -6428 0
-4597 -6497 0
-4598 -6498 0
-4599 -6499 0
-4600 -6500 0
-4597 -6693 0
-4598 -6694 0
-4599 -6695 0
-4600 -6696 0
-4601 -4605 0
-4602 -4606 0
-4603 -4607 0
-4604 -4608 0
-4601 -4981 0
-4602 -4982 0
-4603 -4983 0
-4604 -4984 0
-4601 -5081 0
-4602 -5082 0
-4603 -5083 0
-4604 -5084 0
-4601 -5321 0
-4602 -5322 0
-4603 -5323 0
-4604 -5324 0
-4601 -5545 0
-4602 -5546 0
-4603 -5547 0
-4604 -5548 0
-4601 -5805 0
-4602 -5806 0
-4603 -5807 0
-4604 -5808 0
-4601 -6337 0
-4602 -6338 0
-4603 -6339 0
-4604 -6340 0
-4601 -6461 0
-4602 -6462 0
-4603 -6463 0
-4604 -6464 0
-4601 -6525 0
-4602 -6526 0
-4603 -6527 0
-4604 -6528 0
-4601 -6701 0
-4602 -6702 0
-4603 -6703 0
-4604 -6704 0
-4605 -5089 0
-4606 -5090 0
-4607 -5091 0
-4608 -5092 0
-4605 -5325 0
-4606 -5326 0
-4607 -5327 0
-4608 -5328 0
-4605 -5465 0
-4606 -5466 0
-4607 -5467 0
-4608 -5468 0
-4605 -5557 0
-4606 -5558 0
-4607 -5559 0
-4608 -5560 0
-4605 -6337 0
-4606 -6338 0
-4607 -6339 0
-4608 -6340 0
-4605 -6497 0
-4606 -6498 0
-4607 -6499 0
-4608 -6500 0
-4605 -6529 0
-4606 -6530 0
-4607 -6531 0
-4608 -6532 0
-4609 -4613 0
-4610 -4614 0
-4611 -4615 0
-4612 -4616 0
-4609 -4617 0
-4610 -4618 0
-4611 -4619 0
-4612 -4620 0
-4609 -4677 0
-4610 -4678 0
-4611 -4679 0
-4612 -4680 0
-4609 -4997 0
-4610 -4998 0
-4611 -4999 0
-4612 -5000 0
-4609 -6357 0
-4610 -6358 0
-4611 -6359 0
-4612 -6360 0
-4613 -4621 0
-4614 -4622 0
-4615 -4623 0
-4616 -4624 0
-4613 -4693 0
-4614 -4694 0
-4615 -4695 0
-4616 -4696 0
-4613 -5001 0
-4614 -5002 0
-4615 -5003 0
-4616 -5004 0
-4613 -5309 0
-4614 -5310 0
-4615 -5311 0
-4616 -5312 0
-4613 -5625 0
-4614 -5626 0
-4615 -5627 0
-4616 -5628 0
-4613 -6365 0
-4614 -6366 0
-4615 -6367 0
-4616 -6368 0
-4617 -4621 0
-4618 -4622 0
-4619 -4623 0
-4620 -4624 0
-4617 -4705 0
-4618 -4706 0
-4619 -4707 0
-4620 -4708 0
-4617 -4717 0
-4618 -4718 0
-4619 -4719 0
-4620 -4720 0
-4617 -6149 0
-4618 -6150 0
-4619 -6151 0
-4620 -6152 0
-4617 -6357 0
-4618 -6358 0
-4619 -6359 0
-4620 -6360 0
-4617 -6369 0
-4618 -6370 0
-4619 -6371 0
-4620 -6372 0
-4621 -4717 0
-4622 -4718 0
-4623 -4719 0
-4624 -4720 0
-4621 -4729 0
-4622 -4730 0
-4623 -4731 0
-4624 -4732 0
-4621 -5005 0
-4622 -5006 0
-4623 -5007 0
-4624 -5008 0
-4621 -5313 0
-4622 -5314 0
-4623 -5315 0
-4624 -5316 0
-4621 -6365 0
-4622 -6366 0
-4623 -6367 0
-4624 -6368 0
-4621 -6373 0
-4622 -6374 0
-4623 -6375 0
-4624 -6376 0
-4625 -4629 0
-4626 -4630 0
-4627 -4631 0
-4628 -4632 0
-4625 -4633 0
-4626 -4634 0
-4627 -4635 0
-4628 -4636 0
-4625 -4681 0
-4626 -4682 0
-4627 -4683 0
-4628 -4684 0
-4625 -5629 0
-4626 -5630 0
-4627 -5631 0
-4628 -5632 0
-4625 -6157 0
-4626 -6158 0
-4627 -6159 0
-4628 -6160 0
-4625 -6385 0
-4626 -6386 0
-4627 -6387 0
-4628 -6388 0
-4629 -4637 0
-4630 -4638 0
-4631 -4639 0
-4632 -4640 0
-4629 -4689 0
-4630 -4690 0
-4631 -4691 0
-4632 -4692 0
-4629 -5637 0
-4630 -5638 0
-4631 -5639 0
-4632 -5640 0
-4629 -5809 0
-4630 -5810 0
-4631 -5811 0
-4632 -5812 0
-4629 -6389 0
-4630 -6390 0
-4631 -6391 0
-4632 -6392 0
-4633 -4637 0
-4634 -4638 0
-4635 -4639 0
-4636 -4640 0
-4633 -4709 0
-4634 -4710 0
-4635 -4711 0
-4636 -4712 0
-4633 -4717 0
-4634 -4718 0
-4635 -4719 0
-4636 -4720 0
-4633 -5493 0
-4634 -5494 0
-4635 -5495 0
-4636 -5496 0
-4633 -5645 0
-4634 -5646 0
-4635 -5647 0
-4636 -5648 0
-4633 -6165 0
-4634 -6166 0
-4635 -6167 0
-4636 -6168 0
-4633 -6385 0
-4634 -6386 0
-4635 -6387 0
-4636 -6388 0
-4633 -6393 0
-4634 -6394 0
-4635 -6395 0
-4636 -6396 0
-4637 -4717 0
-4638 -4718 0
-4639 -4719 0
-4640 -4720 0
-4637 -4725 0
-4638 -4726 0
-4639 -4727 0
-4640 -4728 0
-4637 -4989 0
-4638 -4990 0
-4639 -4991 0
-4640 -4992 0
-4637 -5649 0
-4638 -5650 0
-4639 -5651 0
-4640 -5652 0
-4637 -5657 0
-4638 -5658 0
-4639 -5659 0
-4640 -5660 0
-4637 -5813 0
-4638 -5814 0
-4639 -5815 0
-4640 -5816 0
-4637 -6389 0
-4638 -6390 0
-4639 -6391 0
-4640 -6392 0
-4637 -6397 0
-4638 -6398 0
-4639 -6399 0
-4640 -6400 0
-4641 -4645 0
-4642 -4646 0
-4643 -4647 0
-4644 -4648 0
-4641 -4649 0
-4642 -4650 0
-4643 -4651 0
-4644 -4652 0
-4641 -5025 0
-4642 -5026 0
-4643 -5027 0
-4644 -5028 0
-4641 -5337 0
-4642 -5338 0
-4643 -5339 0
-4644 -5340 0
-4641 -5817 0
-4642 -5818 0
-4643 -5819 0
-4644 -5820 0
-4641 -6405 0
-4642 -6406 0
-4643 -6407 0
-4644 -6408 0
-4645 -4653 0
-4646 -4654 0
-4647 -4655 0
-4648 -4656 0
-4645 -4685 0
-4646 -4686 0
-4647 -4687 0
-4648 -4688 0
-4645 -6409 0
-4646 -6410 0
-4647 -6411 0
-4648 -6412 0
-4645 -6749 0
-4646 -6750 0
-4647 -6751 0
-4648 -6752 0
-4649 -4653 0
-4650 -4654 0
-4651 -4655 0
-4652 -4656 0
-4649 -4713 0
-4650 -4714 0
-4651 -4715 0
-4652 -4716 0
-4649 -4717 0
-4650 -4718 0
-4651 -4719 0
-4652 -4720 0
-4649 -5029 0
-4650 -5030 0
-4651 -5031 0
-4652 -5032 0
-4649 -5349 0
-4650 -5350 0
-4651 -5351 0
-4652 -5352 0
-4649 -5689 0
-4650 -5690 0
-4651 -5691 0
-4652 -5692 0
-4649 -6405 0
-4650 -6406 0
-4651 -6407 0
-4652 -6408 0
-4649 -6413 0
-4650 -6414 0
-4651 -6415 0
-4652 -6416 0
-4653 -4717 0
-4654 -4718 0
-4655 -4719 0
-4656 -4720 0
-4653 -4721 0
-4654 -4722 0
-4655 -4723 0
-4656 -4724 0
-4653 -5069 0
-4654 -5070 0
-4655 -5071 0
-4656 -5072 0
-4653 -5353 0
-4654 -5354 0
-4655 -5355 0
-4656 -5356 0
-4653 -5693 0
-4654 -5694 0
-4655 -5695 0
-4656 -5696 0
-4653 -6409 0
-4654 -6410 0
-4655 -6411 0
-4656 -6412 0
-4653 -6417 0
-4654 -6418 0
-4655 -6419 0
-4656 -6420 0
-4653 -6753 0
-4654 -6754 0
-4655 -6755 0
-4656 -6756 0
-4657 -4661 0
-4658 -4662 0
-4659 -4663 0
-4660 -4664 0
-4657 -5177 0
-4658 -5178 0
-4659 -5179 0
-4660 -5180 0
-4657 -5821 0
-4658 -5822 0
-4659 -5823 0
-4660 -5824 0
-4657 -6421 0
-4658 -6422 0
-4659 -6423 0
-4660 -6424 0
-4657 -6593 0
-4658 -6594 0
-4659 -6595 0
-4660 -6596 0
-4661 -4717 0
-4662 -4718 0
-4663 -4719 0
-4664 -4720 0
-4661 -4777 0
-4662 -4778 0
-4663 -4779 0
-4664 -4780 0
-4661 -4997 0
-4662 -4998 0
-4663 -4999 0
-4664 -5000 0
-4661 -5181 0
-4662 -5182 0
-4663 -5183 0
-4664 -5184 0
-4661 -5369 0
-4662 -5370 0
-4663 -5371 0
-4664 -5372 0
-4661 -5825 0
-4662 -5826 0
-4663 -5827 0
-4664 -5828 0
-4661 -6421 0
-4662 -6422 0
-4663 -6423 0
-4664 -6424 0
-4661 -6425 0
-4662 -6426 0
-4663 -6427 0
-4664 -6428 0
-4661 -6597 0
-4662 -6598 0
-4663 -6599 0
-4664 -6600 0
-4665 -4669 0
-4666 -4670 0
-4667 -4671 0
-4668 -4672 0
-4665 -5189 0
-4666 -5190 0
-4667 -5191 0
-4668 -5192 0
-4665 -6341 0
-4666 -6342 0
-4667 -6343 0
-4668 -6344 0
-4665 -6429 0
-4666 -6430 0
-4667 -6431 0
-4668 -6432 0
-4665 -6757 0
-4666 -6758 0
-4667 -6759 0
-4668 -6760 0
-4669 -4717 0
-4670 -4718 0
-4671 -4719 0
-4672 -4720 0
-4669 -5501 0
-4670 -5502 0
-4671 -5503 0
-4672 -5504 0
-4669 -5721 0
-4670 -5722 0
-4671 -5723 0
-4672 -5724 0
-4669 -6345 0
-4670 -6346 0
-4671 -6347 0
-4672 -6348 0
-4669 -6429 0
-4670 -6430 0
-4671 -6431 0
-4672 -6432 0
-4669 -6433 0
-4670 -6434 0
-4671 -6435 0
-4672 -6436 0
-4669 -6761 0
-4670 -6762 0
-4671 -6763 0
-4672 -6764 0
-4673 -4701 0
-4674 -4702 0
-4675 -4703 0
-4676 -4704 0
-4673 -4837 0
-4674 -4838 0
-4675 -4839 0
-4676 -4840 0
-4673 -5133 0
-4674 -5134 0
-4675 -5135 0
-4676 -5136 0
-4673 -5829 0
-4674 -5830 0
-4675 -5831 0
-4676 -5832 0
-4673 -6441 0
-4674 -6442 0
-4675 -6443 0
-4676 -6444 0
-4673 -6765 0
-4674 -6766 0
-4675 -6767 0
-4676 -6768 0
-4677 -4705 0
-4678 -4706 0
-4679 -4707 0
-4680 -4708 0
-4677 -4797 0
-4678 -4798 0
-4679 -4799 0
-4680 -4800 0
-4677 -5125 0
-4678 -5126 0
-4679 -5127 0
-4680 -5128 0
-4677 -6449 0
-4678 -6450 0
-4679 -6451 0
-4680 -6452 0
-4681 -4709 0
-4682 -4710 0
-4683 -4711 0
-4684 -4712 0
-4681 -5137 0
-4682 -5138 0
-4683 -5139 0
-4684 -5140 0
-4681 -6453 0
-4682 -6454 0
-4683 -6455 0
-4684 -6456 0
-4685 -4721 0
-4686 -4722 0
-4687 -4723 0
-4688 -4724 0
-4685 -4765 0
-4686 -4766 0
-4687 -4767 0
-4688 -4768 0
-4685 -5201 0
-4686 -5202 0
-4687 -5203 0
-4688 -5204 0
-4685 -5685 0
-4686 -5686 0
-4687 -5687 0
-4688 -5688 0
-4685 -6465 0
-4686 -6466 0
-4687 -6467 0
-4688 -6468 0
-4689 -4725 0
-4690 -4726 0
-4691 -4727 0
-4692 -4728 0
-4689 -4781 0
-4690 -4782 0
-4691 -4783 0
-4692 -4784 0
-4689 -5205 0
-4690 -5206 0
-4691 -5207 0
-4692 -5208 0
-4689 -5849 0
-4690 -5850 0
-4691 -5851 0
-4692 -5852 0
-4689 -6469 0
-4690 -6470 0
-4691 -6471 0
-4692 -6472 0
-4693 -4729 0
-4694 -4730 0
-4695 -4731 0
-4696 -4732 0
-4693 -4801 0
-4694 -4802 0
-4695 -4803 0
-4696 -4804 0
-4693 -5381 0
-4694 -5382 0
-4695 -5383 0
-4696 -5384 0
-4693 -5689 0
-4694 -5690 0
-4695 -5691 0
-4696 -5692 0
-4693 -6473 0
-4694 -6474 0
-4695 -6475 0
-4696 -6476 0
-4697 -4737 0
-4698 -4738 0
-4699 -4739 0
-4700 -4740 0
-4697 -4841 0
-4698 -4842 0
-4699 -4843 0
-4700 -4844 0
-4697 -5385 0
-4698 -5386 0
-4699 -5387 0
-4700 -5388 0
-4697 -5697 0
-4698 -5698 0
-4699 -5699 0
-4700 -5700 0
-4697 -6477 0
-4698 -6478 0
-4699 -6479 0
-4700 -6480 0
-4701 -4717 0
-4702 -4718 0
-4703 -4719 0
-4704 -4720 0
-4701 -4845 0
-4702 -4846 0
-4703 -4847 0
-4704 -4848 0
-4701 -5837 0
-4702 -5838 0
-4703 -5839 0
-4704 -5840 0
-4701 -6441 0
-4702 -6442 0
-4703 -6443 0
-4704 -6444 0
-4701 -6481 0
-4702 -6482 0
-4703 -6483 0
-4704 -6484 0
-4701 -6777 0
-4702 -6778 0
-4703 -6779 0
-4704 -6780 0
-4705 -4717 0
-4706 -4718 0
-4707 -4719 0
-4708 -4720 0
-4705 -4805 0
-4706 -4806 0
-4707 -4807 0
-4708 -4808 0
-4705 -4853 0
-4706 -4854 0
-4707 -4855 0
-4708 -4856 0
-4705 -5213 0
-4706 -5214 0
-4707 -5215 0
-4708 -5216 0
-4705 -5733 0
-4706 -5734 0
-4707 -5735 0
-4708 -5736 0
-4705 -6181 0
-4706 -6182 0
-4707 -6183 0
-4708 -6184 0
-4705 -6449 0
-4706 -6450 0
-4707 -6451 0
-4708 -6452 0
-4705 -6485 0
-4706 -6486 0
-4707 -6487 0
-4708 -6488 0
-4709 -4717 0
-4710 -4718 0
-4711 -4719 0
-4712 -4720 0
-4709 -4785 0
-4710 -4786 0
-4711 -4787 0
-4712 -4788 0
-4709 -5513 0
-4710 -5514 0
-4711 -5515 0
-4712 -5516 0
-4709 -5633 0
-4710 -5634 0
-4711 -5635 0
-4712 -5636 0
-4709 -6453 0
-4710 -6454 0
-4711 -6455 0
-4712 -6456 0
-4709 -6489 0
-4710 -6490 0
-4711 -6491 0
-4712 -6492 0
-4713 -4717 0
-4714 -4718 0
-4715 -4719 0
-4716 -4720 0
-4713 -4733 0
-4714 -4734 0
-4715 -4735 0
-4716 -4736 0
-4713 -4769 0
-4714 -4770 0
-4715 -4771 0
-4716 -4772 0
-4713 -4809 0
-4714 -4810 0
-4715 -4811 0
-4716 -4812 0
-4713 -4857 0
-4714 -4858 0
-4715 -4859 0
-4716 -4860 0
-4713 -5045 0
-4714 -5046 0
-4715 -5047 0
-4716 -5048 0
-4713 -5237 0
-4714 -5238 0
-4715 -5239 0
-4716 -5240 0
-4713 -5637 0
-4714 -5638 0
-4715 -5639 0
-4716 -5640 0
-4713 -6185 0
-4714 -6186 0
-4715 -6187 0
-4716 -6188 0
-4713 -6457 0
-4714 -6458 0
-4715 -6459 0
-4716 -6460 0
-4713 -6493 0
-4714 -6494 0
-4715 -6495 0
-4716 -6496 0
-4717 -4721 0
-4718 -4722 0
-4719 -4723 0
-4720 -4724 0
-4717 -4725 0
-4718 -4726 0
-4719 -4727 0
-4720 -4728 0
-4717 -4729 0
-4718 -4730 0
-4719 -4731 0
-4720 -4732 0
-4717 -4737 0
-4718 -4738 0
-4719 -4739 0
-4720 -4740 0
-4717 -4741 0
-4718 -4742 0
-4719 -4743 0
-4720 -4744 0
-4717 -4749 0
-4718 -4750 0
-4719 -4751 0
-4720 -4752 0
-4717 -4757 0
-4718 -4758 0
-4719 -4759 0
-4720 -4760 0
-4717 -4769 0
-4718 -4770 0
-4719 -4771 0
-4720 -4772 0
-4717 -4773 0
-4718 -4774 0
-4719 -4775 0
-4720 -4776 0
-4717 -4785 0
-4718 -4786 0
-4719 -4787 0
-4720 -4788 0
-4717 -4789 0
-4718 -4790 0
-4719 -4791 0
-4720 -4792 0
-4717 -4805 0
-4718 -4806 0
-4719 -4807 0
-4720 -4808 0
-4717 -4813 0
-4718 -4814 0
-4719 -4815 0
-4720 -4816 0
-4717 -4845 0
-4718 -4846 0
-4719 -4847 0
-4720 -4848 0
-4717 -4849 0
-4718 -4850 0
-4719 -4851 0
-4720 -4852 0
-4717 -4861 0
-4718 -4862 0
-4719 -4863 0
-4720 -4864 0
-4717 -5009 0
-4718 -5010 0
-4719 -5011 0
-4720 -5012 0
-4717 -5049 0
-4718 -5050 0
-4719 -5051 0
-4720 -5052 0
-4717 -5077 0
-4718 -5078 0
-4719 -5079 0
-4720 -5080 0
-4717 -5145 0
-4718 -5146 0
-4719 -5147 0
-4720 -5148 0
-4717 -5221 0
-4718 -5222 0
-4719 -5223 0
-4720 -5224 0
-4717 -5393 0
-4718 -5394 0
-4719 -5395 0
-4720 -5396 0
-4717 -5517 0
-4718 -5518 0
-4719 -5519 0
-4720 -5520 0
-4717 -5641 0
-4718 -5642 0
-4719 -5643 0
-4720 -5644 0
-4717 -5705 0
-4718 -5706 0
-4719 -5707 0
-4720 -5708 0
-4717 -5737 0
-4718 -5738 0
-4719 -5739 0
-4720 -5740 0
-4717 -5841 0
-4718 -5842 0
-4719 -5843 0
-4720 -5844 0
-4717 -5853 0
-4718 -5854 0
-4719 -5855 0
-4720 -5856 0
-4717 -6189 0
-4718 -6190 0
-4719 -6191 0
-4720 -6192 0
-4717 -6197 0
-4718 -6198 0
-4719 -6199 0
-4720 -6200 0
-4717 -6345 0
-4718 -6346 0
-4719 -6347 0
-4720 -6348 0
-4717 -6353 0
-4718 -6354 0
-4719 -6355 0
-4720 -6356 0
-4717 -6461 0
-4718 -6462 0
-4719 -6463 0
-4720 -6464 0
-4717 -6497 0
-4718 -6498 0
-4719 -6499 0
-4720 -6500 0
-4717 -6597 0
-4718 -6598 0
-4719 -6599 0
-4720 -6600 0
-4717 -6605 0
-4718 -6606 0
-4719 -6607 0
-4720 -6608 0
-4717 -6781 0
-4718 -6782 0
-4719 -6783 0
-4720 -6784 0
-4721 -4773 0
-4722 -4774 0
-4723 -4775 0
-4724 -4776 0
-4721 -5225 0
-4722 -5226 0
-4723 -5227 0
-4724 -5228 0
-4721 -5521 0
-4722 -5522 0
-4723 -5523 0
-4724 -5524 0
-4721 -6465 0
-4722 -6466 0
-4723 -6467 0
-4724 -6468 0
-4721 -6501 0
-4722 -6502 0
-4723 -6503 0
-4724 -6504 0
-4725 -4789 0
-4726 -4790 0
-4727 -4791 0
-4728 -4792 0
-4725 -4865 0
-4726 -4866 0
-4727 -4867 0
-4728 -4868 0
-4725 -5013 0
-4726 -5014 0
-4727 -5015 0
-4728 -5016 0
-4725 -5229 0
-4726 -5230 0
-4727 -5231 0
-4728 -5232 0
-4725 -5857 0
-4726 -5858 0
-4727 -5859 0
-4728 -5860 0
-4725 -6469 0
-4726 -6470 0
-4727 -6471 0
-4728 -6472 0
-4725 -6505 0
-4726 -6506 0
-4727 -6507 0
-4728 -6508 0
-4729 -4813 0
-4730 -4814 0
-4731 -4815 0
-4732 -4816 0
-4729 -5017 0
-4730 -5018 0
-4731 -5019 0
-4732 -5020 0
-4729 -5081 0
-4730 -5082 0
-4731 -5083 0
-4732 -5084 0
-4729 -5397 0
-4730 -5398 0
-4731 -5399 0
-4732 -5400 0
-4729 -5709 0
-4730 -5710 0
-4731 -5711 0
-4732 -5712 0
-4729 -5861 0
-4730 -5862 0
-4731 -5863 0
-4732 -5864 0
-4729 -6473 0
-4730 -6474 0
-4731 -6475 0
-4732 -6476 0
-4729 -6509 0
-4730 -6510 0
-4731 -6511 0
-4732 -6512 0
-4733 -4737 0
-4734 -4738 0
-4735 -4739 0
-4736 -4740 0
-4733 -5053 0
-4734 -5054 0
-4735 -5055 0
-4736 -5056 0
-4733 -5401 0
-4734 -5402 0
-4735 -5403 0
-4736 -5404 0
-4733 -5741 0
-4734 -5742 0
-4735 -5743 0
-4736 -5744 0
-4733 -6193 0
-4734 -6194 0
-4735 -6195 0
-4736 -6196 0
-4737 -4849 0
-4738 -4850 0
-4739 -4851 0
-4740 -4852 0
-4737 -4885 0
-4738 -4886 0
-4739 -4887 0
-4740 -4888 0
-4737 -5405 0
-4738 -5406 0
-4739 -5407 0
-4740 -5408 0
-4737 -5713 0
-4738 -5714 0
-4739 -5715 0
-4740 -5716 0
-4737 -5745 0
-4738 -5746 0
-4739 -5747 0
-4740 -5748 0
-4737 -6477 0
-4738 -6478 0
-4739 -6479 0
-4740 -6480 0
-4737 -6513 0
-4738 -6514 0
-4739 -6515 0
-4740 -6516 0
-4741 -4873 0
-4742 -4874 0
-4743 -4875 0
-4744 -4876 0
-4741 -5085 0
-4742 -5086 0
-4743 -5087 0
-4744 -5088 0
-4741 -5529 0
-4742 -5530 0
-4743 -5531 0
-4744 -5532 0
-4741 -5753 0
-4742 -5754 0
-4743 -5755 0
-4744 -5756 0
-4741 -6201 0
-4742 -6202 0
-4743 -6203 0
-4744 -6204 0
-4741 -6497 0
-4742 -6498 0
-4743 -6499 0
-4744 -6500 0
-4745 -4749 0
-4746 -4750 0
-4747 -4751 0
-4748 -4752 0
-4745 -5153 0
-4746 -5154 0
-4747 -5155 0
-4748 -5156 0
-4745 -5417 0
-4746 -5418 0
-4747 -5419 0
-4748 -5420 0
-4745 -6349 0
-4746 -6350 0
-4747 -6351 0
-4748 -6352 0
-4745 -6517 0
-4746 -6518 0
-4747 -6519 0
-4748 -6520 0
-4749 -5021 0
-4750 -5022 0
-4751 -5023 0
-4752 -5024 0
-4749 -5157 0
-4750 -5158 0
-4751 -5159 0
-4752 -5160 0
-4749 -5241 0
-4750 -5242 0
-4751 -5243 0
-4752 -5244 0
-4749 -5421 0
-4750 -5422 0
-4751 -5423 0
-4752 -5424 0
-4749 -6205 0
-4750 -6206 0
-4751 -6207 0
-4752 -6208 0
-4749 -6353 0
-4750 -6354 0
-4751 -6355 0
-4752 -6356 0
-4749 -6517 0
-4750 -6518 0
-4751 -6519 0
-4752 -6520 0
-4749 -6521 0
-4750 -6522 0
-4751 -6523 0
-4752 -6524 0
-4753 -4757 0
-4754 -4758 0
-4755 -4759 0
-4756 -4760 0
-4753 -5057 0
-4754 -5058 0
-4755 -5059 0
-4756 -5060 0
-4753 -5425 0
-4754 -5426 0
-4755 -5427 0
-4756 -5428 0
-4753 -6525 0
-4754 -6526 0
-4755 -6527 0
-4756 -6528 0
-4753 -6601 0
-4754 -6602 0
-4755 -6603 0
-4756 -6604 0
-4757 -4881 0
-4758 -4882 0
-4759 -4883 0
-4760 -4884 0
-4757 -5061 0
-4758 -5062 0
-4759 -5063 0
-4760 -5064 0
-4757 -5429 0
-4758 -5430 0
-4759 -5431 0
-4760 -5432 0
-4757 -6525 0
-4758 -6526 0
-4759 -6527 0
-4760 -6528 0
-4757 -6529 0
-4758 -6530 0
-4759 -6531 0
-4760 -6532 0
-4757 -6605 0
-4758 -6606 0
-4759 -6607 0
-4760 -6608 0
-4761 -4765 0
-4762 -4766 0
-4763 -4767 0
-4764 -4768 0
-4761 -4769 0
-4762 -4770 0
-4763 -4771 0
-4764 -4772 0
-4761 -5165 0
-4762 -5166 0
-4763 -5167 0
-4764 -5168 0
-4761 -5433 0
-4762 -5434 0
-4763 -5435 0
-4764 -5436 0
-4761 -5877 0
-4762 -5878 0
-4763 -5879 0
-4764 -5880 0
-4761 -6533 0
-4762 -6534 0
-4763 -6535 0
-4764 -6536 0
-4765 -4773 0
-4766 -4774 0
-4767 -4775 0
-4768 -4776 0
-4765 -5245 0
-4766 -5246 0
-4767 -5247 0
-4768 -5248 0
-4765 -5733 0
-4766 -5734 0
-4767 -5735 0
-4768 -5736 0
-4765 -5881 0
-4766 -5882 0
-4767 -5883 0
-4768 -5884 0
-4765 -6537 0
-4766 -6538 0
-4767 -6539 0
-4768 -6540 0
-4769 -4773 0
-4770 -4774 0
-4771 -4775 0
-4772 -4776 0
-4769 -4893 0
-4770 -4894 0
-4771 -4895 0
-4772 -4896 0
-4769 -5169 0
-4770 -5170 0
-4771 -5171 0
-4772 -5172 0
-4769 -5653 0
-4770 -5654 0
-4771 -5655 0
-4772 -5656 0
-4769 -5901 0
-4770 -5902 0
-4771 -5903 0
-4772 -5904 0
-4769 -6213 0
-4770 -6214 0
-4771 -6215 0
-4772 -6216 0
-4769 -6533 0
-4770 -6534 0
-4771 -6535 0
-4772 -6536 0
-4769 -6541 0
-4770 -6542 0
-4771 -6543 0
-4772 -6544 0
-4773 -5253 0
-4774 -5254 0
-4775 -5255 0
-4776 -5256 0
-4773 -5749 0
-4774 -5750 0
-4775 -5751 0
-4776 -5752 0
-4773 -5905 0
-4774 -5906 0
-4775 -5907 0
-4776 -5908 0
-4773 -6217 0
-4774 -6218 0
-4775 -6219 0
-4776 -6220 0
-4773 -6537 0
-4774 -6538 0
-4775 -6539 0
-4776 -6540 0
-4773 -6545 0
-4774 -6546 0
-4775 -6547 0
-4776 -6548 0
-4777 -4785 0
-4778 -4786 0
-4779 -4787 0
-4780 -4788 0
-4777 -5905 0
-4778 -5906 0
-4779 -5907 0
-4780 -5908 0
-4777 -6221 0
-4778 -6222 0
-4779 -6223 0
-4780 -6224 0
-4777 -6793 0
-4778 -6794 0
-4779 -6795 0
-4780 -6796 0
-4781 -4789 0
-4782 -4790 0
-4783 -4791 0
-4784 -4792 0
-4781 -5149 0
-4782 -5150 0
-4783 -5151 0
-4784 -5152 0
-4781 -5277 0
-4782 -5278 0
-4783 -5279 0
-4784 -5280 0
-4781 -5929 0
-4782 -5930 0
-4783 -5931 0
-4784 -5932 0
-4781 -6553 0
-4782 -6554 0
-4783 -6555 0
-4784 -6556 0
-4785 -4789 0
-4786 -4790 0
-4787 -4791 0
-4788 -4792 0
-4785 -5685 0
-4786 -5686 0
-4787 -5687 0
-4788 -5688 0
-4785 -6237 0
-4786 -6238 0
-4787 -6239 0
-4788 -6240 0
-4785 -6377 0
-4786 -6378 0
-4787 -6379 0
-4788 -6380 0
-4785 -6549 0
-4786 -6550 0
-4787 -6551 0
-4788 -6552 0
-4785 -6557 0
-4786 -6558 0
-4787 -6559 0
-4788 -6560 0
-4785 -6825 0
-4786 -6826 0
-4787 -6827 0
-4788 -6828 0
-4789 -4917 0
-4790 -4918 0
-4791 -4919 0
-4792 -4920 0
-4789 -5281 0
-4790 -5282 0
-4791 -5283 0
-4792 -5284 0
-4789 -5933 0
-4790 -5934 0
-4791 -5935 0
-4792 -5936 0
-4789 -6241 0
-4790 -6242 0
-4791 -6243 0
-4792 -6244 0
-4789 -6553 0
-4790 -6554 0
-4791 -6555 0
-4792 -6556 0
-4789 -6561 0
-4790 -6562 0
-4791 -6563 0
-4792 -6564 0
-4793 -4829 0
-4794 -4830 0
-4795 -4831 0
-4796 -4832 0
-4793 -5041 0
-4794 -5042 0
-4795 -5043 0
-4796 -5044 0
-4793 -5493 0
-4794 -5494 0
-4795 -5495 0
-4796 -5496 0
-4793 -6261 0
-4794 -6262 0
-4795 -6263 0
-4796 -6264 0
-4793 -6389 0
-4794 -6390 0
-4795 -6391 0
-4796 -6392 0
-4797 -4801 0
-4798 -4802 0
-4799 -4803 0
-4800 -4804 0
-4797 -4805 0
-4798 -4806 0
-4799 -4807 0
-4800 -4808 0
-4797 -5173 0
-4798 -5174 0
-4799 -5175 0
-4800 -5176 0
-4797 -5193 0
-4798 -5194 0
-4799 -5195 0
-4800 -5196 0
-4797 -6269 0
-4798 -6270 0
-4799 -6271 0
-4800 -6272 0
-4797 -6569 0
-4798 -6570 0
-4799 -6571 0
-4800 -6572 0
-4801 -4813 0
-4802 -4814 0
-4803 -4815 0
-4804 -4816 0
-4801 -5209 0
-4802 -5210 0
-4803 -5211 0
-4804 -5212 0
-4801 -5941 0
-4802 -5942 0
-4803 -5943 0
-4804 -5944 0
-4801 -6573 0
-4802 -6574 0
-4803 -6575 0
-4804 -6576 0
-4805 -4813 0
-4806 -4814 0
-4807 -4815 0
-4808 -4816 0
-4805 -4945 0
-4806 -4946 0
-4807 -4947 0
-4808 -4948 0
-4805 -5217 0
-4806 -5218 0
-4807 -5219 0
-4808 -5220 0
-4805 -6281 0
-4806 -6282 0
-4807 -6283 0
-4808 -6284 0
-4805 -6569 0
-4806 -6570 0
-4807 -6571 0
-4808 -6572 0
-4805 -6577 0
-4806 -6578 0
-4807 -6579 0
-4808 -6580 0
-4809 -4813 0
-4810 -4814 0
-4811 -4815 0
-4812 -4816 0
-4809 -4949 0
-4810 -4950 0
-4811 -4951 0
-4812 -4952 0
-4809 -5229 0
-4810 -5230 0
-4811 -5231 0
-4812 -5232 0
-4809 -6285 0
-4810 -6286 0
-4811 -6287 0
-4812 -6288 0
-4813 -5057 0
-4814 -5058 0
-4815 -5059 0
-4816 -5060 0
-4813 -5093 0
-4814 -5094 0
-4815 -5095 0
-4816 -5096 0
-4813 -5233 0
-4814 -5234 0
-4815 -5235 0
-4816 -5236 0
-4813 -5945 0
-4814 -5946 0
-4815 -5947 0
-4816 -5948 0
-4813 -6573 0
-4814 -6574 0
-4815 -6575 0
-4816 -6576 0
-4813 -6581 0
-4814 -6582 0
-4815 -6583 0
-4816 -6584 0
-4817 -4821 0
-4818 -4822 0
-4819 -4823 0
-4820 -4824 0
-4817 -4825 0
-4818 -4826 0
-4819 -4827 0
-4820 -4828 0
-4817 -4829 0
-4818 -4830 0
-4819 -4831 0
-4820 -4832 0
-4817 -5181 0
-4818 -5182 0
-4819 -5183 0
-4820 -5184 0
-4817 -5485 0
-4818 -5486 0
-4819 -5487 0
-4820 -5488 0
-4817 -5969 0
-4818 -5970 0
-4819 -5971 0
-4820 -5972 0
-4817 -6293 0
-4818 -6294 0
-4819 -6295 0
-4820 -6296 0
-4817 -6429 0
-4818 -6430 0
-4819 -6431 0
-4820 -6432 0
-4817 -6461 0
-4818 -6462 0
-4819 -6463 0
-4820 -6464 0
-4817 -6585 0
-4818 -6586 0
-4819 -6587 0
-4820 -6588 0
-4817 -6841 0
-4818 -6842 0
-4819 -6843 0
-4820 -6844 0
-4821 -5185 0
-4822 -5186 0
-4823 -5187 0
-4824 -5188 0
-4821 -5501 0
-4822 -5502 0
-4823 -5503 0
-4824 -5504 0
-4821 -5785 0
-4822 -5786 0
-4823 -5787 0
-4824 -5788 0
-4821 -5973 0
-4822 -5974 0
-4823 -5975 0
-4824 -5976 0
-4821 -6469 0
-4822 -6470 0
-4823 -6471 0
-4824 -6472 0
-4825 -4833 0
-4826 -4834 0
-4827 -4835 0
-4828 -4836 0
-4825 -5765 0
-4826 -5766 0
-4827 -5767 0
-4828 -5768 0
-4825 -5789 0
-4826 -5790 0
-4827 -5791 0
-4828 -5792 0
-4825 -6297 0
-4826 -6298 0
-4827 -6299 0
-4828 -6300 0
-4825 -6433 0
-4826 -6434 0
-4827 -6435 0
-4828 -6436 0
-4825 -6497 0
-4826 -6498 0
-4827 -6499 0
-4828 -6500 0
-4825 -6585 0
-4826 -6586 0
-4827 -6587 0
-4828 -6588 0
-4829 -4833 0
-4830 -4834 0
-4831 -4835 0
-4832 -4836 0
-4829 -4973 0
-4830 -4974 0
-4831 -4975 0
-4832 -4976 0
-4829 -5273 0
-4830 -5274 0
-4831 -5275 0
-4832 -5276 0
-4829 -5513 0
-4830 -5514 0
-4831 -5515 0
-4832 -5516 0
-4829 -5769 0
-4830 -5770 0
-4831 -5771 0
-4832 -5772 0
-4829 -5993 0
-4830 -5994 0
-4831 -5995 0
-4832 -5996 0
-4829 -6301 0
-4830 -6302 0
-4831 -6303 0
-4832 -6304 0
-4829 -6461 0
-4830 -6462 0
-4831 -6463 0
-4832 -6464 0
-4829 -6517 0
-4830 -6518 0
-4831 -6519 0
-4832 -6520 0
-4829 -6589 0
-4830 -6590 0
-4831 -6591 0
-4832 -6592 0
-4833 -5065 0
-4834 -5066 0
-4835 -5067 0
-4836 -5068 0
-4833 -5117 0
-4834 -5118 0
-4835 -5119 0
-4836 -5120 0
-4833 -5525 0
-4834 -5526 0
-4835 -5527 0
-4836 -5528 0
-4833 -5773 0
-4834 -5774 0
-4835 -5775 0
-4836 -5776 0
-4833 -6305 0
-4834 -6306 0
-4835 -6307 0
-4836 -6308 0
-4833 -6309 0
-4834 -6310 0
-4835 -6311 0
-4836 -6312 0
-4833 -6497 0
-4834 -6498 0
-4835 -6499 0
-4836 -6500 0
-4833 -6521 0
-4834 -6522 0
-4835 -6523 0
-4836 -6524 0
-4833 -6589 0
-4834 -6590 0
-4835 -6591 0
-4836 -6592 0
-4837 -4841 0
-4838 -4842 0
-4839 -4843 0
-4840 -4844 0
-4837 -4845 0
-4838 -4846 0
-4839 -4847 0
-4840 -4848 0
-4837 -6017 0
-4838 -6018 0
-4839 -6019 0
-4840 -6020 0
-4837 -6613 0
-4838 -6614 0
-4839 -6615 0
-4840 -6616 0
-4841 -4849 0
-4842 -4850 0
-4843 -4851 0
-4844 -4852 0
-4841 -5793 0
-4842 -5794 0
-4843 -5795 0
-4844 -5796 0
-4841 -6025 0
-4842 -6026 0
-4843 -6027 0
-4844 -6028 0
-4841 -6617 0
-4842 -6618 0
-4843 -6619 0
-4844 -6620 0
-4845 -4849 0
-4846 -4850 0
-4847 -4851 0
-4848 -4852 0
-4845 -5001 0
-4846 -5002 0
-4847 -5003 0
-4848 -5004 0
-4845 -5161 0
-4846 -5162 0
-4847 -5163 0
-4848 -5164 0
-4845 -6021 0
-4846 -6022 0
-4847 -6023 0
-4848 -6024 0
-4845 -6029 0
-4846 -6030 0
-4847 -6031 0
-4848 -6032 0
-4845 -6613 0
-4846 -6614 0
-4847 -6615 0
-4848 -6616 0
-4845 -6621 0
-4846 -6622 0
-4847 -6623 0
-4848 -6624 0
-4849 -5165 0
-4850 -5166 0
-4851 -5167 0
-4852 -5168 0
-4849 -5797 0
-4850 -5798 0
-4851 -5799 0
-4852 -5800 0
-4849 -6033 0
-4850 -6034 0
-4851 -6035 0
-4852 -6036 0
-4849 -6617 0
-4850 -6618 0
-4851 -6619 0
-4852 -6620 0
-4849 -6625 0
-4850 -6626 0
-4851 -6627 0
-4852 -6628 0
-4853 -4861 0
-4854 -4862 0
-4855 -4863 0
-4856 -4864 0
-4853 -4945 0
-4854 -4946 0
-4855 -4947 0
-4856 -4948 0
-4853 -4997 0
-4854 -4998 0
-4855 -4999 0
-4856 -5000 0
-4853 -5069 0
-4854 -5070 0
-4855 -5071 0
-4856 -5072 0
-4853 -5881 0
-4854 -5882 0
-4855 -5883 0
-4856 -5884 0
-4853 -6361 0
-4854 -6362 0
-4855 -6363 0
-4856 -6364 0
-4857 -4861 0
-4858 -4862 0
-4859 -4863 0
-4860 -4864 0
-4857 -4869 0
-4858 -4870 0
-4859 -4871 0
-4860 -4872 0
-4857 -4893 0
-4858 -4894 0
-4859 -4895 0
-4860 -4896 0
-4857 -4913 0
-4858 -4914 0
-4859 -4915 0
-4860 -4916 0
-4857 -4941 0
-4858 -4942 0
-4859 -4943 0
-4860 -4944 0
-4857 -4949 0
-4858 -4950 0
-4859 -4951 0
-4860 -4952 0
-4857 -5181 0
-4858 -5182 0
-4859 -5183 0
-4860 -5184 0
-4857 -5533 0
-4858 -5534 0
-4859 -5535 0
-4860 -5536 0
-4857 -5809 0
-4858 -5810 0
-4859 -5811 0
-4860 -5812 0
-4857 -5893 0
-4858 -5894 0
-4859 -5895 0
-4860 -5896 0
-4857 -6365 0
-4858 -6366 0
-4859 -6367 0
-4860 -6368 0
-4857 -6653 0
-4858 -6654 0
-4859 -6655 0
-4860 -6656 0
-4861 -4865 0
-4862 -4866 0
-4863 -4867 0
-4864 -4868 0
-4861 -4873 0
-4862 -4874 0
-4863 -4875 0
-4864 -4876 0
-4861 -4881 0
-4862 -4882 0
-4863 -4883 0
-4864 -4884 0
-4861 -4893 0
-4862 -4894 0
-4863 -4895 0
-4864 -4896 0
-4861 -4917 0
-4862 -4918 0
-4863 -4919 0
-4864 -4920 0
-4861 -4945 0
-4862 -4946 0
-4863 -4947 0
-4864 -4948 0
-4861 -5001 0
-4862 -5002 0
-4863 -5003 0
-4864 -5004 0
-4861 -5137 0
-4862 -5138 0
-4863 -5139 0
-4864 -5140 0
-4861 -5537 0
-4862 -5538 0
-4863 -5539 0
-4864 -5540 0
-4861 -5665 0
-4862 -5666 0
-4863 -5667 0
-4864 -5668 0
-4861 -5853 0
-4862 -5854 0
-4863 -5855 0
-4864 -5856 0
-4861 -6657 0
-4862 -6658 0
-4863 -6659 0
-4864 -6660 0
-4861 -6905 0
-4862 -6906 0
-4863 -6907 0
-4864 -6908 0
-4865 -4885 0
-4866 -4886 0
-4867 -4887 0
-4868 -4888 0
-4865 -4897 0
-4866 -4898 0
-4867 -4899 0
-4868 -4900 0
-4865 -4917 0
-4866 -4918 0
-4867 -4919 0
-4868 -4920 0
-4865 -5141 0
-4866 -5142 0
-4867 -5143 0
-4868 -5144 0
-4865 -5361 0
-4866 -5362 0
-4867 -5363 0
-4868 -5364 0
-4865 -5857 0
-4866 -5858 0
-4867 -5859 0
-4868 -5860 0
-4865 -5897 0
-4866 -5898 0
-4867 -5899 0
-4868 -5900 0
-4865 -6661 0
-4866 -6662 0
-4867 -6663 0
-4868 -6664 0
-4865 -6753 0
-4866 -6754 0
-4867 -6755 0
-4868 -6756 0
-4869 -4873 0
-4870 -4874 0
-4871 -4875 0
-4872 -4876 0
-4869 -4901 0
-4870 -4902 0
-4871 -4903 0
-4872 -4904 0
-4869 -4953 0
-4870 -4954 0
-4871 -4955 0
-4872 -4956 0
-4869 -4961 0
-4870 -4962 0
-4871 -4963 0
-4872 -4964 0
-4869 -5813 0
-4870 -5814 0
-4871 -5815 0
-4872 -5816 0
-4869 -5917 0
-4870 -5918 0
-4871 -5919 0
-4872 -5920 0
-4869 -6373 0
-4870 -6374 0
-4871 -6375 0
-4872 -6376 0
-4869 -6653 0
-4870 -6654 0
-4871 -6655 0
-4872 -6656 0
-4873 -4901 0
-4874 -4902 0
-4875 -4903 0
-4876 -4904 0
-4873 -4957 0
-4874 -4958 0
-4875 -4959 0
-4876 -4960 0
-4873 -5005 0
-4874 -5006 0
-4875 -5007 0
-4876 -5008 0
-4873 -5669 0
-4874 -5670 0
-4875 -5671 0
-4876 -5672 0
-4873 -6657 0
-4874 -6658 0
-4875 -6659 0
-4876 -6660 0
-4877 -5009 0
-4878 -5010 0
-4879 -5011 0
-4880 -5012 0
-4877 -5681 0
-4878 -5682 0
-4879 -5683 0
-4880 -5684 0
-4877 -6377 0
-4878 -6378 0
-4879 -6379 0
-4880 -6380 0
-4877 -6665 0
-4878 -6666 0
-4879 -6667 0
-4880 -6668 0
-4877 -6913 0
-4878 -6914 0
-4879 -6915 0
-4880 -6916 0
-4881 -4885 0
-4882 -4886 0
-4883 -4887 0
-4884 -4888 0
-4881 -4905 0
-4882 -4906 0
-4883 -4907 0
-4884 -4908 0
-4881 -5017 0
-4882 -5018 0
-4883 -5019 0
-4884 -5020 0
-4881 -5225 0
-4882 -5226 0
-4883 -5227 0
-4884 -5228 0
-4881 -5553 0
-4882 -5554 0
-4883 -5555 0
-4884 -5556 0
-4881 -5701 0
-4882 -5702 0
-4883 -5703 0
-4884 -5704 0
-4881 -6677 0
-4882 -6678 0
-4883 -6679 0
-4884 -6680 0
-4885 -4909 0
-4886 -4910 0
-4887 -4911 0
-4888 -4912 0
-4885 -5233 0
-4886 -5234 0
-4887 -5235 0
-4888 -5236 0
-4885 -5557 0
-4886 -5558 0
-4887 -5559 0
-4888 -5560 0
-4885 -6753 0
-4886 -6754 0
-4887 -6755 0
-4888 -6756 0
-4889 -4897 0
-4890 -4898 0
-4891 -4899 0
-4892 -4900 0
-4889 -4929 0
-4890 -4930 0
-4891 -4931 0
-4892 -4932 0
-4889 -5885 0
-4890 -5886 0
-4891 -5887 0
-4892 -5888 0
-4889 -6061 0
-4890 -6062 0
-4891 -6063 0
-4892 -6064 0
-4889 -6685 0
-4890 -6686 0
-4891 -6687 0
-4892 -6688 0
-4889 -6773 0
-4890 -6774 0
-4891 -6775 0
-4892 -6776 0
-4893 -4897 0
-4894 -4898 0
-4895 -4899 0
-4896 -4900 0
-4893 -4901 0
-4894 -4902 0
-4895 -4903 0
-4896 -4904 0
-4893 -4905 0
-4894 -4906 0
-4895 -4907 0
-4896 -4908 0
-4893 -4933 0
-4894 -4934 0
-4895 -4935 0
-4896 -4936 0
-4893 -4965 0
-4894 -4966 0
-4895 -4967 0
-4896 -4968 0
-4893 -5081 0
-4894 -5082 0
-4895 -5083 0
-4896 -5084 0
-4893 -5317 0
-4894 -5318 0
-4895 -5319 0
-4896 -5320 0
-4893 -5565 0
-4894 -5566 0
-4895 -5567 0
-4896 -5568 0
-4893 -5821 0
-4894 -5822 0
-4895 -5823 0
-4896 -5824 0
-4893 -5901 0
-4894 -5902 0
-4895 -5903 0
-4896 -5904 0
-4893 -6381 0
-4894 -6382 0
-4895 -6383 0
-4896 -6384 0
-4893 -6385 0
-4894 -6386 0
-4895 -6387 0
-4896 -6388 0
-4893 -6681 0
-4894 -6682 0
-4895 -6683 0
-4896 -6684 0
-4893 -6689 0
-4894 -6690 0
-4895 -6691 0
-4896 -6692 0
-4897 -4909 0
-4898 -4910 0
-4899 -4911 0
-4900 -4912 0
-4897 -4933 0
-4898 -4934 0
-4899 -4935 0
-4900 -4936 0
-4897 -5165 0
-4898 -5166 0
-4899 -5167 0
-4900 -5168 0
-4897 -5409 0
-4898 -5410 0
-4899 -5411 0
-4900 -5412 0
-4897 -5909 0
-4898 -5910 0
-4899 -5911 0
-4900 -5912 0
-4897 -6065 0
-4898 -6066 0
-4899 -6067 0
-4900 -6068 0
-4897 -6389 0
-4898 -6390 0
-4899 -6391 0
-4900 -6392 0
-4897 -6685 0
-4898 -6686 0
-4899 -6687 0
-4900 -6688 0
-4897 -6693 0
-4898 -6694 0
-4899 -6695 0
-4900 -6696 0
-4897 -6781 0
-4898 -6782 0
-4899 -6783 0
-4900 -6784 0
-4901 -5089 0
-4902 -5090 0
-4903 -5091 0
-4904 -5092 0
-4901 -5569 0
-4902 -5570 0
-4903 -5571 0
-4904 -5572 0
-4901 -5825 0
-4902 -5826 0
-4903 -5827 0
-4904 -5828 0
-4901 -6393 0
-4902 -6394 0
-4903 -6395 0
-4904 -6396 0
-4901 -6689 0
-4902 -6690 0
-4903 -6691 0
-4904 -6692 0
-4905 -4909 0
-4906 -4910 0
-4907 -4911 0
-4908 -4912 0
-4905 -5253 0
-4906 -5254 0
-4907 -5255 0
-4908 -5256 0
-4905 -5741 0
-4906 -5742 0
-4907 -5743 0
-4908 -5744 0
-4905 -5833 0
-4906 -5834 0
-4907 -5835 0
-4908 -5836 0
-4909 -5257 0
-4910 -5258 0
-4911 -5259 0
-4912 -5260 0
-4909 -6089 0
-4910 -6090 0
-4911 -6091 0
-4912 -6092 0
-4909 -6401 0
-4910 -6402 0
-4911 -6403 0
-4912 -6404 0
-4909 -6701 0
-4910 -6702 0
-4911 -6703 0
-4912 -6704 0
-4909 -6781 0
-4910 -6782 0
-4911 -6783 0
-4912 -6784 0
-4913 -4917 0
-4914 -4918 0
-4915 -4919 0
-4916 -4920 0
-4913 -4933 0
-4914 -4934 0
-4915 -4935 0
-4916 -4936 0
-4913 -4969 0
-4914 -4970 0
-4915 -4971 0
-4916 -4972 0
-4913 -4973 0
-4914 -4974 0
-4915 -4975 0
-4916 -4976 0
-4913 -5269 0
-4914 -5270 0
-4915 -5271 0
-4916 -5272 0
-4913 -5573 0
-4914 -5574 0
-4915 -5575 0
-4916 -5576 0
-4913 -5625 0
-4914 -5626 0
-4915 -5627 0
-4916 -5628 0
-4913 -5849 0
-4914 -5850 0
-4915 -5851 0
-4916 -5852 0
-4913 -6089 0
-4914 -6090 0
-4915 -6091 0
-4916 -6092 0
-4913 -6405 0
-4914 -6406 0
-4915 -6407 0
-4916 -6408 0
-4913 -6705 0
-4914 -6706 0
-4915 -6707 0
-4916 -6708 0
-4917 -4933 0
-4918 -4934 0
-4919 -4935 0
-4920 -4936 0
-4917 -5441 0
-4918 -5442 0
-4919 -5443 0
-4920 -5444 0
-4917 -5577 0
-4918 -5578 0
-4919 -5579 0
-4920 -5580 0
-4917 -6093 0
-4918 -6094 0
-4919 -6095 0
-4920 -6096 0
-4917 -6409 0
-4918 -6410 0
-4919 -6411 0
-4920 -6412 0
-4917 -6709 0
-4918 -6710 0
-4919 -6711 0
-4920 -6712 0
-4917 -6953 0
-4918 -6954 0
-4919 -6955 0
-4920 -6956 0
-4921 -4925 0
-4922 -4926 0
-4923 -4927 0
-4924 -4928 0
-4921 -4929 0
-4922 -4930 0
-4923 -4931 0
-4924 -4932 0
-4921 -5309 0
-4922 -5310 0
-4923 -5311 0
-4924 -5312 0
-4921 -6797 0
-4922 -6798 0
-4923 -6799 0
-4924 -6800 0
-4925 -4933 0
-4926 -4934 0
-4927 -4935 0
-4928 -4936 0
-4925 -4981 0
-4926 -4982 0
-4927 -4983 0
-4928 -4984 0
-4925 -5313 0
-4926 -5314 0
-4927 -5315 0
-4928 -5316 0
-4925 -5597 0
-4926 -5598 0
-4927 -5599 0
-4928 -5600 0
-4925 -5865 0
-4926 -5866 0
-4927 -5867 0
-4928 -5868 0
-4925 -6429 0
-4926 -6430 0
-4927 -6431 0
-4928 -6432 0
-4925 -6629 0
-4926 -6630 0
-4927 -6631 0
-4928 -6632 0
-4925 -6713 0
-4926 -6714 0
-4927 -6715 0
-4928 -6716 0
-4925 -6785 0
-4926 -6786 0
-4927 -6787 0
-4928 -6788 0
-4925 -6809 0
-4926 -6810 0
-4927 -6811 0
-4928 -6812 0
-4925 -6961 0
-4926 -6962 0
-4927 -6963 0
-4928 -6964 0
-4929 -4933 0
-4930 -4934 0
-4931 -4935 0
-4932 -4936 0
-4929 -6097 0
-4930 -6098 0
-4931 -6099 0
-4932 -6100 0
-4929 -6437 0
-4930 -6438 0
-4931 -6439 0
-4932 -6440 0
-4929 -6717 0
-4930 -6718 0
-4931 -6719 0
-4932 -6720 0
-4929 -6821 0
-4930 -6822 0
-4931 -6823 0
-4932 -6824 0
-4933 -4985 0
-4934 -4986 0
-4935 -4987 0
-4936 -4988 0
-4933 -5285 0
-4934 -5286 0
-4935 -5287 0
-4936 -5288 0
-4933 -5457 0
-4934 -5458 0
-4935 -5459 0
-4936 -5460 0
-4933 -5889 0
-4934 -5890 0
-4935 -5891 0
-4936 -5892 0
-4933 -6101 0
-4934 -6102 0
-4935 -6103 0
-4936 -6104 0
-4933 -6461 0
-4934 -6462 0
-4935 -6463 0
-4936 -6464 0
-4933 -6629 0
-4934 -6630 0
-4935 -6631 0
-4936 -6632 0
-4933 -6717 0
-4934 -6718 0
-4935 -6719 0
-4936 -6720 0
-4933 -6721 0
-4934 -6722 0
-4935 -6723 0
-4936 -6724 0
-4933 -6793 0
-4934 -6794 0
-4935 -6795 0
-4936 -6796 0
-4933 -6825 0
-4934 -6826 0
-4935 -6827 0
-4936 -6828 0
-4937 -4945 0
-4938 -4946 0
-4939 -4947 0
-4940 -4948 0
-4937 -5037 0
-4938 -5038 0
-4939 -5039 0
-4940 -5040 0
-4937 -5353 0
-4938 -5354 0
-4939 -5355 0
-4940 -5356 0
-4937 -6445 0
-4938 -6446 0
-4939 -6447 0
-4940 -6448 0
-4937 -6965 0
-4938 -6966 0
-4939 -6967 0
-4940 -6968 0
-4941 -4945 0
-4942 -4946 0
-4943 -4947 0
-4944 -4948 0
-4941 -4949 0
-4942 -4950 0
-4943 -4951 0
-4944 -4952 0
-4941 -4953 0
-4942 -4954 0
-4943 -4955 0
-4944 -4956 0
-4941 -4969 0
-4942 -4970 0
-4943 -4971 0
-4944 -4972 0
-4941 -5033 0
-4942 -5034 0
-4943 -5035 0
-4944 -5036 0
-4941 -5041 0
-4942 -5042 0
-4943 -5043 0
-4944 -5044 0
-4941 -5357 0
-4942 -5358 0
-4943 -5359 0
-4944 -5360 0
-4941 -5629 0
-4942 -5630 0
-4943 -5631 0
-4944 -5632 0
-4941 -5977 0
-4942 -5978 0
-4943 -5979 0
-4944 -5980 0
-4941 -6461 0
-4942 -6462 0
-4943 -6463 0
-4944 -6464 0
-4941 -6633 0
-4942 -6634 0
-4943 -6635 0
-4944 -6636 0
-4941 -6641 0
-4942 -6642 0
-4943 -6643 0
-4944 -6644 0
-4941 -6725 0
-4942 -6726 0
-4943 -6727 0
-4944 -6728 0
-4945 -4957 0
-4946 -4958 0
-4947 -4959 0
-4948 -4960 0
-4945 -5037 0
-4946 -5038 0
-4947 -5039 0
-4948 -5040 0
-4945 -5189 0
-4946 -5190 0
-4947 -5191 0
-4948 -5192 0
-4945 -5633 0
-4946 -5634 0
-4947 -5635 0
-4948 -5636 0
-4945 -5769 0
-4946 -5770 0
-4947 -5771 0
-4948 -5772 0
-4945 -6465 0
-4946 -6466 0
-4947 -6467 0
-4948 -6468 0
-4945 -6729 0
-4946 -6730 0
-4947 -6731 0
-4948 -6732 0
-4945 -6969 0
-4946 -6970 0
-4947 -6971 0
-4948 -6972 0
-4949 -4961 0
-4950 -4962 0
-4951 -4963 0
-4952 -4964 0
-4949 -4965 0
-4950 -4966 0
-4951 -4967 0
-4952 -4968 0
-4949 -4973 0
-4950 -4974 0
-4951 -4975 0
-4952 -4976 0
-4949 -5197 0
-4950 -5198 0
-4951 -5199 0
-4952 -5200 0
-4949 -5361 0
-4950 -5362 0
-4951 -5363 0
-4952 -5364 0
-4949 -6473 0
-4950 -6474 0
-4951 -6475 0
-4952 -6476 0
-4949 -6733 0
-4950 -6734 0
-4951 -6735 0
-4952 -6736 0
-4953 -4957 0
-4954 -4958 0
-4955 -4959 0
-4956 -4960 0
-4953 -4961 0
-4954 -4962 0
-4955 -4963 0
-4956 -4964 0
-4953 -4977 0
-4954 -4978 0
-4955 -4979 0
-4956 -4980 0
-4953 -5045 0
-4954 -5046 0
-4955 -5047 0
-4956 -5048 0
-4953 -5053 0
-4954 -5054 0
-4955 -5055 0
-4956 -5056 0
-4953 -5213 0
-4954 -5214 0
-4955 -5215 0
-4956 -5216 0
-4953 -5645 0
-4954 -5646 0
-4955 -5647 0
-4956 -5648 0
-4953 -5981 0
-4954 -5982 0
-4955 -5983 0
-4956 -5984 0
-4953 -6497 0
-4954 -6498 0
-4955 -6499 0
-4956 -6500 0
-4953 -6637 0
-4954 -6638 0
-4955 -6639 0
-4956 -6640 0
-4953 -6645 0
-4954 -6646 0
-4955 -6647 0
-4956 -6648 0
-4953 -6725 0
-4954 -6726 0
-4955 -6727 0
-4956 -6728 0
-4957 -5049 0
-4958 -5050 0
-4959 -5051 0
-4960 -5052 0
-4957 -5301 0
-4958 -5302 0
-4959 -5303 0
-4960 -5304 0
-4957 -5773 0
-4958 -5774 0
-4959 -5775 0
-4960 -5776 0
-4957 -5985 0
-4958 -5986 0
-4959 -5987 0
-4960 -5988 0
-4957 -6501 0
-4958 -6502 0
-4959 -6503 0
-4960 -6504 0
-4957 -6729 0
-4958 -6730 0
-4959 -6731 0
-4960 -6732 0
-4961 -5221 0
-4962 -5222 0
-4963 -5223 0
-4964 -5224 0
-4961 -6509 0
-4962 -6510 0
-4963 -6511 0
-4964 -6512 0
-4961 -6733 0
-4962 -6734 0
-4963 -6735 0
-4964 -6736 0
-4965 -4985 0
-4966 -4986 0
-4967 -4987 0
-4968 -4988 0
-4965 -5245 0
-4966 -5246 0
-4967 -5247 0
-4968 -5248 0
-4965 -5413 0
-4966 -5414 0
-4967 -5415 0
-4968 -5416 0
-4965 -5981 0
-4966 -5982 0
-4967 -5983 0
-4968 -5984 0
-4965 -6113 0
-4966 -6114 0
-4967 -6115 0
-4968 -6116 0
-4969 -4973 0
-4970 -4974 0
-4971 -4975 0
-4972 -4976 0
-4969 -4977 0
-4970 -4978 0
-4971 -4979 0
-4972 -4980 0
-4969 -5109 0
-4970 -5110 0
-4971 -5111 0
-4972 -5112 0
-4969 -5365 0
-4970 -5366 0
-4971 -5367 0
-4972 -5368 0
-4969 -5681 0
-4970 -5682 0
-4971 -5683 0
-4972 -5684 0
-4969 -6125 0
-4970 -6126 0
-4971 -6127 0
-4972 -6128 0
-4969 -6553 0
-4970 -6554 0
-4971 -6555 0
-4972 -6556 0
-4969 -6737 0
-4970 -6738 0
-4971 -6739 0
-4972 -6740 0
-4973 -4985 0
-4974 -4986 0
-4975 -4987 0
-4976 -4988 0
-4973 -5277 0
-4974 -5278 0
-4975 -5279 0
-4976 -5280 0
-4973 -5689 0
-4974 -5690 0
-4975 -5691 0
-4976 -5692 0
-4973 -6129 0
-4974 -6130 0
-4975 -6131 0
-4976 -6132 0
-4973 -6741 0
-4974 -6742 0
-4975 -6743 0
-4976 -6744 0
-4977 -5113 0
-4978 -5114 0
-4979 -5115 0
-4980 -5116 0
-4977 -5705 0
-4978 -5706 0
-4979 -5707 0
-4980 -5708 0
-4977 -6561 0
-4978 -6562 0
-4979 -6563 0
-4980 -6564 0
-4977 -6565 0
-4978 -6566 0
-4979 -6567 0
-4980 -6568 0
-4977 -6669 0
-4978 -6670 0
-4979 -6671 0
-4980 -6672 0
-4977 -6737 0
-4978 -6738 0
-4979 -6739 0
-4980 -6740 0
-4981 -4985 0
-4982 -4986 0
-4983 -4987 0
-4984 -4988 0
-4981 -5397 0
-4982 -5398 0
-4983 -5399 0
-4984 -5400 0
-4981 -5721 0
-4982 -5722 0
-4983 -5723 0
-4984 -5724 0
-4981 -5785 0
-4982 -5786 0
-4983 -5787 0
-4984 -5788 0
-4981 -6005 0
-4982 -6006 0
-4983 -6007 0
-4984 -6008 0
-4981 -6133 0
-4982 -6134 0
-4983 -6135 0
-4984 -6136 0
-4981 -6697 0
-4982 -6698 0
-4983 -6699 0
-4984 -6700 0
-4981 -6837 0
-4982 -6838 0
-4983 -6839 0
-4984 -6840 0
-4981 -6853 0
-4982 -6854 0
-4983 -6855 0
-4984 -6856 0
-4981 -7021 0
-4982 -7022 0
-4983 -7023 0
-4984 -7024 0
-4985 -5289 0
-4986 -5290 0
-4987 -5291 0
-4988 -5292 0
-4985 -5469 0
-4986 -5470 0
-4987 -5471 0
-4988 -5472 0
-4985 -5737 0
-4986 -5738 0
-4987 -5739 0
-4988 -5740 0
-4985 -6141 0
-4986 -6142 0
-4987 -6143 0
-4988 -6144 0
-4985 -6573 0
-4986 -6574 0
-4987 -6575 0
-4988 -6576 0
-4985 -6697 0
-4986 -6698 0
-4987 -6699 0
-4988 -6700 0
-4989 -4993 0
-4990 -4994 0
-4991 -4995 0
-4992 -4996 0
-4989 -5009 0
-4990 -5010 0
-4991 -5011 0
-4992 -5012 0
-4989 -5013 0
-4990 -5014 0
-4991 -5015 0
-4992 -5016 0
-4989 -6017 0
-4990 -6018 0
-4991 -6019 0
-4992 -6020 0
-4989 -6149 0
-4990 -6150 0
-4991 -6151 0
-4992 -6152 0
-4989 -6757 0
-4990 -6758 0
-4991 -6759 0
-4992 -6760 0
-4989 -6761 0
-4990 -6762 0
-4991 -6763 0
-4992 -6764 0
-4993 -5021 0
-4994 -5022 0
-4995 -5023 0
-4996 -5024 0
-4993 -5653 0
-4994 -5654 0
-4995 -5655 0
-4996 -5656 0
-4993 -6153 0
-4994 -6154 0
-4995 -6155 0
-4996 -6156 0
-4993 -6773 0
-4994 -6774 0
-4995 -6775 0
-4996 -6776 0
-4993 -6781 0
-4994 -6782 0
-4995 -6783 0
-4996 -6784 0
-4997 -5001 0
-4998 -5002 0
-4999 -5003 0
-5000 -5004 0
-4997 -5009 0
-4998 -5010 0
-4999 -5011 0
-5000 -5012 0
-4997 -5037 0
-4998 -5038 0
-4999 -5039 0
-5000 -5040 0
-4997 -5133 0
-4998 -5134 0
-4999 -5135 0
-5000 -5136 0
-4997 -5685 0
-4998 -5686 0
-4999 -5687 0
-5000 -5688 0
-4997 -6161 0
-4998 -6162 0
-4999 -6163 0
-5000 -6164 0
-4997 -6785 0
-4998 -6786 0
-4999 -6787 0
-5000 -6788 0
-5001 -5005 0
-5002 -5006 0
-5003 -5007 0
-5004 -5008 0
-5001 -5017 0
-5002 -5018 0
-5003 -5019 0
-5004 -5020 0
-5001 -5037 0
-5002 -5038 0
-5003 -5039 0
-5004 -5040 0
-5001 -5309 0
-5002 -5310 0
-5003 -5311 0
-5004 -5312 0
-5001 -5693 0
-5002 -5694 0
-5003 -5695 0
-5004 -5696 0
-5001 -6029 0
-5002 -6030 0
-5003 -6031 0
-5004 -6032 0
-5001 -6165 0
-5002 -6166 0
-5003 -6167 0
-5004 -6168 0
-5001 -6789 0
-5002 -6790 0
-5003 -6791 0
-5004 -6792 0
-5005 -5049 0
-5006 -5050 0
-5007 -5051 0
-5008 -5052 0
-5005 -5313 0
-5006 -5314 0
-5007 -5315 0
-5008 -5316 0
-5005 -6789 0
-5006 -6790 0
-5007 -6791 0
-5008 -6792 0
-5009 -5013 0
-5010 -5014 0
-5011 -5015 0
-5012 -5016 0
-5009 -5017 0
-5010 -5018 0
-5011 -5019 0
-5012 -5020 0
-5009 -5021 0
-5010 -5022 0
-5011 -5023 0
-5012 -5024 0
-5009 -5057 0
-5010 -5058 0
-5011 -5059 0
-5012 -5060 0
-5009 -5137 0
-5010 -5138 0
-5011 -5139 0
-5012 -5140 0
-5009 -5793 0
-5010 -5794 0
-5011 -5795 0
-5012 -5796 0
-5009 -6797 0
-5010 -6798 0
-5011 -6799 0
-5012 -6800 0
-5009 -6809 0
-5010 -6810 0
-5011 -6811 0
-5012 -6812 0
-5013 -5141 0
-5014 -5142 0
-5015 -5143 0
-5016 -5144 0
-5013 -6169 0
-5014 -6170 0
-5015 -6171 0
-5016 -6172 0
-5013 -6801 0
-5014 -6802 0
-5015 -6803 0
-5016 -6804 0
-5013 -6813 0
-5014 -6814 0
-5015 -6815 0
-5016 -6816 0
-5017 -5057 0
-5018 -5058 0
-5019 -5059 0
-5020 -5060 0
-5017 -5321 0
-5018 -5322 0
-5019 -5323 0
-5020 -5324 0
-5017 -5721 0
-5018 -5722 0
-5019 -5723 0
-5020 -5724 0
-5017 -6805 0
-5018 -6806 0
-5019 -6807 0
-5020 -6808 0
-5017 -6817 0
-5018 -6818 0
-5019 -6819 0
-5020 -6820 0
-5021 -5733 0
-5022 -5734 0
-5023 -5735 0
-5024 -5736 0
-5021 -6601 0
-5022 -6602 0
-5023 -6603 0
-5024 -6604 0
-5021 -6821 0
-5022 -6822 0
-5023 -6823 0
-5024 -6824 0
-5021 -6825 0
-5022 -6826 0
-5023 -6827 0
-5024 -6828 0
-5025 -5029 0
-5026 -5030 0
-5027 -5031 0
-5028 -5032 0
-5025 -5033 0
-5026 -5034 0
-5027 -5035 0
-5028 -5036 0
-5025 -5037 0
-5026 -5038 0
-5027 -5039 0
-5028 -5040 0
-5025 -5337 0
-5026 -5338 0
-5027 -5339 0
-5028 -5340 0
-5025 -6197 0
-5026 -6198 0
-5027 -6199 0
-5028 -6200 0
-5025 -6745 0
-5026 -6746 0
-5027 -6747 0
-5028 -6748 0
-5025 -6829 0
-5026 -6830 0
-5027 -6831 0
-5028 -6832 0
-5029 -5045 0
-5030 -5046 0
-5031 -5047 0
-5032 -5048 0
-5029 -5049 0
-5030 -5050 0
-5031 -5051 0
-5032 -5052 0
-5029 -5349 0
-5030 -5350 0
-5031 -5351 0
-5032 -5352 0
-5029 -6201 0
-5030 -6202 0
-5031 -6203 0
-5032 -6204 0
-5029 -6829 0
-5030 -6830 0
-5031 -6831 0
-5032 -6832 0
-5033 -5037 0
-5034 -5038 0
-5035 -5039 0
-5036 -5040 0
-5033 -5041 0
-5034 -5042 0
-5035 -5043 0
-5036 -5044 0
-5033 -5045 0
-5034 -5046 0
-5035 -5047 0
-5036 -5048 0
-5033 -5177 0
-5034 -5178 0
-5035 -5179 0
-5036 -5180 0
-5033 -5501 0
-5034 -5502 0
-5035 -5503 0
-5036 -5504 0
-5033 -6213 0
-5034 -6214 0
-5035 -6215 0
-5036 -6216 0
-5033 -6613 0
-5034 -6614 0
-5035 -6615 0
-5036 -6616 0
-5033 -6765 0
-5034 -6766 0
-5035 -6767 0
-5036 -6768 0
-5033 -6833 0
-5034 -6834 0
-5035 -6835 0
-5036 -6836 0
-5037 -5049 0
-5038 -5050 0
-5039 -5051 0
-5040 -5052 0
-5037 -5057 0
-5038 -5058 0
-5039 -5059 0
-5040 -5060 0
-5037 -5377 0
-5038 -5378 0
-5039 -5379 0
-5040 -5380 0
-5037 -5505 0
-5038 -5506 0
-5039 -5507 0
-5040 -5508 0
-5037 -6217 0
-5038 -6218 0
-5039 -6219 0
-5040 -6220 0
-5037 -6221 0
-5038 -6222 0
-5039 -6223 0
-5040 -6224 0
-5037 -6769 0
-5038 -6770 0
-5039 -6771 0
-5040 -6772 0
-5037 -6837 0
-5038 -6838 0
-5039 -6839 0
-5040 -6840 0
-5037 -7049 0
-5038 -7050 0
-5039 -7051 0
-5040 -7052 0
-5041 -5053 0
-5042 -5054 0
-5043 -5055 0
-5044 -5056 0
-5041 -5205 0
-5042 -5206 0
-5043 -5207 0
-5044 -5208 0
-5041 -5493 0
-5042 -5494 0
-5043 -5495 0
-5044 -5496 0
-5041 -5777 0
-5042 -5778 0
-5043 -5779 0
-5044 -5780 0
-5041 -6617 0
-5042 -6618 0
-5043 -6619 0
-5044 -6620 0
-5041 -6757 0
-5042 -6758 0
-5043 -6759 0
-5044 -6760 0
-5041 -6773 0
-5042 -6774 0
-5043 -6775 0
-5044 -6776 0
-5041 -6841 0
-5042 -6842 0
-5043 -6843 0
-5044 -6844 0
-5045 -5049 0
-5046 -5050 0
-5047 -5051 0
-5048 -5052 0
-5045 -5053 0
-5046 -5054 0
-5047 -5055 0
-5048 -5056 0
-5045 -5181 0
-5046 -5182 0
-5047 -5183 0
-5048 -5184 0
-5045 -5509 0
-5046 -5510 0
-5047 -5511 0
-5048 -5512 0
-5045 -6621 0
-5046 -6622 0
-5047 -6623 0
-5048 -6624 0
-5045 -6777 0
-5046 -6778 0
-5047 -6779 0
-5048 -6780 0
-5045 -6833 0
-5046 -6834 0
-5047 -6835 0
-5048 -6836 0
-5049 -5061 0
-5050 -5062 0
-5051 -5063 0
-5052 -5064 0
-5049 -5393 0
-5050 -5394 0
-5051 -5395 0
-5052 -5396 0
-5049 -6229 0
-5050 -6230 0
-5051 -6231 0
-5052 -6232 0
-5049 -6837 0
-5050 -6838 0
-5051 -6839 0
-5052 -6840 0
-5049 -7053 0
-5050 -7054 0
-5051 -7055 0
-5052 -7056 0
-5053 -5065 0
-5054 -5066 0
-5055 -5067 0
-5056 -5068 0
-5053 -5229 0
-5054 -5230 0
-5055 -5231 0
-5056 -5232 0
-5053 -5401 0
-5054 -5402 0
-5055 -5403 0
-5056 -5404 0
-5053 -5781 0
-5054 -5782 0
-5055 -5783 0
-5056 -5784 0
-5053 -6057 0
-5054 -6058 0
-5055 -6059 0
-5056 -6060 0
-5053 -6233 0
-5054 -6234 0
-5055 -6235 0
-5056 -6236 0
-5053 -6625 0
-5054 -6626 0
-5055 -6627 0
-5056 -6628 0
-5053 -6761 0
-5054 -6762 0
-5055 -6763 0
-5056 -6764 0
-5053 -6781 0
-5054 -6782 0
-5055 -6783 0
-5056 -6784 0
-5053 -6841 0
-5054 -6842 0
-5055 -6843 0
-5056 -6844 0
-5057 -5061 0
-5058 -5062 0
-5059 -5063 0
-5060 -5064 0
-5057 -5201 0
-5058 -5202 0
-5059 -5203 0
-5060 -5204 0
-5057 -5425 0
-5058 -5426 0
-5059 -5427 0
-5060 -5428 0
-5057 -6237 0
-5058 -6238 0
-5059 -6239 0
-5060 -6240 0
-5057 -6849 0
-5058 -6850 0
-5059 -6851 0
-5060 -6852 0
-5057 -6853 0
-5058 -6854 0
-5059 -6855 0
-5060 -6856 0
-5061 -5225 0
-5062 -5226 0
-5063 -5227 0
-5064 -5228 0
-5061 -5429 0
-5062 -5430 0
-5063 -5431 0
-5064 -5432 0
-5061 -6245 0
-5062 -6246 0
-5063 -6247 0
-5064 -6248 0
-5061 -6853 0
-5062 -6854 0
-5063 -6855 0
-5064 -6856 0
-5065 -5281 0
-5066 -5282 0
-5067 -5283 0
-5068 -5284 0
-5065 -5525 0
-5066 -5526 0
-5067 -5527 0
-5068 -5528 0
-5065 -6041 0
-5066 -6042 0
-5067 -6043 0
-5068 -6044 0
-5065 -6809 0
-5066 -6810 0
-5067 -6811 0
-5068 -6812 0
-5065 -6825 0
-5066 -6826 0
-5067 -6827 0
-5068 -6828 0
-5069 -5073 0
-5070 -5074 0
-5071 -5075 0
-5072 -5076 0
-5069 -5077 0
-5070 -5078 0
-5071 -5079 0
-5072 -5080 0
-5069 -5133 0
-5070 -5134 0
-5071 -5135 0
-5072 -5136 0
-5069 -5141 0
-5070 -5142 0
-5071 -5143 0
-5072 -5144 0
-5069 -5353 0
-5070 -5354 0
-5071 -5355 0
-5072 -5356 0
-5069 -5849 0
-5070 -5850 0
-5071 -5851 0
-5072 -5852 0
-5069 -6069 0
-5070 -6070 0
-5071 -6071 0
-5072 -6072 0
-5069 -6857 0
-5070 -6858 0
-5071 -6859 0
-5072 -6860 0
-5069 -7069 0
-5070 -7070 0
-5071 -7071 0
-5072 -7072 0
-5073 -5085 0
-5074 -5086 0
-5075 -5087 0
-5076 -5088 0
-5073 -5145 0
-5074 -5146 0
-5075 -5147 0
-5076 -5148 0
-5073 -5857 0
-5074 -5858 0
-5075 -5859 0
-5076 -5860 0
-5073 -6085 0
-5074 -6086 0
-5075 -6087 0
-5076 -6088 0
-5073 -6857 0
-5074 -6858 0
-5075 -6859 0
-5076 -6860 0
-5077 -5081 0
-5078 -5082 0
-5079 -5083 0
-5080 -5084 0
-5077 -5085 0
-5078 -5086 0
-5079 -5087 0
-5080 -5088 0
-5077 -5093 0
-5078 -5094 0
-5079 -5095 0
-5080 -5096 0
-5077 -5161 0
-5078 -5162 0
-5079 -5163 0
-5080 -5164 0
-5077 -5165 0
-5078 -5166 0
-5079 -5167 0
-5080 -5168 0
-5077 -5393 0
-5078 -5394 0
-5079 -5395 0
-5080 -5396 0
-5077 -5549 0
-5078 -5550 0
-5079 -5551 0
-5080 -5552 0
-5077 -5885 0
-5078 -5886 0
-5079 -5887 0
-5080 -5888 0
-5077 -6629 0
-5078 -6630 0
-5079 -6631 0
-5080 -6632 0
-5077 -6633 0
-5078 -6634 0
-5079 -6635 0
-5080 -6636 0
-5077 -6865 0
-5078 -6866 0
-5079 -6867 0
-5080 -6868 0
-5077 -6897 0
-5078 -6898 0
-5079 -6899 0
-5080 -6900 0
-5077 -6913 0
-5078 -6914 0
-5079 -6915 0
-5080 -6916 0
-5081 -5089 0
-5082 -5090 0
-5083 -5091 0
-5084 -5092 0
-5081 -5093 0
-5082 -5094 0
-5083 -5095 0
-5084 -5096 0
-5081 -5321 0
-5082 -5322 0
-5083 -5323 0
-5084 -5324 0
-5081 -5397 0
-5082 -5398 0
-5083 -5399 0
-5084 -5400 0
-5081 -5565 0
-5082 -5566 0
-5083 -5567 0
-5084 -5568 0
-5081 -6081 0
-5082 -6082 0
-5083 -6083 0
-5084 -6084 0
-5081 -6861 0
-5082 -6862 0
-5083 -6863 0
-5084 -6864 0
-5081 -6873 0
-5082 -6874 0
-5083 -6875 0
-5084 -6876 0
-5081 -6901 0
-5082 -6902 0
-5083 -6903 0
-5084 -6904 0
-5081 -6917 0
-5082 -6918 0
-5083 -6919 0
-5084 -6920 0
-5085 -5089 0
-5086 -5090 0
-5087 -5091 0
-5088 -5092 0
-5085 -5101 0
-5086 -5102 0
-5087 -5103 0
-5088 -5104 0
-5085 -5169 0
-5086 -5170 0
-5087 -5171 0
-5088 -5172 0
-5085 -5909 0
-5086 -5910 0
-5087 -5911 0
-5088 -5912 0
-5085 -6637 0
-5086 -6638 0
-5087 -6639 0
-5088 -6640 0
-5085 -6865 0
-5086 -6866 0
-5087 -6867 0
-5088 -6868 0
-5089 -5101 0
-5090 -5102 0
-5091 -5103 0
-5092 -5104 0
-5089 -5325 0
-5090 -5326 0
-5091 -5327 0
-5092 -5328 0
-5089 -5569 0
-5090 -5570 0
-5091 -5571 0
-5092 -5572 0
-5089 -5921 0
-5090 -5922 0
-5091 -5923 0
-5092 -5924 0
-5089 -6873 0
-5090 -6874 0
-5091 -6875 0
-5092 -6876 0
-5093 -5097 0
-5094 -5098 0
-5095 -5099 0
-5096 -5100 0
-5093 -5101 0
-5094 -5102 0
-5095 -5103 0
-5096 -5104 0
-5093 -5249 0
-5094 -5250 0
-5095 -5251 0
-5096 -5252 0
-5093 -5425 0
-5094 -5426 0
-5095 -5427 0
-5096 -5428 0
-5093 -5557 0
-5094 -5558 0
-5095 -5559 0
-5096 -5560 0
-5093 -5829 0
-5094 -5830 0
-5095 -5831 0
-5096 -5832 0
-5093 -6313 0
-5094 -6314 0
-5095 -6315 0
-5096 -6316 0
-5093 -6697 0
-5094 -6698 0
-5095 -6699 0
-5096 -6700 0
-5093 -6877 0
-5094 -6878 0
-5095 -6879 0
-5096 -6880 0
-5093 -6965 0
-5094 -6966 0
-5095 -6967 0
-5096 -6968 0
-5097 -5105 0
-5098 -5106 0
-5099 -5107 0
-5100 -5108 0
-5097 -5249 0
-5098 -5250 0
-5099 -5251 0
-5100 -5252 0
-5097 -5481 0
-5098 -5482 0
-5099 -5483 0
-5100 -5484 0
-5097 -5833 0
-5098 -5834 0
-5099 -5835 0
-5100 -5836 0
-5097 -6125 0
-5098 -6126 0
-5099 -6127 0
-5100 -6128 0
-5097 -6317 0
-5098 -6318 0
-5099 -6319 0
-5100 -6320 0
-5097 -6881 0
-5098 -6882 0
-5099 -6883 0
-5100 -6884 0
-5097 -6969 0
-5098 -6970 0
-5099 -6971 0
-5100 -6972 0
-5101 -5105 0
-5102 -5106 0
-5103 -5107 0
-5104 -5108 0
-5101 -5257 0
-5102 -5258 0
-5103 -5259 0
-5104 -5260 0
-5101 -5305 0
-5102 -5306 0
-5103 -5307 0
-5104 -5308 0
-5101 -5429 0
-5102 -5430 0
-5103 -5431 0
-5104 -5432 0
-5101 -5837 0
-5102 -5838 0
-5103 -5839 0
-5104 -5840 0
-5101 -5989 0
-5102 -5990 0
-5103 -5991 0
-5104 -5992 0
-5101 -6321 0
-5102 -6322 0
-5103 -6323 0
-5104 -6324 0
-5101 -6877 0
-5102 -6878 0
-5103 -6879 0
-5104 -6880 0
-5105 -5257 0
-5106 -5258 0
-5107 -5259 0
-5108 -5260 0
-5105 -5841 0
-5106 -5842 0
-5107 -5843 0
-5108 -5844 0
-5105 -6325 0
-5106 -6326 0
-5107 -6327 0
-5108 -6328 0
-5105 -6881 0
-5106 -6882 0
-5107 -6883 0
-5108 -6884 0
-5109 -5113 0
-5110 -5114 0
-5111 -5115 0
-5112 -5116 0
-5109 -5261 0
-5110 -5262 0
-5111 -5263 0
-5112 -5264 0
-5109 -5265 0
-5110 -5266 0
-5111 -5267 0
-5112 -5268 0
-5109 -5845 0
-5110 -5846 0
-5111 -5847 0
-5112 -5848 0
-5109 -6317 0
-5110 -6318 0
-5111 -6319 0
-5112 -6320 0
-5109 -6885 0
-5110 -6886 0
-5111 -6887 0
-5112 -6888 0
-5113 -5117 0
-5114 -5118 0
-5115 -5119 0
-5116 -5120 0
-5113 -5121 0
-5114 -5122 0
-5115 -5123 0
-5116 -5124 0
-5113 -5269 0
-5114 -5270 0
-5115 -5271 0
-5116 -5272 0
-5113 -5273 0
-5114 -5274 0
-5115 -5275 0
-5116 -5276 0
-5113 -5437 0
-5114 -5438 0
-5115 -5439 0
-5116 -5440 0
-5113 -5853 0
-5114 -5854 0
-5115 -5855 0
-5116 -5856 0
-5113 -6141 0
-5114 -6142 0
-5115 -6143 0
-5116 -6144 0
-5113 -6325 0
-5114 -6326 0
-5115 -6327 0
-5116 -6328 0
-5113 -6709 0
-5114 -6710 0
-5115 -6711 0
-5116 -6712 0
-5113 -6857 0
-5114 -6858 0
-5115 -6859 0
-5116 -6860 0
-5113 -6885 0
-5114 -6886 0
-5115 -6887 0
-5116 -6888 0
-5113 -7129 0
-5114 -7130 0
-5115 -7131 0
-5116 -7132 0
-5117 -5121 0
-5118 -5122 0
-5119 -5123 0
-5120 -5124 0
-5117 -5589 0
-5118 -5590 0
-5119 -5591 0
-5120 -5592 0
-5117 -5901 0
-5118 -5902 0
-5119 -5903 0
-5120 -5904 0
-5117 -6109 0
-5118 -6110 0
-5119 -6111 0
-5120 -6112 0
-5117 -6721 0
-5118 -6722 0
-5119 -6723 0
-5120 -6724 0
-5117 -6725 0
-5118 -6726 0
-5119 -6727 0
-5120 -6728 0
-5117 -6865 0
-5118 -6866 0
-5119 -6867 0
-5120 -6868 0
-5121 -5285 0
-5122 -5286 0
-5123 -5287 0
-5124 -5288 0
-5121 -5617 0
-5122 -5618 0
-5123 -5619 0
-5124 -5620 0
-5121 -5905 0
-5122 -5906 0
-5123 -5907 0
-5124 -5908 0
-5121 -6729 0
-5122 -6730 0
-5123 -6731 0
-5124 -6732 0
-5121 -6869 0
-5122 -6870 0
-5123 -6871 0
-5124 -6872 0
-5125 -5129 0
-5126 -5130 0
-5127 -5131 0
-5128 -5132 0
-5125 -5173 0
-5126 -5174 0
-5127 -5175 0
-5128 -5176 0
-5125 -5629 0
-5126 -5630 0
-5127 -5631 0
-5128 -5632 0
-5125 -6897 0
-5126 -6898 0
-5127 -6899 0
-5128 -6900 0
-5129 -5149 0
-5130 -5150 0
-5131 -5151 0
-5132 -5152 0
-5129 -5173 0
-5130 -5174 0
-5131 -5175 0
-5132 -5176 0
-5129 -6893 0
-5130 -6894 0
-5131 -6895 0
-5132 -6896 0
-5129 -6901 0
-5130 -6902 0
-5131 -6903 0
-5132 -6904 0
-5133 -5141 0
-5134 -5142 0
-5135 -5143 0
-5136 -5144 0
-5133 -5149 0
-5134 -5150 0
-5135 -5151 0
-5136 -5152 0
-5133 -5161 0
-5134 -5162 0
-5135 -5163 0
-5136 -5164 0
-5133 -5685 0
-5134 -5686 0
-5135 -5687 0
-5136 -5688 0
-5133 -6345 0
-5134 -6346 0
-5135 -6347 0
-5136 -6348 0
-5133 -6921 0
-5134 -6922 0
-5135 -6923 0
-5136 -6924 0
-5133 -7189 0
-5134 -7190 0
-5135 -7191 0
-5136 -7192 0
-5137 -5141 0
-5138 -5142 0
-5139 -5143 0
-5140 -5144 0
-5137 -5189 0
-5138 -5190 0
-5139 -5191 0
-5140 -5192 0
-5137 -5201 0
-5138 -5202 0
-5139 -5203 0
-5140 -5204 0
-5137 -6025 0
-5138 -6026 0
-5139 -6027 0
-5140 -6028 0
-5137 -6925 0
-5138 -6926 0
-5139 -6927 0
-5140 -6928 0
-5141 -5145 0
-5142 -5146 0
-5143 -5147 0
-5144 -5148 0
-5141 -5153 0
-5142 -5154 0
-5143 -5155 0
-5144 -5156 0
-5141 -5165 0
-5142 -5166 0
-5143 -5167 0
-5144 -5168 0
-5141 -5193 0
-5142 -5194 0
-5143 -5195 0
-5144 -5196 0
-5141 -5209 0
-5142 -5210 0
-5143 -5211 0
-5144 -5212 0
-5141 -5505 0
-5142 -5506 0
-5143 -5507 0
-5144 -5508 0
-5141 -5673 0
-5142 -5674 0
-5143 -5675 0
-5144 -5676 0
-5141 -5865 0
-5142 -5866 0
-5143 -5867 0
-5144 -5868 0
-5141 -6169 0
-5142 -6170 0
-5143 -6171 0
-5144 -6172 0
-5141 -6177 0
-5142 -6178 0
-5143 -6179 0
-5144 -6180 0
-5141 -6933 0
-5142 -6934 0
-5143 -6935 0
-5144 -6936 0
-5145 -5157 0
-5146 -5158 0
-5147 -5159 0
-5148 -5160 0
-5145 -5169 0
-5146 -5170 0
-5147 -5171 0
-5148 -5172 0
-5145 -5217 0
-5146 -5218 0
-5147 -5219 0
-5148 -5220 0
-5145 -5233 0
-5146 -5234 0
-5147 -5235 0
-5148 -5236 0
-5145 -5677 0
-5146 -5678 0
-5147 -5679 0
-5148 -5680 0
-5145 -5873 0
-5146 -5874 0
-5147 -5875 0
-5148 -5876 0
-5145 -6189 0
-5146 -6190 0
-5147 -6191 0
-5148 -6192 0
-5145 -6933 0
-5146 -6934 0
-5147 -6935 0
-5148 -6936 0
-5149 -5153 0
-5150 -5154 0
-5151 -5155 0
-5152 -5156 0
-5149 -5689 0
-5150 -5690 0
-5151 -5691 0
-5152 -5692 0
-5149 -6353 0
-5150 -6354 0
-5151 -6355 0
-5152 -6356 0
-5149 -6745 0
-5150 -6746 0
-5151 -6747 0
-5152 -6748 0
-5149 -6937 0
-5150 -6938 0
-5151 -6939 0
-5152 -6940 0
-5149 -6945 0
-5150 -6946 0
-5151 -6947 0
-5152 -6948 0
-5153 -5157 0
-5154 -5158 0
-5155 -5159 0
-5156 -5160 0
-5153 -5521 0
-5154 -5522 0
-5155 -5523 0
-5156 -5524 0
-5153 -5701 0
-5154 -5702 0
-5155 -5703 0
-5156 -5704 0
-5153 -5889 0
-5154 -5890 0
-5155 -5891 0
-5156 -5892 0
-5153 -6749 0
-5154 -6750 0
-5155 -6751 0
-5156 -6752 0
-5153 -6953 0
-5154 -6954 0
-5155 -6955 0
-5156 -6956 0
-5157 -5717 0
-5158 -5718 0
-5159 -5719 0
-5160 -5720 0
-5157 -5913 0
-5158 -5914 0
-5159 -5915 0
-5160 -5916 0
-5157 -6753 0
-5158 -6754 0
-5159 -6755 0
-5160 -6756 0
-5157 -6953 0
-5158 -6954 0
-5159 -6955 0
-5160 -6956 0
-5161 -5165 0
-5162 -5166 0
-5163 -5167 0
-5164 -5168 0
-5161 -5309 0
-5162 -5310 0
-5163 -5311 0
-5164 -5312 0
-5161 -5733 0
-5162 -5734 0
-5163 -5735 0
-5164 -5736 0
-5165 -5169 0
-5166 -5170 0
-5167 -5171 0
-5168 -5172 0
-5165 -5249 0
-5166 -5250 0
-5167 -5251 0
-5168 -5252 0
-5165 -5725 0
-5166 -5726 0
-5167 -5727 0
-5168 -5728 0
-5165 -5929 0
-5166 -5930 0
-5167 -5931 0
-5168 -5932 0
-5165 -6357 0
-5166 -6358 0
-5167 -6359 0
-5168 -6360 0
-5165 -6757 0
-5166 -6758 0
-5167 -6759 0
-5168 -6760 0
-5165 -6961 0
-5166 -6962 0
-5167 -6963 0
-5168 -6964 0
-5169 -5257 0
-5170 -5258 0
-5171 -5259 0
-5172 -5260 0
-5169 -5317 0
-5170 -5318 0
-5171 -5319 0
-5172 -5320 0
-5169 -5933 0
-5170 -5934 0
-5171 -5935 0
-5172 -5936 0
-5169 -6369 0
-5170 -6370 0
-5171 -6371 0
-5172 -6372 0
-5169 -6761 0
-5170 -6762 0
-5171 -6763 0
-5172 -6764 0
-5169 -6961 0
-5170 -6962 0
-5171 -6963 0
-5172 -6964 0
-5173 -5641 0
-5174 -5642 0
-5175 -5643 0
-5176 -5644 0
-5173 -6769 0
-5174 -6770 0
-5175 -6771 0
-5176 -6772 0
-5173 -6965 0
-5174 -6966 0
-5175 -6967 0
-5176 -6968 0
-5177 -5181 0
-5178 -5182 0
-5179 -5183 0
-5180 -5184 0
-5177 -5197 0
-5178 -5198 0
-5179 -5199 0
-5180 -5200 0
-5177 -5261 0
-5178 -5262 0
-5179 -5263 0
-5180 -5264 0
-5177 -5941 0
-5178 -5942 0
-5179 -5943 0
-5180 -5944 0
-5177 -6385 0
-5178 -6386 0
-5179 -6387 0
-5180 -6388 0
-5177 -6893 0
-5178 -6894 0
-5179 -6895 0
-5180 -6896 0
-5177 -6973 0
-5178 -6974 0
-5179 -6975 0
-5180 -6976 0
-5181 -5185 0
-5182 -5186 0
-5183 -5187 0
-5184 -5188 0
-5181 -5221 0
-5182 -5222 0
-5183 -5223 0
-5184 -5224 0
-5181 -5269 0
-5182 -5270 0
-5183 -5271 0
-5184 -5272 0
-5181 -5533 0
-5182 -5534 0
-5183 -5535 0
-5184 -5536 0
-5181 -5661 0
-5182 -5662 0
-5183 -5663 0
-5184 -5664 0
-5181 -5945 0
-5182 -5946 0
-5183 -5947 0
-5184 -5948 0
-5181 -6393 0
-5182 -6394 0
-5183 -6395 0
-5184 -6396 0
-5181 -6789 0
-5182 -6790 0
-5183 -6791 0
-5184 -6792 0
-5181 -6889 0
-5182 -6890 0
-5183 -6891 0
-5184 -6892 0
-5181 -6901 0
-5182 -6902 0
-5183 -6903 0
-5184 -6904 0
-5181 -6973 0
-5182 -6974 0
-5183 -6975 0
-5184 -6976 0
-5181 -6977 0
-5182 -6978 0
-5183 -6979 0
-5184 -6980 0
-5185 -5229 0
-5186 -5230 0
-5187 -5231 0
-5188 -5232 0
-5185 -5269 0
-5186 -5270 0
-5187 -5271 0
-5188 -5272 0
-5185 -5501 0
-5186 -5502 0
-5187 -5503 0
-5188 -5504 0
-5185 -5773 0
-5186 -5774 0
-5187 -5775 0
-5188 -5776 0
-5185 -6397 0
-5186 -6398 0
-5187 -6399 0
-5188 -6400 0
-5189 -5193 0
-5190 -5194 0
-5191 -5195 0
-5192 -5196 0
-5189 -5201 0
-5190 -5202 0
-5191 -5203 0
-5192 -5204 0
-5189 -5633 0
-5190 -5634 0
-5191 -5635 0
-5192 -5636 0
-5193 -5209 0
-5194 -5210 0
-5195 -5211 0
-5196 -5212 0
-5193 -5217 0
-5194 -5218 0
-5195 -5219 0
-5196 -5220 0
-5193 -5641 0
-5194 -5642 0
-5195 -5643 0
-5196 -5644 0
-5193 -6269 0
-5194 -6270 0
-5195 -6271 0
-5196 -6272 0
-5193 -6981 0
-5194 -6982 0
-5195 -6983 0
-5196 -6984 0
-5197 -5201 0
-5198 -5202 0
-5199 -5203 0
-5200 -5204 0
-5197 -5205 0
-5198 -5206 0
-5199 -5207 0
-5200 -5208 0
-5197 -5221 0
-5198 -5222 0
-5199 -5223 0
-5200 -5224 0
-5197 -5245 0
-5198 -5246 0
-5199 -5247 0
-5200 -5248 0
-5197 -5277 0
-5198 -5278 0
-5199 -5279 0
-5200 -5280 0
-5197 -5673 0
-5198 -5674 0
-5199 -5675 0
-5200 -5676 0
-5197 -5957 0
-5198 -5958 0
-5199 -5959 0
-5200 -5960 0
-5197 -6805 0
-5198 -6806 0
-5199 -6807 0
-5200 -6808 0
-5197 -6909 0
-5198 -6910 0
-5199 -6911 0
-5200 -6912 0
-5197 -6985 0
-5198 -6986 0
-5199 -6987 0
-5200 -6988 0
-5201 -5209 0
-5202 -5210 0
-5203 -5211 0
-5204 -5212 0
-5201 -5225 0
-5202 -5226 0
-5203 -5227 0
-5204 -5228 0
-5201 -5245 0
-5202 -5246 0
-5203 -5247 0
-5204 -5248 0
-5201 -5541 0
-5202 -5542 0
-5203 -5543 0
-5204 -5544 0
-5201 -6037 0
-5202 -6038 0
-5203 -6039 0
-5204 -6040 0
-5201 -6237 0
-5202 -6238 0
-5203 -6239 0
-5204 -6240 0
-5201 -6989 0
-5202 -6990 0
-5203 -6991 0
-5204 -6992 0
-5205 -5209 0
-5206 -5210 0
-5207 -5211 0
-5208 -5212 0
-5205 -5229 0
-5206 -5230 0
-5207 -5231 0
-5208 -5232 0
-5205 -5249 0
-5206 -5250 0
-5207 -5251 0
-5208 -5252 0
-5205 -5277 0
-5206 -5278 0
-5207 -5279 0
-5208 -5280 0
-5205 -5345 0
-5206 -5346 0
-5207 -5347 0
-5208 -5348 0
-5205 -5777 0
-5206 -5778 0
-5207 -5779 0
-5208 -5780 0
-5205 -6401 0
-5206 -6402 0
-5207 -6403 0
-5208 -6404 0
-5205 -6405 0
-5206 -6406 0
-5207 -6407 0
-5208 -6408 0
-5205 -6993 0
-5206 -6994 0
-5207 -6995 0
-5208 -6996 0
-5209 -5233 0
-5210 -5234 0
-5211 -5235 0
-5212 -5236 0
-5209 -5249 0
-5210 -5250 0
-5211 -5251 0
-5212 -5252 0
-5209 -5545 0
-5210 -5546 0
-5211 -5547 0
-5212 -5548 0
-5209 -6241 0
-5210 -6242 0
-5211 -6243 0
-5212 -6244 0
-5209 -6409 0
-5210 -6410 0
-5211 -6411 0
-5212 -6412 0
-5209 -6997 0
-5210 -6998 0
-5211 -6999 0
-5212 -7000 0
-5213 -5221 0
-5214 -5222 0
-5215 -5223 0
-5216 -5224 0
-5213 -5237 0
-5214 -5238 0
-5215 -5239 0
-5216 -5240 0
-5213 -5645 0
-5214 -5646 0
-5215 -5647 0
-5216 -5648 0
-5213 -6273 0
-5214 -6274 0
-5215 -6275 0
-5216 -6276 0
-5213 -6809 0
-5214 -6810 0
-5215 -6811 0
-5216 -6812 0
-5213 -6913 0
-5214 -6914 0
-5215 -6915 0
-5216 -6916 0
-5217 -5233 0
-5218 -5234 0
-5219 -5235 0
-5220 -5236 0
-5217 -6281 0
-5218 -6282 0
-5219 -6283 0
-5220 -6284 0
-5217 -6981 0
-5218 -6982 0
-5219 -6983 0
-5220 -6984 0
-5221 -5225 0
-5222 -5226 0
-5223 -5227 0
-5224 -5228 0
-5221 -5229 0
-5222 -5230 0
-5223 -5231 0
-5224 -5232 0
-5221 -5241 0
-5222 -5242 0
-5223 -5243 0
-5224 -5244 0
-5221 -5253 0
-5222 -5254 0
-5223 -5255 0
-5224 -5256 0
-5221 -5281 0
-5222 -5282 0
-5223 -5283 0
-5224 -5284 0
-5221 -5549 0
-5222 -5550 0
-5223 -5551 0
-5224 -5552 0
-5221 -5677 0
-5222 -5678 0
-5223 -5679 0
-5224 -5680 0
-5221 -5961 0
-5222 -5962 0
-5223 -5963 0
-5224 -5964 0
-5221 -6045 0
-5222 -6046 0
-5223 -6047 0
-5224 -6048 0
-5221 -6197 0
-5222 -6198 0
-5223 -6199 0
-5224 -6200 0
-5221 -6817 0
-5222 -6818 0
-5223 -6819 0
-5224 -6820 0
-5221 -6917 0
-5222 -6918 0
-5223 -6919 0
-5224 -6920 0
-5221 -6985 0
-5222 -6986 0
-5223 -6987 0
-5224 -6988 0
-5221 -7001 0
-5222 -7002 0
-5223 -7003 0
-5224 -7004 0
-5221 -7225 0
-5222 -7226 0
-5223 -7227 0
-5224 -7228 0
-5225 -5233 0
-5226 -5234 0
-5227 -5235 0
-5228 -5236 0
-5225 -5253 0
-5226 -5254 0
-5227 -5255 0
-5228 -5256 0
-5225 -5553 0
-5226 -5554 0
-5227 -5555 0
-5228 -5556 0
-5225 -6049 0
-5226 -6050 0
-5227 -6051 0
-5228 -6052 0
-5225 -6245 0
-5226 -6246 0
-5227 -6247 0
-5228 -6248 0
-5225 -6989 0
-5226 -6990 0
-5227 -6991 0
-5228 -6992 0
-5225 -7005 0
-5226 -7006 0
-5227 -7007 0
-5228 -7008 0
-5225 -7229 0
-5226 -7230 0
-5227 -7231 0
-5228 -7232 0
-5229 -5233 0
-5230 -5234 0
-5231 -5235 0
-5232 -5236 0
-5229 -5257 0
-5230 -5258 0
-5231 -5259 0
-5232 -5260 0
-5229 -5281 0
-5230 -5282 0
-5231 -5283 0
-5232 -5284 0
-5229 -5361 0
-5230 -5362 0
-5231 -5363 0
-5232 -5364 0
-5229 -5781 0
-5230 -5782 0
-5231 -5783 0
-5232 -5784 0
-5229 -5965 0
-5230 -5966 0
-5231 -5967 0
-5232 -5968 0
-5229 -6285 0
-5230 -6286 0
-5231 -6287 0
-5232 -6288 0
-5229 -6413 0
-5230 -6414 0
-5231 -6415 0
-5232 -6416 0
-5229 -6993 0
-5230 -6994 0
-5231 -6995 0
-5232 -6996 0
-5233 -5257 0
-5234 -5258 0
-5235 -5259 0
-5236 -5260 0
-5233 -5557 0
-5234 -5558 0
-5235 -5559 0
-5236 -5560 0
-5233 -6249 0
-5234 -6250 0
-5235 -6251 0
-5236 -6252 0
-5233 -6417 0
-5234 -6418 0
-5235 -6419 0
-5236 -6420 0
-5233 -6997 0
-5234 -6998 0
-5235 -6999 0
-5236 -7000 0
-5237 -5241 0
-5238 -5242 0
-5239 -5243 0
-5240 -5244 0
-5237 -5713 0
-5238 -5714 0
-5239 -5715 0
-5240 -5716 0
-5237 -6825 0
-5238 -6826 0
-5239 -6827 0
-5240 -6828 0
-5237 -6913 0
-5238 -6914 0
-5239 -6915 0
-5240 -6916 0
-5241 -5561 0
-5242 -5562 0
-5243 -5563 0
-5244 -5564 0
-5241 -5717 0
-5242 -5718 0
-5243 -5719 0
-5244 -5720 0
-5241 -5981 0
-5242 -5982 0
-5243 -5983 0
-5244 -5984 0
-5241 -6205 0
-5242 -6206 0
-5243 -6207 0
-5244 -6208 0
-5241 -6917 0
-5242 -6918 0
-5243 -6919 0
-5244 -6920 0
-5241 -7009 0
-5242 -7010 0
-5243 -7011 0
-5244 -7012 0
-5245 -5249 0
-5246 -5250 0
-5247 -5251 0
-5248 -5252 0
-5245 -5253 0
-5246 -5254 0
-5247 -5255 0
-5248 -5256 0
-5245 -5289 0
-5246 -5290 0
-5247 -5291 0
-5248 -5292 0
-5245 -5729 0
-5246 -5730 0
-5247 -5731 0
-5248 -5732 0
-5245 -6273 0
-5246 -6274 0
-5247 -6275 0
-5248 -6276 0
-5245 -6453 0
-5246 -6454 0
-5247 -6455 0
-5248 -6456 0
-5245 -7017 0
-5246 -7018 0
-5247 -7019 0
-5248 -7020 0
-5249 -5257 0
-5250 -5258 0
-5251 -5259 0
-5252 -5260 0
-5249 -5289 0
-5250 -5290 0
-5251 -5291 0
-5252 -5292 0
-5249 -5389 0
-5250 -5390 0
-5251 -5391 0
-5252 -5392 0
-5249 -5657 0
-5250 -5658 0
-5251 -5659 0
-5252 -5660 0
-5249 -6017 0
-5250 -6018 0
-5251 -6019 0
-5252 -6020 0
-5249 -6277 0
-5250 -6278 0
-5251 -6279 0
-5252 -6280 0
-5249 -6461 0
-5250 -6462 0
-5251 -6463 0
-5252 -6464 0
-5249 -7021 0
-5250 -7022 0
-5251 -7023 0
-5252 -7024 0
-5249 -7049 0
-5250 -7050 0
-5251 -7051 0
-5252 -7052 0
-5253 -5257 0
-5254 -5258 0
-5255 -5259 0
-5256 -5260 0
-5253 -5293 0
-5254 -5294 0
-5255 -5295 0
-5256 -5296 0
-5253 -6057 0
-5254 -6058 0
-5255 -6059 0
-5256 -6060 0
-5253 -6217 0
-5254 -6218 0
-5255 -6219 0
-5256 -6220 0
-5253 -6489 0
-5254 -6490 0
-5255 -6491 0
-5256 -6492 0
-5253 -7017 0
-5254 -7018 0
-5255 -7019 0
-5256 -7020 0
-5253 -7025 0
-5254 -7026 0
-5255 -7027 0
-5256 -7028 0
-5257 -5293 0
-5258 -5294 0
-5259 -5295 0
-5260 -5296 0
-5257 -5413 0
-5258 -5414 0
-5259 -5415 0
-5260 -5416 0
-5257 -6021 0
-5258 -6022 0
-5259 -6023 0
-5260 -6024 0
-5257 -6497 0
-5258 -6498 0
-5259 -6499 0
-5260 -6500 0
-5257 -7021 0
-5258 -7022 0
-5259 -7023 0
-5260 -7024 0
-5257 -7053 0
-5258 -7054 0
-5259 -7055 0
-5260 -7056 0
-5261 -5265 0
-5262 -5266 0
-5263 -5267 0
-5264 -5268 0
-5261 -5269 0
-5262 -5270 0
-5263 -5271 0
-5264 -5272 0
-5261 -5277 0
-5262 -5278 0
-5263 -5279 0
-5264 -5280 0
-5261 -6461 0
-5262 -6462 0
-5263 -6463 0
-5264 -6464 0
-5261 -6937 0
-5262 -6938 0
-5263 -6939 0
-5264 -6940 0
-5261 -7029 0
-5262 -7030 0
-5263 -7031 0
-5264 -7032 0
-5265 -5273 0
-5266 -5274 0
-5267 -5275 0
-5268 -5276 0
-5265 -5665 0
-5266 -5666 0
-5267 -5667 0
-5268 -5668 0
-5265 -6025 0
-5266 -6026 0
-5267 -6027 0
-5268 -6028 0
-5265 -6477 0
-5266 -6478 0
-5267 -6479 0
-5268 -6480 0
-5265 -7033 0
-5266 -7034 0
-5267 -7035 0
-5268 -7036 0
-5269 -5273 0
-5270 -5274 0
-5271 -5275 0
-5272 -5276 0
-5269 -5281 0
-5270 -5282 0
-5271 -5283 0
-5272 -5284 0
-5269 -5285 0
-5270 -5286 0
-5271 -5287 0
-5272 -5288 0
-5269 -5573 0
-5270 -5574 0
-5271 -5575 0
-5272 -5576 0
-5269 -6029 0
-5270 -6030 0
-5271 -6031 0
-5272 -6032 0
-5269 -6225 0
-5270 -6226 0
-5271 -6227 0
-5272 -6228 0
-5269 -6497 0
-5270 -6498 0
-5271 -6499 0
-5272 -6500 0
-5269 -6829 0
-5270 -6830 0
-5271 -6831 0
-5272 -6832 0
-5269 -6921 0
-5270 -6922 0
-5271 -6923 0
-5272 -6924 0
-5269 -6945 0
-5270 -6946 0
-5271 -6947 0
-5272 -6948 0
-5269 -7029 0
-5270 -7030 0
-5271 -7031 0
-5272 -7032 0
-5269 -7037 0
-5270 -7038 0
-5271 -7039 0
-5272 -7040 0
-5269 -7057 0
-5270 -7058 0
-5271 -7059 0
-5272 -7060 0
-5269 -7245 0
-5270 -7246 0
-5271 -7247 0
-5272 -7248 0
-5273 -5581 0
-5274 -5582 0
-5275 -5583 0
-5276 -5584 0
-5273 -5669 0
-5274 -5670 0
-5275 -5671 0
-5276 -5672 0
-5273 -5997 0
-5274 -5998 0
-5275 -5999 0
-5276 -6000 0
-5273 -6033 0
-5274 -6034 0
-5275 -6035 0
-5276 -6036 0
-5273 -6301 0
-5274 -6302 0
-5275 -6303 0
-5276 -6304 0
-5273 -6513 0
-5274 -6514 0
-5275 -6515 0
-5276 -6516 0
-5273 -6933 0
-5274 -6934 0
-5275 -6935 0
-5276 -6936 0
-5273 -6953 0
-5274 -6954 0
-5275 -6955 0
-5276 -6956 0
-5273 -7033 0
-5274 -7034 0
-5275 -7035 0
-5276 -7036 0
-5277 -5281 0
-5278 -5282 0
-5279 -5283 0
-5280 -5284 0
-5277 -5289 0
-5278 -5290 0
-5279 -5291 0
-5280 -5292 0
-5277 -5689 0
-5278 -5690 0
-5279 -5691 0
-5280 -5692 0
-5277 -6525 0
-5278 -6526 0
-5279 -6527 0
-5280 -6528 0
-5277 -7041 0
-5278 -7042 0
-5279 -7043 0
-5280 -7044 0
-5281 -5293 0
-5282 -5294 0
-5283 -5295 0
-5284 -5296 0
-5281 -5441 0
-5282 -5442 0
-5283 -5443 0
-5284 -5444 0
-5281 -5709 0
-5282 -5710 0
-5283 -5711 0
-5284 -5712 0
-5281 -6005 0
-5282 -6006 0
-5283 -6007 0
-5284 -6008 0
-5281 -6241 0
-5282 -6242 0
-5283 -6243 0
-5284 -6244 0
-5281 -6529 0
-5282 -6530 0
-5283 -6531 0
-5284 -6532 0
-5281 -7041 0
-5282 -7042 0
-5283 -7043 0
-5284 -7044 0
-5281 -7057 0
-5282 -7058 0
-5283 -7059 0
-5284 -7060 0
-5281 -7253 0
-5282 -7254 0
-5283 -7255 0
-5284 -7256 0
-5285 -5293 0
-5286 -5294 0
-5287 -5295 0
-5288 -5296 0
-5285 -5789 0
-5286 -5790 0
-5287 -5791 0
-5288 -5792 0
-5285 -6545 0
-5286 -6546 0
-5287 -6547 0
-5288 -6548 0
-5285 -6837 0
-5286 -6838 0
-5287 -6839 0
-5288 -6840 0
-5285 -6957 0
-5286 -6958 0
-5287 -6959 0
-5288 -6960 0
-5285 -7061 0
-5286 -7062 0
-5287 -7063 0
-5288 -7064 0
-5289 -5293 0
-5290 -5294 0
-5291 -5295 0
-5292 -5296 0
-5289 -5449 0
-5290 -5450 0
-5291 -5451 0
-5292 -5452 0
-5289 -5737 0
-5290 -5738 0
-5291 -5739 0
-5292 -5740 0
-5289 -6269 0
-5290 -6270 0
-5291 -6271 0
-5292 -6272 0
-5289 -6549 0
-5290 -6550 0
-5291 -6551 0
-5292 -6552 0
-5289 -6849 0
-5290 -6850 0
-5291 -6851 0
-5292 -6852 0
-5289 -7045 0
-5290 -7046 0
-5291 -7047 0
-5292 -7048 0
-5293 -5461 0
-5294 -5462 0
-5295 -5463 0
-5296 -5464 0
-5293 -5753 0
-5294 -5754 0
-5295 -5755 0
-5296 -5756 0
-5293 -6281 0
-5294 -6282 0
-5295 -6283 0
-5296 -6284 0
-5293 -6557 0
-5294 -6558 0
-5295 -6559 0
-5296 -6560 0
-5293 -6853 0
-5294 -6854 0
-5295 -6855 0
-5296 -6856 0
-5293 -7045 0
-5294 -7046 0
-5295 -7047 0
-5296 -7048 0
-5293 -7061 0
-5294 -7062 0
-5295 -7063 0
-5296 -7064 0
-5297 -5681 0
-5298 -5682 0
-5299 -5683 0
-5300 -5684 0
-5297 -6605 0
-5298 -6606 0
-5299 -6607 0
-5300 -6608 0
-5297 -7057 0
-5298 -7058 0
-5299 -7059 0
-5300 -7060 0
-5301 -5305 0
-5302 -5306 0
-5303 -5307 0
-5304 -5308 0
-5301 -5393 0
-5302 -5394 0
-5303 -5395 0
-5304 -5396 0
-5301 -5405 0
-5302 -5406 0
-5303 -5407 0
-5304 -5408 0
-5301 -6109 0
-5302 -6110 0
-5303 -6111 0
-5304 -6112 0
-5301 -6329 0
-5302 -6330 0
-5303 -6331 0
-5304 -6332 0
-5301 -6869 0
-5302 -6870 0
-5303 -6871 0
-5304 -6872 0
-5305 -5397 0
-5306 -5398 0
-5307 -5399 0
-5308 -5400 0
-5305 -5413 0
-5306 -5414 0
-5307 -5415 0
-5308 -5416 0
-5305 -5553 0
-5306 -5554 0
-5307 -5555 0
-5308 -5556 0
-5305 -6117 0
-5306 -6118 0
-5307 -6119 0
-5308 -6120 0
-5305 -6321 0
-5306 -6322 0
-5307 -6323 0
-5308 -6324 0
-5305 -7093 0
-5306 -7094 0
-5307 -7095 0
-5308 -7096 0
-5309 -5313 0
-5310 -5314 0
-5311 -5315 0
-5312 -5316 0
-5309 -5321 0
-5310 -5322 0
-5311 -5323 0
-5312 -5324 0
-5309 -5377 0
-5310 -5378 0
-5311 -5379 0
-5312 -5380 0
-5309 -5381 0
-5310 -5382 0
-5311 -5383 0
-5312 -5384 0
-5309 -5881 0
-5310 -5882 0
-5311 -5883 0
-5312 -5884 0
-5309 -6069 0
-5310 -6070 0
-5311 -6071 0
-5312 -6072 0
-5309 -7081 0
-5310 -7082 0
-5311 -7083 0
-5312 -7084 0
-5309 -7185 0
-5310 -7186 0
-5311 -7187 0
-5312 -7188 0
-5313 -5317 0
-5314 -5318 0
-5315 -5319 0
-5316 -5320 0
-5313 -5325 0
-5314 -5326 0
-5315 -5327 0
-5316 -5328 0
-5313 -5393 0
-5314 -5394 0
-5315 -5395 0
-5316 -5396 0
-5313 -5397 0
-5314 -5398 0
-5315 -5399 0
-5316 -5400 0
-5313 -5905 0
-5314 -5906 0
-5315 -5907 0
-5316 -5908 0
-5313 -6085 0
-5314 -6086 0
-5315 -6087 0
-5316 -6088 0
-5313 -6889 0
-5314 -6890 0
-5315 -6891 0
-5316 -6892 0
-5313 -7081 0
-5314 -7082 0
-5315 -7083 0
-5316 -7084 0
-5313 -7193 0
-5314 -7194 0
-5315 -7195 0
-5316 -7196 0
-5313 -7289 0
-5314 -7290 0
-5315 -7291 0
-5316 -7292 0
-5317 -5405 0
-5318 -5406 0
-5319 -5407 0
-5320 -5408 0
-5317 -5413 0
-5318 -5414 0
-5319 -5415 0
-5320 -5416 0
-5317 -6093 0
-5318 -6094 0
-5319 -6095 0
-5320 -6096 0
-5317 -6369 0
-5318 -6370 0
-5319 -6371 0
-5320 -6372 0
-5317 -6381 0
-5318 -6382 0
-5319 -6383 0
-5320 -6384 0
-5321 -5325 0
-5322 -5326 0
-5323 -5327 0
-5324 -5328 0
-5321 -5329 0
-5322 -5330 0
-5323 -5331 0
-5324 -5332 0
-5321 -5425 0
-5322 -5426 0
-5323 -5427 0
-5324 -5428 0
-5321 -5721 0
-5322 -5722 0
-5323 -5723 0
-5324 -5724 0
-5321 -6173 0
-5322 -6174 0
-5323 -6175 0
-5324 -6176 0
-5321 -6341 0
-5322 -6342 0
-5323 -6343 0
-5324 -6344 0
-5321 -7085 0
-5322 -7086 0
-5323 -7087 0
-5324 -7088 0
-5321 -7185 0
-5322 -7186 0
-5323 -7187 0
-5324 -7188 0
-5325 -5333 0
-5326 -5334 0
-5327 -5335 0
-5328 -5336 0
-5325 -5429 0
-5326 -5430 0
-5327 -5431 0
-5328 -5432 0
-5325 -6185 0
-5326 -6186 0
-5327 -6187 0
-5328 -6188 0
-5325 -6345 0
-5326 -6346 0
-5327 -6347 0
-5328 -6348 0
-5325 -7085 0
-5326 -7086 0
-5327 -7087 0
-5328 -7088 0
-5325 -7193 0
-5326 -7194 0
-5327 -7195 0
-5328 -7196 0
-5329 -5333 0
-5330 -5334 0
-5331 -5335 0
-5332 -5336 0
-5329 -5433 0
-5330 -5434 0
-5331 -5435 0
-5332 -5436 0
-5329 -5737 0
-5330 -5738 0
-5331 -5739 0
-5332 -5740 0
-5329 -6349 0
-5330 -6350 0
-5331 -6351 0
-5332 -6352 0
-5329 -6909 0
-5330 -6910 0
-5331 -6911 0
-5332 -6912 0
-5329 -7089 0
-5330 -7090 0
-5331 -7091 0
-5332 -7092 0
-5333 -5753 0
-5334 -5754 0
-5335 -5755 0
-5336 -5756 0
-5333 -6353 0
-5334 -6354 0
-5335 -6355 0
-5336 -6356 0
-5333 -6917 0
-5334 -6918 0
-5335 -6919 0
-5336 -6920 0
-5333 -7089 0
-5334 -7090 0
-5335 -7091 0
-5336 -7092 0
-5337 -5341 0
-5338 -5342 0
-5339 -5343 0
-5340 -5344 0
-5337 -5349 0
-5338 -5350 0
-5339 -5351 0
-5340 -5352 0
-5337 -5377 0
-5338 -5378 0
-5339 -5379 0
-5340 -5380 0
-5337 -6633 0
-5338 -6634 0
-5339 -6635 0
-5340 -6636 0
-5337 -7097 0
-5338 -7098 0
-5339 -7099 0
-5340 -7100 0
-5337 -7301 0
-5338 -7302 0
-5339 -7303 0
-5340 -7304 0
-5341 -5345 0
-5342 -5346 0
-5343 -5347 0
-5344 -5348 0
-5341 -5357 0
-5342 -5358 0
-5343 -5359 0
-5344 -5360 0
-5341 -5385 0
-5342 -5386 0
-5343 -5387 0
-5344 -5388 0
-5341 -5809 0
-5342 -5810 0
-5343 -5811 0
-5344 -5812 0
-5341 -6437 0
-5342 -6438 0
-5343 -6439 0
-5344 -6440 0
-5341 -7105 0
-5342 -7106 0
-5343 -7107 0
-5344 -7108 0
-5345 -5361 0
-5346 -5362 0
-5347 -5363 0
-5348 -5364 0
-5345 -5389 0
-5346 -5390 0
-5347 -5391 0
-5348 -5392 0
-5345 -6405 0
-5346 -6406 0
-5347 -6407 0
-5348 -6408 0
-5349 -5353 0
-5350 -5354 0
-5351 -5355 0
-5352 -5356 0
-5349 -5357 0
-5350 -5358 0
-5351 -5359 0
-5352 -5360 0
-5349 -5365 0
-5350 -5366 0
-5351 -5367 0
-5352 -5368 0
-5349 -5393 0
-5350 -5394 0
-5351 -5395 0
-5352 -5396 0
-5349 -5501 0
-5350 -5502 0
-5351 -5503 0
-5352 -5504 0
-5349 -6441 0
-5350 -6442 0
-5351 -6443 0
-5352 -6444 0
-5349 -6637 0
-5350 -6638 0
-5351 -6639 0
-5352 -6640 0
-5349 -6921 0
-5350 -6922 0
-5351 -6923 0
-5352 -6924 0
-5349 -7097 0
-5350 -7098 0
-5351 -7099 0
-5352 -7100 0
-5349 -7109 0
-5350 -7110 0
-5351 -7111 0
-5352 -7112 0
-5349 -7317 0
-5350 -7318 0
-5351 -7319 0
-5352 -7320 0
-5353 -5369 0
-5354 -5370 0
-5355 -5371 0
-5356 -5372 0
-5353 -5393 0
-5354 -5394 0
-5355 -5395 0
-5356 -5396 0
-5353 -5505 0
-5354 -5506 0
-5355 -5507 0
-5356 -5508 0
-5353 -6225 0
-5354 -6226 0
-5355 -6227 0
-5356 -6228 0
-5353 -6445 0
-5354 -6446 0
-5355 -6447 0
-5356 -6448 0
-5353 -7101 0
-5354 -7102 0
-5355 -7103 0
-5356 -7104 0
-5353 -7113 0
-5354 -7114 0
-5355 -7115 0
-5356 -7116 0
-5353 -7321 0
-5354 -7322 0
-5355 -7323 0
-5356 -7324 0
-5357 -5361 0
-5358 -5362 0
-5359 -5363 0
-5360 -5364 0
-5357 -5373 0
-5358 -5374 0
-5359 -5375 0
-5360 -5376 0
-5357 -5401 0
-5358 -5402 0
-5359 -5403 0
-5360 -5404 0
-5357 -5405 0
-5358 -5406 0
-5359 -5407 0
-5360 -5408 0
-5357 -5437 0
-5358 -5438 0
-5359 -5439 0
-5360 -5440 0
-5357 -5473 0
-5358 -5474 0
-5359 -5475 0
-5360 -5476 0
-5357 -5501 0
-5358 -5502 0
-5359 -5503 0
-5360 -5504 0
-5357 -5765 0
-5358 -5766 0
-5359 -5767 0
-5360 -5768 0
-5357 -5813 0
-5358 -5814 0
-5359 -5815 0
-5360 -5816 0
-5357 -6149 0
-5358 -6150 0
-5359 -6151 0
-5360 -6152 0
-5357 -6461 0
-5358 -6462 0
-5359 -6463 0
-5360 -6464 0
-5357 -6933 0
-5358 -6934 0
-5359 -6935 0
-5360 -6936 0
-5357 -7069 0
-5358 -7070 0
-5359 -7071 0
-5360 -7072 0
-5357 -7105 0
-5358 -7106 0
-5359 -7107 0
-5360 -7108 0
-5357 -7117 0
-5358 -7118 0
-5359 -7119 0
-5360 -7120 0
-5361 -5409 0
-5362 -5410 0
-5363 -5411 0
-5364 -5412 0
-5361 -5413 0
-5362 -5414 0
-5363 -5415 0
-5364 -5416 0
-5361 -5441 0
-5362 -5442 0
-5363 -5443 0
-5364 -5444 0
-5361 -5473 0
-5362 -5474 0
-5363 -5475 0
-5364 -5476 0
-5361 -5673 0
-5362 -5674 0
-5363 -5675 0
-5364 -5676 0
-5361 -5953 0
-5362 -5954 0
-5363 -5955 0
-5364 -5956 0
-5361 -6105 0
-5362 -6106 0
-5363 -6107 0
-5364 -6108 0
-5361 -6413 0
-5362 -6414 0
-5363 -6415 0
-5364 -6416 0
-5361 -6473 0
-5362 -6474 0
-5363 -6475 0
-5364 -6476 0
-5361 -7121 0
-5362 -7122 0
-5363 -7123 0
-5364 -7124 0
-5365 -5369 0
-5366 -5370 0
-5367 -5371 0
-5368 -5372 0
-5365 -5373 0
-5366 -5374 0
-5367 -5375 0
-5368 -5376 0
-5365 -5421 0
-5366 -5422 0
-5367 -5423 0
-5368 -5424 0
-5365 -5517 0
-5366 -5518 0
-5367 -5519 0
-5368 -5520 0
-5365 -5681 0
-5366 -5682 0
-5367 -5683 0
-5368 -5684 0
-5365 -5857 0
-5366 -5858 0
-5367 -5859 0
-5368 -5860 0
-5365 -6645 0
-5366 -6646 0
-5367 -6647 0
-5368 -6648 0
-5365 -6945 0
-5366 -6946 0
-5367 -6947 0
-5368 -6948 0
-5365 -7125 0
-5366 -7126 0
-5367 -7127 0
-5368 -7128 0
-5369 -5421 0
-5370 -5422 0
-5371 -5423 0
-5372 -5424 0
-5369 -5521 0
-5370 -5522 0
-5371 -5523 0
-5372 -5524 0
-5369 -5685 0
-5370 -5686 0
-5371 -5687 0
-5372 -5688 0
-5369 -5945 0
-5370 -5946 0
-5371 -5947 0
-5372 -5948 0
-5373 -5517 0
-5374 -5518 0
-5375 -5519 0
-5376 -5520 0
-5373 -5697 0
-5374 -5698 0
-5375 -5699 0
-5376 -5700 0
-5373 -5773 0
-5374 -5774 0
-5375 -5775 0
-5376 -5776 0
-5373 -5949 0
-5374 -5950 0
-5375 -5951 0
-5376 -5952 0
-5373 -6109 0
-5374 -6110 0
-5375 -6111 0
-5376 -6112 0
-5373 -6153 0
-5374 -6154 0
-5375 -6155 0
-5376 -6156 0
-5373 -6517 0
-5374 -6518 0
-5375 -6519 0
-5376 -6520 0
-5373 -6953 0
-5374 -6954 0
-5375 -6955 0
-5376 -6956 0
-5373 -7069 0
-5374 -7070 0
-5375 -7071 0
-5376 -7072 0
-5373 -7129 0
-5374 -7130 0
-5375 -7131 0
-5376 -7132 0
-5377 -5381 0
-5378 -5382 0
-5379 -5383 0
-5380 -5384 0
-5377 -5385 0
-5378 -5386 0
-5379 -5387 0
-5380 -5388 0
-5377 -5393 0
-5378 -5394 0
-5379 -5395 0
-5380 -5396 0
-5377 -5417 0
-5378 -5418 0
-5379 -5419 0
-5380 -5420 0
-5377 -5425 0
-5378 -5426 0
-5379 -5427 0
-5380 -5428 0
-5377 -5865 0
-5378 -5866 0
-5379 -5867 0
-5380 -5868 0
-5377 -5957 0
-5378 -5958 0
-5379 -5959 0
-5380 -5960 0
-5377 -7133 0
-5378 -7134 0
-5379 -7135 0
-5380 -7136 0
-5377 -7209 0
-5378 -7210 0
-5379 -7211 0
-5380 -7212 0
-5377 -7329 0
-5378 -7330 0
-5379 -7331 0
-5380 -7332 0
-5381 -5389 0
-5382 -5390 0
-5383 -5391 0
-5384 -5392 0
-5381 -5397 0
-5382 -5398 0
-5383 -5399 0
-5384 -5400 0
-5381 -5869 0
-5382 -5870 0
-5383 -5871 0
-5384 -5872 0
-5381 -6441 0
-5382 -6442 0
-5383 -6443 0
-5384 -6444 0
-5381 -7137 0
-5382 -7138 0
-5383 -7139 0
-5384 -7140 0
-5381 -7213 0
-5382 -7214 0
-5383 -7215 0
-5384 -7216 0
-5385 -5389 0
-5386 -5390 0
-5387 -5391 0
-5388 -5392 0
-5385 -5405 0
-5386 -5406 0
-5387 -5407 0
-5388 -5408 0
-5385 -5545 0
-5386 -5546 0
-5387 -5547 0
-5388 -5548 0
-5385 -5821 0
-5386 -5822 0
-5387 -5823 0
-5388 -5824 0
-5385 -6449 0
-5386 -6450 0
-5387 -6451 0
-5388 -6452 0
-5385 -7141 0
-5386 -7142 0
-5387 -7143 0
-5388 -7144 0
-5389 -5413 0
-5390 -5414 0
-5391 -5415 0
-5392 -5416 0
-5389 -5449 0
-5390 -5450 0
-5391 -5451 0
-5392 -5452 0
-5389 -5453 0
-5390 -5454 0
-5391 -5455 0
-5392 -5456 0
-5389 -6157 0
-5390 -6158 0
-5391 -6159 0
-5392 -6160 0
-5389 -6461 0
-5390 -6462 0
-5391 -6463 0
-5392 -6464 0
-5389 -7145 0
-5390 -7146 0
-5391 -7147 0
-5392 -7148 0
-5393 -5397 0
-5394 -5398 0
-5395 -5399 0
-5396 -5400 0
-5393 -5405 0
-5394 -5406 0
-5395 -5407 0
-5396 -5408 0
-5393 -5421 0
-5394 -5422 0
-5395 -5423 0
-5396 -5424 0
-5393 -5429 0
-5394 -5430 0
-5395 -5431 0
-5396 -5432 0
-5393 -5537 0
-5394 -5538 0
-5395 -5539 0
-5396 -5540 0
-5393 -5873 0
-5394 -5874 0
-5395 -5875 0
-5396 -5876 0
-5393 -5961 0
-5394 -5962 0
-5395 -5963 0
-5396 -5964 0
-5393 -6253 0
-5394 -6254 0
-5395 -6255 0
-5396 -6256 0
-5393 -6957 0
-5394 -6958 0
-5395 -6959 0
-5396 -6960 0
-5393 -7133 0
-5394 -7134 0
-5395 -7135 0
-5396 -7136 0
-5393 -7149 0
-5394 -7150 0
-5395 -7151 0
-5396 -7152 0
-5393 -7217 0
-5394 -7218 0
-5395 -7219 0
-5396 -7220 0
-5393 -7333 0
-5394 -7334 0
-5395 -7335 0
-5396 -7336 0
-5397 -5413 0
-5398 -5414 0
-5399 -5415 0
-5400 -5416 0
-5397 -5721 0
-5398 -5722 0
-5399 -5723 0
-5400 -5724 0
-5397 -5985 0
-5398 -5986 0
-5399 -5987 0
-5400 -5988 0
-5397 -6481 0
-5398 -6482 0
-5399 -6483 0
-5400 -6484 0
-5397 -6649 0
-5398 -6650 0
-5399 -6651 0
-5400 -6652 0
-5397 -7137 0
-5398 -7138 0
-5399 -7139 0
-5400 -7140 0
-5397 -7153 0
-5398 -7154 0
-5399 -7155 0
-5400 -7156 0
-5397 -7221 0
-5398 -7222 0
-5399 -7223 0
-5400 -7224 0
-5397 -7337 0
-5398 -7338 0
-5399 -7339 0
-5400 -7340 0
-5401 -5405 0
-5402 -5406 0
-5403 -5407 0
-5404 -5408 0
-5401 -5409 0
-5402 -5410 0
-5403 -5411 0
-5404 -5412 0
-5401 -5477 0
-5402 -5478 0
-5403 -5479 0
-5404 -5480 0
-5401 -6125 0
-5402 -6126 0
-5403 -6127 0
-5404 -6128 0
-5401 -6533 0
-5402 -6534 0
-5403 -6535 0
-5404 -6536 0
-5401 -6961 0
-5402 -6962 0
-5403 -6963 0
-5404 -6964 0
-5405 -5413 0
-5406 -5414 0
-5407 -5415 0
-5408 -5416 0
-5405 -5481 0
-5406 -5482 0
-5407 -5483 0
-5408 -5484 0
-5405 -5557 0
-5406 -5558 0
-5407 -5559 0
-5408 -5560 0
-5405 -5825 0
-5406 -5826 0
-5407 -5827 0
-5408 -5828 0
-5405 -5969 0
-5406 -5970 0
-5407 -5971 0
-5408 -5972 0
-5405 -6161 0
-5406 -6162 0
-5407 -6163 0
-5408 -6164 0
-5405 -6257 0
-5406 -6258 0
-5407 -6259 0
-5408 -6260 0
-5405 -6485 0
-5406 -6486 0
-5407 -6487 0
-5408 -6488 0
-5405 -6537 0
-5406 -6538 0
-5407 -6539 0
-5408 -6540 0
-5405 -7141 0
-5406 -7142 0
-5407 -7143 0
-5408 -7144 0
-5405 -7157 0
-5406 -7158 0
-5407 -7159 0
-5408 -7160 0
-5409 -5413 0
-5410 -5414 0
-5411 -5415 0
-5412 -5416 0
-5409 -5457 0
-5410 -5458 0
-5411 -5459 0
-5412 -5460 0
-5409 -5465 0
-5410 -5466 0
-5411 -5467 0
-5412 -5468 0
-5409 -5477 0
-5410 -5478 0
-5411 -5479 0
-5412 -5480 0
-5409 -5725 0
-5410 -5726 0
-5411 -5727 0
-5412 -5728 0
-5409 -5993 0
-5410 -5994 0
-5411 -5995 0
-5412 -5996 0
-5409 -6129 0
-5410 -6130 0
-5411 -6131 0
-5412 -6132 0
-5409 -6389 0
-5410 -6390 0
-5411 -6391 0
-5412 -6392 0
-5409 -6493 0
-5410 -6494 0
-5411 -6495 0
-5412 -6496 0
-5409 -6653 0
-5410 -6654 0
-5411 -6655 0
-5412 -6656 0
-5409 -7225 0
-5410 -7226 0
-5411 -7227 0
-5412 -7228 0
-5413 -5461 0
-5414 -5462 0
-5415 -5463 0
-5416 -5464 0
-5413 -5469 0
-5414 -5470 0
-5415 -5471 0
-5416 -5472 0
-5413 -5481 0
-5414 -5482 0
-5415 -5483 0
-5416 -5484 0
-5413 -5729 0
-5414 -5730 0
-5415 -5731 0
-5416 -5732 0
-5413 -5801 0
-5414 -5802 0
-5415 -5803 0
-5416 -5804 0
-5413 -6165 0
-5414 -6166 0
-5415 -6167 0
-5416 -6168 0
-5413 -6261 0
-5414 -6262 0
-5415 -6263 0
-5416 -6264 0
-5413 -6497 0
-5414 -6498 0
-5415 -6499 0
-5416 -6500 0
-5413 -6657 0
-5414 -6658 0
-5415 -6659 0
-5416 -6660 0
-5413 -7145 0
-5414 -7146 0
-5415 -7147 0
-5416 -7148 0
-5413 -7161 0
-5414 -7162 0
-5415 -7163 0
-5416 -7164 0
-5413 -7229 0
-5414 -7230 0
-5415 -7231 0
-5416 -7232 0
-5417 -5421 0
-5418 -5422 0
-5419 -5423 0
-5420 -5424 0
-5417 -5433 0
-5418 -5434 0
-5419 -5435 0
-5420 -5436 0
-5417 -5889 0
-5418 -5890 0
-5419 -5891 0
-5420 -5892 0
-5417 -5977 0
-5418 -5978 0
-5419 -5979 0
-5420 -5980 0
-5417 -7165 0
-5418 -7166 0
-5419 -7167 0
-5420 -7168 0
-5421 -5733 0
-5422 -5734 0
-5423 -5735 0
-5424 -5736 0
-5421 -5913 0
-5422 -5914 0
-5423 -5915 0
-5424 -5916 0
-5421 -5981 0
-5422 -5982 0
-5423 -5983 0
-5424 -5984 0
-5421 -6965 0
-5422 -6966 0
-5423 -6967 0
-5424 -6968 0
-5421 -7165 0
-5422 -7166 0
-5423 -7167 0
-5424 -7168 0
-5425 -5429 0
-5426 -5430 0
-5427 -5431 0
-5428 -5432 0
-5425 -5433 0
-5426 -5434 0
-5427 -5435 0
-5428 -5436 0
-5425 -5541 0
-5426 -5542 0
-5427 -5543 0
-5428 -5544 0
-5425 -5829 0
-5426 -5830 0
-5427 -5831 0
-5428 -5832 0
-5425 -6265 0
-5426 -6266 0
-5427 -6267 0
-5428 -6268 0
-5425 -7169 0
-5426 -7170 0
-5427 -7171 0
-5428 -7172 0
-5425 -7209 0
-5426 -7210 0
-5427 -7211 0
-5428 -7212 0
-5429 -5553 0
-5430 -5554 0
-5431 -5555 0
-5432 -5556 0
-5429 -5837 0
-5430 -5838 0
-5431 -5839 0
-5432 -5840 0
-5429 -6277 0
-5430 -6278 0
-5431 -6279 0
-5432 -6280 0
-5429 -6665 0
-5430 -6666 0
-5431 -6667 0
-5432 -6668 0
-5429 -7169 0
-5430 -7170 0
-5431 -7171 0
-5432 -7172 0
-5429 -7173 0
-5430 -7174 0
-5431 -7175 0
-5432 -7176 0
-5429 -7217 0
-5430 -7218 0
-5431 -7219 0
-5432 -7220 0
-5433 -5929 0
-5434 -5930 0
-5435 -5931 0
-5436 -5932 0
-5437 -5441 0
-5438 -5442 0
-5439 -5443 0
-5440 -5444 0
-5437 -5485 0
-5438 -5486 0
-5439 -5487 0
-5440 -5488 0
-5437 -5853 0
-5438 -5854 0
-5439 -5855 0
-5440 -5856 0
-5437 -6549 0
-5438 -6550 0
-5439 -6551 0
-5440 -6552 0
-5437 -7077 0
-5438 -7078 0
-5439 -7079 0
-5440 -7080 0
-5437 -7177 0
-5438 -7178 0
-5439 -7179 0
-5440 -7180 0
-5437 -7361 0
-5438 -7362 0
-5439 -7363 0
-5440 -7364 0
-5441 -5457 0
-5442 -5458 0
-5443 -5459 0
-5444 -5460 0
-5441 -5461 0
-5442 -5462 0
-5443 -5463 0
-5444 -5464 0
-5441 -5485 0
-5442 -5486 0
-5443 -5487 0
-5444 -5488 0
-5441 -5805 0
-5442 -5806 0
-5443 -5807 0
-5444 -5808 0
-5441 -5861 0
-5442 -5862 0
-5443 -5863 0
-5444 -5864 0
-5441 -6133 0
-5442 -6134 0
-5443 -6135 0
-5444 -6136 0
-5441 -6409 0
-5442 -6410 0
-5443 -6411 0
-5444 -6412 0
-5441 -6677 0
-5442 -6678 0
-5443 -6679 0
-5444 -6680 0
-5441 -7365 0
-5442 -7366 0
-5443 -7367 0
-5444 -7368 0
-5445 -5457 0
-5446 -5458 0
-5447 -5459 0
-5448 -5460 0
-5445 -6141 0
-5446 -6142 0
-5447 -6143 0
-5448 -6144 0
-5445 -6421 0
-5446 -6422 0
-5447 -6423 0
-5448 -6424 0
-5445 -6689 0
-5446 -6690 0
-5447 -6691 0
-5448 -6692 0
-5445 -6973 0
-5446 -6974 0
-5447 -6975 0
-5448 -6976 0
-5445 -7081 0
-5446 -7082 0
-5447 -7083 0
-5448 -7084 0
-5445 -7241 0
-5446 -7242 0
-5447 -7243 0
-5448 -7244 0
-5449 -5453 0
-5450 -5454 0
-5451 -5455 0
-5452 -5456 0
-5449 -5461 0
-5450 -5462 0
-5451 -5463 0
-5452 -5464 0
-5449 -6549 0
-5450 -6550 0
-5451 -6551 0
-5452 -6552 0
-5449 -7181 0
-5450 -7182 0
-5451 -7183 0
-5452 -7184 0
-5453 -5469 0
-5454 -5470 0
-5455 -5471 0
-5456 -5472 0
-5453 -5897 0
-5454 -5898 0
-5455 -5899 0
-5456 -5900 0
-5453 -6177 0
-5454 -6178 0
-5455 -6179 0
-5456 -6180 0
-5453 -6553 0
-5454 -6554 0
-5455 -6555 0
-5456 -6556 0
-5457 -5461 0
-5458 -5462 0
-5459 -5463 0
-5460 -5464 0
-5457 -5465 0
-5458 -5466 0
-5459 -5467 0
-5460 -5468 0
-5457 -5489 0
-5458 -5490 0
-5459 -5491 0
-5460 -5492 0
-5457 -5789 0
-5458 -5790 0
-5459 -5791 0
-5460 -5792 0
-5457 -5917 0
-5458 -5918 0
-5459 -5919 0
-5460 -5920 0
-5457 -5937 0
-5458 -5938 0
-5459 -5939 0
-5460 -5940 0
-5457 -6145 0
-5458 -6146 0
-5459 -6147 0
-5460 -6148 0
-5457 -6461 0
-5458 -6462 0
-5459 -6463 0
-5460 -6464 0
-5457 -6985 0
-5458 -6986 0
-5459 -6987 0
-5460 -6988 0
-5457 -7085 0
-5458 -7086 0
-5459 -7087 0
-5460 -7088 0
-5457 -7089 0
-5458 -7090 0
-5459 -7091 0
-5460 -7092 0
-5457 -7241 0
-5458 -7242 0
-5459 -7243 0
-5460 -7244 0
-5457 -7389 0
-5458 -7390 0
-5459 -7391 0
-5460 -7392 0
-5461 -5469 0
-5462 -5470 0
-5463 -5471 0
-5464 -5472 0
-5461 -6301 0
-5462 -6302 0
-5463 -6303 0
-5464 -6304 0
-5461 -6465 0
-5462 -6466 0
-5463 -6467 0
-5464 -6468 0
-5461 -6557 0
-5462 -6558 0
-5463 -6559 0
-5464 -6560 0
-5461 -6989 0
-5462 -6990 0
-5463 -6991 0
-5464 -6992 0
-5461 -7181 0
-5462 -7182 0
-5463 -7183 0
-5464 -7184 0
-5461 -7393 0
-5462 -7394 0
-5463 -7395 0
-5464 -7396 0
-5465 -5469 0
-5466 -5470 0
-5467 -5471 0
-5468 -5472 0
-5465 -5585 0
-5466 -5586 0
-5467 -5587 0
-5468 -5588 0
-5465 -5921 0
-5466 -5922 0
-5467 -5923 0
-5468 -5924 0
-5465 -6185 0
-5466 -6186 0
-5467 -6187 0
-5468 -6188 0
-5465 -6469 0
-5466 -6470 0
-5467 -6471 0
-5468 -6472 0
-5465 -6705 0
-5466 -6706 0
-5467 -6707 0
-5468 -6708 0
-5465 -6993 0
-5466 -6994 0
-5467 -6995 0
-5468 -6996 0
-5465 -7245 0
-5466 -7246 0
-5467 -7247 0
-5468 -7248 0
-5465 -7253 0
-5466 -7254 0
-5467 -7255 0
-5468 -7256 0
-5469 -5925 0
-5470 -5926 0
-5471 -5927 0
-5472 -5928 0
-5469 -6013 0
-5470 -6014 0
-5471 -6015 0
-5472 -6016 0
-5469 -6189 0
-5470 -6190 0
-5471 -6191 0
-5472 -6192 0
-5469 -6561 0
-5470 -6562 0
-5471 -6563 0
-5472 -6564 0
-5469 -6709 0
-5470 -6710 0
-5471 -6711 0
-5472 -6712 0
-5469 -6997 0
-5470 -6998 0
-5471 -6999 0
-5472 -7000 0
-5469 -7249 0
-5470 -7250 0
-5471 -7251 0
-5472 -7252 0
-5473 -5477 0
-5474 -5478 0
-5475 -5479 0
-5476 -5480 0
-5473 -5481 0
-5474 -5482 0
-5475 -5483 0
-5476 -5484 0
-5473 -5485 0
-5474 -5486 0
-5475 -5487 0
-5476 -5488 0
-5473 -6197 0
-5474 -6198 0
-5475 -6199 0
-5476 -6200 0
-5473 -6565 0
-5474 -6566 0
-5475 -6567 0
-5476 -6568 0
-5473 -6573 0
-5474 -6574 0
-5475 -6575 0
-5476 -6576 0
-5473 -6997 0
-5474 -6998 0
-5475 -6999 0
-5476 -7000 0
-5477 -5481 0
-5478 -5482 0
-5479 -5483 0
-5480 -5484 0
-5477 -5489 0
-5478 -5490 0
-5479 -5491 0
-5480 -5492 0
-5477 -5601 0
-5478 -5602 0
-5479 -5603 0
-5480 -5604 0
-5477 -5973 0
-5478 -5974 0
-5479 -5975 0
-5480 -5976 0
-5477 -6213 0
-5478 -6214 0
-5479 -6215 0
-5480 -6216 0
-5477 -6725 0
-5478 -6726 0
-5479 -6727 0
-5480 -6728 0
-5477 -7021 0
-5478 -7022 0
-5479 -7023 0
-5480 -7024 0
-5481 -6217 0
-5482 -6218 0
-5483 -6219 0
-5484 -6220 0
-5481 -6577 0
-5482 -6578 0
-5483 -6579 0
-5484 -6580 0
-5481 -6729 0
-5482 -6730 0
-5483 -6731 0
-5484 -6732 0
-5485 -5489 0
-5486 -5490 0
-5487 -5491 0
-5488 -5492 0
-5485 -5945 0
-5486 -5946 0
-5487 -5947 0
-5488 -5948 0
-5485 -6237 0
-5486 -6238 0
-5487 -6239 0
-5488 -6240 0
-5485 -7409 0
-5486 -7410 0
-5487 -7411 0
-5488 -7412 0
-5489 -5609 0
-5490 -5610 0
-5491 -5611 0
-5492 -5612 0
-5489 -5981 0
-5490 -5982 0
-5491 -5983 0
-5492 -5984 0
-5489 -6009 0
-5490 -6010 0
-5491 -6011 0
-5492 -6012 0
-5489 -6273 0
-5490 -6274 0
-5491 -6275 0
-5492 -6276 0
-5489 -6569 0
-5490 -6570 0
-5491 -6571 0
-5492 -6572 0
-5489 -7045 0
-5490 -7046 0
-5491 -7047 0
-5492 -7048 0
-5489 -7169 0
-5490 -7170 0
-5491 -7171 0
-5492 -7172 0
-5493 -5513 0
-5494 -5514 0
-5495 -5515 0
-5496 -5516 0
-5493 -5517 0
-5494 -5518 0
-5495 -5519 0
-5496 -5520 0
-5493 -6205 0
-5494 -6206 0
-5495 -6207 0
-5496 -6208 0
-5497 -5833 0
-5498 -5834 0
-5499 -5835 0
-5500 -5836 0
-5497 -6217 0
-5498 -6218 0
-5499 -6219 0
-5500 -6220 0
-5497 -6605 0
-5498 -6606 0
-5499 -6607 0
-5500 -6608 0
-5497 -7229 0
-5498 -7230 0
-5499 -7231 0
-5500 -7232 0
-5501 -5505 0
-5502 -5506 0
-5503 -5507 0
-5504 -5508 0
-5501 -5509 0
-5502 -5510 0
-5503 -5511 0
-5504 -5512 0
-5501 -5517 0
-5502 -5518 0
-5503 -5519 0
-5504 -5520 0
-5501 -6041 0
-5502 -6042 0
-5503 -6043 0
-5504 -6044 0
-5501 -6241 0
-5502 -6242 0
-5503 -6243 0
-5504 -6244 0
-5501 -6613 0
-5502 -6614 0
-5503 -6615 0
-5504 -6616 0
-5501 -6761 0
-5502 -6762 0
-5503 -6763 0
-5504 -6764 0
-5501 -7189 0
-5502 -7190 0
-5503 -7191 0
-5504 -7192 0
-5501 -7233 0
-5502 -7234 0
-5503 -7235 0
-5504 -7236 0
-5501 -7237 0
-5502 -7238 0
-5503 -7239 0
-5504 -7240 0
-5505 -5521 0
-5506 -5522 0
-5507 -5523 0
-5508 -5524 0
-5505 -5865 0
-5506 -5866 0
-5507 -5867 0
-5508 -5868 0
-5509 -5529 0
-5510 -5530 0
-5511 -5531 0
-5512 -5532 0
-5509 -5661 0
-5510 -5662 0
-5511 -5663 0
-5512 -5664 0
-5509 -6053 0
-5510 -6054 0
-5511 -6055 0
-5512 -6056 0
-5509 -6249 0
-5510 -6250 0
-5511 -6251 0
-5512 -6252 0
-5509 -6621 0
-5510 -6622 0
-5511 -6623 0
-5512 -6624 0
-5509 -7197 0
-5510 -7198 0
-5511 -7199 0
-5512 -7200 0
-5509 -7237 0
-5510 -7238 0
-5511 -7239 0
-5512 -7240 0
-5513 -5517 0
-5514 -5518 0
-5515 -5519 0
-5516 -5520 0
-5513 -5525 0
-5514 -5526 0
-5515 -5527 0
-5516 -5528 0
-5513 -5689 0
-5514 -5690 0
-5515 -5691 0
-5516 -5692 0
-5513 -5877 0
-5514 -5878 0
-5515 -5879 0
-5516 -5880 0
-5513 -6033 0
-5514 -6034 0
-5515 -6035 0
-5516 -6036 0
-5513 -6593 0
-5514 -6594 0
-5515 -6595 0
-5516 -6596 0
-5513 -7185 0
-5514 -7186 0
-5515 -7187 0
-5516 -7188 0
-5513 -7241 0
-5514 -7242 0
-5515 -7243 0
-5516 -7244 0
-5517 -5521 0
-5518 -5522 0
-5519 -5523 0
-5520 -5524 0
-5517 -5529 0
-5518 -5530 0
-5519 -5531 0
-5520 -5532 0
-5517 -5665 0
-5518 -5666 0
-5519 -5667 0
-5520 -5668 0
-5517 -5793 0
-5518 -5794 0
-5519 -5795 0
-5520 -5796 0
-5517 -5885 0
-5518 -5886 0
-5519 -5887 0
-5520 -5888 0
-5517 -6045 0
-5518 -6046 0
-5519 -6047 0
-5520 -6048 0
-5517 -6253 0
-5518 -6254 0
-5519 -6255 0
-5520 -6256 0
-5517 -6781 0
-5518 -6782 0
-5519 -6783 0
-5520 -6784 0
-5517 -7189 0
-5518 -7190 0
-5519 -7191 0
-5520 -7192 0
-5517 -7245 0
-5518 -7246 0
-5519 -7247 0
-5520 -7248 0
-5521 -5889 0
-5522 -5890 0
-5523 -5891 0
-5524 -5892 0
-5521 -6049 0
-5522 -6050 0
-5523 -6051 0
-5524 -6052 0
-5521 -7249 0
-5522 -7250 0
-5523 -7251 0
-5524 -7252 0
-5525 -5529 0
-5526 -5530 0
-5527 -5531 0
-5528 -5532 0
-5525 -5709 0
-5526 -5710 0
-5527 -5711 0
-5528 -5712 0
-5525 -5901 0
-5526 -5902 0
-5527 -5903 0
-5528 -5904 0
-5525 -6597 0
-5526 -6598 0
-5527 -6599 0
-5528 -6600 0
-5525 -7193 0
-5526 -7194 0
-5527 -7195 0
-5528 -7196 0
-5525 -7241 0
-5526 -7242 0
-5527 -7243 0
-5528 -7244 0
-5529 -5669 0
-5530 -5670 0
-5531 -5671 0
-5532 -5672 0
-5529 -5797 0
-5530 -5798 0
-5531 -5799 0
-5532 -5800 0
-5529 -5909 0
-5530 -5910 0
-5531 -5911 0
-5532 -5912 0
-5529 -7197 0
-5530 -7198 0
-5531 -7199 0
-5532 -7200 0
-5529 -7245 0
-5530 -7246 0
-5531 -7247 0
-5532 -7248 0
-5533 -5537 0
-5534 -5538 0
-5535 -5539 0
-5536 -5540 0
-5533 -5549 0
-5534 -5550 0
-5535 -5551 0
-5536 -5552 0
-5533 -5573 0
-5534 -5574 0
-5535 -5575 0
-5536 -5576 0
-5533 -6313 0
-5534 -6314 0
-5535 -6315 0
-5536 -6316 0
-5533 -7081 0
-5534 -7082 0
-5535 -7083 0
-5536 -7084 0
-5533 -7309 0
-5534 -7310 0
-5535 -7311 0
-5536 -7312 0
-5537 -5553 0
-5538 -5554 0
-5539 -5555 0
-5540 -5556 0
-5537 -5577 0
-5538 -5578 0
-5539 -5579 0
-5540 -5580 0
-5537 -6421 0
-5538 -6422 0
-5539 -6423 0
-5540 -6424 0
-5537 -7313 0
-5538 -7314 0
-5539 -7315 0
-5540 -7316 0
-5537 -7433 0
-5538 -7434 0
-5539 -7435 0
-5540 -7436 0
-5541 -5545 0
-5542 -5546 0
-5543 -5547 0
-5544 -5548 0
-5541 -5553 0
-5542 -5554 0
-5543 -5555 0
-5544 -5556 0
-5541 -6437 0
-5542 -6438 0
-5543 -6439 0
-5544 -6440 0
-5541 -7257 0
-5542 -7258 0
-5543 -7259 0
-5544 -7260 0
-5545 -5557 0
-5546 -5558 0
-5547 -5559 0
-5548 -5560 0
-5545 -6341 0
-5546 -6342 0
-5547 -6343 0
-5548 -6344 0
-5545 -7261 0
-5546 -7262 0
-5547 -7263 0
-5548 -7264 0
-5545 -7305 0
-5546 -7306 0
-5547 -7307 0
-5548 -7308 0
-5549 -5553 0
-5550 -5554 0
-5551 -5555 0
-5552 -5556 0
-5549 -5561 0
-5550 -5562 0
-5551 -5563 0
-5552 -5564 0
-5549 -5725 0
-5550 -5726 0
-5551 -5727 0
-5552 -5728 0
-5549 -5961 0
-5550 -5962 0
-5551 -5963 0
-5552 -5964 0
-5549 -6457 0
-5550 -6458 0
-5551 -6459 0
-5552 -6460 0
-5549 -6633 0
-5550 -6634 0
-5551 -6635 0
-5552 -6636 0
-5549 -7085 0
-5550 -7086 0
-5551 -7087 0
-5552 -7088 0
-5549 -7265 0
-5550 -7266 0
-5551 -7267 0
-5552 -7268 0
-5549 -7309 0
-5550 -7310 0
-5551 -7311 0
-5552 -7312 0
-5553 -5557 0
-5554 -5558 0
-5555 -5559 0
-5556 -5560 0
-5553 -5565 0
-5554 -5566 0
-5555 -5567 0
-5556 -5568 0
-5553 -5597 0
-5554 -5598 0
-5555 -5599 0
-5556 -5600 0
-5553 -5721 0
-5554 -5722 0
-5555 -5723 0
-5556 -5724 0
-5553 -5729 0
-5554 -5730 0
-5555 -5731 0
-5556 -5732 0
-5553 -6461 0
-5554 -6462 0
-5555 -6463 0
-5556 -6464 0
-5553 -6665 0
-5554 -6666 0
-5555 -6667 0
-5556 -6668 0
-5553 -7257 0
-5554 -7258 0
-5555 -7259 0
-5556 -7260 0
-5553 -7269 0
-5554 -7270 0
-5555 -7271 0
-5556 -7272 0
-5553 -7313 0
-5554 -7314 0
-5555 -7315 0
-5556 -7316 0
-5553 -7445 0
-5554 -7446 0
-5555 -7447 0
-5556 -7448 0
-5557 -5597 0
-5558 -5598 0
-5559 -5599 0
-5560 -5600 0
-5557 -6345 0
-5558 -6346 0
-5559 -6347 0
-5560 -6348 0
-5557 -6469 0
-5558 -6470 0
-5559 -6471 0
-5560 -6472 0
-5557 -6669 0
-5558 -6670 0
-5559 -6671 0
-5560 -6672 0
-5557 -6697 0
-5558 -6698 0
-5559 -6699 0
-5560 -6700 0
-5557 -6857 0
-5558 -6858 0
-5559 -6859 0
-5560 -6860 0
-5557 -7261 0
-5558 -7262 0
-5559 -7263 0
-5560 -7264 0
-5557 -7273 0
-5558 -7274 0
-5559 -7275 0
-5560 -7276 0
-5557 -7321 0
-5558 -7322 0
-5559 -7323 0
-5560 -7324 0
-5557 -7325 0
-5558 -7326 0
-5559 -7327 0
-5560 -7328 0
-5561 -5565 0
-5562 -5566 0
-5563 -5567 0
-5564 -5568 0
-5561 -5741 0
-5562 -5742 0
-5563 -5743 0
-5564 -5744 0
-5561 -5981 0
-5562 -5982 0
-5563 -5983 0
-5564 -5984 0
-5561 -6089 0
-5562 -6090 0
-5563 -6091 0
-5564 -6092 0
-5561 -6641 0
-5562 -6642 0
-5563 -6643 0
-5564 -6644 0
-5561 -7089 0
-5562 -7090 0
-5563 -7091 0
-5564 -7092 0
-5565 -5569 0
-5566 -5570 0
-5567 -5571 0
-5568 -5572 0
-5565 -5737 0
-5566 -5738 0
-5567 -5739 0
-5568 -5740 0
-5565 -5745 0
-5566 -5746 0
-5567 -5747 0
-5568 -5748 0
-5565 -5985 0
-5566 -5986 0
-5567 -5987 0
-5568 -5988 0
-5565 -6093 0
-5566 -6094 0
-5567 -6095 0
-5568 -6096 0
-5565 -6329 0
-5566 -6330 0
-5567 -6331 0
-5568 -6332 0
-5565 -6517 0
-5566 -6518 0
-5567 -6519 0
-5568 -6520 0
-5565 -7277 0
-5566 -7278 0
-5567 -7279 0
-5568 -7280 0
-5565 -7281 0
-5566 -7282 0
-5567 -7283 0
-5568 -7284 0
-5569 -5753 0
-5570 -5754 0
-5571 -5755 0
-5572 -5756 0
-5569 -5761 0
-5570 -5762 0
-5571 -5763 0
-5572 -5764 0
-5569 -6521 0
-5570 -6522 0
-5571 -6523 0
-5572 -6524 0
-5569 -7093 0
-5570 -7094 0
-5571 -7095 0
-5572 -7096 0
-5569 -7281 0
-5570 -7282 0
-5571 -7283 0
-5572 -7284 0
-5573 -5577 0
-5574 -5578 0
-5575 -5579 0
-5576 -5580 0
-5573 -5581 0
-5574 -5582 0
-5575 -5583 0
-5576 -5584 0
-5573 -6865 0
-5574 -6866 0
-5575 -6867 0
-5576 -6868 0
-5573 -7097 0
-5574 -7098 0
-5575 -7099 0
-5576 -7100 0
-5573 -7349 0
-5574 -7350 0
-5575 -7351 0
-5576 -7352 0
-5573 -7481 0
-5574 -7482 0
-5575 -7483 0
-5576 -7484 0
-5577 -5597 0
-5578 -5598 0
-5579 -5599 0
-5580 -5600 0
-5577 -6133 0
-5578 -6134 0
-5579 -6135 0
-5580 -6136 0
-5577 -6869 0
-5578 -6870 0
-5579 -6871 0
-5580 -6872 0
-5577 -7101 0
-5578 -7102 0
-5579 -7103 0
-5580 -7104 0
-5577 -7353 0
-5578 -7354 0
-5579 -7355 0
-5580 -7356 0
-5577 -7485 0
-5578 -7486 0
-5579 -7487 0
-5580 -7488 0
-5581 -5585 0
-5582 -5586 0
-5583 -5587 0
-5584 -5588 0
-5581 -5589 0
-5582 -5590 0
-5583 -5591 0
-5584 -5592 0
-5581 -5613 0
-5582 -5614 0
-5583 -5615 0
-5584 -5616 0
-5581 -5997 0
-5582 -5998 0
-5583 -5999 0
-5584 -6000 0
-5581 -6065 0
-5582 -6066 0
-5583 -6067 0
-5584 -6068 0
-5581 -6357 0
-5582 -6358 0
-5583 -6359 0
-5584 -6360 0
-5581 -6717 0
-5582 -6718 0
-5583 -6719 0
-5584 -6720 0
-5581 -7105 0
-5582 -7106 0
-5583 -7107 0
-5584 -7108 0
-5581 -7361 0
-5582 -7362 0
-5583 -7363 0
-5584 -7364 0
-5585 -5593 0
-5586 -5594 0
-5587 -5595 0
-5588 -5596 0
-5585 -5613 0
-5586 -5614 0
-5587 -5615 0
-5588 -5616 0
-5585 -6001 0
-5586 -6002 0
-5587 -6003 0
-5588 -6004 0
-5585 -6333 0
-5586 -6334 0
-5587 -6335 0
-5588 -6336 0
-5585 -6365 0
-5586 -6366 0
-5587 -6367 0
-5588 -6368 0
-5585 -6705 0
-5586 -6706 0
-5587 -6707 0
-5588 -6708 0
-5585 -7341 0
-5586 -7342 0
-5587 -7343 0
-5588 -7344 0
-5585 -7365 0
-5586 -7366 0
-5587 -7367 0
-5588 -7368 0
-5589 -5593 0
-5590 -5594 0
-5591 -5595 0
-5592 -5596 0
-5589 -5621 0
-5590 -5622 0
-5591 -5623 0
-5592 -5624 0
-5589 -6369 0
-5590 -6370 0
-5591 -6371 0
-5592 -6372 0
-5589 -6721 0
-5590 -6722 0
-5591 -6723 0
-5592 -6724 0
-5589 -7117 0
-5590 -7118 0
-5591 -7119 0
-5592 -7120 0
-5593 -5621 0
-5594 -5622 0
-5595 -5623 0
-5596 -5624 0
-5593 -5937 0
-5594 -5938 0
-5595 -5939 0
-5596 -5940 0
-5593 -6373 0
-5594 -6374 0
-5595 -6375 0
-5596 -6376 0
-5593 -6661 0
-5594 -6662 0
-5595 -6663 0
-5596 -6664 0
-5593 -7121 0
-5594 -7122 0
-5595 -7123 0
-5596 -7124 0
-5597 -6085 0
-5598 -6086 0
-5599 -6087 0
-5600 -6088 0
-5597 -6377 0
-5598 -6378 0
-5599 -6379 0
-5600 -6380 0
-5597 -6553 0
-5598 -6554 0
-5599 -6555 0
-5600 -6556 0
-5597 -7353 0
-5598 -7354 0
-5599 -7355 0
-5600 -7356 0
-5597 -7501 0
-5598 -7502 0
-5599 -7503 0
-5600 -7504 0
-5601 -5605 0
-5602 -5606 0
-5603 -5607 0
-5604 -5608 0
-5601 -5609 0
-5602 -5610 0
-5603 -5611 0
-5604 -5612 0
-5601 -5613 0
-5602 -5614 0
-5603 -5615 0
-5604 -5616 0
-5601 -6385 0
-5602 -6386 0
-5603 -6387 0
-5604 -6388 0
-5601 -6725 0
-5602 -6726 0
-5603 -6727 0
-5604 -6728 0
-5601 -7145 0
-5602 -7146 0
-5603 -7147 0
-5604 -7148 0
-5605 -5617 0
-5606 -5618 0
-5607 -5619 0
-5608 -5620 0
-5605 -5621 0
-5606 -5622 0
-5607 -5623 0
-5608 -5624 0
-5605 -5969 0
-5606 -5970 0
-5607 -5971 0
-5608 -5972 0
-5605 -6393 0
-5606 -6394 0
-5607 -6395 0
-5608 -6396 0
-5605 -7161 0
-5606 -7162 0
-5607 -7163 0
-5608 -7164 0
-5609 -5613 0
-5610 -5614 0
-5611 -5615 0
-5612 -5616 0
-5609 -5617 0
-5610 -5618 0
-5611 -5619 0
-5612 -5620 0
-5609 -6113 0
-5610 -6114 0
-5611 -6115 0
-5612 -6116 0
-5609 -6137 0
-5610 -6138 0
-5611 -6139 0
-5612 -6140 0
-5609 -6453 0
-5610 -6454 0
-5611 -6455 0
-5612 -6456 0
-5609 -7181 0
-5610 -7182 0
-5611 -7183 0
-5612 -7184 0
-5609 -7257 0
-5610 -7258 0
-5611 -7259 0
-5612 -7260 0
-5609 -7277 0
-5610 -7278 0
-5611 -7279 0
-5612 -7280 0
-5613 -5621 0
-5614 -5622 0
-5615 -5623 0
-5616 -5624 0
-5613 -5785 0
-5614 -5786 0
-5615 -5787 0
-5616 -5788 0
-5613 -6117 0
-5614 -6118 0
-5615 -6119 0
-5616 -6120 0
-5613 -6461 0
-5614 -6462 0
-5615 -6463 0
-5616 -6464 0
-5613 -6737 0
-5614 -6738 0
-5615 -6739 0
-5616 -6740 0
-5613 -6881 0
-5614 -6882 0
-5615 -6883 0
-5616 -6884 0
-5613 -6885 0
-5614 -6886 0
-5615 -6887 0
-5616 -6888 0
-5613 -7261 0
-5614 -7262 0
-5615 -7263 0
-5616 -7264 0
-5613 -7397 0
-5614 -7398 0
-5615 -7399 0
-5616 -7400 0
-5613 -7409 0
-5614 -7410 0
-5615 -7411 0
-5616 -7412 0
-5617 -5621 0
-5618 -5622 0
-5619 -5623 0
-5620 -5624 0
-5617 -5789 0
-5618 -5790 0
-5619 -5791 0
-5620 -5792 0
-5617 -6489 0
-5618 -6490 0
-5619 -6491 0
-5620 -6492 0
-5617 -6589 0
-5618 -6590 0
-5619 -6591 0
-5620 -6592 0
-5617 -6729 0
-5618 -6730 0
-5619 -6731 0
-5620 -6732 0
-5617 -7269 0
-5618 -7270 0
-5619 -7271 0
-5620 -7272 0
-5617 -7281 0
-5618 -7282 0
-5619 -7283 0
-5620 -7284 0
-5621 -6009 0
-5622 -6010 0
-5623 -6011 0
-5624 -6012 0
-5621 -6497 0
-5622 -6498 0
-5623 -6499 0
-5624 -6500 0
-5621 -7273 0
-5622 -7274 0
-5623 -7275 0
-5624 -7276 0
-5621 -7401 0
-5622 -7402 0
-5623 -7403 0
-5624 -7404 0
-5625 -5681 0
-5626 -5682 0
-5627 -5683 0
-5628 -5684 0
-5625 -5689 0
-5626 -5690 0
-5627 -5691 0
-5628 -5692 0
-5625 -6029 0
-5626 -6030 0
-5627 -6031 0
-5628 -6032 0
-5629 -5633 0
-5630 -5634 0
-5631 -5635 0
-5632 -5636 0
-5629 -5637 0
-5630 -5638 0
-5631 -5639 0
-5632 -5640 0
-5629 -5645 0
-5630 -5646 0
-5631 -5647 0
-5632 -5648 0
-5629 -5681 0
-5630 -5682 0
-5631 -5683 0
-5632 -5684 0
-5629 -6149 0
-5630 -6150 0
-5631 -6151 0
-5632 -6152 0
-5629 -7185 0
-5630 -7186 0
-5631 -7187 0
-5632 -7188 0
-5629 -7309 0
-5630 -7310 0
-5631 -7311 0
-5632 -7312 0
-5633 -5641 0
-5634 -5642 0
-5635 -5643 0
-5636 -5644 0
-5633 -5685 0
-5634 -5686 0
-5635 -5687 0
-5636 -5688 0
-5633 -6593 0
-5634 -6594 0
-5635 -6595 0
-5636 -6596 0
-5633 -7313 0
-5634 -7314 0
-5635 -7315 0
-5636 -7316 0
-5637 -5641 0
-5638 -5642 0
-5639 -5643 0
-5640 -5644 0
-5637 -5649 0
-5638 -5650 0
-5639 -5651 0
-5640 -5652 0
-5637 -5653 0
-5638 -5654 0
-5639 -5655 0
-5640 -5656 0
-5637 -5681 0
-5638 -5682 0
-5639 -5683 0
-5640 -5684 0
-5637 -5809 0
-5638 -5810 0
-5639 -5811 0
-5640 -5812 0
-5637 -6765 0
-5638 -6766 0
-5639 -6767 0
-5640 -6768 0
-5637 -7189 0
-5638 -7190 0
-5639 -7191 0
-5640 -7192 0
-5637 -7301 0
-5638 -7302 0
-5639 -7303 0
-5640 -7304 0
-5637 -7317 0
-5638 -7318 0
-5639 -7319 0
-5640 -7320 0
-5641 -5653 0
-5642 -5654 0
-5643 -5655 0
-5644 -5656 0
-5641 -5685 0
-5642 -5686 0
-5643 -5687 0
-5644 -5688 0
-5641 -6197 0
-5642 -6198 0
-5643 -6199 0
-5644 -6200 0
-5641 -6769 0
-5642 -6770 0
-5643 -6771 0
-5644 -6772 0
-5641 -7305 0
-5642 -7306 0
-5643 -7307 0
-5644 -7308 0
-5641 -7321 0
-5642 -7322 0
-5643 -7323 0
-5644 -7324 0
-5645 -5649 0
-5646 -5650 0
-5647 -5651 0
-5648 -5652 0
-5645 -5705 0
-5646 -5706 0
-5647 -5707 0
-5648 -5708 0
-5645 -7193 0
-5646 -7194 0
-5647 -7195 0
-5648 -7196 0
-5645 -7309 0
-5646 -7310 0
-5647 -7311 0
-5648 -7312 0
-5649 -5705 0
-5650 -5706 0
-5651 -5707 0
-5652 -5708 0
-5649 -5813 0
-5650 -5814 0
-5651 -5815 0
-5652 -5816 0
-5649 -6777 0
-5650 -6778 0
-5651 -6779 0
-5652 -6780 0
-5649 -7197 0
-5650 -7198 0
-5651 -7199 0
-5652 -7200 0
-5649 -7317 0
-5650 -7318 0
-5651 -7319 0
-5652 -7320 0
-5653 -5657 0
-5654 -5658 0
-5655 -5659 0
-5656 -5660 0
-5653 -5733 0
-5654 -5734 0
-5655 -5735 0
-5656 -5736 0
-5653 -5821 0
-5654 -5822 0
-5655 -5823 0
-5656 -5824 0
-5653 -6213 0
-5654 -6214 0
-5655 -6215 0
-5656 -6216 0
-5653 -6897 0
-5654 -6898 0
-5655 -6899 0
-5656 -6900 0
-5653 -7329 0
-5654 -7330 0
-5655 -7331 0
-5656 -7332 0
-5653 -7333 0
-5654 -7334 0
-5655 -7335 0
-5656 -7336 0
-5657 -5737 0
-5658 -5738 0
-5659 -5739 0
-5660 -5740 0
-5657 -6017 0
-5658 -6018 0
-5659 -6019 0
-5660 -6020 0
-5657 -6777 0
-5658 -6778 0
-5659 -6779 0
-5660 -6780 0
-5657 -6901 0
-5658 -6902 0
-5659 -6903 0
-5660 -6904 0
-5657 -7337 0
-5658 -7338 0
-5659 -7339 0
-5660 -7340 0
-5661 -5669 0
-5662 -5670 0
-5663 -5671 0
-5664 -5672 0
-5661 -5677 0
-5662 -5678 0
-5663 -5679 0
-5664 -5680 0
-5661 -5765 0
-5662 -5766 0
-5663 -5767 0
-5664 -5768 0
-5661 -6417 0
-5662 -6418 0
-5663 -6419 0
-5664 -6420 0
-5661 -6789 0
-5662 -6790 0
-5663 -6791 0
-5664 -6792 0
-5661 -7285 0
-5662 -7286 0
-5663 -7287 0
-5664 -7288 0
-5665 -5669 0
-5666 -5670 0
-5667 -5671 0
-5668 -5672 0
-5665 -5701 0
-5666 -5702 0
-5667 -5703 0
-5668 -5704 0
-5665 -5769 0
-5666 -5770 0
-5667 -5771 0
-5668 -5772 0
-5665 -6025 0
-5666 -6026 0
-5667 -6027 0
-5668 -6028 0
-5665 -6061 0
-5666 -6062 0
-5667 -6063 0
-5668 -6064 0
-5665 -6421 0
-5666 -6422 0
-5667 -6423 0
-5668 -6424 0
-5665 -6905 0
-5666 -6906 0
-5667 -6907 0
-5668 -6908 0
-5665 -7341 0
-5666 -7342 0
-5667 -7343 0
-5668 -7344 0
-5669 -5717 0
-5670 -5718 0
-5671 -5719 0
-5672 -5720 0
-5669 -5773 0
-5670 -5774 0
-5671 -5775 0
-5672 -5776 0
-5669 -6033 0
-5670 -6034 0
-5671 -6035 0
-5672 -6036 0
-5669 -6065 0
-5670 -6066 0
-5671 -6067 0
-5672 -6068 0
-5669 -6425 0
-5670 -6426 0
-5671 -6427 0
-5672 -6428 0
-5669 -7285 0
-5670 -7286 0
-5671 -7287 0
-5672 -7288 0
-5669 -7341 0
-5670 -7342 0
-5671 -7343 0
-5672 -7344 0
-5673 -5677 0
-5674 -5678 0
-5675 -5679 0
-5676 -5680 0
-5673 -5701 0
-5674 -5702 0
-5675 -5703 0
-5676 -5704 0
-5673 -5725 0
-5674 -5726 0
-5675 -5727 0
-5676 -5728 0
-5673 -5729 0
-5674 -5730 0
-5675 -5731 0
-5676 -5732 0
-5673 -6429 0
-5674 -6430 0
-5675 -6431 0
-5676 -6432 0
-5673 -6805 0
-5674 -6806 0
-5675 -6807 0
-5676 -6808 0
-5673 -7345 0
-5674 -7346 0
-5675 -7347 0
-5676 -7348 0
-5677 -5717 0
-5678 -5718 0
-5679 -5719 0
-5680 -5720 0
-5677 -6433 0
-5678 -6434 0
-5679 -6435 0
-5680 -6436 0
-5677 -6609 0
-5678 -6610 0
-5679 -6611 0
-5680 -6612 0
-5677 -6817 0
-5678 -6818 0
-5679 -6819 0
-5680 -6820 0
-5677 -7345 0
-5678 -7346 0
-5679 -7347 0
-5680 -7348 0
-5681 -5685 0
-5682 -5686 0
-5683 -5687 0
-5684 -5688 0
-5681 -5689 0
-5682 -5690 0
-5683 -5691 0
-5684 -5692 0
-5681 -5697 0
-5682 -5698 0
-5683 -5699 0
-5684 -5700 0
-5681 -5705 0
-5682 -5706 0
-5683 -5707 0
-5684 -5708 0
-5681 -5733 0
-5682 -5734 0
-5683 -5735 0
-5684 -5736 0
-5681 -5793 0
-5682 -5794 0
-5683 -5795 0
-5684 -5796 0
-5681 -5845 0
-5682 -5846 0
-5683 -5847 0
-5684 -5848 0
-5681 -6169 0
-5682 -6170 0
-5683 -6171 0
-5684 -6172 0
-5681 -6913 0
-5682 -6914 0
-5683 -6915 0
-5684 -6916 0
-5681 -7201 0
-5682 -7202 0
-5683 -7203 0
-5684 -7204 0
-5681 -7349 0
-5682 -7350 0
-5683 -7351 0
-5684 -7352 0
-5685 -5693 0
-5686 -5694 0
-5687 -5695 0
-5688 -5696 0
-5685 -5733 0
-5686 -5734 0
-5687 -5735 0
-5688 -5736 0
-5685 -6237 0
-5686 -6238 0
-5687 -6239 0
-5688 -6240 0
-5685 -7353 0
-5686 -7354 0
-5687 -7355 0
-5688 -7356 0
-5689 -5693 0
-5690 -5694 0
-5691 -5695 0
-5692 -5696 0
-5689 -5701 0
-5690 -5702 0
-5691 -5703 0
-5692 -5704 0
-5689 -5709 0
-5690 -5710 0
-5691 -5711 0
-5692 -5712 0
-5689 -5737 0
-5690 -5738 0
-5691 -5739 0
-5692 -5740 0
-5689 -6441 0
-5690 -6442 0
-5691 -6443 0
-5692 -6444 0
-5689 -6745 0
-5690 -6746 0
-5691 -6747 0
-5692 -6748 0
-5689 -6917 0
-5690 -6918 0
-5691 -6919 0
-5692 -6920 0
-5689 -7357 0
-5690 -7358 0
-5691 -7359 0
-5692 -7360 0
-5693 -5737 0
-5694 -5738 0
-5695 -5739 0
-5696 -5740 0
-5693 -6069 0
-5694 -6070 0
-5695 -6071 0
-5696 -6072 0
-5693 -6445 0
-5694 -6446 0
-5695 -6447 0
-5696 -6448 0
-5697 -5701 0
-5698 -5702 0
-5699 -5703 0
-5700 -5704 0
-5697 -5713 0
-5698 -5714 0
-5699 -5715 0
-5700 -5716 0
-5697 -5777 0
-5698 -5778 0
-5699 -5779 0
-5700 -5780 0
-5697 -5793 0
-5698 -5794 0
-5699 -5795 0
-5700 -5796 0
-5697 -6041 0
-5698 -6042 0
-5699 -6043 0
-5700 -6044 0
-5697 -6153 0
-5698 -6154 0
-5699 -6155 0
-5700 -6156 0
-5697 -6449 0
-5698 -6450 0
-5699 -6451 0
-5700 -6452 0
-5697 -6821 0
-5698 -6822 0
-5699 -6823 0
-5700 -6824 0
-5697 -7361 0
-5698 -7362 0
-5699 -7363 0
-5700 -7364 0
-5701 -5717 0
-5702 -5718 0
-5703 -5719 0
-5704 -5720 0
-5701 -5741 0
-5702 -5742 0
-5703 -5743 0
-5704 -5744 0
-5701 -5745 0
-5702 -5746 0
-5703 -5747 0
-5704 -5748 0
-5701 -5777 0
-5702 -5778 0
-5703 -5779 0
-5704 -5780 0
-5701 -6049 0
-5702 -6050 0
-5703 -6051 0
-5704 -6052 0
-5701 -6073 0
-5702 -6074 0
-5703 -6075 0
-5704 -6076 0
-5701 -6461 0
-5702 -6462 0
-5703 -6463 0
-5704 -6464 0
-5701 -6749 0
-5702 -6750 0
-5703 -6751 0
-5704 -6752 0
-5701 -7365 0
-5702 -7366 0
-5703 -7367 0
-5704 -7368 0
-5705 -5709 0
-5706 -5710 0
-5707 -5711 0
-5708 -5712 0
-5705 -5713 0
-5706 -5714 0
-5707 -5715 0
-5708 -5716 0
-5705 -5749 0
-5706 -5750 0
-5707 -5751 0
-5708 -5752 0
-5705 -5797 0
-5706 -5798 0
-5707 -5799 0
-5708 -5800 0
-5705 -5853 0
-5706 -5854 0
-5707 -5855 0
-5708 -5856 0
-5705 -7205 0
-5706 -7206 0
-5707 -7207 0
-5708 -7208 0
-5705 -7349 0
-5706 -7350 0
-5707 -7351 0
-5708 -7352 0
-5709 -5717 0
-5710 -5718 0
-5711 -5719 0
-5712 -5720 0
-5709 -5753 0
-5710 -5754 0
-5711 -5755 0
-5712 -5756 0
-5709 -5861 0
-5710 -5862 0
-5711 -5863 0
-5712 -5864 0
-5709 -6081 0
-5710 -6082 0
-5711 -6083 0
-5712 -6084 0
-5709 -6481 0
-5710 -6482 0
-5711 -6483 0
-5712 -6484 0
-5709 -7357 0
-5710 -7358 0
-5711 -7359 0
-5712 -7360 0
-5713 -5717 0
-5714 -5718 0
-5715 -5719 0
-5716 -5720 0
-5713 -5781 0
-5714 -5782 0
-5715 -5783 0
-5716 -5784 0
-5713 -5797 0
-5714 -5798 0
-5715 -5799 0
-5716 -5800 0
-5713 -6053 0
-5714 -6054 0
-5715 -6055 0
-5716 -6056 0
-5713 -6485 0
-5714 -6486 0
-5715 -6487 0
-5716 -6488 0
-5713 -6825 0
-5714 -6826 0
-5715 -6827 0
-5716 -6828 0
-5713 -7361 0
-5714 -7362 0
-5715 -7363 0
-5716 -7364 0
-5717 -5757 0
-5718 -5758 0
-5719 -5759 0
-5720 -5760 0
-5717 -5761 0
-5718 -5762 0
-5719 -5763 0
-5720 -5764 0
-5717 -5781 0
-5718 -5782 0
-5719 -5783 0
-5720 -5784 0
-5717 -6089 0
-5718 -6090 0
-5719 -6091 0
-5720 -6092 0
-5717 -6497 0
-5718 -6498 0
-5719 -6499 0
-5720 -6500 0
-5717 -6753 0
-5718 -6754 0
-5719 -6755 0
-5720 -6756 0
-5717 -7365 0
-5718 -7366 0
-5719 -7367 0
-5720 -7368 0
-5721 -5729 0
-5722 -5730 0
-5723 -5731 0
-5724 -5732 0
-5721 -5737 0
-5722 -5738 0
-5723 -5739 0
-5724 -5740 0
-5721 -6613 0
-5722 -6614 0
-5723 -6615 0
-5724 -6616 0
-5721 -7369 0
-5722 -7370 0
-5723 -7371 0
-5724 -7372 0
-5721 -7533 0
-5722 -7534 0
-5723 -7535 0
-5724 -7536 0
-5725 -5729 0
-5726 -5730 0
-5727 -5731 0
-5728 -5732 0
-5725 -5741 0
-5726 -5742 0
-5727 -5743 0
-5728 -5744 0
-5725 -6525 0
-5726 -6526 0
-5727 -6527 0
-5728 -6528 0
-5725 -6757 0
-5726 -6758 0
-5727 -6759 0
-5728 -6760 0
-5725 -7373 0
-5726 -7374 0
-5727 -7375 0
-5728 -7376 0
-5729 -5745 0
-5730 -5746 0
-5731 -5747 0
-5732 -5748 0
-5729 -6165 0
-5730 -6166 0
-5731 -6167 0
-5732 -6168 0
-5729 -6617 0
-5730 -6618 0
-5731 -6619 0
-5732 -6620 0
-5729 -6809 0
-5730 -6810 0
-5731 -6811 0
-5732 -6812 0
-5729 -6925 0
-5730 -6926 0
-5731 -6927 0
-5732 -6928 0
-5729 -7377 0
-5730 -7378 0
-5731 -7379 0
-5732 -7380 0
-5733 -5737 0
-5734 -5738 0
-5735 -5739 0
-5736 -5740 0
-5733 -5749 0
-5734 -5750 0
-5735 -5751 0
-5736 -5752 0
-5733 -5881 0
-5734 -5882 0
-5735 -5883 0
-5736 -5884 0
-5733 -6181 0
-5734 -6182 0
-5735 -6183 0
-5736 -6184 0
-5733 -6273 0
-5734 -6274 0
-5735 -6275 0
-5736 -6276 0
-5733 -7209 0
-5734 -7210 0
-5735 -7211 0
-5736 -7212 0
-5733 -7381 0
-5734 -7382 0
-5735 -7383 0
-5736 -7384 0
-5737 -5745 0
-5738 -5746 0
-5739 -5747 0
-5740 -5748 0
-5737 -5753 0
-5738 -5754 0
-5739 -5755 0
-5740 -5756 0
-5737 -6189 0
-5738 -6190 0
-5739 -6191 0
-5740 -6192 0
-5737 -6769 0
-5738 -6770 0
-5739 -6771 0
-5740 -6772 0
-5737 -6941 0
-5738 -6942 0
-5739 -6943 0
-5740 -6944 0
-5737 -7213 0
-5738 -7214 0
-5739 -7215 0
-5740 -7216 0
-5737 -7385 0
-5738 -7386 0
-5739 -7387 0
-5740 -7388 0
-5741 -5745 0
-5742 -5746 0
-5743 -5747 0
-5744 -5748 0
-5741 -5757 0
-5742 -5758 0
-5743 -5759 0
-5744 -5760 0
-5741 -6057 0
-5742 -6058 0
-5743 -6059 0
-5744 -6060 0
-5741 -6193 0
-5742 -6194 0
-5743 -6195 0
-5744 -6196 0
-5741 -6533 0
-5742 -6534 0
-5743 -6535 0
-5744 -6536 0
-5741 -6773 0
-5742 -6774 0
-5743 -6775 0
-5744 -6776 0
-5741 -7389 0
-5742 -7390 0
-5743 -7391 0
-5744 -7392 0
-5745 -5761 0
-5746 -5762 0
-5747 -5763 0
-5748 -5764 0
-5745 -6097 0
-5746 -6098 0
-5747 -6099 0
-5748 -6100 0
-5745 -6537 0
-5746 -6538 0
-5747 -6539 0
-5748 -6540 0
-5745 -6825 0
-5746 -6826 0
-5747 -6827 0
-5748 -6828 0
-5745 -6949 0
-5746 -6950 0
-5747 -6951 0
-5748 -6952 0
-5745 -7393 0
-5746 -7394 0
-5747 -7395 0
-5748 -7396 0
-5749 -5753 0
-5750 -5754 0
-5751 -5755 0
-5752 -5756 0
-5749 -5905 0
-5750 -5906 0
-5751 -5907 0
-5752 -5908 0
-5749 -7217 0
-5750 -7218 0
-5751 -7219 0
-5752 -7220 0
-5749 -7381 0
-5750 -7382 0
-5751 -7383 0
-5752 -7384 0
-5753 -5761 0
-5754 -5762 0
-5755 -5763 0
-5756 -5764 0
-5753 -7221 0
-5754 -7222 0
-5755 -7223 0
-5756 -7224 0
-5753 -7385 0
-5754 -7386 0
-5755 -7387 0
-5756 -7388 0
-5757 -5761 0
-5758 -5762 0
-5759 -5763 0
-5760 -5764 0
-5757 -6541 0
-5758 -6542 0
-5759 -6543 0
-5760 -6544 0
-5757 -6781 0
-5758 -6782 0
-5759 -6783 0
-5760 -6784 0
-5757 -7225 0
-5758 -7226 0
-5759 -7227 0
-5760 -7228 0
-5757 -7389 0
-5758 -7390 0
-5759 -7391 0
-5760 -7392 0
-5761 -6101 0
-5762 -6102 0
-5763 -6103 0
-5764 -6104 0
-5761 -6545 0
-5762 -6546 0
-5763 -6547 0
-5764 -6548 0
-5761 -7229 0
-5762 -7230 0
-5763 -7231 0
-5764 -7232 0
-5761 -7393 0
-5762 -7394 0
-5763 -7395 0
-5764 -7396 0
-5765 -5773 0
-5766 -5774 0
-5767 -5775 0
-5768 -5776 0
-5765 -6837 0
-5766 -6838 0
-5767 -6839 0
-5768 -6840 0
-5765 -7321 0
-5766 -7322 0
-5767 -7323 0
-5768 -7324 0
-5769 -5773 0
-5770 -5774 0
-5771 -5775 0
-5772 -5776 0
-5769 -5777 0
-5770 -5778 0
-5771 -5779 0
-5772 -5780 0
-5769 -6593 0
-5770 -6594 0
-5771 -6595 0
-5772 -6596 0
-5769 -6969 0
-5770 -6970 0
-5771 -6971 0
-5772 -6972 0
-5769 -7305 0
-5770 -7306 0
-5771 -7307 0
-5772 -7308 0
-5769 -7397 0
-5770 -7398 0
-5771 -7399 0
-5772 -7400 0
-5773 -5781 0
-5774 -5782 0
-5775 -5783 0
-5776 -5784 0
-5773 -6041 0
-5774 -6042 0
-5775 -6043 0
-5776 -6044 0
-5773 -6109 0
-5774 -6110 0
-5775 -6111 0
-5776 -6112 0
-5773 -6309 0
-5774 -6310 0
-5775 -6311 0
-5776 -6312 0
-5773 -6597 0
-5774 -6598 0
-5775 -6599 0
-5776 -6600 0
-5773 -7249 0
-5774 -7250 0
-5775 -7251 0
-5776 -7252 0
-5773 -7321 0
-5774 -7322 0
-5775 -7323 0
-5776 -7324 0
-5773 -7397 0
-5774 -7398 0
-5775 -7399 0
-5776 -7400 0
-5773 -7401 0
-5774 -7402 0
-5775 -7403 0
-5776 -7404 0
-5777 -5781 0
-5778 -5782 0
-5779 -5783 0
-5780 -5784 0
-5777 -6121 0
-5778 -6122 0
-5779 -6123 0
-5780 -6124 0
-5777 -6205 0
-5778 -6206 0
-5779 -6207 0
-5780 -6208 0
-5777 -6569 0
-5778 -6570 0
-5779 -6571 0
-5780 -6572 0
-5777 -6601 0
-5778 -6602 0
-5779 -6603 0
-5780 -6604 0
-5777 -7409 0
-5778 -7410 0
-5779 -7411 0
-5780 -7412 0
-5781 -5953 0
-5782 -5954 0
-5783 -5955 0
-5784 -5956 0
-5781 -6125 0
-5782 -6126 0
-5783 -6127 0
-5784 -6128 0
-5781 -6209 0
-5782 -6210 0
-5783 -6211 0
-5784 -6212 0
-5781 -6577 0
-5782 -6578 0
-5783 -6579 0
-5784 -6580 0
-5781 -6605 0
-5782 -6606 0
-5783 -6607 0
-5784 -6608 0
-5781 -7325 0
-5782 -7326 0
-5783 -7327 0
-5784 -7328 0
-5781 -7409 0
-5782 -7410 0
-5783 -7411 0
-5784 -7412 0
-5785 -6613 0
-5786 -6614 0
-5787 -6615 0
-5788 -6616 0
-5785 -7021 0
-5786 -7022 0
-5787 -7023 0
-5788 -7024 0
-5785 -7029 0
-5786 -7030 0
-5787 -7031 0
-5788 -7032 0
-5789 -6145 0
-5790 -6146 0
-5791 -6147 0
-5792 -6148 0
-5789 -6297 0
-5790 -6298 0
-5791 -6299 0
-5792 -6300 0
-5789 -6837 0
-5790 -6838 0
-5791 -6839 0
-5792 -6840 0
-5789 -7025 0
-5790 -7026 0
-5791 -7027 0
-5792 -7028 0
-5789 -7369 0
-5790 -7370 0
-5791 -7371 0
-5792 -7372 0
-5789 -7385 0
-5790 -7386 0
-5791 -7387 0
-5792 -7388 0
-5789 -7565 0
-5790 -7566 0
-5791 -7567 0
-5792 -7568 0
-5793 -5797 0
-5794 -5798 0
-5795 -5799 0
-5796 -5800 0
-5793 -6025 0
-5794 -6026 0
-5795 -6027 0
-5796 -6028 0
-5793 -7413 0
-5794 -7414 0
-5795 -7415 0
-5796 -7416 0
-5797 -6033 0
-5798 -6034 0
-5799 -6035 0
-5800 -6036 0
-5797 -7413 0
-5798 -7414 0
-5799 -7415 0
-5800 -7416 0
-5801 -6685 0
-5802 -6686 0
-5803 -6687 0
-5804 -6688 0
-5801 -6865 0
-5802 -6866 0
-5803 -6867 0
-5804 -6868 0
-5801 -7433 0
-5802 -7434 0
-5803 -7435 0
-5804 -7436 0
-5801 -7445 0
-5802 -7446 0
-5803 -7447 0
-5804 -7448 0
-5805 -6133 0
-5806 -6134 0
-5807 -6135 0
-5808 -6136 0
-5805 -7449 0
-5806 -7450 0
-5807 -7451 0
-5808 -7452 0
-5805 -7577 0
-5806 -7578 0
-5807 -7579 0
-5808 -7580 0
-5809 -5813 0
-5810 -5814 0
-5811 -5815 0
-5812 -5816 0
-5809 -5817 0
-5810 -5818 0
-5811 -5819 0
-5812 -5820 0
-5809 -5821 0
-5810 -5822 0
-5811 -5823 0
-5812 -5824 0
-5809 -5845 0
-5810 -5846 0
-5811 -5847 0
-5812 -5848 0
-5809 -5849 0
-5810 -5850 0
-5811 -5851 0
-5812 -5852 0
-5809 -6893 0
-5810 -6894 0
-5811 -6895 0
-5812 -6896 0
-5809 -7421 0
-5810 -7422 0
-5811 -7423 0
-5812 -7424 0
-5813 -5825 0
-5814 -5826 0
-5815 -5827 0
-5816 -5828 0
-5813 -5853 0
-5814 -5854 0
-5815 -5855 0
-5816 -5856 0
-5813 -5857 0
-5814 -5858 0
-5815 -5859 0
-5816 -5860 0
-5813 -6149 0
-5814 -6150 0
-5815 -6151 0
-5816 -6152 0
-5813 -6901 0
-5814 -6902 0
-5815 -6903 0
-5816 -6904 0
-5813 -7285 0
-5814 -7286 0
-5815 -7287 0
-5816 -7288 0
-5813 -7421 0
-5814 -7422 0
-5815 -7423 0
-5816 -7424 0
-5813 -7425 0
-5814 -7426 0
-5815 -7427 0
-5816 -7428 0
-5817 -5833 0
-5818 -5834 0
-5819 -5835 0
-5820 -5836 0
-5817 -6197 0
-5818 -6198 0
-5819 -6199 0
-5820 -6200 0
-5817 -6633 0
-5818 -6634 0
-5819 -6635 0
-5820 -6636 0
-5817 -6909 0
-5818 -6910 0
-5819 -6911 0
-5820 -6912 0
-5817 -7429 0
-5818 -7430 0
-5819 -7431 0
-5820 -7432 0
-5821 -5825 0
-5822 -5826 0
-5823 -5827 0
-5824 -5828 0
-5821 -5833 0
-5822 -5834 0
-5823 -5835 0
-5824 -5836 0
-5821 -5881 0
-5822 -5882 0
-5823 -5883 0
-5824 -5884 0
-5821 -5889 0
-5822 -5890 0
-5823 -5891 0
-5824 -5892 0
-5821 -6385 0
-5822 -6386 0
-5823 -6387 0
-5824 -6388 0
-5821 -6897 0
-5822 -6898 0
-5823 -6899 0
-5824 -6900 0
-5821 -7433 0
-5822 -7434 0
-5823 -7435 0
-5824 -7436 0
-5825 -5841 0
-5826 -5842 0
-5827 -5843 0
-5828 -5844 0
-5825 -5905 0
-5826 -5906 0
-5827 -5907 0
-5828 -5908 0
-5825 -5913 0
-5826 -5914 0
-5827 -5915 0
-5828 -5916 0
-5825 -6161 0
-5826 -6162 0
-5827 -6163 0
-5828 -6164 0
-5825 -6393 0
-5826 -6394 0
-5827 -6395 0
-5828 -6396 0
-5825 -7433 0
-5826 -7434 0
-5827 -7435 0
-5828 -7436 0
-5829 -5833 0
-5830 -5834 0
-5831 -5835 0
-5832 -5836 0
-5829 -5837 0
-5830 -5838 0
-5831 -5839 0
-5832 -5840 0
-5829 -6017 0
-5830 -6018 0
-5831 -6019 0
-5832 -6020 0
-5829 -6345 0
-5830 -6346 0
-5831 -6347 0
-5832 -6348 0
-5829 -6765 0
-5830 -6766 0
-5831 -6767 0
-5832 -6768 0
-5829 -7437 0
-5830 -7438 0
-5831 -7439 0
-5832 -7440 0
-5829 -7441 0
-5830 -7442 0
-5831 -7443 0
-5832 -7444 0
-5833 -5841 0
-5834 -5842 0
-5835 -5843 0
-5836 -5844 0
-5833 -5929 0
-5834 -5930 0
-5835 -5931 0
-5836 -5932 0
-5833 -6017 0
-5834 -6018 0
-5835 -6019 0
-5836 -6020 0
-5833 -6217 0
-5834 -6218 0
-5835 -6219 0
-5836 -6220 0
-5833 -6773 0
-5834 -6774 0
-5835 -6775 0
-5836 -6776 0
-5833 -6913 0
-5834 -6914 0
-5835 -6915 0
-5836 -6916 0
-5833 -7065 0
-5834 -7066 0
-5835 -7067 0
-5836 -7068 0
-5833 -7445 0
-5834 -7446 0
-5835 -7447 0
-5836 -7448 0
-5837 -5841 0
-5838 -5842 0
-5839 -5843 0
-5840 -5844 0
-5837 -6021 0
-5838 -6022 0
-5839 -6023 0
-5840 -6024 0
-5837 -6777 0
-5838 -6778 0
-5839 -6779 0
-5840 -6780 0
-5837 -7441 0
-5838 -7442 0
-5839 -7443 0
-5840 -7444 0
-5841 -5933 0
-5842 -5934 0
-5843 -5935 0
-5844 -5936 0
-5841 -6021 0
-5842 -6022 0
-5843 -6023 0
-5844 -6024 0
-5841 -6781 0
-5842 -6782 0
-5843 -6783 0
-5844 -6784 0
-5841 -7073 0
-5842 -7074 0
-5843 -7075 0
-5844 -7076 0
-5841 -7445 0
-5842 -7446 0
-5843 -7447 0
-5844 -7448 0
-5845 -5849 0
-5846 -5850 0
-5847 -5851 0
-5848 -5852 0
-5845 -5853 0
-5846 -5854 0
-5847 -5855 0
-5848 -5856 0
-5845 -5877 0
-5846 -5878 0
-5847 -5879 0
-5848 -5880 0
-5845 -5881 0
-5846 -5882 0
-5847 -5883 0
-5848 -5884 0
-5845 -5941 0
-5846 -5942 0
-5847 -5943 0
-5848 -5944 0
-5845 -6025 0
-5846 -6026 0
-5847 -6027 0
-5848 -6028 0
-5845 -6221 0
-5846 -6222 0
-5847 -6223 0
-5848 -6224 0
-5845 -7065 0
-5846 -7066 0
-5847 -7067 0
-5848 -7068 0
-5845 -7449 0
-5846 -7450 0
-5847 -7451 0
-5848 -7452 0
-5845 -7597 0
-5846 -7598 0
-5847 -7599 0
-5848 -7600 0
-5849 -5857 0
-5850 -5858 0
-5851 -5859 0
-5852 -5860 0
-5849 -5885 0
-5850 -5886 0
-5851 -5887 0
-5852 -5888 0
-5849 -5889 0
-5850 -5890 0
-5851 -5891 0
-5852 -5892 0
-5849 -6225 0
-5850 -6226 0
-5851 -6227 0
-5852 -6228 0
-5849 -6405 0
-5850 -6406 0
-5851 -6407 0
-5852 -6408 0
-5849 -6937 0
-5850 -6938 0
-5851 -6939 0
-5852 -6940 0
-5849 -7069 0
-5850 -7070 0
-5851 -7071 0
-5852 -7072 0
-5849 -7453 0
-5850 -7454 0
-5851 -7455 0
-5852 -7456 0
-5853 -5857 0
-5854 -5858 0
-5855 -5859 0
-5856 -5860 0
-5853 -5861 0
-5854 -5862 0
-5855 -5863 0
-5856 -5864 0
-5853 -5901 0
-5854 -5902 0
-5855 -5903 0
-5856 -5904 0
-5853 -5905 0
-5854 -5906 0
-5855 -5907 0
-5856 -5908 0
-5853 -5945 0
-5854 -5946 0
-5855 -5947 0
-5856 -5948 0
-5853 -6029 0
-5854 -6030 0
-5855 -6031 0
-5856 -6032 0
-5853 -6033 0
-5854 -6034 0
-5855 -6035 0
-5856 -6036 0
-5853 -6229 0
-5854 -6230 0
-5855 -6231 0
-5856 -6232 0
-5853 -6941 0
-5854 -6942 0
-5855 -6943 0
-5856 -6944 0
-5853 -7073 0
-5854 -7074 0
-5855 -7075 0
-5856 -7076 0
-5853 -7293 0
-5854 -7294 0
-5855 -7295 0
-5856 -7296 0
-5853 -7449 0
-5854 -7450 0
-5855 -7451 0
-5856 -7452 0
-5853 -7457 0
-5854 -7458 0
-5855 -7459 0
-5856 -7460 0
-5853 -7601 0
-5854 -7602 0
-5855 -7603 0
-5856 -7604 0
-5857 -5909 0
-5858 -5910 0
-5859 -5911 0
-5860 -5912 0
-5857 -5913 0
-5858 -5914 0
-5859 -5915 0
-5860 -5916 0
-5857 -6169 0
-5858 -6170 0
-5859 -6171 0
-5860 -6172 0
-5857 -6413 0
-5858 -6414 0
-5859 -6415 0
-5860 -6416 0
-5857 -6945 0
-5858 -6946 0
-5859 -6947 0
-5860 -6948 0
-5857 -7453 0
-5858 -7454 0
-5859 -7455 0
-5860 -7456 0
-5857 -7461 0
-5858 -7462 0
-5859 -7463 0
-5860 -7464 0
-5861 -5917 0
-5862 -5918 0
-5863 -5919 0
-5864 -5920 0
-5861 -5945 0
-5862 -5946 0
-5863 -5947 0
-5864 -5948 0
-5861 -6649 0
-5862 -6650 0
-5863 -6651 0
-5864 -6652 0
-5865 -5869 0
-5866 -5870 0
-5867 -5871 0
-5868 -5872 0
-5865 -5873 0
-5866 -5874 0
-5867 -5875 0
-5868 -5876 0
-5865 -5889 0
-5866 -5890 0
-5867 -5891 0
-5868 -5892 0
-5865 -6429 0
-5866 -6430 0
-5867 -6431 0
-5868 -6432 0
-5865 -7465 0
-5866 -7466 0
-5867 -7467 0
-5868 -7468 0
-5865 -7521 0
-5866 -7522 0
-5867 -7523 0
-5868 -7524 0
-5869 -5897 0
-5870 -5898 0
-5871 -5899 0
-5872 -5900 0
-5869 -6465 0
-5870 -6466 0
-5871 -6467 0
-5872 -6468 0
-5869 -6921 0
-5870 -6922 0
-5871 -6923 0
-5872 -6924 0
-5869 -7469 0
-5870 -7470 0
-5871 -7471 0
-5872 -7472 0
-5869 -7529 0
-5870 -7530 0
-5871 -7531 0
-5872 -7532 0
-5873 -5913 0
-5874 -5914 0
-5875 -5915 0
-5876 -5916 0
-5873 -6433 0
-5874 -6434 0
-5875 -6435 0
-5876 -6436 0
-5873 -6957 0
-5874 -6958 0
-5875 -6959 0
-5876 -6960 0
-5873 -7465 0
-5874 -7466 0
-5875 -7467 0
-5876 -7468 0
-5877 -5881 0
-5878 -5882 0
-5879 -5883 0
-5880 -5884 0
-5877 -5885 0
-5878 -5886 0
-5879 -5887 0
-5880 -5888 0
-5877 -5893 0
-5878 -5894 0
-5879 -5895 0
-5880 -5896 0
-5877 -5901 0
-5878 -5902 0
-5879 -5903 0
-5880 -5904 0
-5877 -5977 0
-5878 -5978 0
-5879 -5979 0
-5880 -5980 0
-5877 -6357 0
-5878 -6358 0
-5879 -6359 0
-5880 -6360 0
-5877 -7473 0
-5878 -7474 0
-5879 -7475 0
-5880 -7476 0
-5881 -5889 0
-5882 -5890 0
-5883 -5891 0
-5884 -5892 0
-5881 -5905 0
-5882 -5906 0
-5883 -5907 0
-5884 -5908 0
-5881 -6069 0
-5882 -6070 0
-5883 -6071 0
-5884 -6072 0
-5881 -6361 0
-5882 -6362 0
-5883 -6363 0
-5884 -6364 0
-5881 -6453 0
-5882 -6454 0
-5883 -6455 0
-5884 -6456 0
-5881 -7477 0
-5882 -7478 0
-5883 -7479 0
-5884 -7480 0
-5885 -5889 0
-5886 -5890 0
-5887 -5891 0
-5888 -5892 0
-5885 -5909 0
-5886 -5910 0
-5887 -5911 0
-5888 -5912 0
-5885 -6061 0
-5886 -6062 0
-5887 -6063 0
-5888 -6064 0
-5885 -6253 0
-5886 -6254 0
-5887 -6255 0
-5888 -6256 0
-5885 -6457 0
-5886 -6458 0
-5887 -6459 0
-5888 -6460 0
-5885 -7301 0
-5886 -7302 0
-5887 -7303 0
-5888 -7304 0
-5885 -7481 0
-5886 -7482 0
-5887 -7483 0
-5888 -7484 0
-5889 -5897 0
-5890 -5898 0
-5891 -5899 0
-5892 -5900 0
-5889 -5913 0
-5890 -5914 0
-5891 -5915 0
-5892 -5916 0
-5889 -5929 0
-5890 -5930 0
-5891 -5931 0
-5892 -5932 0
-5889 -6461 0
-5890 -6462 0
-5891 -6463 0
-5892 -6464 0
-5889 -7305 0
-5890 -7306 0
-5891 -7307 0
-5892 -7308 0
-5889 -7485 0
-5890 -7486 0
-5891 -7487 0
-5892 -7488 0
-5893 -5917 0
-5894 -5918 0
-5895 -5919 0
-5896 -5920 0
-5893 -5977 0
-5894 -5978 0
-5895 -5979 0
-5896 -5980 0
-5893 -6365 0
-5894 -6366 0
-5895 -6367 0
-5896 -6368 0
-5893 -6893 0
-5894 -6894 0
-5895 -6895 0
-5896 -6896 0
-5897 -5925 0
-5898 -5926 0
-5899 -5927 0
-5900 -5928 0
-5897 -6177 0
-5898 -6178 0
-5899 -6179 0
-5900 -6180 0
-5897 -6473 0
-5898 -6474 0
-5899 -6475 0
-5900 -6476 0
-5897 -6945 0
-5898 -6946 0
-5899 -6947 0
-5900 -6948 0
-5897 -7489 0
-5898 -7490 0
-5899 -7491 0
-5900 -7492 0
-5901 -5905 0
-5902 -5906 0
-5903 -5907 0
-5904 -5908 0
-5901 -5909 0
-5902 -5910 0
-5903 -5911 0
-5904 -5912 0
-5901 -5917 0
-5902 -5918 0
-5903 -5919 0
-5904 -5920 0
-5901 -5981 0
-5902 -5982 0
-5903 -5983 0
-5904 -5984 0
-5901 -6081 0
-5902 -6082 0
-5903 -6083 0
-5904 -6084 0
-5901 -6369 0
-5902 -6370 0
-5903 -6371 0
-5904 -6372 0
-5901 -6897 0
-5902 -6898 0
-5903 -6899 0
-5904 -6900 0
-5901 -7297 0
-5902 -7298 0
-5903 -7299 0
-5904 -7300 0
-5901 -7309 0
-5902 -7310 0
-5903 -7311 0
-5904 -7312 0
-5901 -7473 0
-5902 -7474 0
-5903 -7475 0
-5904 -7476 0
-5901 -7493 0
-5902 -7494 0
-5903 -7495 0
-5904 -7496 0
-5905 -5913 0
-5906 -5914 0
-5907 -5915 0
-5908 -5916 0
-5905 -5985 0
-5906 -5986 0
-5907 -5987 0
-5908 -5988 0
-5905 -6085 0
-5906 -6086 0
-5907 -6087 0
-5908 -6088 0
-5905 -6489 0
-5906 -6490 0
-5907 -6491 0
-5908 -6492 0
-5905 -6793 0
-5906 -6794 0
-5907 -6795 0
-5908 -6796 0
-5905 -7313 0
-5906 -7314 0
-5907 -7315 0
-5908 -7316 0
-5905 -7477 0
-5906 -7478 0
-5907 -7479 0
-5908 -7480 0
-5909 -5913 0
-5910 -5914 0
-5911 -5915 0
-5912 -5916 0
-5909 -5921 0
-5910 -5922 0
-5911 -5923 0
-5912 -5924 0
-5909 -5989 0
-5910 -5990 0
-5911 -5991 0
-5912 -5992 0
-5909 -6065 0
-5910 -6066 0
-5911 -6067 0
-5912 -6068 0
-5909 -6493 0
-5910 -6494 0
-5911 -6495 0
-5912 -6496 0
-5909 -7317 0
-5910 -7318 0
-5911 -7319 0
-5912 -7320 0
-5909 -7481 0
-5910 -7482 0
-5911 -7483 0
-5912 -7484 0
-5913 -5925 0
-5914 -5926 0
-5915 -5927 0
-5916 -5928 0
-5913 -5933 0
-5914 -5934 0
-5915 -5935 0
-5916 -5936 0
-5913 -6181 0
-5914 -6182 0
-5915 -6183 0
-5916 -6184 0
-5913 -6497 0
-5914 -6498 0
-5915 -6499 0
-5916 -6500 0
-5913 -7321 0
-5914 -7322 0
-5915 -7323 0
-5916 -7324 0
-5913 -7485 0
-5914 -7486 0
-5915 -7487 0
-5916 -7488 0
-5917 -5921 0
-5918 -5922 0
-5919 -5923 0
-5920 -5924 0
-5917 -5981 0
-5918 -5982 0
-5919 -5983 0
-5920 -5984 0
-5917 -6373 0
-5918 -6374 0
-5919 -6375 0
-5920 -6376 0
-5917 -6901 0
-5918 -6902 0
-5919 -6903 0
-5920 -6904 0
-5921 -5925 0
-5922 -5926 0
-5923 -5927 0
-5924 -5928 0
-5921 -5989 0
-5922 -5990 0
-5923 -5991 0
-5924 -5992 0
-5921 -6185 0
-5922 -6186 0
-5923 -6187 0
-5924 -6188 0
-5921 -6521 0
-5922 -6522 0
-5923 -6523 0
-5924 -6524 0
-5925 -6189 0
-5926 -6190 0
-5927 -6191 0
-5928 -6192 0
-5925 -6509 0
-5926 -6510 0
-5927 -6511 0
-5928 -6512 0
-5925 -7489 0
-5926 -7490 0
-5927 -7491 0
-5928 -7492 0
-5929 -5933 0
-5930 -5934 0
-5931 -5935 0
-5932 -5936 0
-5929 -6077 0
-5930 -6078 0
-5931 -6079 0
-5932 -6080 0
-5929 -6281 0
-5930 -6282 0
-5931 -6283 0
-5932 -6284 0
-5929 -6353 0
-5930 -6354 0
-5931 -6355 0
-5932 -6356 0
-5929 -6525 0
-5930 -6526 0
-5931 -6527 0
-5932 -6528 0
-5929 -7077 0
-5930 -7078 0
-5931 -7079 0
-5932 -7080 0
-5929 -7501 0
-5930 -7502 0
-5931 -7503 0
-5932 -7504 0
-5933 -6093 0
-5934 -6094 0
-5935 -6095 0
-5936 -6096 0
-5933 -6529 0
-5934 -6530 0
-5935 -6531 0
-5936 -6532 0
-5933 -7325 0
-5934 -7326 0
-5935 -7327 0
-5936 -7328 0
-5933 -7501 0
-5934 -7502 0
-5935 -7503 0
-5936 -7504 0
-5937 -6009 0
-5938 -6010 0
-5939 -6011 0
-5940 -6012 0
-5937 -6013 0
-5938 -6014 0
-5939 -6015 0
-5940 -6016 0
-5937 -6297 0
-5938 -6298 0
-5939 -6299 0
-5940 -6300 0
-5937 -6373 0
-5938 -6374 0
-5939 -6375 0
-5940 -6376 0
-5937 -6713 0
-5938 -6714 0
-5939 -6715 0
-5940 -6716 0
-5937 -6933 0
-5938 -6934 0
-5939 -6935 0
-5940 -6936 0
-5937 -7345 0
-5938 -7346 0
-5939 -7347 0
-5940 -7348 0
-5937 -7545 0
-5938 -7546 0
-5939 -7547 0
-5940 -7548 0
-5941 -5945 0
-5942 -5946 0
-5943 -5947 0
-5944 -5948 0
-5941 -5977 0
-5942 -5978 0
-5943 -5979 0
-5944 -5980 0
-5941 -6037 0
-5942 -6038 0
-5943 -6039 0
-5944 -6040 0
-5941 -6409 0
-5942 -6410 0
-5943 -6411 0
-5944 -6412 0
-5941 -7505 0
-5942 -7506 0
-5943 -7507 0
-5944 -7508 0
-5945 -5953 0
-5946 -5954 0
-5947 -5955 0
-5948 -5956 0
-5945 -5981 0
-5946 -5982 0
-5947 -5983 0
-5948 -5984 0
-5945 -5985 0
-5946 -5986 0
-5947 -5987 0
-5948 -5988 0
-5945 -6049 0
-5946 -6050 0
-5947 -6051 0
-5948 -6052 0
-5945 -6237 0
-5946 -6238 0
-5947 -6239 0
-5948 -6240 0
-5945 -6313 0
-5946 -6314 0
-5947 -6315 0
-5948 -6316 0
-5945 -6417 0
-5946 -6418 0
-5947 -6419 0
-5948 -6420 0
-5945 -7093 0
-5946 -7094 0
-5947 -7095 0
-5948 -7096 0
-5945 -7505 0
-5946 -7506 0
-5947 -7507 0
-5948 -7508 0
-5945 -7509 0
-5946 -7510 0
-5947 -7511 0
-5948 -7512 0
-5945 -7637 0
-5946 -7638 0
-5947 -7639 0
-5948 -7640 0
-5949 -5953 0
-5950 -5954 0
-5951 -5955 0
-5952 -5956 0
-5949 -5993 0
-5950 -5994 0
-5951 -5995 0
-5952 -5996 0
-5949 -6045 0
-5950 -6046 0
-5951 -6047 0
-5952 -6048 0
-5949 -6309 0
-5950 -6310 0
-5951 -6311 0
-5952 -6312 0
-5949 -6725 0
-5950 -6726 0
-5951 -6727 0
-5952 -6728 0
-5949 -7009 0
-5950 -7010 0
-5951 -7011 0
-5952 -7012 0
-5949 -7365 0
-5950 -7366 0
-5951 -7367 0
-5952 -7368 0
-5949 -7429 0
-5950 -7430 0
-5951 -7431 0
-5952 -7432 0
-5953 -5993 0
-5954 -5994 0
-5955 -5995 0
-5956 -5996 0
-5953 -6049 0
-5954 -6050 0
-5955 -6051 0
-5956 -6052 0
-5953 -6317 0
-5954 -6318 0
-5955 -6319 0
-5956 -6320 0
-5953 -6729 0
-5954 -6730 0
-5955 -6731 0
-5956 -6732 0
-5957 -5961 0
-5958 -5962 0
-5959 -5963 0
-5960 -5964 0
-5957 -5977 0
-5958 -5978 0
-5959 -5979 0
-5960 -5980 0
-5957 -6429 0
-5958 -6430 0
-5959 -6431 0
-5960 -6432 0
-5957 -7437 0
-5958 -7438 0
-5959 -7439 0
-5960 -7440 0
-5961 -5965 0
-5962 -5966 0
-5963 -5967 0
-5964 -5968 0
-5961 -5969 0
-5962 -5970 0
-5963 -5971 0
-5964 -5972 0
-5961 -5981 0
-5962 -5982 0
-5963 -5983 0
-5964 -5984 0
-5961 -6005 0
-5962 -6006 0
-5963 -6007 0
-5964 -6008 0
-5961 -6433 0
-5962 -6434 0
-5963 -6435 0
-5964 -6436 0
-5961 -6833 0
-5962 -6834 0
-5963 -6835 0
-5964 -6836 0
-5961 -7369 0
-5962 -7370 0
-5963 -7371 0
-5964 -7372 0
-5961 -7441 0
-5962 -7442 0
-5963 -7443 0
-5964 -7444 0
-5961 -7641 0
-5962 -7642 0
-5963 -7643 0
-5964 -7644 0
-5965 -5973 0
-5966 -5974 0
-5967 -5975 0
-5968 -5976 0
-5965 -5989 0
-5966 -5990 0
-5967 -5991 0
-5968 -5992 0
-5965 -6005 0
-5966 -6006 0
-5967 -6007 0
-5968 -6008 0
-5965 -6105 0
-5966 -6106 0
-5967 -6107 0
-5968 -6108 0
-5965 -6577 0
-5966 -6578 0
-5967 -6579 0
-5968 -6580 0
-5965 -7109 0
-5966 -7110 0
-5967 -7111 0
-5968 -7112 0
-5969 -5973 0
-5970 -5974 0
-5971 -5975 0
-5972 -5976 0
-5969 -5993 0
-5970 -5994 0
-5971 -5995 0
-5972 -5996 0
-5969 -6009 0
-5970 -6010 0
-5971 -6011 0
-5972 -6012 0
-5969 -6393 0
-5970 -6394 0
-5971 -6395 0
-5972 -6396 0
-5969 -6841 0
-5970 -6842 0
-5971 -6843 0
-5972 -6844 0
-5969 -7017 0
-5970 -7018 0
-5971 -7019 0
-5972 -7020 0
-5969 -7377 0
-5970 -7378 0
-5971 -7379 0
-5972 -7380 0
-5969 -7445 0
-5970 -7446 0
-5971 -7447 0
-5972 -7448 0
-5973 -6009 0
-5974 -6010 0
-5975 -6011 0
-5976 -6012 0
-5973 -6397 0
-5974 -6398 0
-5975 -6399 0
-5976 -6400 0
-5973 -6761 0
-5974 -6762 0
-5975 -6763 0
-5976 -6764 0
-5973 -7021 0
-5974 -7022 0
-5975 -7023 0
-5976 -7024 0
-5973 -7117 0
-5974 -7118 0
-5975 -7119 0
-5976 -7120 0
-5977 -5981 0
-5978 -5982 0
-5979 -5983 0
-5980 -5984 0
-5977 -6461 0
-5978 -6462 0
-5979 -6463 0
-5980 -6464 0
-5977 -7437 0
-5978 -7438 0
-5979 -7439 0
-5980 -7440 0
-5977 -7513 0
-5978 -7514 0
-5979 -7515 0
-5980 -7516 0
-5981 -5985 0
-5982 -5986 0
-5983 -5987 0
-5984 -5988 0
-5981 -5989 0
-5982 -5990 0
-5983 -5991 0
-5984 -5992 0
-5981 -5993 0
-5982 -5994 0
-5983 -5995 0
-5984 -5996 0
-5981 -6057 0
-5982 -6058 0
-5983 -6059 0
-5984 -6060 0
-5981 -6113 0
-5982 -6114 0
-5983 -6115 0
-5984 -6116 0
-5981 -6273 0
-5982 -6274 0
-5983 -6275 0
-5984 -6276 0
-5981 -6497 0
-5982 -6498 0
-5983 -6499 0
-5984 -6500 0
-5981 -6965 0
-5982 -6966 0
-5983 -6967 0
-5984 -6968 0
-5981 -7385 0
-5982 -7386 0
-5983 -7387 0
-5984 -7388 0
-5981 -7441 0
-5982 -7442 0
-5983 -7443 0
-5984 -7444 0
-5981 -7513 0
-5982 -7514 0
-5983 -7515 0
-5984 -7516 0
-5981 -7517 0
-5982 -7518 0
-5983 -7519 0
-5984 -7520 0
-5985 -6329 0
-5986 -6330 0
-5987 -6331 0
-5988 -6332 0
-5985 -6501 0
-5986 -6502 0
-5987 -6503 0
-5988 -6504 0
-5989 -6117 0
-5990 -6118 0
-5991 -6119 0
-5992 -6120 0
-5989 -6277 0
-5990 -6278 0
-5991 -6279 0
-5992 -6280 0
-5989 -6505 0
-5990 -6506 0
-5991 -6507 0
-5992 -6508 0
-5989 -6777 0
-5990 -6778 0
-5991 -6779 0
-5992 -6780 0
-5989 -7125 0
-5990 -7126 0
-5991 -7127 0
-5992 -7128 0
-5993 -6057 0
-5994 -6058 0
-5995 -6059 0
-5996 -6060 0
-5993 -6129 0
-5994 -6130 0
-5995 -6131 0
-5996 -6132 0
-5993 -6513 0
-5994 -6514 0
-5995 -6515 0
-5996 -6516 0
-5993 -6969 0
-5994 -6970 0
-5995 -6971 0
-5996 -6972 0
-5993 -7393 0
-5994 -7394 0
-5995 -7395 0
-5996 -7396 0
-5993 -7445 0
-5994 -7446 0
-5995 -7447 0
-5996 -7448 0
-5997 -6001 0
-5998 -6002 0
-5999 -6003 0
-6000 -6004 0
-5997 -6009 0
-5998 -6010 0
-5999 -6011 0
-6000 -6012 0
-5997 -6425 0
-5998 -6426 0
-5999 -6427 0
-6000 -6428 0
-5997 -6585 0
-5998 -6586 0
-5999 -6587 0
-6000 -6588 0
-5997 -6785 0
-5998 -6786 0
-5999 -6787 0
-6000 -6788 0
-5997 -7157 0
-5998 -7158 0
-5999 -7159 0
-6000 -7160 0
-5997 -7465 0
-5998 -7466 0
-5999 -7467 0
-6000 -7468 0
-5997 -7485 0
-5998 -7486 0
-5999 -7487 0
-6000 -7488 0
-5997 -7557 0
-5998 -7558 0
-5999 -7559 0
-6000 -7560 0
-6001 -6013 0
-6002 -6014 0
-6003 -6015 0
-6004 -6016 0
-6001 -6293 0
-6002 -6294 0
-6003 -6295 0
-6004 -6296 0
-6001 -6333 0
-6002 -6334 0
-6003 -6335 0
-6004 -6336 0
-6001 -6789 0
-6002 -6790 0
-6003 -6791 0
-6004 -6792 0
-6001 -7037 0
-6002 -7038 0
-6003 -7039 0
-6004 -7040 0
-6001 -7161 0
-6002 -7162 0
-6003 -7163 0
-6004 -7164 0
-6001 -7469 0
-6002 -7470 0
-6003 -7471 0
-6004 -7472 0
-6001 -7489 0
-6002 -7490 0
-6003 -7491 0
-6004 -7492 0
-6001 -7561 0
-6002 -7562 0
-6003 -7563 0
-6004 -7564 0
-6005 -6009 0
-6006 -6010 0
-6007 -6011 0
-6008 -6012 0
-6005 -6133 0
-6006 -6134 0
-6007 -6135 0
-6008 -6136 0
-6005 -6481 0
-6006 -6482 0
-6007 -6483 0
-6008 -6484 0
-6005 -7173 0
-6006 -7174 0
-6007 -7175 0
-6008 -7176 0
-6005 -7681 0
-6006 -7682 0
-6007 -7683 0
-6008 -7684 0
-6009 -6013 0
-6010 -6014 0
-6011 -6015 0
-6012 -6016 0
-6009 -6137 0
-6010 -6138 0
-6011 -6139 0
-6012 -6140 0
-6009 -6497 0
-6010 -6498 0
-6011 -6499 0
-6012 -6500 0
-6009 -6809 0
-6010 -6810 0
-6011 -6811 0
-6012 -6812 0
-6009 -6981 0
-6010 -6982 0
-6011 -6983 0
-6012 -6984 0
-6009 -7045 0
-6010 -7046 0
-6011 -7047 0
-6012 -7048 0
-6009 -7177 0
-6010 -7178 0
-6011 -7179 0
-6012 -7180 0
-6009 -7501 0
-6010 -7502 0
-6011 -7503 0
-6012 -7504 0
-6009 -7557 0
-6010 -7558 0
-6011 -7559 0
-6012 -7560 0
-6013 -6337 0
-6014 -6338 0
-6015 -6339 0
-6016 -6340 0
-6013 -6509 0
-6014 -6510 0
-6015 -6511 0
-6016 -6512 0
-6013 -6817 0
-6014 -6818 0
-6015 -6819 0
-6016 -6820 0
-6013 -6997 0
-6014 -6998 0
-6015 -6999 0
-6016 -7000 0
-6013 -7561 0
-6014 -7562 0
-6015 -7563 0
-6016 -7564 0
-6017 -6021 0
-6018 -6022 0
-6019 -6023 0
-6020 -6024 0
-6017 -6157 0
-6018 -6158 0
-6019 -6159 0
-6020 -6160 0
-6017 -7185 0
-6018 -7186 0
-6019 -7187 0
-6020 -7188 0
-6017 -7533 0
-6018 -7534 0
-6019 -7535 0
-6020 -7536 0
-6021 -6165 0
-6022 -6166 0
-6023 -6167 0
-6024 -6168 0
-6021 -7193 0
-6022 -7194 0
-6023 -7195 0
-6024 -7196 0
-6021 -7533 0
-6022 -7534 0
-6023 -7535 0
-6024 -7536 0
-6025 -6033 0
-6026 -6034 0
-6027 -6035 0
-6028 -6036 0
-6025 -6037 0
-6026 -6038 0
-6027 -6039 0
-6028 -6040 0
-6025 -7541 0
-6026 -7542 0
-6027 -7543 0
-6028 -7544 0
-6029 -6033 0
-6030 -6034 0
-6031 -6035 0
-6032 -6036 0
-6029 -7193 0
-6030 -7194 0
-6031 -7195 0
-6032 -7196 0
-6029 -7537 0
-6030 -7538 0
-6031 -7539 0
-6032 -7540 0
-6033 -6041 0
-6034 -6042 0
-6035 -6043 0
-6036 -6044 0
-6033 -6049 0
-6034 -6050 0
-6035 -6051 0
-6036 -6052 0
-6033 -6357 0
-6034 -6358 0
-6035 -6359 0
-6036 -6360 0
-6033 -6785 0
-6034 -6786 0
-6035 -6787 0
-6036 -6788 0
-6033 -7541 0
-6034 -7542 0
-6035 -7543 0
-6036 -7544 0
-6033 -7545 0
-6034 -7546 0
-6035 -7547 0
-6036 -7548 0
-6037 -6049 0
-6038 -6050 0
-6039 -6051 0
-6040 -6052 0
-6037 -6437 0
-6038 -6438 0
-6039 -6439 0
-6040 -6440 0
-6037 -7553 0
-6038 -7554 0
-6039 -7555 0
-6040 -7556 0
-6041 -6049 0
-6042 -6050 0
-6043 -6051 0
-6044 -6052 0
-6041 -6053 0
-6042 -6054 0
-6043 -6055 0
-6044 -6056 0
-6041 -6241 0
-6042 -6242 0
-6043 -6243 0
-6044 -6244 0
-6041 -6449 0
-6042 -6450 0
-6043 -6451 0
-6044 -6452 0
-6041 -6597 0
-6042 -6598 0
-6043 -6599 0
-6044 -6600 0
-6041 -7521 0
-6042 -7522 0
-6043 -7523 0
-6044 -7524 0
-6041 -7549 0
-6042 -7550 0
-6043 -7551 0
-6044 -7552 0
-6041 -7557 0
-6042 -7558 0
-6043 -7559 0
-6044 -7560 0
-6045 -6049 0
-6046 -6050 0
-6047 -6051 0
-6048 -6052 0
-6045 -6057 0
-6046 -6058 0
-6047 -6059 0
-6048 -6060 0
-6045 -6457 0
-6046 -6458 0
-6047 -6459 0
-6048 -6460 0
-6045 -6609 0
-6046 -6610 0
-6047 -6611 0
-6048 -6612 0
-6045 -6833 0
-6046 -6834 0
-6047 -6835 0
-6048 -6836 0
-6045 -7225 0
-6046 -7226 0
-6047 -7227 0
-6048 -7228 0
-6045 -7417 0
-6046 -7418 0
-6047 -7419 0
-6048 -7420 0
-6045 -7525 0
-6046 -7526 0
-6047 -7527 0
-6048 -7528 0
-6049 -6057 0
-6050 -6058 0
-6051 -6059 0
-6052 -6060 0
-6049 -6461 0
-6050 -6462 0
-6051 -6463 0
-6052 -6464 0
-6049 -6837 0
-6050 -6838 0
-6051 -6839 0
-6052 -6840 0
-6049 -7057 0
-6050 -7058 0
-6051 -7059 0
-6052 -7060 0
-6049 -7229 0
-6050 -7230 0
-6051 -7231 0
-6052 -7232 0
-6049 -7529 0
-6050 -7530 0
-6051 -7531 0
-6052 -7532 0
-6049 -7553 0
-6050 -7554 0
-6051 -7555 0
-6052 -7556 0
-6049 -7561 0
-6050 -7562 0
-6051 -7563 0
-6052 -7564 0
-6053 -6249 0
-6054 -6250 0
-6055 -6251 0
-6056 -6252 0
-6053 -6485 0
-6054 -6486 0
-6055 -6487 0
-6056 -6488 0
-6053 -7061 0
-6054 -7062 0
-6055 -7063 0
-6056 -7064 0
-6053 -7557 0
-6054 -7558 0
-6055 -7559 0
-6056 -7560 0
-6057 -6285 0
-6058 -6286 0
-6059 -6287 0
-6060 -6288 0
-6057 -6533 0
-6058 -6534 0
-6059 -6535 0
-6060 -6536 0
-6057 -6625 0
-6058 -6626 0
-6059 -6627 0
-6060 -6628 0
-6057 -7049 0
-6058 -7050 0
-6059 -7051 0
-6060 -7052 0
-6057 -7241 0
-6058 -7242 0
-6059 -7243 0
-6060 -7244 0
-6057 -7533 0
-6058 -7534 0
-6059 -7535 0
-6060 -7536 0
-6057 -7565 0
-6058 -7566 0
-6059 -7567 0
-6060 -7568 0
-6061 -6065 0
-6062 -6066 0
-6063 -6067 0
-6064 -6068 0
-6061 -6073 0
-6062 -6074 0
-6063 -6075 0
-6064 -6076 0
-6061 -6421 0
-6062 -6422 0
-6063 -6423 0
-6064 -6424 0
-6061 -7597 0
-6062 -7598 0
-6063 -7599 0
-6064 -7600 0
-6065 -6089 0
-6066 -6090 0
-6067 -6091 0
-6068 -6092 0
-6065 -6109 0
-6066 -6110 0
-6067 -6111 0
-6068 -6112 0
-6065 -6117 0
-6066 -6118 0
-6067 -6119 0
-6068 -6120 0
-6065 -6357 0
-6066 -6358 0
-6067 -6359 0
-6068 -6360 0
-6065 -6425 0
-6066 -6426 0
-6067 -6427 0
-6068 -6428 0
-6065 -6653 0
-6066 -6654 0
-6067 -6655 0
-6068 -6656 0
-6065 -7421 0
-6066 -7422 0
-6067 -7423 0
-6068 -7424 0
-6065 -7601 0
-6066 -7602 0
-6067 -7603 0
-6068 -7604 0
-6069 -6077 0
-6070 -6078 0
-6071 -6079 0
-6072 -6080 0
-6069 -6085 0
-6070 -6086 0
-6071 -6087 0
-6072 -6088 0
-6069 -6177 0
-6070 -6178 0
-6071 -6179 0
-6072 -6180 0
-6069 -6445 0
-6070 -6446 0
-6071 -6447 0
-6072 -6448 0
-6069 -6937 0
-6070 -6938 0
-6071 -6939 0
-6072 -6940 0
-6069 -7573 0
-6070 -7574 0
-6071 -7575 0
-6072 -7576 0
-6069 -7705 0
-6070 -7706 0
-6071 -7707 0
-6072 -7708 0
-6073 -6077 0
-6074 -6078 0
-6075 -6079 0
-6076 -6080 0
-6073 -6089 0
-6074 -6090 0
-6075 -6091 0
-6076 -6092 0
-6073 -6097 0
-6074 -6098 0
-6075 -6099 0
-6076 -6100 0
-6073 -6121 0
-6074 -6122 0
-6075 -6123 0
-6076 -6124 0
-6073 -6173 0
-6074 -6174 0
-6075 -6175 0
-6076 -6176 0
-6073 -6461 0
-6074 -6462 0
-6075 -6463 0
-6076 -6464 0
-6073 -7577 0
-6074 -7578 0
-6075 -7579 0
-6076 -7580 0
-6073 -7597 0
-6074 -7598 0
-6075 -7599 0
-6076 -7600 0
-6077 -6093 0
-6078 -6094 0
-6079 -6095 0
-6080 -6096 0
-6077 -6097 0
-6078 -6098 0
-6079 -6099 0
-6080 -6100 0
-6077 -6177 0
-6078 -6178 0
-6079 -6179 0
-6080 -6180 0
-6077 -6465 0
-6078 -6466 0
-6079 -6467 0
-6080 -6468 0
-6077 -7077 0
-6078 -7078 0
-6079 -7079 0
-6080 -7080 0
-6077 -7581 0
-6078 -7582 0
-6079 -7583 0
-6080 -7584 0
-6081 -6085 0
-6082 -6086 0
-6083 -6087 0
-6084 -6088 0
-6081 -6089 0
-6082 -6090 0
-6083 -6091 0
-6084 -6092 0
-6081 -6185 0
-6082 -6186 0
-6083 -6187 0
-6084 -6188 0
-6081 -6481 0
-6082 -6482 0
-6083 -6483 0
-6084 -6484 0
-6085 -6093 0
-6086 -6094 0
-6087 -6095 0
-6088 -6096 0
-6085 -6189 0
-6086 -6190 0
-6087 -6191 0
-6088 -6192 0
-6085 -6377 0
-6086 -6378 0
-6087 -6379 0
-6088 -6380 0
-6085 -6673 0
-6086 -6674 0
-6087 -6675 0
-6088 -6676 0
-6085 -6945 0
-6086 -6946 0
-6087 -6947 0
-6088 -6948 0
-6085 -7573 0
-6086 -7574 0
-6087 -7575 0
-6088 -7576 0
-6085 -7713 0
-6086 -7714 0
-6087 -7715 0
-6088 -7716 0
-6089 -6093 0
-6090 -6094 0
-6091 -6095 0
-6092 -6096 0
-6089 -6101 0
-6090 -6102 0
-6091 -6103 0
-6092 -6104 0
-6089 -6125 0
-6090 -6126 0
-6091 -6127 0
-6092 -6128 0
-6089 -6129 0
-6090 -6130 0
-6091 -6131 0
-6092 -6132 0
-6089 -6185 0
-6090 -6186 0
-6091 -6187 0
-6092 -6188 0
-6089 -6193 0
-6090 -6194 0
-6091 -6195 0
-6092 -6196 0
-6089 -6497 0
-6090 -6498 0
-6091 -6499 0
-6092 -6500 0
-6089 -6865 0
-6090 -6866 0
-6091 -6867 0
-6092 -6868 0
-6089 -7069 0
-6090 -7070 0
-6091 -7071 0
-6092 -7072 0
-6089 -7089 0
-6090 -7090 0
-6091 -7091 0
-6092 -7092 0
-6089 -7429 0
-6090 -7430 0
-6091 -7431 0
-6092 -7432 0
-6089 -7577 0
-6090 -7578 0
-6091 -7579 0
-6092 -7580 0
-6089 -7585 0
-6090 -7586 0
-6091 -7587 0
-6092 -7588 0
-6089 -7601 0
-6090 -7602 0
-6091 -7603 0
-6092 -7604 0
-6093 -6101 0
-6094 -6102 0
-6095 -6103 0
-6096 -6104 0
-6093 -6189 0
-6094 -6190 0
-6095 -6191 0
-6096 -6192 0
-6093 -6501 0
-6094 -6502 0
-6095 -6503 0
-6096 -6504 0
-6093 -6677 0
-6094 -6678 0
-6095 -6679 0
-6096 -6680 0
-6093 -6869 0
-6094 -6870 0
-6095 -6871 0
-6096 -6872 0
-6093 -6953 0
-6094 -6954 0
-6095 -6955 0
-6096 -6956 0
-6093 -7581 0
-6094 -7582 0
-6095 -7583 0
-6096 -7584 0
-6097 -6101 0
-6098 -6102 0
-6099 -6103 0
-6100 -6104 0
-6097 -6537 0
-6098 -6538 0
-6099 -6539 0
-6100 -6540 0
-6101 -6545 0
-6102 -6546 0
-6103 -6547 0
-6104 -6548 0
-6101 -7445 0
-6102 -7446 0
-6103 -7447 0
-6104 -7448 0
-6105 -6117 0
-6106 -6118 0
-6107 -6119 0
-6108 -6120 0
-6105 -6133 0
-6106 -6134 0
-6107 -6135 0
-6108 -6136 0
-6105 -6429 0
-6106 -6430 0
-6107 -6431 0
-6108 -6432 0
-6105 -6729 0
-6106 -6730 0
-6107 -6731 0
-6108 -6732 0
-6105 -6889 0
-6106 -6890 0
-6107 -6891 0
-6108 -6892 0
-6105 -7109 0
-6106 -7110 0
-6107 -7111 0
-6108 -7112 0
-6105 -7137 0
-6106 -7138 0
-6107 -7139 0
-6108 -7140 0
-6105 -7469 0
-6106 -7470 0
-6107 -7471 0
-6108 -7472 0
-6105 -7569 0
-6106 -7570 0
-6107 -7571 0
-6108 -7572 0
-6105 -7633 0
-6106 -7634 0
-6107 -7635 0
-6108 -7636 0
-6105 -7729 0
-6106 -7730 0
-6107 -7731 0
-6108 -7732 0
-6109 -6117 0
-6110 -6118 0
-6111 -6119 0
-6112 -6120 0
-6109 -6125 0
-6110 -6126 0
-6111 -6127 0
-6112 -6128 0
-6109 -6253 0
-6110 -6254 0
-6111 -6255 0
-6112 -6256 0
-6109 -6257 0
-6110 -6258 0
-6111 -6259 0
-6112 -6260 0
-6109 -6449 0
-6110 -6450 0
-6111 -6451 0
-6112 -6452 0
-6109 -6725 0
-6110 -6726 0
-6111 -6727 0
-6112 -6728 0
-6109 -6897 0
-6110 -6898 0
-6111 -6899 0
-6112 -6900 0
-6109 -7165 0
-6110 -7166 0
-6111 -7167 0
-6112 -7168 0
-6109 -7485 0
-6110 -7486 0
-6111 -7487 0
-6112 -7488 0
-6113 -6117 0
-6114 -6118 0
-6115 -6119 0
-6116 -6120 0
-6113 -6141 0
-6114 -6142 0
-6115 -6143 0
-6116 -6144 0
-6113 -6453 0
-6114 -6454 0
-6115 -6455 0
-6116 -6456 0
-6113 -6657 0
-6114 -6658 0
-6115 -6659 0
-6116 -6660 0
-6117 -6129 0
-6118 -6130 0
-6119 -6131 0
-6120 -6132 0
-6117 -6141 0
-6118 -6142 0
-6119 -6143 0
-6120 -6144 0
-6117 -6261 0
-6118 -6262 0
-6119 -6263 0
-6120 -6264 0
-6117 -6461 0
-6118 -6462 0
-6119 -6463 0
-6120 -6464 0
-6117 -6661 0
-6118 -6662 0
-6119 -6663 0
-6120 -6664 0
-6117 -6733 0
-6118 -6734 0
-6119 -6735 0
-6120 -6736 0
-6117 -6901 0
-6118 -6902 0
-6119 -6903 0
-6120 -6904 0
-6117 -7125 0
-6118 -7126 0
-6119 -7127 0
-6120 -7128 0
-6117 -7489 0
-6118 -7490 0
-6119 -7491 0
-6120 -7492 0
-6117 -7569 0
-6118 -7570 0
-6119 -7571 0
-6120 -7572 0
-6117 -7637 0
-6118 -7638 0
-6119 -7639 0
-6120 -7640 0
-6121 -6125 0
-6122 -6126 0
-6123 -6127 0
-6124 -6128 0
-6121 -6265 0
-6122 -6266 0
-6123 -6267 0
-6124 -6268 0
-6121 -6569 0
-6122 -6570 0
-6123 -6571 0
-6124 -6572 0
-6121 -6641 0
-6122 -6642 0
-6123 -6643 0
-6124 -6644 0
-6125 -6129 0
-6126 -6130 0
-6127 -6131 0
-6128 -6132 0
-6125 -6277 0
-6126 -6278 0
-6127 -6279 0
-6128 -6280 0
-6125 -6289 0
-6126 -6290 0
-6127 -6291 0
-6128 -6292 0
-6125 -6317 0
-6126 -6318 0
-6127 -6319 0
-6128 -6320 0
-6125 -6577 0
-6126 -6578 0
-6127 -6579 0
-6128 -6580 0
-6125 -6645 0
-6126 -6646 0
-6127 -6647 0
-6128 -6648 0
-6125 -6913 0
-6126 -6914 0
-6127 -6915 0
-6128 -6916 0
-6125 -7501 0
-6126 -7502 0
-6127 -7503 0
-6128 -7504 0
-6125 -7589 0
-6126 -7590 0
-6127 -7591 0
-6128 -7592 0
-6129 -6285 0
-6130 -6286 0
-6131 -6287 0
-6132 -6288 0
-6129 -6525 0
-6130 -6526 0
-6131 -6527 0
-6132 -6528 0
-6129 -6581 0
-6130 -6582 0
-6131 -6583 0
-6132 -6584 0
-6129 -6877 0
-6130 -6878 0
-6131 -6879 0
-6132 -6880 0
-6129 -6917 0
-6130 -6918 0
-6131 -6919 0
-6132 -6920 0
-6129 -7637 0
-6130 -7638 0
-6131 -7639 0
-6132 -7640 0
-6133 -6137 0
-6134 -6138 0
-6135 -6139 0
-6136 -6140 0
-6133 -6141 0
-6134 -6142 0
-6135 -6143 0
-6136 -6144 0
-6133 -6145 0
-6134 -6146 0
-6135 -6147 0
-6136 -6148 0
-6133 -6293 0
-6134 -6294 0
-6135 -6295 0
-6136 -6296 0
-6133 -6649 0
-6134 -6650 0
-6135 -6651 0
-6136 -6652 0
-6133 -7029 0
-6134 -7030 0
-6135 -7031 0
-6136 -7032 0
-6133 -7101 0
-6134 -7102 0
-6135 -7103 0
-6136 -7104 0
-6133 -7269 0
-6134 -7270 0
-6135 -7271 0
-6136 -7272 0
-6133 -7573 0
-6134 -7574 0
-6135 -7575 0
-6136 -7576 0
-6133 -7649 0
-6134 -7650 0
-6135 -7651 0
-6136 -7652 0
-6133 -7657 0
-6134 -7658 0
-6135 -7659 0
-6136 -7660 0
-6133 -7769 0
-6134 -7770 0
-6135 -7771 0
-6136 -7772 0
-6137 -6293 0
-6138 -6294 0
-6139 -6295 0
-6140 -6296 0
-6137 -6657 0
-6138 -6658 0
-6139 -6659 0
-6140 -6660 0
-6137 -6925 0
-6138 -6926 0
-6139 -6927 0
-6140 -6928 0
-6137 -7033 0
-6138 -7034 0
-6139 -7035 0
-6140 -7036 0
-6137 -7177 0
-6138 -7178 0
-6139 -7179 0
-6140 -7180 0
-6137 -7181 0
-6138 -7182 0
-6139 -7183 0
-6140 -7184 0
-6137 -7581 0
-6138 -7582 0
-6139 -7583 0
-6140 -7584 0
-6137 -7781 0
-6138 -7782 0
-6139 -7783 0
-6140 -7784 0
-6141 -6301 0
-6142 -6302 0
-6143 -6303 0
-6144 -6304 0
-6141 -6549 0
-6142 -6550 0
-6143 -6551 0
-6144 -6552 0
-6141 -6709 0
-6142 -6710 0
-6143 -6711 0
-6144 -6712 0
-6141 -6941 0
-6142 -6942 0
-6143 -6943 0
-6144 -6944 0
-6141 -7281 0
-6142 -7282 0
-6143 -7283 0
-6144 -7284 0
-6141 -7505 0
-6142 -7506 0
-6143 -7507 0
-6144 -7508 0
-6141 -7573 0
-6142 -7574 0
-6143 -7575 0
-6144 -7576 0
-6141 -7789 0
-6142 -7790 0
-6143 -7791 0
-6144 -7792 0
-6145 -6713 0
-6146 -6714 0
-6147 -6715 0
-6148 -6716 0
-6145 -7133 0
-6146 -7134 0
-6147 -7135 0
-6148 -7136 0
-6145 -7677 0
-6146 -7678 0
-6147 -7679 0
-6148 -7680 0
-6145 -7797 0
-6146 -7798 0
-6147 -7799 0
-6148 -7800 0
-6149 -6153 0
-6150 -6154 0
-6151 -6155 0
-6152 -6156 0
-6149 -6161 0
-6150 -6162 0
-6151 -6163 0
-6152 -6164 0
-6149 -6169 0
-6150 -6170 0
-6151 -6171 0
-6152 -6172 0
-6149 -6197 0
-6150 -6198 0
-6151 -6199 0
-6152 -6200 0
-6149 -7185 0
-6150 -7186 0
-6151 -7187 0
-6152 -7188 0
-6149 -7593 0
-6150 -7594 0
-6151 -7595 0
-6152 -7596 0
-6153 -6205 0
-6154 -6206 0
-6155 -6207 0
-6156 -6208 0
-6153 -6597 0
-6154 -6598 0
-6155 -6599 0
-6156 -6600 0
-6153 -6897 0
-6154 -6898 0
-6155 -6899 0
-6156 -6900 0
-6153 -7597 0
-6154 -7598 0
-6155 -7599 0
-6156 -7600 0
-6153 -7601 0
-6154 -7602 0
-6155 -7603 0
-6156 -7604 0
-6157 -6165 0
-6158 -6166 0
-6159 -6167 0
-6160 -6168 0
-6157 -6177 0
-6158 -6178 0
-6159 -6179 0
-6160 -6180 0
-6157 -7185 0
-6158 -7186 0
-6159 -7187 0
-6160 -7188 0
-6157 -7605 0
-6158 -7606 0
-6159 -7607 0
-6160 -7608 0
-6161 -6165 0
-6162 -6166 0
-6163 -6167 0
-6164 -6168 0
-6161 -6181 0
-6162 -6182 0
-6163 -6183 0
-6164 -6184 0
-6161 -6217 0
-6162 -6218 0
-6163 -6219 0
-6164 -6220 0
-6161 -6345 0
-6162 -6346 0
-6163 -6347 0
-6164 -6348 0
-6165 -6189 0
-6166 -6190 0
-6167 -6191 0
-6168 -6192 0
-6165 -6217 0
-6166 -6218 0
-6167 -6219 0
-6168 -6220 0
-6165 -7193 0
-6166 -7194 0
-6167 -7195 0
-6168 -7196 0
-6165 -7605 0
-6166 -7606 0
-6167 -7607 0
-6168 -7608 0
-6169 -6181 0
-6170 -6182 0
-6171 -6183 0
-6172 -6184 0
-6169 -6241 0
-6170 -6242 0
-6171 -6243 0
-6172 -6244 0
-6169 -7201 0
-6170 -7202 0
-6171 -7203 0
-6172 -7204 0
-6173 -6177 0
-6174 -6178 0
-6175 -6179 0
-6176 -6180 0
-6173 -6185 0
-6174 -6186 0
-6175 -6187 0
-6176 -6188 0
-6173 -6265 0
-6174 -6266 0
-6175 -6267 0
-6176 -6268 0
-6173 -6613 0
-6174 -6614 0
-6175 -6615 0
-6176 -6616 0
-6173 -6821 0
-6174 -6822 0
-6175 -6823 0
-6176 -6824 0
-6173 -7613 0
-6174 -7614 0
-6175 -7615 0
-6176 -7616 0
-6177 -6189 0
-6178 -6190 0
-6179 -6191 0
-6180 -6192 0
-6177 -6269 0
-6178 -6270 0
-6179 -6271 0
-6180 -6272 0
-6177 -6805 0
-6178 -6806 0
-6179 -6807 0
-6180 -6808 0
-6177 -7201 0
-6178 -7202 0
-6179 -7203 0
-6180 -7204 0
-6177 -7617 0
-6178 -7618 0
-6179 -7619 0
-6180 -7620 0
-6181 -6189 0
-6182 -6190 0
-6183 -6191 0
-6184 -6192 0
-6181 -6281 0
-6182 -6282 0
-6183 -6283 0
-6184 -6284 0
-6181 -6361 0
-6182 -6362 0
-6183 -6363 0
-6184 -6364 0
-6181 -6809 0
-6182 -6810 0
-6183 -6811 0
-6184 -6812 0
-6181 -7521 0
-6182 -7522 0
-6183 -7523 0
-6184 -7524 0
-6181 -7609 0
-6182 -7610 0
-6183 -7611 0
-6184 -7612 0
-6181 -7621 0
-6182 -7622 0
-6183 -7623 0
-6184 -7624 0
-6185 -6189 0
-6186 -6190 0
-6187 -6191 0
-6188 -6192 0
-6185 -6193 0
-6186 -6194 0
-6187 -6195 0
-6188 -6196 0
-6185 -6277 0
-6186 -6278 0
-6187 -6279 0
-6188 -6280 0
-6185 -6285 0
-6186 -6286 0
-6187 -6287 0
-6188 -6288 0
-6185 -6365 0
-6186 -6366 0
-6187 -6367 0
-6188 -6368 0
-6185 -6621 0
-6186 -6622 0
-6187 -6623 0
-6188 -6624 0
-6185 -6825 0
-6186 -6826 0
-6187 -6827 0
-6188 -6828 0
-6185 -7189 0
-6186 -7190 0
-6187 -7191 0
-6188 -7192 0
-6185 -7525 0
-6186 -7526 0
-6187 -7527 0
-6188 -7528 0
-6185 -7613 0
-6186 -7614 0
-6187 -7615 0
-6188 -7616 0
-6185 -7625 0
-6186 -7626 0
-6187 -7627 0
-6188 -7628 0
-6189 -6281 0
-6190 -6282 0
-6191 -6283 0
-6192 -6284 0
-6189 -6629 0
-6190 -6630 0
-6191 -6631 0
-6192 -6632 0
-6189 -6817 0
-6190 -6818 0
-6191 -6819 0
-6192 -6820 0
-6189 -6957 0
-6190 -6958 0
-6191 -6959 0
-6192 -6960 0
-6189 -7205 0
-6190 -7206 0
-6191 -7207 0
-6192 -7208 0
-6189 -7293 0
-6190 -7294 0
-6191 -7295 0
-6192 -7296 0
-6189 -7529 0
-6190 -7530 0
-6191 -7531 0
-6192 -7532 0
-6189 -7617 0
-6190 -7618 0
-6191 -7619 0
-6192 -7620 0
-6189 -7629 0
-6190 -7630 0
-6191 -7631 0
-6192 -7632 0
-6193 -6289 0
-6194 -6290 0
-6195 -6291 0
-6196 -6292 0
-6193 -6625 0
-6194 -6626 0
-6195 -6627 0
-6196 -6628 0
-6193 -6961 0
-6194 -6962 0
-6195 -6963 0
-6196 -6964 0
-6197 -6201 0
-6198 -6202 0
-6199 -6203 0
-6200 -6204 0
-6197 -6205 0
-6198 -6206 0
-6199 -6207 0
-6200 -6208 0
-6197 -6213 0
-6198 -6214 0
-6199 -6215 0
-6200 -6216 0
-6197 -6217 0
-6198 -6218 0
-6199 -6219 0
-6200 -6220 0
-6197 -6237 0
-6198 -6238 0
-6199 -6239 0
-6200 -6240 0
-6197 -6241 0
-6198 -6242 0
-6199 -6243 0
-6200 -6244 0
-6197 -6633 0
-6198 -6634 0
-6199 -6635 0
-6200 -6636 0
-6197 -7213 0
-6198 -7214 0
-6199 -7215 0
-6200 -7216 0
-6197 -7529 0
-6198 -7530 0
-6199 -7531 0
-6200 -7532 0
-6197 -7633 0
-6198 -7634 0
-6199 -7635 0
-6200 -7636 0
-6201 -6209 0
-6202 -6210 0
-6203 -6211 0
-6204 -6212 0
-6201 -6245 0
-6202 -6246 0
-6203 -6247 0
-6204 -6248 0
-6201 -6249 0
-6202 -6250 0
-6203 -6251 0
-6204 -6252 0
-6201 -6637 0
-6202 -6638 0
-6203 -6639 0
-6204 -6640 0
-6201 -7221 0
-6202 -7222 0
-6203 -7223 0
-6204 -7224 0
-6201 -7633 0
-6202 -7634 0
-6203 -7635 0
-6204 -7636 0
-6205 -6209 0
-6206 -6210 0
-6207 -6211 0
-6208 -6212 0
-6205 -6601 0
-6206 -6602 0
-6207 -6603 0
-6208 -6604 0
-6205 -6641 0
-6206 -6642 0
-6207 -6643 0
-6208 -6644 0
-6205 -6753 0
-6206 -6754 0
-6207 -6755 0
-6208 -6756 0
-6205 -6965 0
-6206 -6966 0
-6207 -6967 0
-6208 -6968 0
-6205 -7637 0
-6206 -7638 0
-6207 -7639 0
-6208 -7640 0
-6209 -6605 0
-6210 -6606 0
-6211 -6607 0
-6212 -6608 0
-6209 -6645 0
-6210 -6646 0
-6211 -6647 0
-6212 -6648 0
-6209 -7637 0
-6210 -7638 0
-6211 -7639 0
-6212 -7640 0
-6213 -6217 0
-6214 -6218 0
-6215 -6219 0
-6216 -6220 0
-6213 -6273 0
-6214 -6274 0
-6215 -6275 0
-6216 -6276 0
-6213 -6277 0
-6214 -6278 0
-6215 -6279 0
-6216 -6280 0
-6213 -6385 0
-6214 -6386 0
-6215 -6387 0
-6216 -6388 0
-6213 -6761 0
-6214 -6762 0
-6215 -6763 0
-6216 -6764 0
-6213 -7309 0
-6214 -7310 0
-6215 -7311 0
-6216 -7312 0
-6213 -7533 0
-6214 -7534 0
-6215 -7535 0
-6216 -7536 0
-6213 -7641 0
-6214 -7642 0
-6215 -7643 0
-6216 -7644 0
-6217 -6281 0
-6218 -6282 0
-6219 -6283 0
-6220 -6284 0
-6217 -7049 0
-6218 -7050 0
-6219 -7051 0
-6220 -7052 0
-6217 -7217 0
-6218 -7218 0
-6219 -7219 0
-6220 -7220 0
-6217 -7313 0
-6218 -7314 0
-6219 -7315 0
-6220 -7316 0
-6217 -7645 0
-6218 -7646 0
-6219 -7647 0
-6220 -7648 0
-6221 -6225 0
-6222 -6226 0
-6223 -6227 0
-6224 -6228 0
-6221 -6229 0
-6222 -6230 0
-6223 -6231 0
-6224 -6232 0
-6221 -6237 0
-6222 -6238 0
-6223 -6239 0
-6224 -6240 0
-6221 -7313 0
-6222 -7314 0
-6223 -7315 0
-6224 -7316 0
-6221 -7649 0
-6222 -7650 0
-6223 -7651 0
-6224 -7652 0
-6221 -7817 0
-6222 -7818 0
-6223 -7819 0
-6224 -7820 0
-6225 -6241 0
-6226 -6242 0
-6227 -6243 0
-6228 -6244 0
-6225 -6253 0
-6226 -6254 0
-6227 -6255 0
-6228 -6256 0
-6225 -6829 0
-6226 -6830 0
-6227 -6831 0
-6228 -6832 0
-6225 -7321 0
-6226 -7322 0
-6227 -7323 0
-6228 -7324 0
-6229 -6245 0
-6230 -6246 0
-6231 -6247 0
-6232 -6248 0
-6229 -7649 0
-6230 -7650 0
-6231 -7651 0
-6232 -7652 0
-6229 -7821 0
-6230 -7822 0
-6231 -7823 0
-6232 -7824 0
-6233 -6309 0
-6234 -6310 0
-6235 -6311 0
-6236 -6312 0
-6233 -6413 0
-6234 -6414 0
-6235 -6415 0
-6236 -6416 0
-6233 -7241 0
-6234 -7242 0
-6235 -7243 0
-6236 -7244 0
-6233 -7545 0
-6234 -7546 0
-6235 -7547 0
-6236 -7548 0
-6233 -7593 0
-6234 -7594 0
-6235 -7595 0
-6236 -7596 0
-6233 -7601 0
-6234 -7602 0
-6235 -7603 0
-6236 -7604 0
-6237 -6241 0
-6238 -6242 0
-6239 -6243 0
-6240 -6244 0
-6237 -6245 0
-6238 -6246 0
-6239 -6247 0
-6240 -6248 0
-6237 -6273 0
-6238 -6274 0
-6239 -6275 0
-6240 -6276 0
-6237 -7657 0
-6238 -7658 0
-6239 -7659 0
-6240 -7660 0
-6237 -7825 0
-6238 -7826 0
-6239 -7827 0
-6240 -7828 0
-6241 -6249 0
-6242 -6250 0
-6243 -6251 0
-6244 -6252 0
-6241 -6277 0
-6242 -6278 0
-6243 -6279 0
-6244 -6280 0
-6241 -6281 0
-6242 -6282 0
-6243 -6283 0
-6244 -6284 0
-6241 -6409 0
-6242 -6410 0
-6243 -6411 0
-6244 -6412 0
-6241 -7325 0
-6242 -7326 0
-6243 -7327 0
-6244 -7328 0
-6241 -7653 0
-6242 -7654 0
-6243 -7655 0
-6244 -7656 0
-6241 -7661 0
-6242 -7662 0
-6243 -7663 0
-6244 -7664 0
-6241 -7829 0
-6242 -7830 0
-6243 -7831 0
-6244 -7832 0
-6245 -6249 0
-6246 -6250 0
-6247 -6251 0
-6248 -6252 0
-6245 -6665 0
-6246 -6666 0
-6247 -6667 0
-6248 -6668 0
-6245 -7057 0
-6246 -7058 0
-6247 -7059 0
-6248 -7060 0
-6245 -7657 0
-6246 -7658 0
-6247 -7659 0
-6248 -7660 0
-6245 -7833 0
-6246 -7834 0
-6247 -7835 0
-6248 -7836 0
-6249 -6417 0
-6250 -6418 0
-6251 -6419 0
-6252 -6420 0
-6249 -6669 0
-6250 -6670 0
-6251 -6671 0
-6252 -6672 0
-6249 -7661 0
-6250 -7662 0
-6251 -7663 0
-6252 -7664 0
-6253 -6257 0
-6254 -6258 0
-6255 -6259 0
-6256 -6260 0
-6253 -6277 0
-6254 -6278 0
-6255 -6279 0
-6256 -6280 0
-6253 -6421 0
-6254 -6422 0
-6255 -6423 0
-6256 -6424 0
-6253 -6833 0
-6254 -6834 0
-6255 -6835 0
-6256 -6836 0
-6253 -7333 0
-6254 -7334 0
-6255 -7335 0
-6256 -7336 0
-6253 -7665 0
-6254 -7666 0
-6255 -7667 0
-6256 -7668 0
-6257 -6261 0
-6258 -6262 0
-6259 -6263 0
-6260 -6264 0
-6257 -6289 0
-6258 -6290 0
-6259 -6291 0
-6260 -6292 0
-6257 -6469 0
-6258 -6470 0
-6259 -6471 0
-6260 -6472 0
-6257 -6841 0
-6258 -6842 0
-6259 -6843 0
-6260 -6844 0
-6261 -6301 0
-6262 -6302 0
-6263 -6303 0
-6264 -6304 0
-6261 -6617 0
-6262 -6618 0
-6263 -6619 0
-6264 -6620 0
-6261 -6685 0
-6262 -6686 0
-6263 -6687 0
-6264 -6688 0
-6261 -7245 0
-6262 -7246 0
-6263 -7247 0
-6264 -7248 0
-6261 -7341 0
-6262 -7342 0
-6263 -7343 0
-6264 -7344 0
-6265 -6269 0
-6266 -6270 0
-6267 -6271 0
-6268 -6272 0
-6265 -6277 0
-6266 -6278 0
-6267 -6279 0
-6268 -6280 0
-6265 -6437 0
-6266 -6438 0
-6267 -6439 0
-6268 -6440 0
-6265 -6765 0
-6266 -6766 0
-6267 -6767 0
-6268 -6768 0
-6265 -6801 0
-6266 -6802 0
-6267 -6803 0
-6268 -6804 0
-6265 -7669 0
-6266 -7670 0
-6267 -7671 0
-6268 -7672 0
-6269 -6281 0
-6270 -6282 0
-6271 -6283 0
-6272 -6284 0
-6269 -6769 0
-6270 -6770 0
-6271 -6771 0
-6272 -6772 0
-6269 -6849 0
-6270 -6850 0
-6271 -6851 0
-6272 -6852 0
-6269 -7673 0
-6270 -7674 0
-6271 -7675 0
-6272 -7676 0
-6273 -6277 0
-6274 -6278 0
-6275 -6279 0
-6276 -6280 0
-6273 -6453 0
-6274 -6454 0
-6275 -6455 0
-6276 -6456 0
-6273 -6809 0
-6274 -6810 0
-6275 -6811 0
-6276 -6812 0
-6273 -7209 0
-6274 -7210 0
-6275 -7211 0
-6276 -7212 0
-6273 -7677 0
-6274 -7678 0
-6275 -7679 0
-6276 -7680 0
-6277 -6281 0
-6278 -6282 0
-6279 -6283 0
-6280 -6284 0
-6277 -6285 0
-6278 -6286 0
-6279 -6287 0
-6280 -6288 0
-6277 -6289 0
-6278 -6290 0
-6279 -6291 0
-6280 -6292 0
-6277 -6461 0
-6278 -6462 0
-6279 -6463 0
-6280 -6464 0
-6277 -6777 0
-6278 -6778 0
-6279 -6779 0
-6280 -6780 0
-6277 -6813 0
-6278 -6814 0
-6279 -6815 0
-6280 -6816 0
-6277 -7349 0
-6278 -7350 0
-6279 -7351 0
-6280 -7352 0
-6277 -7669 0
-6278 -7670 0
-6279 -7671 0
-6280 -7672 0
-6277 -7681 0
-6278 -7682 0
-6279 -7683 0
-6280 -7684 0
-6281 -6465 0
-6282 -6466 0
-6283 -6467 0
-6284 -6468 0
-6281 -6853 0
-6282 -6854 0
-6283 -6855 0
-6284 -6856 0
-6281 -7353 0
-6282 -7354 0
-6283 -7355 0
-6284 -7356 0
-6281 -7673 0
-6282 -7674 0
-6283 -7675 0
-6284 -7676 0
-6281 -7685 0
-6282 -7686 0
-6283 -7687 0
-6284 -7688 0
-6285 -6473 0
-6286 -6474 0
-6287 -6475 0
-6288 -6476 0
-6285 -7357 0
-6286 -7358 0
-6287 -7359 0
-6288 -7360 0
-6289 -6477 0
-6290 -6478 0
-6291 -6479 0
-6292 -6480 0
-6289 -6781 0
-6290 -6782 0
-6291 -6783 0
-6292 -6784 0
-6289 -7013 0
-6290 -7014 0
-6291 -7015 0
-6292 -7016 0
-6289 -7361 0
-6290 -7362 0
-6291 -7363 0
-6292 -7364 0
-6293 -6297 0
-6294 -6298 0
-6295 -6299 0
-6296 -6300 0
-6293 -6301 0
-6294 -6302 0
-6295 -6303 0
-6296 -6304 0
-6293 -6789 0
-6294 -6790 0
-6295 -6791 0
-6296 -6792 0
-6293 -7377 0
-6294 -7378 0
-6295 -7379 0
-6296 -7380 0
-6293 -7617 0
-6294 -7618 0
-6295 -7619 0
-6296 -7620 0
-6293 -7841 0
-6294 -7842 0
-6295 -7843 0
-6296 -7844 0
-6297 -6305 0
-6298 -6306 0
-6299 -6307 0
-6300 -6308 0
-6297 -6713 0
-6298 -6714 0
-6299 -6715 0
-6300 -6716 0
-6297 -7629 0
-6298 -7630 0
-6299 -7631 0
-6300 -7632 0
-6301 -6305 0
-6302 -6306 0
-6303 -6307 0
-6304 -6308 0
-6301 -6717 0
-6302 -6718 0
-6303 -6719 0
-6304 -6720 0
-6301 -7393 0
-6302 -7394 0
-6303 -7395 0
-6304 -7396 0
-6301 -7553 0
-6302 -7554 0
-6303 -7555 0
-6304 -7556 0
-6301 -7617 0
-6302 -7618 0
-6303 -7619 0
-6304 -7620 0
-6305 -6721 0
-6306 -6722 0
-6307 -6723 0
-6308 -6724 0
-6305 -7249 0
-6306 -7250 0
-6307 -7251 0
-6308 -7252 0
-6305 -7561 0
-6306 -7562 0
-6307 -7563 0
-6308 -7564 0
-6305 -7629 0
-6306 -7630 0
-6307 -7631 0
-6308 -7632 0
-6309 -6725 0
-6310 -6726 0
-6311 -6727 0
-6312 -6728 0
-6309 -7561 0
-6310 -7562 0
-6311 -7563 0
-6312 -7564 0
-6309 -7633 0
-6310 -7634 0
-6311 -7635 0
-6312 -7636 0
-6309 -7637 0
-6310 -7638 0
-6311 -7639 0
-6312 -7640 0
-6313 -6317 0
-6314 -6318 0
-6315 -6319 0
-6316 -6320 0
-6313 -6321 0
-6314 -6322 0
-6315 -6323 0
-6316 -6324 0
-6313 -6329 0
-6314 -6330 0
-6315 -6331 0
-6316 -6332 0
-6313 -6441 0
-6314 -6442 0
-6315 -6443 0
-6316 -6444 0
-6313 -6461 0
-6314 -6462 0
-6315 -6463 0
-6316 -6464 0
-6313 -6857 0
-6314 -6858 0
-6315 -6859 0
-6316 -6860 0
-6313 -7573 0
-6314 -7574 0
-6315 -7575 0
-6316 -7576 0
-6313 -7689 0
-6314 -7690 0
-6315 -7691 0
-6316 -7692 0
-6313 -7849 0
-6314 -7850 0
-6315 -7851 0
-6316 -7852 0
-6317 -6325 0
-6318 -6326 0
-6319 -6327 0
-6320 -6328 0
-6317 -6461 0
-6318 -6462 0
-6319 -6463 0
-6320 -6464 0
-6317 -6477 0
-6318 -6478 0
-6319 -6479 0
-6320 -6480 0
-6317 -6729 0
-6318 -6730 0
-6319 -6731 0
-6320 -6732 0
-6317 -7065 0
-6318 -7066 0
-6319 -7067 0
-6320 -7068 0
-6317 -7277 0
-6318 -7278 0
-6319 -7279 0
-6320 -7280 0
-6317 -7581 0
-6318 -7582 0
-6319 -7583 0
-6320 -7584 0
-6317 -7693 0
-6318 -7694 0
-6319 -7695 0
-6320 -7696 0
-6321 -6325 0
-6322 -6326 0
-6323 -6327 0
-6324 -6328 0
-6321 -6481 0
-6322 -6482 0
-6323 -6483 0
-6324 -6484 0
-6321 -6497 0
-6322 -6498 0
-6323 -6499 0
-6324 -6500 0
-6321 -6665 0
-6322 -6666 0
-6323 -6667 0
-6324 -6668 0
-6321 -7125 0
-6322 -7126 0
-6323 -7127 0
-6324 -7128 0
-6321 -7689 0
-6322 -7690 0
-6323 -7691 0
-6324 -7692 0
-6321 -7853 0
-6322 -7854 0
-6323 -7855 0
-6324 -7856 0
-6325 -6497 0
-6326 -6498 0
-6327 -6499 0
-6328 -6500 0
-6325 -6513 0
-6326 -6514 0
-6327 -6515 0
-6328 -6516 0
-6325 -7073 0
-6326 -7074 0
-6327 -7075 0
-6328 -7076 0
-6325 -7129 0
-6326 -7130 0
-6327 -7131 0
-6328 -7132 0
-6325 -7281 0
-6326 -7282 0
-6327 -7283 0
-6328 -7284 0
-6325 -7693 0
-6326 -7694 0
-6327 -7695 0
-6328 -7696 0
-6329 -6537 0
-6330 -6538 0
-6331 -6539 0
-6332 -6540 0
-6329 -6869 0
-6330 -6870 0
-6331 -6871 0
-6332 -6872 0
-6329 -7165 0
-6330 -7166 0
-6331 -7167 0
-6332 -7168 0
-6333 -6337 0
-6334 -6338 0
-6335 -6339 0
-6336 -6340 0
-6333 -7081 0
-6334 -7082 0
-6335 -7083 0
-6336 -7084 0
-6333 -7741 0
-6334 -7742 0
-6335 -7743 0
-6336 -7744 0
-6333 -7769 0
-6334 -7770 0
-6335 -7771 0
-6336 -7772 0
-6337 -6873 0
-6338 -6874 0
-6339 -6875 0
-6340 -6876 0
-6337 -7085 0
-6338 -7086 0
-6339 -7087 0
-6340 -7088 0
-6337 -7261 0
-6338 -7262 0
-6339 -7263 0
-6340 -7264 0
-6337 -7769 0
-6338 -7770 0
-6339 -7771 0
-6340 -7772 0
-6337 -7793 0
-6338 -7794 0
-6339 -7795 0
-6340 -7796 0
-6341 -6345 0
-6342 -6346 0
-6343 -6347 0
-6344 -6348 0
-6341 -6349 0
-6342 -6350 0
-6343 -6351 0
-6344 -6352 0
-6341 -7697 0
-6342 -7698 0
-6343 -7699 0
-6344 -7700 0
-6345 -6353 0
-6346 -6354 0
-6347 -6355 0
-6348 -6356 0
-6345 -6377 0
-6346 -6378 0
-6347 -6379 0
-6348 -6380 0
-6345 -7189 0
-6346 -7190 0
-6347 -7191 0
-6348 -7192 0
-6345 -7697 0
-6346 -7698 0
-6347 -7699 0
-6348 -7700 0
-6345 -7701 0
-6346 -7702 0
-6347 -7703 0
-6348 -7704 0
-6349 -6353 0
-6350 -6354 0
-6351 -6355 0
-6352 -6356 0
-6349 -6769 0
-6350 -6770 0
-6351 -6771 0
-6352 -6772 0
-6349 -6909 0
-6350 -6910 0
-6351 -6911 0
-6352 -6912 0
-6349 -7705 0
-6350 -7706 0
-6351 -7707 0
-6352 -7708 0
-6353 -6917 0
-6354 -6918 0
-6355 -6919 0
-6356 -6920 0
-6353 -7705 0
-6354 -7706 0
-6355 -7707 0
-6356 -7708 0
-6353 -7713 0
-6354 -7714 0
-6355 -7715 0
-6356 -7716 0
-6357 -6361 0
-6358 -6362 0
-6359 -6363 0
-6360 -6364 0
-6357 -6365 0
-6358 -6366 0
-6359 -6367 0
-6360 -6368 0
-6357 -6369 0
-6358 -6370 0
-6359 -6371 0
-6360 -6372 0
-6357 -6449 0
-6358 -6450 0
-6359 -6451 0
-6360 -6452 0
-6357 -6461 0
-6358 -6462 0
-6359 -6463 0
-6360 -6464 0
-6357 -6785 0
-6358 -6786 0
-6359 -6787 0
-6360 -6788 0
-6357 -7077 0
-6358 -7078 0
-6359 -7079 0
-6360 -7080 0
-6357 -7717 0
-6358 -7718 0
-6359 -7719 0
-6360 -7720 0
-6361 -6465 0
-6362 -6466 0
-6363 -6467 0
-6364 -6468 0
-6361 -6925 0
-6362 -6926 0
-6363 -6927 0
-6364 -6928 0
-6365 -6373 0
-6366 -6374 0
-6367 -6375 0
-6368 -6376 0
-6365 -6381 0
-6366 -6382 0
-6367 -6383 0
-6368 -6384 0
-6365 -6461 0
-6366 -6462 0
-6367 -6463 0
-6368 -6464 0
-6365 -6473 0
-6366 -6474 0
-6367 -6475 0
-6368 -6476 0
-6365 -6789 0
-6366 -6790 0
-6367 -6791 0
-6368 -6792 0
-6365 -6949 0
-6366 -6950 0
-6367 -6951 0
-6368 -6952 0
-6365 -7081 0
-6366 -7082 0
-6367 -7083 0
-6368 -7084 0
-6365 -7721 0
-6366 -7722 0
-6367 -7723 0
-6368 -7724 0
-6369 -6373 0
-6370 -6374 0
-6371 -6375 0
-6372 -6376 0
-6369 -6485 0
-6370 -6486 0
-6371 -6487 0
-6372 -6488 0
-6369 -6497 0
-6370 -6498 0
-6371 -6499 0
-6372 -6500 0
-6369 -7297 0
-6370 -7298 0
-6371 -7299 0
-6372 -7300 0
-6369 -7593 0
-6370 -7594 0
-6371 -7595 0
-6372 -7596 0
-6369 -7717 0
-6370 -7718 0
-6371 -7719 0
-6372 -7720 0
-6373 -6497 0
-6374 -6498 0
-6375 -6499 0
-6376 -6500 0
-6373 -6509 0
-6374 -6510 0
-6375 -6511 0
-6376 -6512 0
-6373 -7285 0
-6374 -7286 0
-6375 -7287 0
-6376 -7288 0
-6373 -7721 0
-6374 -7722 0
-6375 -7723 0
-6376 -7724 0
-6377 -7201 0
-6378 -7202 0
-6379 -7203 0
-6380 -7204 0
-6377 -7861 0
-6378 -7862 0
-6379 -7863 0
-6380 -7864 0
-6381 -6537 0
-6382 -6538 0
-6383 -6539 0
-6384 -6540 0
-6381 -7297 0
-6382 -7298 0
-6383 -7299 0
-6384 -7300 0
-6381 -7605 0
-6382 -7606 0
-6383 -7607 0
-6384 -7608 0
-6385 -6389 0
-6386 -6390 0
-6387 -6391 0
-6388 -6392 0
-6385 -6393 0
-6386 -6394 0
-6387 -6395 0
-6388 -6396 0
-6385 -6453 0
-6386 -6454 0
-6387 -6455 0
-6388 -6456 0
-6385 -6461 0
-6386 -6462 0
-6387 -6463 0
-6388 -6464 0
-6385 -7309 0
-6386 -7310 0
-6387 -7311 0
-6388 -7312 0
-6385 -7605 0
-6386 -7606 0
-6387 -7607 0
-6388 -7608 0
-6385 -7725 0
-6386 -7726 0
-6387 -7727 0
-6388 -7728 0
-6389 -6397 0
-6390 -6398 0
-6391 -6399 0
-6392 -6400 0
-6389 -6401 0
-6390 -6402 0
-6391 -6403 0
-6392 -6404 0
-6389 -6461 0
-6390 -6462 0
-6391 -6463 0
-6392 -6464 0
-6389 -6469 0
-6390 -6470 0
-6391 -6471 0
-6392 -6472 0
-6389 -6757 0
-6390 -6758 0
-6391 -6759 0
-6392 -6760 0
-6389 -6969 0
-6390 -6970 0
-6391 -6971 0
-6392 -6972 0
-6389 -7317 0
-6390 -7318 0
-6391 -7319 0
-6392 -7320 0
-6389 -7421 0
-6390 -7422 0
-6391 -7423 0
-6392 -7424 0
-6389 -7729 0
-6390 -7730 0
-6391 -7731 0
-6392 -7732 0
-6393 -6397 0
-6394 -6398 0
-6395 -6399 0
-6396 -6400 0
-6393 -6489 0
-6394 -6490 0
-6395 -6491 0
-6396 -6492 0
-6393 -6497 0
-6394 -6498 0
-6395 -6499 0
-6396 -6500 0
-6393 -7093 0
-6394 -7094 0
-6395 -7095 0
-6396 -7096 0
-6393 -7725 0
-6394 -7726 0
-6395 -7727 0
-6396 -7728 0
-6397 -6497 0
-6398 -6498 0
-6399 -6499 0
-6400 -6500 0
-6397 -6505 0
-6398 -6506 0
-6399 -6507 0
-6400 -6508 0
-6397 -6761 0
-6398 -6762 0
-6399 -6763 0
-6400 -6764 0
-6397 -7337 0
-6398 -7338 0
-6399 -7339 0
-6400 -7340 0
-6397 -7425 0
-6398 -7426 0
-6399 -7427 0
-6400 -7428 0
-6397 -7729 0
-6398 -7730 0
-6399 -7731 0
-6400 -7732 0
-6401 -6525 0
-6402 -6526 0
-6403 -6527 0
-6404 -6528 0
-6401 -7429 0
-6402 -7430 0
-6403 -7431 0
-6404 -7432 0
-6405 -6409 0
-6406 -6410 0
-6407 -6411 0
-6408 -6412 0
-6405 -6413 0
-6406 -6414 0
-6407 -6415 0
-6408 -6416 0
-6405 -6457 0
-6406 -6458 0
-6407 -6459 0
-6408 -6460 0
-6405 -6461 0
-6406 -6462 0
-6407 -6463 0
-6408 -6464 0
-6405 -6829 0
-6406 -6830 0
-6407 -6831 0
-6408 -6832 0
-6405 -7097 0
-6406 -7098 0
-6407 -7099 0
-6408 -7100 0
-6405 -7429 0
-6406 -7430 0
-6407 -7431 0
-6408 -7432 0
-6405 -7733 0
-6406 -7734 0
-6407 -7735 0
-6408 -7736 0
-6409 -6417 0
-6410 -6418 0
-6411 -6419 0
-6412 -6420 0
-6409 -6461 0
-6410 -6462 0
-6411 -6463 0
-6412 -6464 0
-6409 -6465 0
-6410 -6466 0
-6411 -6467 0
-6412 -6468 0
-6409 -7101 0
-6410 -7102 0
-6411 -7103 0
-6412 -7104 0
-6409 -7737 0
-6410 -7738 0
-6411 -7739 0
-6412 -7740 0
-6409 -7865 0
-6410 -7866 0
-6411 -7867 0
-6412 -7868 0
-6413 -6417 0
-6414 -6418 0
-6415 -6419 0
-6416 -6420 0
-6413 -6493 0
-6414 -6494 0
-6415 -6495 0
-6416 -6496 0
-6413 -6497 0
-6414 -6498 0
-6415 -6499 0
-6416 -6500 0
-6413 -6565 0
-6414 -6566 0
-6415 -6567 0
-6416 -6568 0
-6413 -6609 0
-6414 -6610 0
-6415 -6611 0
-6416 -6612 0
-6413 -7109 0
-6414 -7110 0
-6415 -7111 0
-6416 -7112 0
-6413 -7357 0
-6414 -7358 0
-6415 -7359 0
-6416 -7360 0
-6413 -7733 0
-6414 -7734 0
-6415 -7735 0
-6416 -7736 0
-6417 -6497 0
-6418 -6498 0
-6419 -6499 0
-6420 -6500 0
-6417 -6501 0
-6418 -6502 0
-6419 -6503 0
-6420 -6504 0
-6417 -6857 0
-6418 -6858 0
-6419 -6859 0
-6420 -6860 0
-6417 -7113 0
-6418 -7114 0
-6419 -7115 0
-6420 -7116 0
-6417 -7737 0
-6418 -7738 0
-6419 -7739 0
-6420 -7740 0
-6421 -6425 0
-6422 -6426 0
-6423 -6427 0
-6424 -6428 0
-6421 -6461 0
-6422 -6462 0
-6423 -6463 0
-6424 -6464 0
-6421 -6973 0
-6422 -6974 0
-6423 -6975 0
-6424 -6976 0
-6421 -7433 0
-6422 -7434 0
-6423 -7435 0
-6424 -7436 0
-6421 -7741 0
-6422 -7742 0
-6423 -7743 0
-6424 -7744 0
-6421 -7817 0
-6422 -7818 0
-6423 -7819 0
-6424 -7820 0
-6425 -6497 0
-6426 -6498 0
-6427 -6499 0
-6428 -6500 0
-6425 -6785 0
-6426 -6786 0
-6427 -6787 0
-6428 -6788 0
-6425 -6977 0
-6426 -6978 0
-6427 -6979 0
-6428 -6980 0
-6425 -7741 0
-6426 -7742 0
-6427 -7743 0
-6428 -7744 0
-6425 -7821 0
-6426 -7822 0
-6427 -7823 0
-6428 -7824 0
-6429 -6433 0
-6430 -6434 0
-6431 -6435 0
-6432 -6436 0
-6429 -6461 0
-6430 -6462 0
-6431 -6463 0
-6432 -6464 0
-6429 -6889 0
-6430 -6890 0
-6431 -6891 0
-6432 -6892 0
-6429 -7233 0
-6430 -7234 0
-6431 -7235 0
-6432 -7236 0
-6429 -7697 0
-6430 -7698 0
-6431 -7699 0
-6432 -7700 0
-6429 -7745 0
-6430 -7746 0
-6431 -7747 0
-6432 -7748 0
-6429 -7869 0
-6430 -7870 0
-6431 -7871 0
-6432 -7872 0
-6433 -6497 0
-6434 -6498 0
-6435 -6499 0
-6436 -6500 0
-6433 -7237 0
-6434 -7238 0
-6435 -7239 0
-6436 -7240 0
-6433 -7369 0
-6434 -7370 0
-6435 -7371 0
-6436 -7372 0
-6433 -7701 0
-6434 -7702 0
-6435 -7703 0
-6436 -7704 0
-6433 -7745 0
-6434 -7746 0
-6435 -7747 0
-6436 -7748 0
-6433 -7873 0
-6434 -7874 0
-6435 -7875 0
-6436 -7876 0
-6437 -6461 0
-6438 -6462 0
-6439 -6463 0
-6440 -6464 0
-6437 -6893 0
-6438 -6894 0
-6439 -6895 0
-6440 -6896 0
-6437 -7749 0
-6438 -7750 0
-6439 -7751 0
-6440 -7752 0
-6441 -6445 0
-6442 -6446 0
-6443 -6447 0
-6444 -6448 0
-6441 -6461 0
-6442 -6462 0
-6443 -6463 0
-6444 -6464 0
-6441 -6481 0
-6442 -6482 0
-6443 -6483 0
-6444 -6484 0
-6441 -6613 0
-6442 -6614 0
-6443 -6615 0
-6444 -6616 0
-6441 -6921 0
-6442 -6922 0
-6443 -6923 0
-6444 -6924 0
-6441 -7441 0
-6442 -7442 0
-6443 -7443 0
-6444 -7444 0
-6441 -7753 0
-6442 -7754 0
-6443 -7755 0
-6444 -7756 0
-6441 -7877 0
-6442 -7878 0
-6443 -7879 0
-6444 -7880 0
-6445 -6465 0
-6446 -6466 0
-6447 -6467 0
-6448 -6468 0
-6445 -7881 0
-6446 -7882 0
-6447 -7883 0
-6448 -7884 0
-6449 -6461 0
-6450 -6462 0
-6451 -6463 0
-6452 -6464 0
-6449 -6485 0
-6450 -6486 0
-6451 -6487 0
-6452 -6488 0
-6449 -6569 0
-6450 -6570 0
-6451 -6571 0
-6452 -6572 0
-6449 -6897 0
-6450 -6898 0
-6451 -6899 0
-6452 -6900 0
-6449 -7609 0
-6450 -7610 0
-6451 -7611 0
-6452 -7612 0
-6449 -7757 0
-6450 -7758 0
-6451 -7759 0
-6452 -7760 0
-6453 -6461 0
-6454 -6462 0
-6455 -6463 0
-6456 -6464 0
-6453 -6489 0
-6454 -6490 0
-6455 -6491 0
-6456 -6492 0
-6453 -6549 0
-6454 -6550 0
-6455 -6551 0
-6456 -6552 0
-6453 -6925 0
-6454 -6926 0
-6455 -6927 0
-6456 -6928 0
-6453 -7761 0
-6454 -7762 0
-6455 -7763 0
-6456 -7764 0
-6457 -6461 0
-6458 -6462 0
-6459 -6463 0
-6460 -6464 0
-6457 -6493 0
-6458 -6494 0
-6459 -6495 0
-6460 -6496 0
-6457 -6533 0
-6458 -6534 0
-6459 -6535 0
-6460 -6536 0
-6457 -6833 0
-6458 -6834 0
-6459 -6835 0
-6460 -6836 0
-6457 -6929 0
-6458 -6930 0
-6459 -6931 0
-6460 -6932 0
-6457 -7301 0
-6458 -7302 0
-6459 -7303 0
-6460 -7304 0
-6457 -7613 0
-6458 -7614 0
-6459 -7615 0
-6460 -7616 0
-6457 -7765 0
-6458 -7766 0
-6459 -7767 0
-6460 -7768 0
-6461 -6465 0
-6462 -6466 0
-6463 -6467 0
-6464 -6468 0
-6461 -6469 0
-6462 -6470 0
-6463 -6471 0
-6464 -6472 0
-6461 -6473 0
-6462 -6474 0
-6463 -6475 0
-6464 -6476 0
-6461 -6477 0
-6462 -6478 0
-6463 -6479 0
-6464 -6480 0
-6461 -6497 0
-6462 -6498 0
-6463 -6499 0
-6464 -6500 0
-6461 -6517 0
-6462 -6518 0
-6463 -6519 0
-6464 -6520 0
-6461 -6525 0
-6462 -6526 0
-6463 -6527 0
-6464 -6528 0
-6461 -6533 0
-6462 -6534 0
-6463 -6535 0
-6464 -6536 0
-6461 -6537 0
-6462 -6538 0
-6463 -6539 0
-6464 -6540 0
-6461 -6549 0
-6462 -6550 0
-6463 -6551 0
-6464 -6552 0
-6461 -6553 0
-6462 -6554 0
-6463 -6555 0
-6464 -6556 0
-6461 -6569 0
-6462 -6570 0
-6463 -6571 0
-6464 -6572 0
-6461 -6573 0
-6462 -6574 0
-6463 -6575 0
-6464 -6576 0
-6461 -6613 0
-6462 -6614 0
-6463 -6615 0
-6464 -6616 0
-6461 -6617 0
-6462 -6618 0
-6463 -6619 0
-6464 -6620 0
-6461 -6797 0
-6462 -6798 0
-6463 -6799 0
-6464 -6800 0
-6461 -6837 0
-6462 -6838 0
-6463 -6839 0
-6464 -6840 0
-6461 -6901 0
-6462 -6902 0
-6463 -6903 0
-6464 -6904 0
-6461 -6933 0
-6462 -6934 0
-6463 -6935 0
-6464 -6936 0
-6461 -6985 0
-6462 -6986 0
-6463 -6987 0
-6464 -6988 0
-6461 -7133 0
-6462 -7134 0
-6463 -7135 0
-6464 -7136 0
-6461 -7185 0
-6462 -7186 0
-6463 -7187 0
-6464 -7188 0
-6461 -7305 0
-6462 -7306 0
-6463 -7307 0
-6464 -7308 0
-6461 -7349 0
-6462 -7350 0
-6463 -7351 0
-6464 -7352 0
-6461 -7445 0
-6462 -7446 0
-6463 -7447 0
-6464 -7448 0
-6461 -7449 0
-6462 -7450 0
-6463 -7451 0
-6464 -7452 0
-6461 -7617 0
-6462 -7618 0
-6463 -7619 0
-6464 -7620 0
-6461 -7697 0
-6462 -7698 0
-6463 -7699 0
-6464 -7700 0
-6461 -7705 0
-6462 -7706 0
-6463 -7707 0
-6464 -7708 0
-6461 -7749 0
-6462 -7750 0
-6463 -7751 0
-6464 -7752 0
-6461 -7769 0
-6462 -7770 0
-6463 -7771 0
-6464 -7772 0
-6461 -7817 0
-6462 -7818 0
-6463 -7819 0
-6464 -7820 0
-6461 -7825 0
-6462 -7826 0
-6463 -7827 0
-6464 -7828 0
-6461 -7885 0
-6462 -7886 0
-6463 -7887 0
-6464 -7888 0
-6465 -6501 0
-6466 -6502 0
-6467 -6503 0
-6468 -6504 0
-6465 -6537 0
-6466 -6538 0
-6467 -6539 0
-6468 -6540 0
-6465 -6989 0
-6466 -6990 0
-6467 -6991 0
-6468 -6992 0
-6465 -7353 0
-6466 -7354 0
-6467 -7355 0
-6468 -7356 0
-6465 -7773 0
-6466 -7774 0
-6467 -7775 0
-6468 -7776 0
-6469 -6505 0
-6470 -6506 0
-6471 -6507 0
-6472 -6508 0
-6469 -6553 0
-6470 -6554 0
-6471 -6555 0
-6472 -6556 0
-6469 -6801 0
-6470 -6802 0
-6471 -6803 0
-6472 -6804 0
-6469 -6993 0
-6470 -6994 0
-6471 -6995 0
-6472 -6996 0
-6469 -7189 0
-6470 -7190 0
-6471 -7191 0
-6472 -7192 0
-6469 -7453 0
-6470 -7454 0
-6471 -7455 0
-6472 -7456 0
-6469 -7829 0
-6470 -7830 0
-6471 -7831 0
-6472 -7832 0
-6473 -6509 0
-6474 -6510 0
-6475 -6511 0
-6476 -6512 0
-6473 -6573 0
-6474 -6574 0
-6475 -6575 0
-6476 -6576 0
-6473 -6805 0
-6474 -6806 0
-6475 -6807 0
-6476 -6808 0
-6473 -6861 0
-6474 -6862 0
-6475 -6863 0
-6476 -6864 0
-6473 -7137 0
-6474 -7138 0
-6475 -7139 0
-6476 -7140 0
-6473 -7357 0
-6474 -7358 0
-6475 -7359 0
-6476 -7360 0
-6473 -7777 0
-6474 -7778 0
-6475 -7779 0
-6476 -7780 0
-6477 -6513 0
-6478 -6514 0
-6479 -6515 0
-6480 -6516 0
-6477 -6617 0
-6478 -6618 0
-6479 -6619 0
-6480 -6620 0
-6477 -6845 0
-6478 -6846 0
-6479 -6847 0
-6480 -6848 0
-6477 -6905 0
-6478 -6906 0
-6479 -6907 0
-6480 -6908 0
-6477 -7141 0
-6478 -7142 0
-6479 -7143 0
-6480 -7144 0
-6477 -7361 0
-6478 -7362 0
-6479 -7363 0
-6480 -7364 0
-6477 -7781 0
-6478 -7782 0
-6479 -7783 0
-6480 -7784 0
-6481 -6497 0
-6482 -6498 0
-6483 -6499 0
-6484 -6500 0
-6481 -6621 0
-6482 -6622 0
-6483 -6623 0
-6484 -6624 0
-6481 -6649 0
-6482 -6650 0
-6483 -6651 0
-6484 -6652 0
-6481 -7753 0
-6482 -7754 0
-6483 -7755 0
-6484 -7756 0
-6481 -7889 0
-6482 -7890 0
-6483 -7891 0
-6484 -7892 0
-6485 -6497 0
-6486 -6498 0
-6487 -6499 0
-6488 -6500 0
-6485 -6577 0
-6486 -6578 0
-6487 -6579 0
-6488 -6580 0
-6485 -6669 0
-6486 -6670 0
-6487 -6671 0
-6488 -6672 0
-6485 -7381 0
-6486 -7382 0
-6487 -7383 0
-6488 -7384 0
-6485 -7621 0
-6486 -7622 0
-6487 -7623 0
-6488 -7624 0
-6485 -7757 0
-6486 -7758 0
-6487 -7759 0
-6488 -7760 0
-6489 -6497 0
-6490 -6498 0
-6491 -6499 0
-6492 -6500 0
-6489 -6557 0
-6490 -6558 0
-6491 -6559 0
-6492 -6560 0
-6489 -6673 0
-6490 -6674 0
-6491 -6675 0
-6492 -6676 0
-6489 -7241 0
-6490 -7242 0
-6491 -7243 0
-6492 -7244 0
-6489 -7313 0
-6490 -7314 0
-6491 -7315 0
-6492 -7316 0
-6489 -7709 0
-6490 -7710 0
-6491 -7711 0
-6492 -7712 0
-6489 -7761 0
-6490 -7762 0
-6491 -7763 0
-6492 -7764 0
-6493 -6497 0
-6494 -6498 0
-6495 -6499 0
-6496 -6500 0
-6493 -6541 0
-6494 -6542 0
-6495 -6543 0
-6496 -6544 0
-6493 -6653 0
-6494 -6654 0
-6495 -6655 0
-6496 -6656 0
-6493 -7317 0
-6494 -7318 0
-6495 -7319 0
-6496 -7320 0
-6493 -7625 0
-6494 -7626 0
-6495 -7627 0
-6496 -7628 0
-6493 -7765 0
-6494 -7766 0
-6495 -7767 0
-6496 -7768 0
-6497 -6501 0
-6498 -6502 0
-6499 -6503 0
-6500 -6504 0
-6497 -6505 0
-6498 -6506 0
-6499 -6507 0
-6500 -6508 0
-6497 -6509 0
-6498 -6510 0
-6499 -6511 0
-6500 -6512 0
-6497 -6513 0
-6498 -6514 0
-6499 -6515 0
-6500 -6516 0
-6497 -6521 0
-6498 -6522 0
-6499 -6523 0
-6500 -6524 0
-6497 -6529 0
-6498 -6530 0
-6499 -6531 0
-6500 -6532 0
-6497 -6541 0
-6498 -6542 0
-6499 -6543 0
-6500 -6544 0
-6497 -6545 0
-6498 -6546 0
-6499 -6547 0
-6500 -6548 0
-6497 -6557 0
-6498 -6558 0
-6499 -6559 0
-6500 -6560 0
-6497 -6561 0
-6498 -6562 0
-6499 -6563 0
-6500 -6564 0
-6497 -6577 0
-6498 -6578 0
-6499 -6579 0
-6500 -6580 0
-6497 -6581 0
-6498 -6582 0
-6499 -6583 0
-6500 -6584 0
-6497 -6621 0
-6498 -6622 0
-6499 -6623 0
-6500 -6624 0
-6497 -6625 0
-6498 -6626 0
-6499 -6627 0
-6500 -6628 0
-6497 -6657 0
-6498 -6658 0
-6499 -6659 0
-6500 -6660 0
-6497 -6809 0
-6498 -6810 0
-6499 -6811 0
-6500 -6812 0
-6497 -6865 0
-6498 -6866 0
-6499 -6867 0
-6500 -6868 0
-6497 -7001 0
-6498 -7002 0
-6499 -7003 0
-6500 -7004 0
-6497 -7149 0
-6498 -7150 0
-6499 -7151 0
-6500 -7152 0
-6497 -7193 0
-6498 -7194 0
-6499 -7195 0
-6500 -7196 0
-6497 -7245 0
-6498 -7246 0
-6499 -7247 0
-6500 -7248 0
-6497 -7321 0
-6498 -7322 0
-6499 -7323 0
-6500 -7324 0
-6497 -7385 0
-6498 -7386 0
-6499 -7387 0
-6500 -7388 0
-6497 -7457 0
-6498 -7458 0
-6499 -7459 0
-6500 -7460 0
-6497 -7629 0
-6498 -7630 0
-6499 -7631 0
-6500 -7632 0
-6497 -7633 0
-6498 -7634 0
-6499 -7635 0
-6500 -7636 0
-6497 -7701 0
-6498 -7702 0
-6499 -7703 0
-6500 -7704 0
-6497 -7713 0
-6498 -7714 0
-6499 -7715 0
-6500 -7716 0
-6497 -7769 0
-6498 -7770 0
-6499 -7771 0
-6500 -7772 0
-6497 -7785 0
-6498 -7786 0
-6499 -7787 0
-6500 -7788 0
-6497 -7821 0
-6498 -7822 0
-6499 -7823 0
-6500 -7824 0
-6497 -7833 0
-6498 -7834 0
-6499 -7835 0
-6500 -7836 0
-6497 -7893 0
-6498 -7894 0
-6499 -7895 0
-6500 -7896 0
-6501 -6545 0
-6502 -6546 0
-6503 -6547 0
-6504 -6548 0
-6501 -6869 0
-6502 -6870 0
-6503 -6871 0
-6504 -6872 0
-6501 -7005 0
-6502 -7006 0
-6503 -7007 0
-6504 -7008 0
-6501 -7249 0
-6502 -7250 0
-6503 -7251 0
-6504 -7252 0
-6501 -7773 0
-6502 -7774 0
-6503 -7775 0
-6504 -7776 0
-6505 -6561 0
-6506 -6562 0
-6507 -6563 0
-6508 -6564 0
-6505 -6661 0
-6506 -6662 0
-6507 -6663 0
-6508 -6664 0
-6505 -6813 0
-6506 -6814 0
-6507 -6815 0
-6508 -6816 0
-6505 -7197 0
-6506 -7198 0
-6507 -7199 0
-6508 -7200 0
-6505 -7461 0
-6506 -7462 0
-6507 -7463 0
-6508 -7464 0
-6509 -6581 0
-6510 -6582 0
-6511 -6583 0
-6512 -6584 0
-6509 -6817 0
-6510 -6818 0
-6511 -6819 0
-6512 -6820 0
-6509 -6873 0
-6510 -6874 0
-6511 -6875 0
-6512 -6876 0
-6509 -7153 0
-6510 -7154 0
-6511 -7155 0
-6512 -7156 0
-6509 -7777 0
-6510 -7778 0
-6511 -7779 0
-6512 -7780 0
-6513 -6625 0
-6514 -6626 0
-6515 -6627 0
-6516 -6628 0
-6513 -7157 0
-6514 -7158 0
-6515 -7159 0
-6516 -7160 0
-6513 -7393 0
-6514 -7394 0
-6515 -7395 0
-6516 -7396 0
-6513 -7781 0
-6514 -7782 0
-6515 -7783 0
-6516 -7784 0
-6517 -6521 0
-6518 -6522 0
-6519 -6523 0
-6520 -6524 0
-6517 -6821 0
-6518 -6822 0
-6519 -6823 0
-6520 -6824 0
-6517 -6953 0
-6518 -6954 0
-6519 -6955 0
-6520 -6956 0
-6517 -7009 0
-6518 -7010 0
-6519 -7011 0
-6520 -7012 0
-6517 -7165 0
-6518 -7166 0
-6519 -7167 0
-6520 -7168 0
-6517 -7705 0
-6518 -7706 0
-6519 -7707 0
-6520 -7708 0
-6517 -7789 0
-6518 -7790 0
-6519 -7791 0
-6520 -7792 0
-6521 -6825 0
-6522 -6826 0
-6523 -6827 0
-6524 -6828 0
-6521 -7637 0
-6522 -7638 0
-6523 -7639 0
-6524 -7640 0
-6521 -7713 0
-6522 -7714 0
-6523 -7715 0
-6524 -7716 0
-6521 -7789 0
-6522 -7790 0
-6523 -7791 0
-6524 -7792 0
-6525 -6529 0
-6526 -6530 0
-6527 -6531 0
-6528 -6532 0
-6525 -6853 0
-6526 -6854 0
-6527 -6855 0
-6528 -6856 0
-6525 -6917 0
-6526 -6918 0
-6527 -6919 0
-6528 -6920 0
-6525 -7169 0
-6526 -7170 0
-6527 -7171 0
-6528 -7172 0
-6525 -7793 0
-6526 -7794 0
-6527 -7795 0
-6528 -7796 0
-6525 -7825 0
-6526 -7826 0
-6527 -7827 0
-6528 -7828 0
-6529 -6677 0
-6530 -6678 0
-6531 -6679 0
-6532 -6680 0
-6529 -7173 0
-6530 -7174 0
-6531 -7175 0
-6532 -7176 0
-6529 -7253 0
-6530 -7254 0
-6531 -7255 0
-6532 -7256 0
-6529 -7325 0
-6530 -7326 0
-6531 -7327 0
-6532 -7328 0
-6529 -7793 0
-6530 -7794 0
-6531 -7795 0
-6532 -7796 0
-6529 -7833 0
-6530 -7834 0
-6531 -7835 0
-6532 -7836 0
-6533 -6537 0
-6534 -6538 0
-6535 -6539 0
-6536 -6540 0
-6533 -6541 0
-6534 -6542 0
-6535 -6543 0
-6536 -6544 0
-6533 -6681 0
-6534 -6682 0
-6535 -6683 0
-6536 -6684 0
-6533 -6961 0
-6534 -6962 0
-6535 -6963 0
-6536 -6964 0
-6533 -7329 0
-6534 -7330 0
-6535 -7331 0
-6536 -7332 0
-6533 -7473 0
-6534 -7474 0
-6535 -7475 0
-6536 -7476 0
-6533 -7797 0
-6534 -7798 0
-6535 -7799 0
-6536 -7800 0
-6537 -6545 0
-6538 -6546 0
-6539 -6547 0
-6540 -6548 0
-6537 -6697 0
-6538 -6698 0
-6539 -6699 0
-6540 -6700 0
-6537 -7017 0
-6538 -7018 0
-6539 -7019 0
-6540 -7020 0
-6537 -7381 0
-6538 -7382 0
-6539 -7383 0
-6540 -7384 0
-6537 -7477 0
-6538 -7478 0
-6539 -7479 0
-6540 -7480 0
-6541 -6545 0
-6542 -6546 0
-6543 -6547 0
-6544 -6548 0
-6541 -6689 0
-6542 -6690 0
-6543 -6691 0
-6544 -6692 0
-6541 -7333 0
-6542 -7334 0
-6543 -7335 0
-6544 -7336 0
-6541 -7493 0
-6542 -7494 0
-6543 -7495 0
-6544 -7496 0
-6541 -7641 0
-6542 -7642 0
-6543 -7643 0
-6544 -7644 0
-6541 -7797 0
-6542 -7798 0
-6543 -7799 0
-6544 -7800 0
-6545 -7025 0
-6546 -7026 0
-6547 -7027 0
-6548 -7028 0
-6545 -7645 0
-6546 -7646 0
-6547 -7647 0
-6548 -7648 0
-6549 -6553 0
-6550 -6554 0
-6551 -6555 0
-6552 -6556 0
-6549 -6557 0
-6550 -6558 0
-6551 -6559 0
-6552 -6560 0
-6549 -6941 0
-6550 -6942 0
-6551 -6943 0
-6552 -6944 0
-6549 -7497 0
-6550 -7498 0
-6551 -7499 0
-6552 -7500 0
-6549 -7801 0
-6550 -7802 0
-6551 -7803 0
-6552 -7804 0
-6549 -7909 0
-6550 -7910 0
-6551 -7911 0
-6552 -7912 0
-6553 -6561 0
-6554 -6562 0
-6555 -6563 0
-6556 -6564 0
-6553 -6945 0
-6554 -6946 0
-6555 -6947 0
-6556 -6948 0
-6553 -7041 0
-6554 -7042 0
-6555 -7043 0
-6556 -7044 0
-6553 -7201 0
-6554 -7202 0
-6555 -7203 0
-6556 -7204 0
-6553 -7501 0
-6554 -7502 0
-6555 -7503 0
-6556 -7504 0
-6553 -7653 0
-6554 -7654 0
-6555 -7655 0
-6556 -7656 0
-6553 -7805 0
-6554 -7806 0
-6555 -7807 0
-6556 -7808 0
-6557 -6561 0
-6558 -6562 0
-6559 -6563 0
-6560 -6564 0
-6557 -7353 0
-6558 -7354 0
-6559 -7355 0
-6560 -7356 0
-6557 -7657 0
-6558 -7658 0
-6559 -7659 0
-6560 -7660 0
-6557 -7801 0
-6558 -7802 0
-6559 -7803 0
-6560 -7804 0
-6557 -7913 0
-6558 -7914 0
-6559 -7915 0
-6560 -7916 0
-6561 -6709 0
-6562 -6710 0
-6563 -6711 0
-6564 -6712 0
-6561 -7205 0
-6562 -7206 0
-6563 -7207 0
-6564 -7208 0
-6561 -7661 0
-6562 -7662 0
-6563 -7663 0
-6564 -7664 0
-6561 -7805 0
-6562 -7806 0
-6563 -7807 0
-6564 -7808 0
-6565 -6577 0
-6566 -6578 0
-6567 -6579 0
-6568 -6580 0
-6565 -7405 0
-6566 -7406 0
-6567 -7407 0
-6568 -7408 0
-6565 -7661 0
-6566 -7662 0
-6567 -7663 0
-6568 -7664 0
-6569 -6573 0
-6570 -6574 0
-6571 -6575 0
-6572 -6576 0
-6569 -6577 0
-6570 -6578 0
-6571 -6579 0
-6572 -6580 0
-6569 -6965 0
-6570 -6966 0
-6571 -6967 0
-6572 -6968 0
-6569 -6981 0
-6570 -6982 0
-6571 -6983 0
-6572 -6984 0
-6569 -7209 0
-6570 -7210 0
-6571 -7211 0
-6572 -7212 0
-6569 -7673 0
-6570 -7674 0
-6571 -7675 0
-6572 -7676 0
-6569 -7809 0
-6570 -7810 0
-6571 -7811 0
-6572 -7812 0
-6573 -6581 0
-6574 -6582 0
-6575 -6583 0
-6576 -6584 0
-6573 -6849 0
-6574 -6850 0
-6575 -6851 0
-6576 -6852 0
-6573 -6997 0
-6574 -6998 0
-6575 -6999 0
-6576 -7000 0
-6573 -7213 0
-6574 -7214 0
-6575 -7215 0
-6576 -7216 0
-6573 -7405 0
-6574 -7406 0
-6575 -7407 0
-6576 -7408 0
-6573 -7505 0
-6574 -7506 0
-6575 -7507 0
-6576 -7508 0
-6573 -7813 0
-6574 -7814 0
-6575 -7815 0
-6576 -7816 0
-6577 -6581 0
-6578 -6582 0
-6579 -6583 0
-6580 -6584 0
-6577 -6729 0
-6578 -6730 0
-6579 -6731 0
-6580 -6732 0
-6577 -7217 0
-6578 -7218 0
-6579 -7219 0
-6580 -7220 0
-6577 -7685 0
-6578 -7686 0
-6579 -7687 0
-6580 -7688 0
-6577 -7809 0
-6578 -7810 0
-6579 -7811 0
-6580 -7812 0
-6581 -6853 0
-6582 -6854 0
-6583 -6855 0
-6584 -6856 0
-6581 -6877 0
-6582 -6878 0
-6583 -6879 0
-6584 -6880 0
-6581 -7221 0
-6582 -7222 0
-6583 -7223 0
-6584 -7224 0
-6581 -7509 0
-6582 -7510 0
-6583 -7511 0
-6584 -7512 0
-6581 -7813 0
-6582 -7814 0
-6583 -7815 0
-6584 -7816 0
-6585 -6589 0
-6586 -6590 0
-6587 -6591 0
-6588 -6592 0
-6585 -6977 0
-6586 -6978 0
-6587 -6979 0
-6588 -6980 0
-6585 -7745 0
-6586 -7746 0
-6587 -7747 0
-6588 -7748 0
-6585 -7769 0
-6586 -7770 0
-6587 -7771 0
-6588 -7772 0
-6589 -6741 0
-6590 -6742 0
-6591 -6743 0
-6592 -6744 0
-6589 -7241 0
-6590 -7242 0
-6591 -7243 0
-6592 -7244 0
-6589 -7397 0
-6590 -7398 0
-6591 -7399 0
-6592 -7400 0
-6589 -7769 0
-6590 -7770 0
-6591 -7771 0
-6592 -7772 0
-6589 -7789 0
-6590 -7790 0
-6591 -7791 0
-6592 -7792 0
-6593 -6597 0
-6594 -6598 0
-6595 -6599 0
-6596 -6600 0
-6593 -6601 0
-6594 -6602 0
-6595 -6603 0
-6596 -6604 0
-6593 -6745 0
-6594 -6746 0
-6595 -6747 0
-6596 -6748 0
-6593 -7817 0
-6594 -7818 0
-6595 -7819 0
-6596 -7820 0
-6597 -6605 0
-6598 -6606 0
-6599 -6607 0
-6600 -6608 0
-6597 -6897 0
-6598 -6898 0
-6599 -6899 0
-6600 -6900 0
-6597 -7817 0
-6598 -7818 0
-6599 -7819 0
-6600 -7820 0
-6597 -7821 0
-6598 -7822 0
-6599 -7823 0
-6600 -7824 0
-6601 -6605 0
-6602 -6606 0
-6603 -6607 0
-6604 -6608 0
-6601 -7209 0
-6602 -7210 0
-6603 -7211 0
-6604 -7212 0
-6601 -7825 0
-6602 -7826 0
-6603 -7827 0
-6604 -7828 0
-6605 -6913 0
-6606 -6914 0
-6607 -6915 0
-6608 -6916 0
-6605 -7217 0
-6606 -7218 0
-6607 -7219 0
-6608 -7220 0
-6605 -7825 0
-6606 -7826 0
-6607 -7827 0
-6608 -7828 0
-6605 -7833 0
-6606 -7834 0
-6607 -7835 0
-6608 -7836 0
-6609 -6625 0
-6610 -6626 0
-6611 -6627 0
-6612 -6628 0
-6609 -6929 0
-6610 -6930 0
-6611 -6931 0
-6612 -6932 0
-6609 -7237 0
-6610 -7238 0
-6611 -7239 0
-6612 -7240 0
-6609 -7417 0
-6610 -7418 0
-6611 -7419 0
-6612 -7420 0
-6613 -6617 0
-6614 -6618 0
-6615 -6619 0
-6616 -6620 0
-6613 -6621 0
-6614 -6622 0
-6615 -6623 0
-6616 -6624 0
-6613 -7533 0
-6614 -7534 0
-6615 -7535 0
-6616 -7536 0
-6613 -7537 0
-6614 -7538 0
-6615 -7539 0
-6616 -7540 0
-6613 -7837 0
-6614 -7838 0
-6615 -7839 0
-6616 -7840 0
-6617 -6625 0
-6618 -6626 0
-6619 -6627 0
-6620 -6628 0
-6617 -7413 0
-6618 -7414 0
-6619 -7415 0
-6620 -7416 0
-6617 -7541 0
-6618 -7542 0
-6619 -7543 0
-6620 -7544 0
-6617 -7841 0
-6618 -7842 0
-6619 -7843 0
-6620 -7844 0
-6621 -6625 0
-6622 -6626 0
-6623 -6627 0
-6624 -6628 0
-6621 -6789 0
-6622 -6790 0
-6623 -6791 0
-6624 -6792 0
-6621 -7061 0
-6622 -7062 0
-6623 -7063 0
-6624 -7064 0
-6621 -7837 0
-6622 -7838 0
-6623 -7839 0
-6624 -7840 0
-6625 -6961 0
-6626 -6962 0
-6627 -6963 0
-6628 -6964 0
-6625 -7545 0
-6626 -7546 0
-6627 -7547 0
-6628 -7548 0
-6625 -7841 0
-6626 -7842 0
-6627 -7843 0
-6628 -7844 0
-6629 -6697 0
-6630 -6698 0
-6631 -6699 0
-6632 -6700 0
-6629 -6957 0
-6630 -6958 0
-6631 -6959 0
-6632 -6960 0
-6629 -7085 0
-6630 -7086 0
-6631 -7087 0
-6632 -7088 0
-6629 -7697 0
-6630 -7698 0
-6631 -7699 0
-6632 -7700 0
-6629 -7857 0
-6630 -7858 0
-6631 -7859 0
-6632 -7860 0
-6629 -7861 0
-6630 -7862 0
-6631 -7863 0
-6632 -7864 0
-6633 -6637 0
-6634 -6638 0
-6635 -6639 0
-6636 -6640 0
-6633 -6641 0
-6634 -6642 0
-6635 -6643 0
-6636 -6644 0
-6633 -6757 0
-6634 -6758 0
-6635 -6759 0
-6636 -6760 0
-6633 -7301 0
-6634 -7302 0
-6635 -7303 0
-6636 -7304 0
-6633 -7437 0
-6634 -7438 0
-6635 -7439 0
-6636 -7440 0
-6633 -7697 0
-6634 -7698 0
-6635 -7699 0
-6636 -7700 0
-6633 -7845 0
-6634 -7846 0
-6635 -7847 0
-6636 -7848 0
-6637 -6645 0
-6638 -6646 0
-6639 -6647 0
-6640 -6648 0
-6637 -6665 0
-6638 -6666 0
-6639 -6667 0
-6640 -6668 0
-6637 -6669 0
-6638 -6670 0
-6639 -6671 0
-6640 -6672 0
-6637 -6761 0
-6638 -6762 0
-6639 -6763 0
-6640 -6764 0
-6637 -7317 0
-6638 -7318 0
-6639 -7319 0
-6640 -7320 0
-6637 -7441 0
-6638 -7442 0
-6639 -7443 0
-6640 -7444 0
-6637 -7701 0
-6638 -7702 0
-6639 -7703 0
-6640 -7704 0
-6637 -7845 0
-6638 -7846 0
-6639 -7847 0
-6640 -7848 0
-6641 -6645 0
-6642 -6646 0
-6643 -6647 0
-6644 -6648 0
-6641 -6765 0
-6642 -6766 0
-6643 -6767 0
-6644 -6768 0
-6641 -6773 0
-6642 -6774 0
-6643 -6775 0
-6644 -6776 0
-6641 -6965 0
-6642 -6966 0
-6643 -6967 0
-6644 -6968 0
-6641 -7069 0
-6642 -7070 0
-6643 -7071 0
-6644 -7072 0
-6641 -7705 0
-6642 -7706 0
-6643 -7707 0
-6644 -7708 0
-6641 -7849 0
-6642 -7850 0
-6643 -7851 0
-6644 -7852 0
-6645 -6777 0
-6646 -6778 0
-6647 -6779 0
-6648 -6780 0
-6645 -6781 0
-6646 -6782 0
-6647 -6783 0
-6648 -6784 0
-6645 -6913 0
-6646 -6914 0
-6647 -6915 0
-6648 -6916 0
-6645 -7713 0
-6646 -7714 0
-6647 -7715 0
-6648 -7716 0
-6645 -7849 0
-6646 -7850 0
-6647 -7851 0
-6648 -7852 0
-6645 -7853 0
-6646 -7854 0
-6647 -7855 0
-6648 -7856 0
-6649 -6657 0
-6650 -6658 0
-6651 -6659 0
-6652 -6660 0
-6649 -6673 0
-6650 -6674 0
-6651 -6675 0
-6652 -6676 0
-6649 -6789 0
-6650 -6790 0
-6651 -6791 0
-6652 -6792 0
-6649 -7929 0
-6650 -7930 0
-6651 -7931 0
-6652 -7932 0
-6653 -6657 0
-6654 -6658 0
-6655 -6659 0
-6656 -6660 0
-6653 -6689 0
-6654 -6690 0
-6655 -6691 0
-6656 -6692 0
-6653 -6705 0
-6654 -6706 0
-6655 -6707 0
-6656 -6708 0
-6653 -6725 0
-6654 -6726 0
-6655 -6727 0
-6656 -6728 0
-6653 -6733 0
-6654 -6734 0
-6655 -6735 0
-6656 -6736 0
-6653 -6977 0
-6654 -6978 0
-6655 -6979 0
-6656 -6980 0
-6653 -7421 0
-6654 -7422 0
-6655 -7423 0
-6656 -7424 0
-6653 -7721 0
-6654 -7722 0
-6655 -7723 0
-6656 -7724 0
-6657 -6661 0
-6658 -6662 0
-6659 -6663 0
-6660 -6664 0
-6657 -6677 0
-6658 -6678 0
-6659 -6679 0
-6660 -6680 0
-6657 -6689 0
-6658 -6690 0
-6659 -6691 0
-6660 -6692 0
-6657 -6709 0
-6658 -6710 0
-6659 -6711 0
-6660 -6712 0
-6657 -6729 0
-6658 -6730 0
-6659 -6731 0
-6660 -6732 0
-6657 -6789 0
-6658 -6790 0
-6659 -6791 0
-6660 -6792 0
-6657 -6925 0
-6658 -6926 0
-6659 -6927 0
-6660 -6928 0
-6657 -7341 0
-6658 -7342 0
-6659 -7343 0
-6660 -7344 0
-6657 -7457 0
-6658 -7458 0
-6659 -7459 0
-6660 -7460 0
-6657 -7933 0
-6658 -7934 0
-6659 -7935 0
-6660 -7936 0
-6661 -6693 0
-6662 -6694 0
-6663 -6695 0
-6664 -6696 0
-6661 -6709 0
-6662 -6710 0
-6663 -6711 0
-6664 -6712 0
-6661 -6933 0
-6662 -6934 0
-6663 -6935 0
-6664 -6936 0
-6661 -7121 0
-6662 -7122 0
-6663 -7123 0
-6664 -7124 0
-6661 -7285 0
-6662 -7286 0
-6663 -7287 0
-6664 -7288 0
-6661 -7461 0
-6662 -7462 0
-6663 -7463 0
-6664 -7464 0
-6661 -7489 0
-6662 -7490 0
-6663 -7491 0
-6664 -7492 0
-6665 -6669 0
-6666 -6670 0
-6667 -6671 0
-6668 -6672 0
-6665 -6673 0
-6666 -6674 0
-6667 -6675 0
-6668 -6676 0
-6665 -6809 0
-6666 -6810 0
-6667 -6811 0
-6668 -6812 0
-6665 -7349 0
-6666 -7350 0
-6667 -7351 0
-6668 -7352 0
-6665 -7941 0
-6666 -7942 0
-6667 -7943 0
-6668 -7944 0
-6669 -6813 0
-6670 -6814 0
-6671 -6815 0
-6672 -6816 0
-6669 -6857 0
-6670 -6858 0
-6671 -6859 0
-6672 -6860 0
-6673 -6677 0
-6674 -6678 0
-6675 -6679 0
-6676 -6680 0
-6673 -6817 0
-6674 -6818 0
-6675 -6819 0
-6676 -6820 0
-6673 -7357 0
-6674 -7358 0
-6675 -7359 0
-6676 -7360 0
-6673 -7945 0
-6674 -7946 0
-6675 -7947 0
-6676 -7948 0
-6677 -6817 0
-6678 -6818 0
-6679 -6819 0
-6680 -6820 0
-6677 -7005 0
-6678 -7006 0
-6679 -7007 0
-6680 -7008 0
-6677 -7269 0
-6678 -7270 0
-6679 -7271 0
-6680 -7272 0
-6677 -7365 0
-6678 -7366 0
-6679 -7367 0
-6680 -7368 0
-6681 -6685 0
-6682 -6686 0
-6683 -6687 0
-6684 -6688 0
-6681 -6689 0
-6682 -6690 0
-6683 -6691 0
-6684 -6692 0
-6681 -6717 0
-6682 -6718 0
-6683 -6719 0
-6684 -6720 0
-6681 -6861 0
-6682 -6862 0
-6683 -6863 0
-6684 -6864 0
-6681 -7277 0
-6682 -7278 0
-6683 -7279 0
-6684 -7280 0
-6681 -7473 0
-6682 -7474 0
-6683 -7475 0
-6684 -7476 0
-6685 -6693 0
-6686 -6694 0
-6687 -6695 0
-6688 -6696 0
-6685 -6701 0
-6686 -6702 0
-6687 -6703 0
-6688 -6704 0
-6685 -6717 0
-6686 -6718 0
-6687 -6719 0
-6688 -6720 0
-6685 -7481 0
-6686 -7482 0
-6687 -7483 0
-6688 -7484 0
-6685 -7885 0
-6686 -7886 0
-6687 -7887 0
-6688 -7888 0
-6689 -6693 0
-6690 -6694 0
-6691 -6695 0
-6692 -6696 0
-6689 -6721 0
-6690 -6722 0
-6691 -6723 0
-6692 -6724 0
-6689 -6873 0
-6690 -6874 0
-6691 -6875 0
-6692 -6876 0
-6689 -7281 0
-6690 -7282 0
-6691 -7283 0
-6692 -7284 0
-6689 -7433 0
-6690 -7434 0
-6691 -7435 0
-6692 -7436 0
-6689 -7493 0
-6690 -7494 0
-6691 -7495 0
-6692 -7496 0
-6689 -7725 0
-6690 -7726 0
-6691 -7727 0
-6692 -7728 0
-6693 -6721 0
-6694 -6722 0
-6695 -6723 0
-6696 -6724 0
-6693 -6961 0
-6694 -6962 0
-6695 -6963 0
-6696 -6964 0
-6693 -7289 0
-6694 -7290 0
-6695 -7291 0
-6696 -7292 0
-6693 -7729 0
-6694 -7730 0
-6695 -7731 0
-6696 -7732 0
-6693 -7893 0
-6694 -7894 0
-6695 -7895 0
-6696 -7896 0
-6697 -7573 0
-6698 -7574 0
-6699 -7575 0
-6700 -7576 0
-6697 -7881 0
-6698 -7882 0
-6699 -7883 0
-6700 -7884 0
-6701 -7021 0
-6702 -7022 0
-6703 -7023 0
-6704 -7024 0
-6701 -7577 0
-6702 -7578 0
-6703 -7579 0
-6704 -7580 0
-6701 -7885 0
-6702 -7886 0
-6703 -7887 0
-6704 -7888 0
-6705 -6709 0
-6706 -6710 0
-6707 -6711 0
-6708 -6712 0
-6705 -6721 0
-6706 -6722 0
-6707 -6723 0
-6708 -6724 0
-6705 -6737 0
-6706 -6738 0
-6707 -6739 0
-6708 -6740 0
-6705 -6741 0
-6706 -6742 0
-6707 -6743 0
-6708 -6744 0
-6705 -7037 0
-6706 -7038 0
-6707 -7039 0
-6708 -7040 0
-6705 -7453 0
-6706 -7454 0
-6707 -7455 0
-6708 -7456 0
-6705 -7585 0
-6706 -7586 0
-6707 -7587 0
-6708 -7588 0
-6705 -7733 0
-6706 -7734 0
-6707 -7735 0
-6708 -7736 0
-6709 -6721 0
-6710 -6722 0
-6711 -6723 0
-6712 -6724 0
-6709 -7293 0
-6710 -7294 0
-6711 -7295 0
-6712 -7296 0
-6709 -7737 0
-6710 -7738 0
-6711 -7739 0
-6712 -7740 0
-6713 -6721 0
-6714 -6722 0
-6715 -6723 0
-6716 -6724 0
-6713 -7465 0
-6714 -7466 0
-6715 -7467 0
-6716 -7468 0
-6713 -7745 0
-6714 -7746 0
-6715 -7747 0
-6716 -7748 0
-6713 -7905 0
-6714 -7906 0
-6715 -7907 0
-6716 -7908 0
-6717 -6721 0
-6718 -6722 0
-6719 -6723 0
-6720 -6724 0
-6717 -7749 0
-6718 -7750 0
-6719 -7751 0
-6720 -7752 0
-6717 -7909 0
-6718 -7910 0
-6719 -7911 0
-6720 -7912 0
-6721 -7297 0
-6722 -7298 0
-6723 -7299 0
-6724 -7300 0
-6721 -7485 0
-6722 -7486 0
-6723 -7487 0
-6724 -7488 0
-6721 -7769 0
-6722 -7770 0
-6723 -7771 0
-6724 -7772 0
-6721 -7913 0
-6722 -7914 0
-6723 -7915 0
-6724 -7916 0
-6725 -6729 0
-6726 -6730 0
-6727 -6731 0
-6728 -6732 0
-6725 -6733 0
-6726 -6734 0
-6727 -6735 0
-6728 -6736 0
-6725 -6737 0
-6726 -6738 0
-6727 -6739 0
-6728 -6740 0
-6725 -6833 0
-6726 -6834 0
-6727 -6835 0
-6728 -6836 0
-6725 -6841 0
-6726 -6842 0
-6727 -6843 0
-6728 -6844 0
-6725 -7117 0
-6726 -7118 0
-6727 -7119 0
-6728 -7120 0
-6725 -7309 0
-6726 -7310 0
-6727 -7311 0
-6728 -7312 0
-6725 -7513 0
-6726 -7514 0
-6727 -7515 0
-6728 -7516 0
-6725 -7769 0
-6726 -7770 0
-6727 -7771 0
-6728 -7772 0
-6725 -7845 0
-6726 -7846 0
-6727 -7847 0
-6728 -7848 0
-6725 -7849 0
-6726 -7850 0
-6727 -7851 0
-6728 -7852 0
-6729 -6837 0
-6730 -6838 0
-6731 -6839 0
-6732 -6840 0
-6729 -6845 0
-6730 -6846 0
-6731 -6847 0
-6732 -6848 0
-6729 -7313 0
-6730 -7314 0
-6731 -7315 0
-6732 -7316 0
-6729 -7397 0
-6730 -7398 0
-6731 -7399 0
-6732 -7400 0
-6729 -7773 0
-6730 -7774 0
-6731 -7775 0
-6732 -7776 0
-6729 -7957 0
-6730 -7958 0
-6731 -7959 0
-6732 -7960 0
-6733 -6741 0
-6734 -6742 0
-6735 -6743 0
-6736 -6744 0
-6733 -6985 0
-6734 -6986 0
-6735 -6987 0
-6736 -6988 0
-6733 -7121 0
-6734 -7122 0
-6735 -7123 0
-6736 -7124 0
-6733 -7777 0
-6734 -7778 0
-6735 -7779 0
-6736 -7780 0
-6737 -6741 0
-6738 -6742 0
-6739 -6743 0
-6740 -6744 0
-6737 -6885 0
-6738 -6886 0
-6739 -6887 0
-6740 -6888 0
-6737 -7125 0
-6738 -7126 0
-6739 -7127 0
-6740 -7128 0
-6737 -7349 0
-6738 -7350 0
-6739 -7351 0
-6740 -7352 0
-6737 -7589 0
-6738 -7590 0
-6739 -7591 0
-6740 -7592 0
-6737 -7805 0
-6738 -7806 0
-6739 -7807 0
-6740 -7808 0
-6741 -7041 0
-6742 -7042 0
-6743 -7043 0
-6744 -7044 0
-6741 -7357 0
-6742 -7358 0
-6743 -7359 0
-6744 -7360 0
-6745 -6749 0
-6746 -6750 0
-6747 -6751 0
-6748 -6752 0
-6745 -6765 0
-6746 -6766 0
-6747 -6767 0
-6748 -6768 0
-6745 -6769 0
-6746 -6770 0
-6747 -6771 0
-6748 -6772 0
-6749 -6753 0
-6750 -6754 0
-6751 -6755 0
-6752 -6756 0
-6749 -6773 0
-6750 -6774 0
-6751 -6775 0
-6752 -6776 0
-6749 -7305 0
-6750 -7306 0
-6751 -7307 0
-6752 -7308 0
-6749 -7865 0
-6750 -7866 0
-6751 -7867 0
-6752 -7868 0
-6753 -6781 0
-6754 -6782 0
-6755 -6783 0
-6756 -6784 0
-6753 -7069 0
-6754 -7070 0
-6755 -7071 0
-6756 -7072 0
-6753 -7321 0
-6754 -7322 0
-6755 -7323 0
-6756 -7324 0
-6753 -7865 0
-6754 -7866 0
-6755 -7867 0
-6756 -7868 0
-6757 -6761 0
-6758 -6762 0
-6759 -6763 0
-6760 -6764 0
-6757 -6773 0
-6758 -6774 0
-6759 -6775 0
-6760 -6776 0
-6757 -6797 0
-6758 -6798 0
-6759 -6799 0
-6760 -6800 0
-6757 -6801 0
-6758 -6802 0
-6759 -6803 0
-6760 -6804 0
-6757 -7869 0
-6758 -7870 0
-6759 -7871 0
-6760 -7872 0
-6761 -6781 0
-6762 -6782 0
-6763 -6783 0
-6764 -6784 0
-6761 -6809 0
-6762 -6810 0
-6763 -6811 0
-6764 -6812 0
-6761 -6813 0
-6762 -6814 0
-6763 -6815 0
-6764 -6816 0
-6761 -7325 0
-6762 -7326 0
-6763 -7327 0
-6764 -7328 0
-6761 -7533 0
-6762 -7534 0
-6763 -7535 0
-6764 -7536 0
-6761 -7593 0
-6762 -7594 0
-6763 -7595 0
-6764 -7596 0
-6761 -7869 0
-6762 -7870 0
-6763 -7871 0
-6764 -7872 0
-6761 -7873 0
-6762 -7874 0
-6763 -7875 0
-6764 -7876 0
-6765 -6769 0
-6766 -6770 0
-6767 -6771 0
-6768 -6772 0
-6765 -6773 0
-6766 -6774 0
-6767 -6775 0
-6768 -6776 0
-6765 -6777 0
-6766 -6778 0
-6767 -6779 0
-6768 -6780 0
-6765 -6893 0
-6766 -6894 0
-6767 -6895 0
-6768 -6896 0
-6765 -7189 0
-6766 -7190 0
-6767 -7191 0
-6768 -7192 0
-6765 -7877 0
-6766 -7878 0
-6767 -7879 0
-6768 -7880 0
-6769 -7213 0
-6770 -7214 0
-6771 -7215 0
-6772 -7216 0
-6769 -7881 0
-6770 -7882 0
-6771 -7883 0
-6772 -7884 0
-6773 -6781 0
-6774 -6782 0
-6775 -6783 0
-6776 -6784 0
-6773 -6821 0
-6774 -6822 0
-6775 -6823 0
-6776 -6824 0
-6773 -7049 0
-6774 -7050 0
-6775 -7051 0
-6776 -7052 0
-6773 -7329 0
-6774 -7330 0
-6775 -7331 0
-6776 -7332 0
-6773 -7597 0
-6774 -7598 0
-6775 -7599 0
-6776 -7600 0
-6773 -7885 0
-6774 -7886 0
-6775 -7887 0
-6776 -7888 0
-6777 -6781 0
-6778 -6782 0
-6779 -6783 0
-6780 -6784 0
-6777 -6901 0
-6778 -6902 0
-6779 -6903 0
-6780 -6904 0
-6777 -7197 0
-6778 -7198 0
-6779 -7199 0
-6780 -7200 0
-6777 -7877 0
-6778 -7878 0
-6779 -7879 0
-6780 -7880 0
-6777 -7889 0
-6778 -7890 0
-6779 -7891 0
-6780 -7892 0
-6781 -6825 0
-6782 -6826 0
-6783 -6827 0
-6784 -6828 0
-6781 -6905 0
-6782 -6906 0
-6783 -6907 0
-6784 -6908 0
-6781 -7053 0
-6782 -7054 0
-6783 -7055 0
-6784 -7056 0
-6781 -7225 0
-6782 -7226 0
-6783 -7227 0
-6784 -7228 0
-6781 -7333 0
-6782 -7334 0
-6783 -7335 0
-6784 -7336 0
-6781 -7601 0
-6782 -7602 0
-6783 -7603 0
-6784 -7604 0
-6781 -7885 0
-6782 -7886 0
-6783 -7887 0
-6784 -7888 0
-6781 -7893 0
-6782 -7894 0
-6783 -7895 0
-6784 -7896 0
-6785 -6789 0
-6786 -6790 0
-6787 -6791 0
-6788 -6792 0
-6785 -6793 0
-6786 -6794 0
-6787 -6795 0
-6788 -6796 0
-6785 -6809 0
-6786 -6810 0
-6787 -6811 0
-6788 -6812 0
-6785 -6837 0
-6786 -6838 0
-6787 -6839 0
-6788 -6840 0
-6785 -6921 0
-6786 -6922 0
-6787 -6923 0
-6788 -6924 0
-6785 -7353 0
-6786 -7354 0
-6787 -7355 0
-6788 -7356 0
-6785 -7857 0
-6786 -7858 0
-6787 -7859 0
-6788 -7860 0
-6789 -6817 0
-6790 -6818 0
-6791 -6819 0
-6792 -6820 0
-6789 -6837 0
-6790 -6838 0
-6791 -6839 0
-6792 -6840 0
-6789 -7081 0
-6790 -7082 0
-6791 -7083 0
-6792 -7084 0
-6793 -6825 0
-6794 -6826 0
-6795 -6827 0
-6796 -6828 0
-6793 -6945 0
-6794 -6946 0
-6795 -6947 0
-6796 -6948 0
-6793 -7241 0
-6794 -7242 0
-6795 -7243 0
-6796 -7244 0
-6793 -7817 0
-6794 -7818 0
-6795 -7819 0
-6796 -7820 0
-6793 -7857 0
-6794 -7858 0
-6795 -7859 0
-6796 -7860 0
-6797 -6801 0
-6798 -6802 0
-6799 -6803 0
-6800 -6804 0
-6797 -6805 0
-6798 -6806 0
-6799 -6807 0
-6800 -6808 0
-6797 -6809 0
-6798 -6810 0
-6799 -6811 0
-6800 -6812 0
-6797 -6821 0
-6798 -6822 0
-6799 -6823 0
-6800 -6824 0
-6797 -6849 0
-6798 -6850 0
-6799 -6851 0
-6800 -6852 0
-6797 -7185 0
-6798 -7186 0
-6799 -7187 0
-6800 -7188 0
-6797 -7897 0
-6798 -7898 0
-6799 -7899 0
-6800 -7900 0
-6801 -6813 0
-6802 -6814 0
-6803 -6815 0
-6804 -6816 0
-6801 -7189 0
-6802 -7190 0
-6803 -7191 0
-6804 -7192 0
-6805 -6817 0
-6806 -6818 0
-6807 -6819 0
-6808 -6820 0
-6805 -6849 0
-6806 -6850 0
-6807 -6851 0
-6808 -6852 0
-6805 -7901 0
-6806 -7902 0
-6807 -7903 0
-6808 -7904 0
-6809 -6813 0
-6810 -6814 0
-6811 -6815 0
-6812 -6816 0
-6809 -6817 0
-6810 -6818 0
-6811 -6819 0
-6812 -6820 0
-6809 -6825 0
-6810 -6826 0
-6811 -6827 0
-6812 -6828 0
-6809 -6853 0
-6810 -6854 0
-6811 -6855 0
-6812 -6856 0
-6809 -6925 0
-6810 -6926 0
-6811 -6927 0
-6812 -6928 0
-6809 -7193 0
-6810 -7194 0
-6811 -7195 0
-6812 -7196 0
-6809 -7413 0
-6810 -7414 0
-6811 -7415 0
-6812 -7416 0
-6809 -7521 0
-6810 -7522 0
-6811 -7523 0
-6812 -7524 0
-6809 -7861 0
-6810 -7862 0
-6811 -7863 0
-6812 -7864 0
-6809 -7897 0
-6810 -7898 0
-6811 -7899 0
-6812 -7900 0
-6809 -7905 0
-6810 -7906 0
-6811 -7907 0
-6812 -7908 0
-6813 -6933 0
-6814 -6934 0
-6815 -6935 0
-6816 -6936 0
-6813 -7197 0
-6814 -7198 0
-6815 -7199 0
-6816 -7200 0
-6817 -6853 0
-6818 -6854 0
-6819 -6855 0
-6820 -6856 0
-6817 -7085 0
-6818 -7086 0
-6819 -7087 0
-6820 -7088 0
-6817 -7369 0
-6818 -7370 0
-6819 -7371 0
-6820 -7372 0
-6817 -7417 0
-6818 -7418 0
-6819 -7419 0
-6820 -7420 0
-6817 -7529 0
-6818 -7530 0
-6819 -7531 0
-6820 -7532 0
-6817 -7901 0
-6818 -7902 0
-6819 -7903 0
-6820 -7904 0
-6821 -6825 0
-6822 -6826 0
-6823 -6827 0
-6824 -6828 0
-6821 -7909 0
-6822 -7910 0
-6823 -7911 0
-6824 -7912 0
-6825 -6949 0
-6826 -6950 0
-6827 -6951 0
-6828 -6952 0
-6825 -7061 0
-6826 -7062 0
-6827 -7063 0
-6828 -7064 0
-6825 -7381 0
-6826 -7382 0
-6827 -7383 0
-6828 -7384 0
-6825 -7825 0
-6826 -7826 0
-6827 -7827 0
-6828 -7828 0
-6825 -7861 0
-6826 -7862 0
-6827 -7863 0
-6828 -7864 0
-6825 -7909 0
-6826 -7910 0
-6827 -7911 0
-6828 -7912 0
-6825 -7913 0
-6826 -7914 0
-6827 -7915 0
-6828 -7916 0
-6829 -6833 0
-6830 -6834 0
-6831 -6835 0
-6832 -6836 0
-6829 -6837 0
-6830 -6838 0
-6831 -6839 0
-6832 -6840 0
-6829 -7097 0
-6830 -7098 0
-6831 -7099 0
-6832 -7100 0
-6829 -7633 0
-6830 -7634 0
-6831 -7635 0
-6832 -7636 0
-6833 -6837 0
-6834 -6838 0
-6835 -6839 0
-6836 -6840 0
-6833 -6841 0
-6834 -6842 0
-6835 -6843 0
-6836 -6844 0
-6833 -6973 0
-6834 -6974 0
-6835 -6975 0
-6836 -6976 0
-6833 -7237 0
-6834 -7238 0
-6835 -7239 0
-6836 -7240 0
-6833 -7405 0
-6834 -7406 0
-6835 -7407 0
-6836 -7408 0
-6833 -7641 0
-6834 -7642 0
-6835 -7643 0
-6836 -7644 0
-6833 -7837 0
-6834 -7838 0
-6835 -7839 0
-6836 -7840 0
-6833 -7877 0
-6834 -7878 0
-6835 -7879 0
-6836 -7880 0
-6837 -6845 0
-6838 -6846 0
-6839 -6847 0
-6840 -6848 0
-6837 -6853 0
-6838 -6854 0
-6839 -6855 0
-6840 -6856 0
-6837 -7133 0
-6838 -7134 0
-6839 -7135 0
-6840 -7136 0
-6837 -7645 0
-6838 -7646 0
-6839 -7647 0
-6840 -7648 0
-6837 -7649 0
-6838 -7650 0
-6839 -7651 0
-6840 -7652 0
-6837 -7881 0
-6838 -7882 0
-6839 -7883 0
-6840 -7884 0
-6837 -7961 0
-6838 -7962 0
-6839 -7963 0
-6840 -7964 0
-6841 -6845 0
-6842 -6846 0
-6843 -6847 0
-6844 -6848 0
-6841 -6993 0
-6842 -6994 0
-6843 -6995 0
-6844 -6996 0
-6841 -7409 0
-6842 -7410 0
-6843 -7411 0
-6844 -7412 0
-6841 -7841 0
-6842 -7842 0
-6843 -7843 0
-6844 -7844 0
-6841 -7869 0
-6842 -7870 0
-6843 -7871 0
-6844 -7872 0
-6841 -7885 0
-6842 -7886 0
-6843 -7887 0
-6844 -7888 0
-6845 -6997 0
-6846 -6998 0
-6847 -6999 0
-6848 -7000 0
-6845 -7141 0
-6846 -7142 0
-6847 -7143 0
-6848 -7144 0
-6845 -7557 0
-6846 -7558 0
-6847 -7559 0
-6848 -7560 0
-6849 -6853 0
-6850 -6854 0
-6851 -6855 0
-6852 -6856 0
-6849 -7213 0
-6850 -7214 0
-6851 -7215 0
-6852 -7216 0
-6849 -7917 0
-6850 -7918 0
-6851 -7919 0
-6852 -7920 0
-6853 -6989 0
-6854 -6990 0
-6855 -6991 0
-6856 -6992 0
-6853 -7169 0
-6854 -7170 0
-6855 -7171 0
-6856 -7172 0
-6853 -7221 0
-6854 -7222 0
-6855 -7223 0
-6856 -7224 0
-6853 -7657 0
-6854 -7658 0
-6855 -7659 0
-6856 -7660 0
-6853 -7917 0
-6854 -7918 0
-6855 -7919 0
-6856 -7920 0
-6857 -6865 0
-6858 -6866 0
-6859 -6867 0
-6860 -6868 0
-6857 -6869 0
-6858 -6870 0
-6859 -6871 0
-6860 -6872 0
-6857 -6921 0
-6858 -6922 0
-6859 -6923 0
-6860 -6924 0
-6857 -6933 0
-6858 -6934 0
-6859 -6935 0
-6860 -6936 0
-6857 -7113 0
-6858 -7114 0
-6859 -7115 0
-6860 -7116 0
-6857 -7453 0
-6858 -7454 0
-6859 -7455 0
-6860 -7456 0
-6857 -7573 0
-6858 -7574 0
-6859 -7575 0
-6860 -7576 0
-6857 -7969 0
-6858 -7970 0
-6859 -7971 0
-6860 -7972 0
-6861 -6873 0
-6862 -6874 0
-6863 -6875 0
-6864 -6876 0
-6861 -7137 0
-6862 -7138 0
-6863 -7139 0
-6864 -7140 0
-6861 -7277 0
-6862 -7278 0
-6863 -7279 0
-6864 -7280 0
-6861 -7921 0
-6862 -7922 0
-6863 -7923 0
-6864 -7924 0
-6861 -7937 0
-6862 -7938 0
-6863 -7939 0
-6864 -7940 0
-6865 -6869 0
-6866 -6870 0
-6867 -6871 0
-6868 -6872 0
-6865 -6873 0
-6866 -6874 0
-6867 -6875 0
-6868 -6876 0
-6865 -6877 0
-6866 -6878 0
-6867 -6879 0
-6868 -6880 0
-6865 -6961 0
-6866 -6962 0
-6867 -6963 0
-6868 -6964 0
-6865 -7149 0
-6866 -7150 0
-6867 -7151 0
-6868 -7152 0
-6865 -7265 0
-6866 -7266 0
-6867 -7267 0
-6868 -7268 0
-6865 -7481 0
-6866 -7482 0
-6867 -7483 0
-6868 -7484 0
-6865 -7845 0
-6866 -7846 0
-6867 -7847 0
-6868 -7848 0
-6865 -7925 0
-6866 -7926 0
-6867 -7927 0
-6868 -7928 0
-6865 -7941 0
-6866 -7942 0
-6867 -7943 0
-6868 -7944 0
-6869 -6957 0
-6870 -6958 0
-6871 -6959 0
-6872 -6960 0
-6869 -7269 0
-6870 -7270 0
-6871 -7271 0
-6872 -7272 0
-6869 -7485 0
-6870 -7486 0
-6871 -7487 0
-6872 -7488 0
-6873 -6877 0
-6874 -6878 0
-6875 -6879 0
-6876 -6880 0
-6873 -7085 0
-6874 -7086 0
-6875 -7087 0
-6876 -7088 0
-6873 -7153 0
-6874 -7154 0
-6875 -7155 0
-6876 -7156 0
-6873 -7281 0
-6874 -7282 0
-6875 -7283 0
-6876 -7284 0
-6873 -7569 0
-6874 -7570 0
-6875 -7571 0
-6876 -7572 0
-6873 -7929 0
-6874 -7930 0
-6875 -7931 0
-6876 -7932 0
-6873 -7945 0
-6874 -7946 0
-6875 -7947 0
-6876 -7948 0
-6877 -6881 0
-6878 -6882 0
-6879 -6883 0
-6880 -6884 0
-6877 -7021 0
-6878 -7022 0
-6879 -7023 0
-6880 -7024 0
-6877 -7169 0
-6878 -7170 0
-6879 -7171 0
-6880 -7172 0
-6877 -7273 0
-6878 -7274 0
-6879 -7275 0
-6880 -7276 0
-6877 -7441 0
-6878 -7442 0
-6879 -7443 0
-6880 -7444 0
-6877 -7689 0
-6878 -7690 0
-6879 -7691 0
-6880 -7692 0
-6877 -7953 0
-6878 -7954 0
-6879 -7955 0
-6880 -7956 0
-6881 -7021 0
-6882 -7022 0
-6883 -7023 0
-6884 -7024 0
-6881 -7445 0
-6882 -7446 0
-6883 -7447 0
-6884 -7448 0
-6881 -7589 0
-6882 -7590 0
-6883 -7591 0
-6884 -7592 0
-6881 -7693 0
-6882 -7694 0
-6883 -7695 0
-6884 -7696 0
-6881 -7957 0
-6882 -7958 0
-6883 -7959 0
-6884 -7960 0
-6885 -7029 0
-6886 -7030 0
-6887 -7031 0
-6888 -7032 0
-6885 -7033 0
-6886 -7034 0
-6887 -7035 0
-6888 -7036 0
-6885 -7449 0
-6886 -7450 0
-6887 -7451 0
-6888 -7452 0
-6885 -7693 0
-6886 -7694 0
-6887 -7695 0
-6888 -7696 0
-6889 -6901 0
-6890 -6902 0
-6891 -6903 0
-6892 -6904 0
-6889 -6921 0
-6890 -6922 0
-6891 -6923 0
-6892 -6924 0
-6889 -7313 0
-6890 -7314 0
-6891 -7315 0
-6892 -7316 0
-6893 -6901 0
-6894 -6902 0
-6895 -6903 0
-6896 -6904 0
-6893 -6909 0
-6894 -6910 0
-6895 -6911 0
-6896 -6912 0
-6893 -6937 0
-6894 -6938 0
-6895 -6939 0
-6896 -6940 0
-6893 -7921 0
-6894 -7922 0
-6895 -7923 0
-6896 -7924 0
-6897 -6901 0
-6898 -6902 0
-6899 -6903 0
-6900 -6904 0
-6897 -6913 0
-6898 -6914 0
-6899 -6915 0
-6900 -6916 0
-6897 -6965 0
-6898 -6966 0
-6899 -6967 0
-6900 -6968 0
-6897 -7309 0
-6898 -7310 0
-6899 -7311 0
-6900 -7312 0
-6897 -7857 0
-6898 -7858 0
-6899 -7859 0
-6900 -7860 0
-6897 -7925 0
-6898 -7926 0
-6899 -7927 0
-6900 -7928 0
-6901 -6905 0
-6902 -6906 0
-6903 -6907 0
-6904 -6908 0
-6901 -6917 0
-6902 -6918 0
-6903 -6919 0
-6904 -6920 0
-6901 -6941 0
-6902 -6942 0
-6903 -6943 0
-6904 -6944 0
-6901 -6945 0
-6902 -6946 0
-6903 -6947 0
-6904 -6948 0
-6901 -6965 0
-6902 -6966 0
-6903 -6967 0
-6904 -6968 0
-6901 -7185 0
-6902 -7186 0
-6903 -7187 0
-6904 -7188 0
-6901 -7285 0
-6902 -7286 0
-6903 -7287 0
-6904 -7288 0
-6901 -7921 0
-6902 -7922 0
-6903 -7923 0
-6904 -7924 0
-6901 -7929 0
-6902 -7930 0
-6903 -7931 0
-6904 -7932 0
-6905 -6949 0
-6906 -6950 0
-6907 -6951 0
-6908 -6952 0
-6905 -6953 0
-6906 -6954 0
-6907 -6955 0
-6908 -6956 0
-6905 -6969 0
-6906 -6970 0
-6907 -6971 0
-6908 -6972 0
-6905 -7433 0
-6906 -7434 0
-6907 -7435 0
-6908 -7436 0
-6905 -7601 0
-6906 -7602 0
-6907 -7603 0
-6908 -7604 0
-6905 -7933 0
-6906 -7934 0
-6907 -7935 0
-6908 -7936 0
-6909 -6917 0
-6910 -6918 0
-6911 -6919 0
-6912 -6920 0
-6909 -7213 0
-6910 -7214 0
-6911 -7215 0
-6912 -7216 0
-6909 -7437 0
-6910 -7438 0
-6911 -7439 0
-6912 -7440 0
-6909 -7937 0
-6910 -7938 0
-6911 -7939 0
-6912 -7940 0
-6913 -6917 0
-6914 -6918 0
-6915 -6919 0
-6916 -6920 0
-6913 -7065 0
-6914 -7066 0
-6915 -7067 0
-6916 -7068 0
-6913 -7217 0
-6914 -7218 0
-6915 -7219 0
-6916 -7220 0
-6913 -7861 0
-6914 -7862 0
-6915 -7863 0
-6916 -7864 0
-6913 -7941 0
-6914 -7942 0
-6915 -7943 0
-6916 -7944 0
-6917 -7221 0
-6918 -7222 0
-6919 -7223 0
-6920 -7224 0
-6917 -7441 0
-6918 -7442 0
-6919 -7443 0
-6920 -7444 0
-6917 -7937 0
-6918 -7938 0
-6919 -7939 0
-6920 -7940 0
-6917 -7945 0
-6918 -7946 0
-6919 -7947 0
-6920 -7948 0
-6921 -6933 0
-6922 -6934 0
-6923 -6935 0
-6924 -6936 0
-6921 -6945 0
-6922 -6946 0
-6923 -6947 0
-6924 -6948 0
-6921 -6957 0
-6922 -6958 0
-6923 -6959 0
-6924 -6960 0
-6921 -7353 0
-6922 -7354 0
-6923 -7355 0
-6924 -7356 0
-6921 -7701 0
-6922 -7702 0
-6923 -7703 0
-6924 -7704 0
-6921 -7981 0
-6922 -7982 0
-6923 -7983 0
-6924 -7984 0
-6925 -6933 0
-6926 -6934 0
-6927 -6935 0
-6928 -6936 0
-6925 -6949 0
-6926 -6950 0
-6927 -6951 0
-6928 -6952 0
-6925 -6989 0
-6926 -6990 0
-6927 -6991 0
-6928 -6992 0
-6925 -7541 0
-6926 -7542 0
-6927 -7543 0
-6928 -7544 0
-6929 -6933 0
-6930 -6934 0
-6931 -6935 0
-6932 -6936 0
-6929 -6961 0
-6930 -6962 0
-6931 -6963 0
-6932 -6964 0
-6929 -6993 0
-6930 -6994 0
-6931 -6995 0
-6932 -6996 0
-6929 -7237 0
-6930 -7238 0
-6931 -7239 0
-6932 -7240 0
-6929 -7361 0
-6930 -7362 0
-6931 -7363 0
-6932 -7364 0
-6929 -7613 0
-6930 -7614 0
-6931 -7615 0
-6932 -7616 0
-6933 -6953 0
-6934 -6954 0
-6935 -6955 0
-6936 -6956 0
-6933 -6961 0
-6934 -6962 0
-6935 -6963 0
-6936 -6964 0
-6933 -6981 0
-6934 -6982 0
-6935 -6983 0
-6936 -6984 0
-6933 -6997 0
-6934 -6998 0
-6935 -6999 0
-6936 -7000 0
-6933 -7285 0
-6934 -7286 0
-6935 -7287 0
-6936 -7288 0
-6933 -7345 0
-6934 -7346 0
-6935 -7347 0
-6936 -7348 0
-6933 -7465 0
-6934 -7466 0
-6935 -7467 0
-6936 -7468 0
-6933 -7617 0
-6934 -7618 0
-6935 -7619 0
-6936 -7620 0
-6937 -6945 0
-6938 -6946 0
-6939 -6947 0
-6940 -6948 0
-6937 -7705 0
-6938 -7706 0
-6939 -7707 0
-6940 -7708 0
-6941 -6945 0
-6942 -6946 0
-6943 -6947 0
-6944 -6948 0
-6941 -6949 0
-6942 -6950 0
-6943 -6951 0
-6944 -6952 0
-6941 -7293 0
-6942 -7294 0
-6943 -7295 0
-6944 -7296 0
-6941 -7709 0
-6942 -7710 0
-6943 -7711 0
-6944 -7712 0
-6941 -7985 0
-6942 -7986 0
-6943 -7987 0
-6944 -7988 0
-6945 -6953 0
-6946 -6954 0
-6947 -6955 0
-6948 -6956 0
-6945 -7201 0
-6946 -7202 0
-6947 -7203 0
-6948 -7204 0
-6945 -7357 0
-6946 -7358 0
-6947 -7359 0
-6948 -7360 0
-6945 -7713 0
-6946 -7714 0
-6947 -7715 0
-6948 -7716 0
-6945 -7949 0
-6946 -7950 0
-6947 -7951 0
-6948 -7952 0
-6949 -6953 0
-6950 -6954 0
-6951 -6955 0
-6952 -6956 0
-6949 -7477 0
-6950 -7478 0
-6951 -7479 0
-6952 -7480 0
-6953 -7249 0
-6954 -7250 0
-6955 -7251 0
-6956 -7252 0
-6953 -7365 0
-6954 -7366 0
-6955 -7367 0
-6956 -7368 0
-6953 -7485 0
-6954 -7486 0
-6955 -7487 0
-6956 -7488 0
-6953 -7865 0
-6954 -7866 0
-6955 -7867 0
-6956 -7868 0
-6957 -7369 0
-6958 -7370 0
-6959 -7371 0
-6960 -7372 0
-6961 -7013 0
-6962 -7014 0
-6963 -7015 0
-6964 -7016 0
-6961 -7021 0
-6962 -7022 0
-6963 -7023 0
-6964 -7024 0
-6961 -7289 0
-6962 -7290 0
-6963 -7291 0
-6964 -7292 0
-6961 -7373 0
-6962 -7374 0
-6963 -7375 0
-6964 -7376 0
-6961 -7501 0
-6962 -7502 0
-6963 -7503 0
-6964 -7504 0
-6961 -7717 0
-6962 -7718 0
-6963 -7719 0
-6964 -7720 0
-6961 -7869 0
-6962 -7870 0
-6963 -7871 0
-6964 -7872 0
-6965 -6969 0
-6966 -6970 0
-6967 -6971 0
-6968 -6972 0
-6965 -7049 0
-6966 -7050 0
-6967 -7051 0
-6968 -7052 0
-6965 -7209 0
-6966 -7210 0
-6967 -7211 0
-6968 -7212 0
-6965 -7321 0
-6966 -7322 0
-6967 -7323 0
-6968 -7324 0
-6965 -7881 0
-6966 -7882 0
-6967 -7883 0
-6968 -7884 0
-6965 -7953 0
-6966 -7954 0
-6967 -7955 0
-6968 -7956 0
-6969 -7049 0
-6970 -7050 0
-6971 -7051 0
-6972 -7052 0
-6969 -7957 0
-6970 -7958 0
-6971 -7959 0
-6972 -7960 0
-6973 -6977 0
-6974 -6978 0
-6975 -6979 0
-6976 -6980 0
-6973 -6985 0
-6974 -6986 0
-6975 -6987 0
-6976 -6988 0
-6973 -7029 0
-6974 -7030 0
-6975 -7031 0
-6976 -7032 0
-6973 -7505 0
-6974 -7506 0
-6975 -7507 0
-6976 -7508 0
-6973 -7725 0
-6974 -7726 0
-6975 -7727 0
-6976 -7728 0
-6973 -7921 0
-6974 -7922 0
-6975 -7923 0
-6976 -7924 0
-6977 -7001 0
-6978 -7002 0
-6979 -7003 0
-6980 -7004 0
-6977 -7037 0
-6978 -7038 0
-6979 -7039 0
-6980 -7040 0
-6977 -7509 0
-6978 -7510 0
-6979 -7511 0
-6980 -7512 0
-6977 -7929 0
-6978 -7930 0
-6979 -7931 0
-6980 -7932 0
-6981 -6997 0
-6982 -6998 0
-6983 -6999 0
-6984 -7000 0
-6981 -7013 0
-6982 -7014 0
-6983 -7015 0
-6984 -7016 0
-6981 -7321 0
-6982 -7322 0
-6983 -7323 0
-6984 -7324 0
-6981 -7521 0
-6982 -7522 0
-6983 -7523 0
-6984 -7524 0
-6981 -7673 0
-6982 -7674 0
-6983 -7675 0
-6984 -7676 0
-6985 -6989 0
-6986 -6990 0
-6987 -6991 0
-6988 -6992 0
-6985 -6993 0
-6986 -6994 0
-6987 -6995 0
-6988 -6996 0
-6985 -7001 0
-6986 -7002 0
-6987 -7003 0
-6988 -7004 0
-6985 -7009 0
-6986 -7010 0
-6987 -7011 0
-6988 -7012 0
-6985 -7017 0
-6986 -7018 0
-6987 -7019 0
-6988 -7020 0
-6985 -7041 0
-6986 -7042 0
-6987 -7043 0
-6988 -7044 0
-6985 -7345 0
-6986 -7346 0
-6987 -7347 0
-6988 -7348 0
-6985 -7901 0
-6986 -7902 0
-6987 -7903 0
-6988 -7904 0
-6985 -7937 0
-6986 -7938 0
-6987 -7939 0
-6988 -7940 0
-6989 -6997 0
-6990 -6998 0
-6991 -6999 0
-6992 -7000 0
-6989 -7005 0
-6990 -7006 0
-6991 -7007 0
-6992 -7008 0
-6989 -7017 0
-6990 -7018 0
-6991 -7019 0
-6992 -7020 0
-6989 -7257 0
-6990 -7258 0
-6991 -7259 0
-6992 -7260 0
-6989 -7553 0
-6990 -7554 0
-6991 -7555 0
-6992 -7556 0
-6989 -7657 0
-6990 -7658 0
-6991 -7659 0
-6992 -7660 0
-6993 -6997 0
-6994 -6998 0
-6995 -6999 0
-6996 -7000 0
-6993 -7021 0
-6994 -7022 0
-6995 -7023 0
-6996 -7024 0
-6993 -7041 0
-6994 -7042 0
-6995 -7043 0
-6996 -7044 0
-6993 -7409 0
-6994 -7410 0
-6995 -7411 0
-6996 -7412 0
-6993 -7525 0
-6994 -7526 0
-6995 -7527 0
-6996 -7528 0
-6993 -7733 0
-6994 -7734 0
-6995 -7735 0
-6996 -7736 0
-6997 -7021 0
-6998 -7022 0
-6999 -7023 0
-7000 -7024 0
-6997 -7261 0
-6998 -7262 0
-6999 -7263 0
-7000 -7264 0
-6997 -7529 0
-6998 -7530 0
-6999 -7531 0
-7000 -7532 0
-6997 -7661 0
-6998 -7662 0
-6999 -7663 0
-7000 -7664 0
-6997 -7737 0
-6998 -7738 0
-6999 -7739 0
-7000 -7740 0
-7001 -7005 0
-7002 -7006 0
-7003 -7007 0
-7004 -7008 0
-7001 -7025 0
-7002 -7026 0
-7003 -7027 0
-7004 -7028 0
-7001 -7265 0
-7002 -7266 0
-7003 -7267 0
-7004 -7268 0
-7001 -7633 0
-7002 -7634 0
-7003 -7635 0
-7004 -7636 0
-7001 -7945 0
-7002 -7946 0
-7003 -7947 0
-7004 -7948 0
-7005 -7025 0
-7006 -7026 0
-7007 -7027 0
-7008 -7028 0
-7005 -7269 0
-7006 -7270 0
-7007 -7271 0
-7008 -7272 0
-7005 -7561 0
-7006 -7562 0
-7007 -7563 0
-7008 -7564 0
-7009 -7365 0
-7010 -7366 0
-7011 -7367 0
-7012 -7368 0
-7009 -7513 0
-7010 -7514 0
-7011 -7515 0
-7012 -7516 0
-7009 -7937 0
-7010 -7938 0
-7011 -7939 0
-7012 -7940 0
-7013 -7021 0
-7014 -7022 0
-7015 -7023 0
-7016 -7024 0
-7013 -7141 0
-7014 -7142 0
-7015 -7143 0
-7016 -7144 0
-7013 -7333 0
-7014 -7334 0
-7015 -7335 0
-7016 -7336 0
-7013 -7757 0
-7014 -7758 0
-7015 -7759 0
-7016 -7760 0
-7017 -7021 0
-7018 -7022 0
-7019 -7023 0
-7020 -7024 0
-7017 -7025 0
-7018 -7026 0
-7019 -7027 0
-7020 -7028 0
-7017 -7045 0
-7018 -7046 0
-7019 -7047 0
-7020 -7048 0
-7017 -7377 0
-7018 -7378 0
-7019 -7379 0
-7020 -7380 0
-7017 -7677 0
-7018 -7678 0
-7019 -7679 0
-7020 -7680 0
-7017 -7761 0
-7018 -7762 0
-7019 -7763 0
-7020 -7764 0
-7021 -7045 0
-7022 -7046 0
-7023 -7047 0
-7024 -7048 0
-7021 -7145 0
-7022 -7146 0
-7023 -7147 0
-7024 -7148 0
-7021 -7337 0
-7022 -7338 0
-7023 -7339 0
-7024 -7340 0
-7021 -7533 0
-7022 -7534 0
-7023 -7535 0
-7024 -7536 0
-7021 -7681 0
-7022 -7682 0
-7023 -7683 0
-7024 -7684 0
-7021 -7769 0
-7022 -7770 0
-7023 -7771 0
-7024 -7772 0
-7021 -7961 0
-7022 -7962 0
-7023 -7963 0
-7024 -7964 0
-7025 -7565 0
-7026 -7566 0
-7027 -7567 0
-7028 -7568 0
-7025 -7645 0
-7026 -7646 0
-7027 -7647 0
-7028 -7648 0
-7029 -7033 0
-7030 -7034 0
-7031 -7035 0
-7032 -7036 0
-7029 -7037 0
-7030 -7038 0
-7031 -7039 0
-7032 -7040 0
-7029 -7041 0
-7030 -7042 0
-7031 -7043 0
-7032 -7044 0
-7029 -7537 0
-7030 -7538 0
-7031 -7539 0
-7032 -7540 0
-7029 -7769 0
-7030 -7770 0
-7031 -7771 0
-7032 -7772 0
-7033 -7341 0
-7034 -7342 0
-7035 -7343 0
-7036 -7344 0
-7033 -7541 0
-7034 -7542 0
-7035 -7543 0
-7036 -7544 0
-7033 -7781 0
-7034 -7782 0
-7035 -7783 0
-7036 -7784 0
-7037 -7785 0
-7038 -7786 0
-7039 -7787 0
-7040 -7788 0
-7037 -7949 0
-7038 -7950 0
-7039 -7951 0
-7040 -7952 0
-7041 -7045 0
-7042 -7046 0
-7043 -7047 0
-7044 -7048 0
-7041 -7357 0
-7042 -7358 0
-7043 -7359 0
-7044 -7360 0
-7041 -7653 0
-7042 -7654 0
-7043 -7655 0
-7044 -7656 0
-7041 -7793 0
-7042 -7794 0
-7043 -7795 0
-7044 -7796 0
-7045 -7181 0
-7046 -7182 0
-7047 -7183 0
-7048 -7184 0
-7045 -7385 0
-7046 -7386 0
-7047 -7387 0
-7048 -7388 0
-7045 -7673 0
-7046 -7674 0
-7047 -7675 0
-7048 -7676 0
-7045 -7801 0
-7046 -7802 0
-7047 -7803 0
-7048 -7804 0
-7045 -7917 0
-7046 -7918 0
-7047 -7919 0
-7048 -7920 0
-7049 -7053 0
-7050 -7054 0
-7051 -7055 0
-7052 -7056 0
-7049 -7329 0
-7050 -7330 0
-7051 -7331 0
-7052 -7332 0
-7049 -7817 0
-7050 -7818 0
-7051 -7819 0
-7052 -7820 0
-7049 -7961 0
-7050 -7962 0
-7051 -7963 0
-7052 -7964 0
-7053 -7061 0
-7054 -7062 0
-7055 -7063 0
-7056 -7064 0
-7053 -7333 0
-7054 -7334 0
-7055 -7335 0
-7056 -7336 0
-7053 -7821 0
-7054 -7822 0
-7055 -7823 0
-7056 -7824 0
-7053 -7961 0
-7054 -7962 0
-7055 -7963 0
-7056 -7964 0
-7057 -7061 0
-7058 -7062 0
-7059 -7063 0
-7060 -7064 0
-7057 -7349 0
-7058 -7350 0
-7059 -7351 0
-7060 -7352 0
-7057 -7833 0
-7058 -7834 0
-7059 -7835 0
-7060 -7836 0
-7061 -7381 0
-7062 -7382 0
-7063 -7383 0
-7064 -7384 0
-7065 -7069 0
-7066 -7070 0
-7067 -7071 0
-7068 -7072 0
-7065 -7073 0
-7066 -7074 0
-7067 -7075 0
-7068 -7076 0
-7065 -7077 0
-7066 -7078 0
-7067 -7079 0
-7068 -7080 0
-7065 -7185 0
-7066 -7186 0
-7067 -7187 0
-7068 -7188 0
-7065 -7313 0
-7066 -7314 0
-7067 -7315 0
-7068 -7316 0
-7065 -7597 0
-7066 -7598 0
-7067 -7599 0
-7068 -7600 0
-7065 -7965 0
-7066 -7966 0
-7067 -7967 0
-7068 -7968 0
-7069 -7077 0
-7070 -7078 0
-7071 -7079 0
-7072 -7080 0
-7069 -7189 0
-7070 -7190 0
-7071 -7191 0
-7072 -7192 0
-7069 -7321 0
-7070 -7322 0
-7071 -7323 0
-7072 -7324 0
-7069 -7429 0
-7070 -7430 0
-7071 -7431 0
-7072 -7432 0
-7069 -7705 0
-7070 -7706 0
-7071 -7707 0
-7072 -7708 0
-7069 -7969 0
-7070 -7970 0
-7071 -7971 0
-7072 -7972 0
-7073 -7093 0
-7074 -7094 0
-7075 -7095 0
-7076 -7096 0
-7073 -7193 0
-7074 -7194 0
-7075 -7195 0
-7076 -7196 0
-7073 -7601 0
-7074 -7602 0
-7075 -7603 0
-7076 -7604 0
-7073 -7709 0
-7074 -7710 0
-7075 -7711 0
-7076 -7712 0
-7073 -7965 0
-7074 -7966 0
-7075 -7967 0
-7076 -7968 0
-7077 -7201 0
-7078 -7202 0
-7079 -7203 0
-7080 -7204 0
-7077 -7353 0
-7078 -7354 0
-7079 -7355 0
-7080 -7356 0
-7077 -7973 0
-7078 -7974 0
-7079 -7975 0
-7080 -7976 0
-7081 -7085 0
-7082 -7086 0
-7083 -7087 0
-7084 -7088 0
-7081 -7133 0
-7082 -7134 0
-7083 -7135 0
-7084 -7136 0
-7081 -7137 0
-7082 -7138 0
-7083 -7139 0
-7084 -7140 0
-7081 -7477 0
-7082 -7478 0
-7083 -7479 0
-7084 -7480 0
-7081 -7573 0
-7082 -7574 0
-7083 -7575 0
-7084 -7576 0
-7081 -7977 0
-7082 -7978 0
-7083 -7979 0
-7084 -7980 0
-7085 -7089 0
-7086 -7090 0
-7087 -7091 0
-7088 -7092 0
-7085 -7169 0
-7086 -7170 0
-7087 -7171 0
-7088 -7172 0
-7085 -7369 0
-7086 -7370 0
-7087 -7371 0
-7088 -7372 0
-7085 -7497 0
-7086 -7498 0
-7087 -7499 0
-7088 -7500 0
-7085 -7613 0
-7086 -7614 0
-7087 -7615 0
-7088 -7616 0
-7085 -7697 0
-7086 -7698 0
-7087 -7699 0
-7088 -7700 0
-7085 -7977 0
-7086 -7978 0
-7087 -7979 0
-7088 -7980 0
-7089 -7385 0
-7090 -7386 0
-7091 -7387 0
-7092 -7388 0
-7089 -7705 0
-7090 -7706 0
-7091 -7707 0
-7092 -7708 0
-7089 -7937 0
-7090 -7938 0
-7091 -7939 0
-7092 -7940 0
-7089 -7985 0
-7090 -7986 0
-7091 -7987 0
-7092 -7988 0
-7093 -7221 0
-7094 -7222 0
-7095 -7223 0
-7096 -7224 0
-7093 -7229 0
-7094 -7230 0
-7095 -7231 0
-7096 -7232 0
-7093 -7637 0
-7094 -7638 0
-7095 -7639 0
-7096 -7640 0
-7097 -7101 0
-7098 -7102 0
-7099 -7103 0
-7100 -7104 0
-7097 -7105 0
-7098 -7106 0
-7099 -7107 0
-7100 -7108 0
-7097 -7109 0
-7098 -7110 0
-7099 -7111 0
-7100 -7112 0
-7097 -7133 0
-7098 -7134 0
-7099 -7135 0
-7100 -7136 0
-7097 -7233 0
-7098 -7234 0
-7099 -7235 0
-7100 -7236 0
-7097 -7845 0
-7098 -7846 0
-7099 -7847 0
-7100 -7848 0
-7101 -7113 0
-7102 -7114 0
-7103 -7115 0
-7104 -7116 0
-7101 -7133 0
-7102 -7134 0
-7103 -7135 0
-7104 -7136 0
-7101 -8005 0
-7102 -8006 0
-7103 -8007 0
-7104 -8008 0
-7105 -7117 0
-7106 -7118 0
-7107 -7119 0
-7108 -7120 0
-7105 -7141 0
-7106 -7142 0
-7107 -7143 0
-7108 -7144 0
-7105 -7233 0
-7106 -7234 0
-7107 -7235 0
-7108 -7236 0
-7105 -7421 0
-7106 -7422 0
-7107 -7423 0
-7108 -7424 0
-7105 -7749 0
-7106 -7750 0
-7107 -7751 0
-7108 -7752 0
-7109 -7113 0
-7110 -7114 0
-7111 -7115 0
-7112 -7116 0
-7109 -7117 0
-7110 -7118 0
-7111 -7119 0
-7112 -7120 0
-7109 -7125 0
-7110 -7126 0
-7111 -7127 0
-7112 -7128 0
-7109 -7149 0
-7110 -7150 0
-7111 -7151 0
-7112 -7152 0
-7109 -7237 0
-7110 -7238 0
-7111 -7239 0
-7112 -7240 0
-7109 -7753 0
-7110 -7754 0
-7111 -7755 0
-7112 -7756 0
-7113 -7149 0
-7114 -7150 0
-7115 -7151 0
-7116 -7152 0
-7113 -8013 0
-7114 -8014 0
-7115 -8015 0
-7116 -8016 0
-7117 -7121 0
-7118 -7122 0
-7119 -7123 0
-7120 -7124 0
-7117 -7129 0
-7118 -7130 0
-7119 -7131 0
-7120 -7132 0
-7117 -7157 0
-7118 -7158 0
-7119 -7159 0
-7120 -7160 0
-7117 -7177 0
-7118 -7178 0
-7119 -7179 0
-7120 -7180 0
-7117 -7237 0
-7118 -7238 0
-7119 -7239 0
-7120 -7240 0
-7117 -7425 0
-7118 -7426 0
-7119 -7427 0
-7120 -7428 0
-7117 -7593 0
-7118 -7594 0
-7119 -7595 0
-7120 -7596 0
-7117 -7769 0
-7118 -7770 0
-7119 -7771 0
-7120 -7772 0
-7117 -7969 0
-7118 -7970 0
-7119 -7971 0
-7120 -7972 0
-7121 -7161 0
-7122 -7162 0
-7123 -7163 0
-7124 -7164 0
-7121 -7345 0
-7122 -7346 0
-7123 -7347 0
-7124 -7348 0
-7121 -7777 0
-7122 -7778 0
-7123 -7779 0
-7124 -7780 0
-7125 -7129 0
-7126 -7130 0
-7127 -7131 0
-7128 -7132 0
-7125 -7245 0
-7126 -7246 0
-7127 -7247 0
-7128 -7248 0
-7125 -7349 0
-7126 -7350 0
-7127 -7351 0
-7128 -7352 0
-7125 -7461 0
-7126 -7462 0
-7127 -7463 0
-7128 -7464 0
-7125 -7853 0
-7126 -7854 0
-7127 -7855 0
-7128 -7856 0
-7125 -7949 0
-7126 -7950 0
-7127 -7951 0
-7128 -7952 0
-7129 -7245 0
-7130 -7246 0
-7131 -7247 0
-7132 -7248 0
-7129 -7361 0
-7130 -7362 0
-7131 -7363 0
-7132 -7364 0
-7129 -7401 0
-7130 -7402 0
-7131 -7403 0
-7132 -7404 0
-7129 -7601 0
-7130 -7602 0
-7131 -7603 0
-7132 -7604 0
-7129 -7789 0
-7130 -7790 0
-7131 -7791 0
-7132 -7792 0
-7129 -7969 0
-7130 -7970 0
-7131 -7971 0
-7132 -7972 0
-7133 -7137 0
-7134 -7138 0
-7135 -7139 0
-7136 -7140 0
-7133 -7141 0
-7134 -7142 0
-7135 -7143 0
-7136 -7144 0
-7133 -7149 0
-7134 -7150 0
-7135 -7151 0
-7136 -7152 0
-7133 -7165 0
-7134 -7166 0
-7135 -7167 0
-7136 -7168 0
-7133 -7169 0
-7134 -7170 0
-7135 -7171 0
-7136 -7172 0
-7133 -7465 0
-7134 -7466 0
-7135 -7467 0
-7136 -7468 0
-7133 -7993 0
-7134 -7994 0
-7135 -7995 0
-7136 -7996 0
-7133 -8017 0
-7134 -8018 0
-7135 -8019 0
-7136 -8020 0
-7137 -7145 0
-7138 -7146 0
-7139 -7147 0
-7140 -7148 0
-7137 -7153 0
-7138 -7154 0
-7139 -7155 0
-7140 -7156 0
-7137 -7469 0
-7138 -7470 0
-7139 -7471 0
-7140 -7472 0
-7137 -7753 0
-7138 -7754 0
-7139 -7755 0
-7140 -7756 0
-7137 -7997 0
-7138 -7998 0
-7139 -7999 0
-7140 -8000 0
-7141 -7145 0
-7142 -7146 0
-7143 -7147 0
-7144 -7148 0
-7141 -7157 0
-7142 -7158 0
-7143 -7159 0
-7144 -7160 0
-7141 -7261 0
-7142 -7262 0
-7143 -7263 0
-7144 -7264 0
-7141 -7433 0
-7142 -7434 0
-7143 -7435 0
-7144 -7436 0
-7141 -7757 0
-7142 -7758 0
-7143 -7759 0
-7144 -7760 0
-7145 -7161 0
-7146 -7162 0
-7147 -7163 0
-7148 -7164 0
-7145 -7181 0
-7146 -7182 0
-7147 -7183 0
-7148 -7184 0
-7145 -7605 0
-7146 -7606 0
-7147 -7607 0
-7148 -7608 0
-7145 -7769 0
-7146 -7770 0
-7147 -7771 0
-7148 -7772 0
-7149 -7153 0
-7150 -7154 0
-7151 -7155 0
-7152 -7156 0
-7149 -7157 0
-7150 -7158 0
-7151 -7159 0
-7152 -7160 0
-7149 -7173 0
-7150 -7174 0
-7151 -7175 0
-7152 -7176 0
-7149 -7665 0
-7150 -7666 0
-7151 -7667 0
-7152 -7668 0
-7149 -8001 0
-7150 -8002 0
-7151 -8003 0
-7152 -8004 0
-7153 -7161 0
-7154 -7162 0
-7155 -7163 0
-7156 -7164 0
-7153 -7369 0
-7154 -7370 0
-7155 -7371 0
-7156 -7372 0
-7157 -7161 0
-7158 -7162 0
-7159 -7163 0
-7160 -7164 0
-7157 -7273 0
-7158 -7274 0
-7159 -7275 0
-7160 -7276 0
-7161 -7377 0
-7162 -7378 0
-7163 -7379 0
-7164 -7380 0
-7161 -7785 0
-7162 -7786 0
-7163 -7787 0
-7164 -7788 0
-7165 -7485 0
-7166 -7486 0
-7167 -7487 0
-7168 -7488 0
-7165 -7513 0
-7166 -7514 0
-7167 -7515 0
-7168 -7516 0
-7169 -7173 0
-7170 -7174 0
-7171 -7175 0
-7172 -7176 0
-7169 -7257 0
-7170 -7258 0
-7171 -7259 0
-7172 -7260 0
-7169 -7441 0
-7170 -7442 0
-7171 -7443 0
-7172 -7444 0
-7169 -7669 0
-7170 -7670 0
-7171 -7671 0
-7172 -7672 0
-7169 -7993 0
-7170 -7994 0
-7171 -7995 0
-7172 -7996 0
-7173 -7269 0
-7174 -7270 0
-7175 -7271 0
-7176 -7272 0
-7173 -7681 0
-7174 -7682 0
-7175 -7683 0
-7176 -7684 0
-7173 -8001 0
-7174 -8002 0
-7175 -8003 0
-7176 -8004 0
-7177 -7457 0
-7178 -7458 0
-7179 -7459 0
-7180 -7460 0
-7177 -7801 0
-7178 -7802 0
-7179 -7803 0
-7180 -7804 0
-7177 -7973 0
-7178 -7974 0
-7179 -7975 0
-7180 -7976 0
-7181 -7801 0
-7182 -7802 0
-7183 -7803 0
-7184 -7804 0
-7185 -7189 0
-7186 -7190 0
-7187 -7191 0
-7188 -7192 0
-7185 -7193 0
-7186 -7194 0
-7187 -7195 0
-7188 -7196 0
-7185 -7201 0
-7186 -7202 0
-7187 -7203 0
-7188 -7204 0
-7185 -7209 0
-7186 -7210 0
-7187 -7211 0
-7188 -7212 0
-7185 -7213 0
-7186 -7214 0
-7187 -7215 0
-7188 -7216 0
-7185 -7977 0
-7186 -7978 0
-7187 -7979 0
-7188 -7980 0
-7189 -7197 0
-7190 -7198 0
-7191 -7199 0
-7192 -7200 0
-7189 -7201 0
-7190 -7202 0
-7191 -7203 0
-7192 -7204 0
-7189 -7525 0
-7190 -7526 0
-7191 -7527 0
-7192 -7528 0
-7189 -7981 0
-7190 -7982 0
-7191 -7983 0
-7192 -7984 0
-7193 -7197 0
-7194 -7198 0
-7195 -7199 0
-7196 -7200 0
-7193 -7205 0
-7194 -7206 0
-7195 -7207 0
-7196 -7208 0
-7193 -7217 0
-7194 -7218 0
-7195 -7219 0
-7196 -7220 0
-7193 -7221 0
-7194 -7222 0
-7195 -7223 0
-7196 -7224 0
-7193 -7977 0
-7194 -7978 0
-7195 -7979 0
-7196 -7980 0
-7197 -7205 0
-7198 -7206 0
-7199 -7207 0
-7200 -7208 0
-7197 -7285 0
-7198 -7286 0
-7199 -7287 0
-7200 -7288 0
-7197 -7981 0
-7198 -7982 0
-7199 -7983 0
-7200 -7984 0
-7201 -7205 0
-7202 -7206 0
-7203 -7207 0
-7204 -7208 0
-7201 -7861 0
-7202 -7862 0
-7203 -7863 0
-7204 -7864 0
-7201 -7989 0
-7202 -7990 0
-7203 -7991 0
-7204 -7992 0
-7205 -7293 0
-7206 -7294 0
-7207 -7295 0
-7208 -7296 0
-7205 -7989 0
-7206 -7990 0
-7207 -7991 0
-7208 -7992 0
-7209 -7213 0
-7210 -7214 0
-7211 -7215 0
-7212 -7216 0
-7209 -7217 0
-7210 -7218 0
-7211 -7219 0
-7212 -7220 0
-7209 -7521 0
-7210 -7522 0
-7211 -7523 0
-7212 -7524 0
-7209 -7993 0
-7210 -7994 0
-7211 -7995 0
-7212 -7996 0
-7213 -7221 0
-7214 -7222 0
-7215 -7223 0
-7216 -7224 0
-7213 -7437 0
-7214 -7438 0
-7215 -7439 0
-7216 -7440 0
-7213 -7529 0
-7214 -7530 0
-7215 -7531 0
-7216 -7532 0
-7213 -7997 0
-7214 -7998 0
-7215 -7999 0
-7216 -8000 0
-7217 -7221 0
-7218 -7222 0
-7219 -7223 0
-7220 -7224 0
-7217 -7313 0
-7218 -7314 0
-7219 -7315 0
-7220 -7316 0
-7217 -7993 0
-7218 -7994 0
-7219 -7995 0
-7220 -7996 0
-7217 -8001 0
-7218 -8002 0
-7219 -8003 0
-7220 -8004 0
-7221 -7229 0
-7222 -7230 0
-7223 -7231 0
-7224 -7232 0
-7221 -7441 0
-7222 -7442 0
-7223 -7443 0
-7224 -7444 0
-7221 -7997 0
-7222 -7998 0
-7223 -7999 0
-7224 -8000 0
-7225 -7229 0
-7226 -7230 0
-7227 -7231 0
-7228 -7232 0
-7225 -7253 0
-7226 -7254 0
-7227 -7255 0
-7228 -7256 0
-7225 -7641 0
-7226 -7642 0
-7227 -7643 0
-7228 -7644 0
-7229 -7445 0
-7230 -7446 0
-7231 -7447 0
-7232 -7448 0
-7229 -7645 0
-7230 -7646 0
-7231 -7647 0
-7232 -7648 0
-7229 -7833 0
-7230 -7834 0
-7231 -7835 0
-7232 -7836 0
-7233 -7237 0
-7234 -7238 0
-7235 -7239 0
-7236 -7240 0
-7233 -7549 0
-7234 -7550 0
-7235 -7551 0
-7236 -7552 0
-7233 -7653 0
-7234 -7654 0
-7235 -7655 0
-7236 -7656 0
-7233 -7869 0
-7234 -7870 0
-7235 -7871 0
-7236 -7872 0
-7237 -7245 0
-7238 -7246 0
-7239 -7247 0
-7240 -7248 0
-7237 -7557 0
-7238 -7558 0
-7239 -7559 0
-7240 -7560 0
-7237 -7661 0
-7238 -7662 0
-7239 -7663 0
-7240 -7664 0
-7237 -7837 0
-7238 -7838 0
-7239 -7839 0
-7240 -7840 0
-7237 -7873 0
-7238 -7874 0
-7239 -7875 0
-7240 -7876 0
-7237 -7981 0
-7238 -7982 0
-7239 -7983 0
-7240 -7984 0
-7241 -7245 0
-7242 -7246 0
-7243 -7247 0
-7244 -7248 0
-7241 -7357 0
-7242 -7358 0
-7243 -7359 0
-7244 -7360 0
-7241 -7473 0
-7242 -7474 0
-7243 -7475 0
-7244 -7476 0
-7241 -7545 0
-7242 -7546 0
-7243 -7547 0
-7244 -7548 0
-7241 -7817 0
-7242 -7818 0
-7243 -7819 0
-7244 -7820 0
-7241 -7977 0
-7242 -7978 0
-7243 -7979 0
-7244 -7980 0
-7241 -7985 0
-7242 -7986 0
-7243 -7987 0
-7244 -7988 0
-7245 -7249 0
-7246 -7250 0
-7247 -7251 0
-7248 -7252 0
-7245 -7253 0
-7246 -7254 0
-7247 -7255 0
-7248 -7256 0
-7245 -7341 0
-7246 -7342 0
-7247 -7343 0
-7248 -7344 0
-7245 -7413 0
-7246 -7414 0
-7247 -7415 0
-7248 -7416 0
-7245 -7481 0
-7246 -7482 0
-7247 -7483 0
-7248 -7484 0
-7245 -7665 0
-7246 -7666 0
-7247 -7667 0
-7248 -7668 0
-7245 -7893 0
-7246 -7894 0
-7247 -7895 0
-7248 -7896 0
-7245 -7981 0
-7246 -7982 0
-7247 -7983 0
-7248 -7984 0
-7249 -7485 0
-7250 -7486 0
-7251 -7487 0
-7252 -7488 0
-7249 -7561 0
-7250 -7562 0
-7251 -7563 0
-7252 -7564 0
-7253 -7365 0
-7254 -7366 0
-7255 -7367 0
-7256 -7368 0
-7253 -7681 0
-7254 -7682 0
-7255 -7683 0
-7256 -7684 0
-7253 -7829 0
-7254 -7830 0
-7255 -7831 0
-7256 -7832 0
-7257 -7261 0
-7258 -7262 0
-7259 -7263 0
-7260 -7264 0
-7257 -7269 0
-7258 -7270 0
-7259 -7271 0
-7260 -7272 0
-7257 -7277 0
-7258 -7278 0
-7259 -7279 0
-7260 -7280 0
-7257 -7749 0
-7258 -7750 0
-7259 -7751 0
-7260 -7752 0
-7261 -7273 0
-7262 -7274 0
-7263 -7275 0
-7264 -7276 0
-7261 -7569 0
-7262 -7570 0
-7263 -7571 0
-7264 -7572 0
-7261 -7697 0
-7262 -7698 0
-7263 -7699 0
-7264 -7700 0
-7261 -8005 0
-7262 -8006 0
-7263 -8007 0
-7264 -8008 0
-7265 -7269 0
-7266 -7270 0
-7267 -7271 0
-7268 -7272 0
-7265 -7373 0
-7266 -7374 0
-7267 -7375 0
-7268 -7376 0
-7265 -7765 0
-7266 -7766 0
-7267 -7767 0
-7268 -7768 0
-7265 -7845 0
-7266 -7846 0
-7267 -7847 0
-7268 -7848 0
-7269 -7273 0
-7270 -7274 0
-7271 -7275 0
-7272 -7276 0
-7269 -7281 0
-7270 -7282 0
-7271 -7283 0
-7272 -7284 0
-7269 -7369 0
-7270 -7370 0
-7271 -7371 0
-7272 -7372 0
-7269 -7377 0
-7270 -7378 0
-7271 -7379 0
-7272 -7380 0
-7269 -7769 0
-7270 -7770 0
-7271 -7771 0
-7272 -7772 0
-7269 -8009 0
-7270 -8010 0
-7271 -8011 0
-7272 -8012 0
-7273 -7701 0
-7274 -7702 0
-7275 -7703 0
-7276 -7704 0
-7273 -8013 0
-7274 -8014 0
-7275 -8015 0
-7276 -8016 0
-7277 -7281 0
-7278 -7282 0
-7279 -7283 0
-7280 -7284 0
-7277 -7581 0
-7278 -7582 0
-7279 -7583 0
-7280 -7584 0
-7281 -7385 0
-7282 -7386 0
-7283 -7387 0
-7284 -7388 0
-7281 -7393 0
-7282 -7394 0
-7283 -7395 0
-7284 -7396 0
-7281 -7497 0
-7282 -7498 0
-7283 -7499 0
-7284 -7500 0
-7281 -7709 0
-7282 -7710 0
-7283 -7711 0
-7284 -7712 0
-7281 -7789 0
-7282 -7790 0
-7283 -7791 0
-7284 -7792 0
-7285 -7289 0
-7286 -7290 0
-7287 -7291 0
-7288 -7292 0
-7285 -7293 0
-7286 -7294 0
-7287 -7295 0
-7288 -7296 0
-7285 -7321 0
-7286 -7322 0
-7287 -7323 0
-7288 -7324 0
-7289 -7297 0
-7290 -7298 0
-7291 -7299 0
-7292 -7300 0
-7289 -7333 0
-7290 -7334 0
-7291 -7335 0
-7292 -7336 0
-7289 -7337 0
-7290 -7338 0
-7291 -7339 0
-7292 -7340 0
-7289 -7713 0
-7290 -7714 0
-7291 -7715 0
-7292 -7716 0
-7293 -7297 0
-7294 -7298 0
-7295 -7299 0
-7296 -7300 0
-7293 -7353 0
-7294 -7354 0
-7295 -7355 0
-7296 -7356 0
-7297 -7381 0
-7298 -7382 0
-7299 -7383 0
-7300 -7384 0
-7297 -7385 0
-7298 -7386 0
-7299 -7387 0
-7300 -7388 0
-7297 -7857 0
-7298 -7858 0
-7299 -7859 0
-7300 -7860 0
-7297 -7977 0
-7298 -7978 0
-7299 -7979 0
-7300 -7980 0
-7301 -7305 0
-7302 -7306 0
-7303 -7307 0
-7304 -7308 0
-7301 -7317 0
-7302 -7318 0
-7303 -7319 0
-7304 -7320 0
-7301 -7329 0
-7302 -7330 0
-7303 -7331 0
-7304 -7332 0
-7305 -7321 0
-7306 -7322 0
-7307 -7323 0
-7308 -7324 0
-7305 -7329 0
-7306 -7330 0
-7307 -7331 0
-7308 -7332 0
-7305 -8005 0
-7306 -8006 0
-7307 -8007 0
-7308 -8008 0
-7309 -7313 0
-7310 -7314 0
-7311 -7315 0
-7312 -7316 0
-7309 -7317 0
-7310 -7318 0
-7311 -7319 0
-7312 -7320 0
-7309 -7349 0
-7310 -7350 0
-7311 -7351 0
-7312 -7352 0
-7309 -7593 0
-7310 -7594 0
-7311 -7595 0
-7312 -7596 0
-7309 -7977 0
-7310 -7978 0
-7311 -7979 0
-7312 -7980 0
-7313 -7321 0
-7314 -7322 0
-7315 -7323 0
-7316 -7324 0
-7313 -7353 0
-7314 -7354 0
-7315 -7355 0
-7316 -7356 0
-7313 -7817 0
-7314 -7818 0
-7315 -7819 0
-7316 -7820 0
-7313 -8009 0
-7314 -8010 0
-7315 -8011 0
-7316 -8012 0
-7317 -7321 0
-7318 -7322 0
-7319 -7323 0
-7320 -7324 0
-7317 -7333 0
-7318 -7334 0
-7319 -7335 0
-7320 -7336 0
-7317 -7349 0
-7318 -7350 0
-7319 -7351 0
-7320 -7352 0
-7317 -7421 0
-7318 -7422 0
-7319 -7423 0
-7320 -7424 0
-7317 -7877 0
-7318 -7878 0
-7319 -7879 0
-7320 -7880 0
-7317 -7981 0
-7318 -7982 0
-7319 -7983 0
-7320 -7984 0
-7321 -7325 0
-7322 -7326 0
-7323 -7327 0
-7324 -7328 0
-7321 -7333 0
-7322 -7334 0
-7323 -7335 0
-7324 -7336 0
-7321 -7353 0
-7322 -7354 0
-7323 -7355 0
-7324 -7356 0
-7321 -7521 0
-7322 -7522 0
-7323 -7523 0
-7324 -7524 0
-7321 -7633 0
-7322 -7634 0
-7323 -7635 0
-7324 -7636 0
-7321 -7881 0
-7322 -7882 0
-7323 -7883 0
-7324 -7884 0
-7321 -8005 0
-7322 -8006 0
-7323 -8007 0
-7324 -8008 0
-7321 -8013 0
-7322 -8014 0
-7323 -8015 0
-7324 -8016 0
-7325 -7829 0
-7326 -7830 0
-7327 -7831 0
-7328 -7832 0
-7329 -7333 0
-7330 -7334 0
-7331 -7335 0
-7332 -7336 0
-7329 -8017 0
-7330 -8018 0
-7331 -8019 0
-7332 -8020 0
-7333 -7337 0
-7334 -7338 0
-7335 -7339 0
-7336 -7340 0
-7333 -7381 0
-7334 -7382 0
-7335 -7383 0
-7336 -7384 0
-7333 -7433 0
-7334 -7434 0
-7335 -7435 0
-7336 -7436 0
-7333 -7641 0
-7334 -7642 0
-7335 -7643 0
-7336 -7644 0
-7333 -7925 0
-7334 -7926 0
-7335 -7927 0
-7336 -7928 0
-7333 -8017 0
-7334 -8018 0
-7335 -8019 0
-7336 -8020 0
-7337 -7385 0
-7338 -7386 0
-7339 -7387 0
-7340 -7388 0
-7337 -7533 0
-7338 -7534 0
-7339 -7535 0
-7340 -7536 0
-7337 -7889 0
-7338 -7890 0
-7339 -7891 0
-7340 -7892 0
-7337 -7929 0
-7338 -7930 0
-7339 -7931 0
-7340 -7932 0
-7341 -7365 0
-7342 -7366 0
-7343 -7367 0
-7344 -7368 0
-7341 -7397 0
-7342 -7398 0
-7343 -7399 0
-7344 -7400 0
-7341 -7541 0
-7342 -7542 0
-7343 -7543 0
-7344 -7544 0
-7341 -7741 0
-7342 -7742 0
-7343 -7743 0
-7344 -7744 0
-7341 -7933 0
-7342 -7934 0
-7343 -7935 0
-7344 -7936 0
-7345 -7365 0
-7346 -7366 0
-7347 -7367 0
-7348 -7368 0
-7345 -7373 0
-7346 -7374 0
-7347 -7375 0
-7348 -7376 0
-7345 -7377 0
-7346 -7378 0
-7347 -7379 0
-7348 -7380 0
-7345 -7745 0
-7346 -7746 0
-7347 -7747 0
-7348 -7748 0
-7345 -7901 0
-7346 -7902 0
-7347 -7903 0
-7348 -7904 0
-7349 -7353 0
-7350 -7354 0
-7351 -7355 0
-7352 -7356 0
-7349 -7357 0
-7350 -7358 0
-7351 -7359 0
-7352 -7360 0
-7349 -7361 0
-7350 -7362 0
-7351 -7363 0
-7352 -7364 0
-7349 -7381 0
-7350 -7382 0
-7351 -7383 0
-7352 -7384 0
-7349 -7405 0
-7350 -7406 0
-7351 -7407 0
-7352 -7408 0
-7349 -7413 0
-7350 -7414 0
-7351 -7415 0
-7352 -7416 0
-7349 -7449 0
-7350 -7450 0
-7351 -7451 0
-7352 -7452 0
-7349 -7941 0
-7350 -7942 0
-7351 -7943 0
-7352 -7944 0
-7349 -7989 0
-7350 -7990 0
-7351 -7991 0
-7352 -7992 0
-7353 -7381 0
-7354 -7382 0
-7355 -7383 0
-7356 -7384 0
-7353 -7657 0
-7354 -7658 0
-7355 -7659 0
-7356 -7660 0
-7357 -7365 0
-7358 -7366 0
-7359 -7367 0
-7360 -7368 0
-7357 -7385 0
-7358 -7386 0
-7359 -7387 0
-7360 -7388 0
-7357 -7405 0
-7358 -7406 0
-7359 -7407 0
-7360 -7408 0
-7357 -7417 0
-7358 -7418 0
-7359 -7419 0
-7360 -7420 0
-7357 -7753 0
-7358 -7754 0
-7359 -7755 0
-7360 -7756 0
-7357 -7945 0
-7358 -7946 0
-7359 -7947 0
-7360 -7948 0
-7361 -7365 0
-7362 -7366 0
-7363 -7367 0
-7364 -7368 0
-7361 -7409 0
-7362 -7410 0
-7363 -7411 0
-7364 -7412 0
-7361 -7413 0
-7362 -7414 0
-7363 -7415 0
-7364 -7416 0
-7361 -7557 0
-7362 -7558 0
-7363 -7559 0
-7364 -7560 0
-7361 -7601 0
-7362 -7602 0
-7363 -7603 0
-7364 -7604 0
-7361 -7757 0
-7362 -7758 0
-7363 -7759 0
-7364 -7760 0
-7361 -7909 0
-7362 -7910 0
-7363 -7911 0
-7364 -7912 0
-7365 -7389 0
-7366 -7390 0
-7367 -7391 0
-7368 -7392 0
-7365 -7393 0
-7366 -7394 0
-7367 -7395 0
-7368 -7396 0
-7365 -7409 0
-7366 -7410 0
-7367 -7411 0
-7368 -7412 0
-7365 -7417 0
-7366 -7418 0
-7367 -7419 0
-7368 -7420 0
-7365 -7561 0
-7366 -7562 0
-7367 -7563 0
-7368 -7564 0
-7365 -7577 0
-7366 -7578 0
-7367 -7579 0
-7368 -7580 0
-7365 -7769 0
-7366 -7770 0
-7367 -7771 0
-7368 -7772 0
-7365 -7865 0
-7366 -7866 0
-7367 -7867 0
-7368 -7868 0
-7369 -7377 0
-7370 -7378 0
-7371 -7379 0
-7372 -7380 0
-7369 -7385 0
-7370 -7386 0
-7371 -7387 0
-7372 -7388 0
-7369 -7837 0
-7370 -7838 0
-7371 -7839 0
-7372 -7840 0
-7373 -7377 0
-7374 -7378 0
-7375 -7379 0
-7376 -7380 0
-7373 -7389 0
-7374 -7390 0
-7375 -7391 0
-7376 -7392 0
-7373 -7793 0
-7374 -7794 0
-7375 -7795 0
-7376 -7796 0
-7373 -7869 0
-7374 -7870 0
-7375 -7871 0
-7376 -7872 0
-7377 -7393 0
-7378 -7394 0
-7379 -7395 0
-7380 -7396 0
-7377 -7841 0
-7378 -7842 0
-7379 -7843 0
-7380 -7844 0
-7377 -7905 0
-7378 -7906 0
-7379 -7907 0
-7380 -7908 0
-7381 -7385 0
-7382 -7386 0
-7383 -7387 0
-7384 -7388 0
-7381 -7477 0
-7382 -7478 0
-7383 -7479 0
-7384 -7480 0
-7381 -7621 0
-7382 -7622 0
-7383 -7623 0
-7384 -7624 0
-7381 -7677 0
-7382 -7678 0
-7383 -7679 0
-7384 -7680 0
-7381 -7993 0
-7382 -7994 0
-7383 -7995 0
-7384 -7996 0
-7385 -7393 0
-7386 -7394 0
-7387 -7395 0
-7388 -7396 0
-7385 -7629 0
-7386 -7630 0
-7387 -7631 0
-7388 -7632 0
-7385 -7881 0
-7386 -7882 0
-7387 -7883 0
-7388 -7884 0
-7385 -7997 0
-7386 -7998 0
-7387 -7999 0
-7388 -8000 0
-7389 -7393 0
-7390 -7394 0
-7391 -7395 0
-7392 -7396 0
-7389 -7565 0
-7390 -7566 0
-7391 -7567 0
-7392 -7568 0
-7389 -7797 0
-7390 -7798 0
-7391 -7799 0
-7392 -7800 0
-7389 -7885 0
-7390 -7886 0
-7391 -7887 0
-7392 -7888 0
-7393 -7913 0
-7394 -7914 0
-7395 -7915 0
-7396 -7916 0
-7397 -7401 0
-7398 -7402 0
-7399 -7403 0
-7400 -7404 0
-7397 -7409 0
-7398 -7410 0
-7399 -7411 0
-7400 -7412 0
-7397 -7549 0
-7398 -7550 0
-7399 -7551 0
-7400 -7552 0
-7397 -7817 0
-7398 -7818 0
-7399 -7819 0
-7400 -7820 0
-7397 -7957 0
-7398 -7958 0
-7399 -7959 0
-7400 -7960 0
-7397 -8005 0
-7398 -8006 0
-7399 -8007 0
-7400 -8008 0
-7401 -7557 0
-7402 -7558 0
-7403 -7559 0
-7404 -7560 0
-7401 -7821 0
-7402 -7822 0
-7403 -7823 0
-7404 -7824 0
-7401 -8013 0
-7402 -8014 0
-7403 -8015 0
-7404 -8016 0
-7405 -7409 0
-7406 -7410 0
-7407 -7411 0
-7408 -7412 0
-7405 -7505 0
-7406 -7506 0
-7407 -7507 0
-7408 -7508 0
-7405 -7661 0
-7406 -7662 0
-7407 -7663 0
-7408 -7664 0
-7409 -7637 0
-7410 -7638 0
-7411 -7639 0
-7412 -7640 0
-7409 -7809 0
-7410 -7810 0
-7411 -7811 0
-7412 -7812 0
-7409 -7825 0
-7410 -7826 0
-7411 -7827 0
-7412 -7828 0
-7413 -7417 0
-7414 -7418 0
-7415 -7419 0
-7416 -7420 0
-7413 -7541 0
-7414 -7542 0
-7415 -7543 0
-7416 -7544 0
-7417 -7613 0
-7418 -7614 0
-7419 -7615 0
-7420 -7616 0
-7417 -7837 0
-7418 -7838 0
-7419 -7839 0
-7420 -7840 0
-7421 -7425 0
-7422 -7426 0
-7423 -7427 0
-7424 -7428 0
-7421 -7429 0
-7422 -7430 0
-7423 -7431 0
-7424 -7432 0
-7421 -7433 0
-7422 -7434 0
-7423 -7435 0
-7424 -7436 0
-7421 -7449 0
-7422 -7450 0
-7423 -7451 0
-7424 -7452 0
-7421 -7453 0
-7422 -7454 0
-7423 -7455 0
-7424 -7456 0
-7421 -7921 0
-7422 -7922 0
-7423 -7923 0
-7424 -7924 0
-7425 -7457 0
-7426 -7458 0
-7427 -7459 0
-7428 -7460 0
-7425 -7461 0
-7426 -7462 0
-7427 -7463 0
-7428 -7464 0
-7425 -7593 0
-7426 -7594 0
-7427 -7595 0
-7428 -7596 0
-7425 -7929 0
-7426 -7930 0
-7427 -7931 0
-7428 -7932 0
-7429 -7445 0
-7430 -7446 0
-7431 -7447 0
-7432 -7448 0
-7429 -7525 0
-7430 -7526 0
-7431 -7527 0
-7432 -7528 0
-7429 -7633 0
-7430 -7634 0
-7431 -7635 0
-7432 -7636 0
-7429 -7845 0
-7430 -7846 0
-7431 -7847 0
-7432 -7848 0
-7429 -7937 0
-7430 -7938 0
-7431 -7939 0
-7432 -7940 0
-7433 -7445 0
-7434 -7446 0
-7435 -7447 0
-7436 -7448 0
-7433 -7477 0
-7434 -7478 0
-7435 -7479 0
-7436 -7480 0
-7433 -7485 0
-7434 -7486 0
-7435 -7487 0
-7436 -7488 0
-7433 -7569 0
-7434 -7570 0
-7435 -7571 0
-7436 -7572 0
-7433 -7725 0
-7434 -7726 0
-7435 -7727 0
-7436 -7728 0
-7433 -7925 0
-7434 -7926 0
-7435 -7927 0
-7436 -7928 0
-7437 -7441 0
-7438 -7442 0
-7439 -7443 0
-7440 -7444 0
-7437 -7697 0
-7438 -7698 0
-7439 -7699 0
-7440 -7700 0
-7441 -7445 0
-7442 -7446 0
-7443 -7447 0
-7444 -7448 0
-7441 -7533 0
-7442 -7534 0
-7443 -7535 0
-7444 -7536 0
-7441 -7701 0
-7442 -7702 0
-7443 -7703 0
-7444 -7704 0
-7441 -7877 0
-7442 -7878 0
-7443 -7879 0
-7444 -7880 0
-7445 -7497 0
-7446 -7498 0
-7447 -7499 0
-7448 -7500 0
-7445 -7501 0
-7446 -7502 0
-7447 -7503 0
-7448 -7504 0
-7445 -7533 0
-7446 -7534 0
-7447 -7535 0
-7448 -7536 0
-7445 -7645 0
-7446 -7646 0
-7447 -7647 0
-7448 -7648 0
-7445 -7885 0
-7446 -7886 0
-7447 -7887 0
-7448 -7888 0
-7445 -7941 0
-7446 -7942 0
-7447 -7943 0
-7448 -7944 0
-7445 -7965 0
-7446 -7966 0
-7447 -7967 0
-7448 -7968 0
-7449 -7453 0
-7450 -7454 0
-7451 -7455 0
-7452 -7456 0
-7449 -7457 0
-7450 -7458 0
-7451 -7459 0
-7452 -7460 0
-7449 -7473 0
-7450 -7474 0
-7451 -7475 0
-7452 -7476 0
-7449 -7477 0
-7450 -7478 0
-7451 -7479 0
-7452 -7480 0
-7449 -7505 0
-7450 -7506 0
-7451 -7507 0
-7452 -7508 0
-7449 -7537 0
-7450 -7538 0
-7451 -7539 0
-7452 -7540 0
-7449 -7541 0
-7450 -7542 0
-7451 -7543 0
-7452 -7544 0
-7449 -7649 0
-7450 -7650 0
-7451 -7651 0
-7452 -7652 0
-7449 -7965 0
-7450 -7966 0
-7451 -7967 0
-7452 -7968 0
-7449 -8025 0
-7450 -8026 0
-7451 -8027 0
-7452 -8028 0
-7453 -7461 0
-7454 -7462 0
-7455 -7463 0
-7456 -7464 0
-7453 -7481 0
-7454 -7482 0
-7455 -7483 0
-7456 -7484 0
-7453 -7485 0
-7454 -7486 0
-7455 -7487 0
-7456 -7488 0
-7453 -7733 0
-7454 -7734 0
-7455 -7735 0
-7456 -7736 0
-7453 -7969 0
-7454 -7970 0
-7455 -7971 0
-7456 -7972 0
-7457 -7461 0
-7458 -7462 0
-7459 -7463 0
-7460 -7464 0
-7457 -7493 0
-7458 -7494 0
-7459 -7495 0
-7460 -7496 0
-7457 -7509 0
-7458 -7510 0
-7459 -7511 0
-7460 -7512 0
-7457 -7545 0
-7458 -7546 0
-7459 -7547 0
-7460 -7548 0
-7461 -7949 0
-7462 -7950 0
-7463 -7951 0
-7464 -7952 0
-7465 -7469 0
-7466 -7470 0
-7467 -7471 0
-7468 -7472 0
-7465 -7485 0
-7466 -7486 0
-7467 -7487 0
-7468 -7488 0
-7465 -7745 0
-7466 -7746 0
-7467 -7747 0
-7468 -7748 0
-7469 -7489 0
-7470 -7490 0
-7471 -7491 0
-7472 -7492 0
-7469 -7773 0
-7470 -7774 0
-7471 -7775 0
-7472 -7776 0
-7469 -8021 0
-7470 -8022 0
-7471 -8023 0
-7472 -8024 0
-7473 -7477 0
-7474 -7478 0
-7475 -7479 0
-7476 -7480 0
-7473 -7481 0
-7474 -7482 0
-7475 -7483 0
-7476 -7484 0
-7473 -7493 0
-7474 -7494 0
-7475 -7495 0
-7476 -7496 0
-7473 -7513 0
-7474 -7514 0
-7475 -7515 0
-7476 -7516 0
-7473 -7717 0
-7474 -7718 0
-7475 -7719 0
-7476 -7720 0
-7477 -7485 0
-7478 -7486 0
-7479 -7487 0
-7480 -7488 0
-7477 -7497 0
-7478 -7498 0
-7479 -7499 0
-7480 -7500 0
-7477 -7573 0
-7478 -7574 0
-7479 -7575 0
-7480 -7576 0
-7477 -7761 0
-7478 -7762 0
-7479 -7763 0
-7480 -7764 0
-7481 -7485 0
-7482 -7486 0
-7483 -7487 0
-7484 -7488 0
-7481 -7665 0
-7482 -7666 0
-7483 -7667 0
-7484 -7668 0
-7481 -7765 0
-7482 -7766 0
-7483 -7767 0
-7484 -7768 0
-7485 -7489 0
-7486 -7490 0
-7487 -7491 0
-7488 -7492 0
-7485 -7501 0
-7486 -7502 0
-7487 -7503 0
-7488 -7504 0
-7485 -7609 0
-7486 -7610 0
-7487 -7611 0
-7488 -7612 0
-7485 -7769 0
-7486 -7770 0
-7487 -7771 0
-7488 -7772 0
-7485 -7857 0
-7486 -7858 0
-7487 -7859 0
-7488 -7860 0
-7485 -8005 0
-7486 -8006 0
-7487 -8007 0
-7488 -8008 0
-7489 -7617 0
-7490 -7618 0
-7491 -7619 0
-7492 -7620 0
-7489 -7777 0
-7490 -7778 0
-7491 -7779 0
-7492 -7780 0
-7489 -7949 0
-7490 -7950 0
-7491 -7951 0
-7492 -7952 0
-7493 -7517 0
-7494 -7518 0
-7495 -7519 0
-7496 -7520 0
-7493 -7925 0
-7494 -7926 0
-7495 -7927 0
-7496 -7928 0
-7497 -7501 0
-7498 -7502 0
-7499 -7503 0
-7500 -7504 0
-7497 -7709 0
-7498 -7710 0
-7499 -7711 0
-7500 -7712 0
-7497 -7909 0
-7498 -7910 0
-7499 -7911 0
-7500 -7912 0
-7501 -7581 0
-7502 -7582 0
-7503 -7583 0
-7504 -7584 0
-7501 -7685 0
-7502 -7686 0
-7503 -7687 0
-7504 -7688 0
-7501 -7713 0
-7502 -7714 0
-7503 -7715 0
-7504 -7716 0
-7501 -7793 0
-7502 -7794 0
-7503 -7795 0
-7504 -7796 0
-7501 -7861 0
-7502 -7862 0
-7503 -7863 0
-7504 -7864 0
-7501 -7973 0
-7502 -7974 0
-7503 -7975 0
-7504 -7976 0
-7505 -7509 0
-7506 -7510 0
-7507 -7511 0
-7508 -7512 0
-7505 -7513 0
-7506 -7514 0
-7507 -7515 0
-7508 -7516 0
-7505 -7553 0
-7506 -7554 0
-7507 -7555 0
-7508 -7556 0
-7505 -7737 0
-7506 -7738 0
-7507 -7739 0
-7508 -7740 0
-7509 -7517 0
-7510 -7518 0
-7511 -7519 0
-7512 -7520 0
-7509 -7561 0
-7510 -7562 0
-7511 -7563 0
-7512 -7564 0
-7509 -7657 0
-7510 -7658 0
-7511 -7659 0
-7512 -7660 0
-7509 -7689 0
-7510 -7690 0
-7511 -7691 0
-7512 -7692 0
-7513 -7517 0
-7514 -7518 0
-7515 -7519 0
-7516 -7520 0
-7513 -7769 0
-7514 -7770 0
-7515 -7771 0
-7516 -7772 0
-7517 -7565 0
-7518 -7566 0
-7519 -7567 0
-7520 -7568 0
-7517 -7677 0
-7518 -7678 0
-7519 -7679 0
-7520 -7680 0
-7517 -7785 0
-7518 -7786 0
-7519 -7787 0
-7520 -7788 0
-7517 -7953 0
-7518 -7954 0
-7519 -7955 0
-7520 -7956 0
-7521 -7529 0
-7522 -7530 0
-7523 -7531 0
-7524 -7532 0
-7525 -7529 0
-7526 -7530 0
-7527 -7531 0
-7528 -7532 0
-7525 -7533 0
-7526 -7534 0
-7527 -7535 0
-7528 -7536 0
-7525 -7825 0
-7526 -7826 0
-7527 -7827 0
-7528 -7828 0
-7529 -7533 0
-7530 -7534 0
-7531 -7535 0
-7532 -7536 0
-7529 -7697 0
-7530 -7698 0
-7531 -7699 0
-7532 -7700 0
-7529 -8021 0
-7530 -8022 0
-7531 -8023 0
-7532 -8024 0
-7533 -7605 0
-7534 -7606 0
-7535 -7607 0
-7536 -7608 0
-7533 -7977 0
-7534 -7978 0
-7535 -7979 0
-7536 -7980 0
-7537 -7541 0
-7538 -7542 0
-7539 -7543 0
-7540 -7544 0
-7537 -7977 0
-7538 -7978 0
-7539 -7979 0
-7540 -7980 0
-7541 -7545 0
-7542 -7546 0
-7543 -7547 0
-7544 -7548 0
-7541 -7549 0
-7542 -7550 0
-7543 -7551 0
-7544 -7552 0
-7541 -7553 0
-7542 -7554 0
-7543 -7555 0
-7544 -7556 0
-7545 -7557 0
-7546 -7558 0
-7547 -7559 0
-7548 -7560 0
-7545 -7561 0
-7546 -7562 0
-7547 -7563 0
-7548 -7564 0
-7545 -7717 0
-7546 -7718 0
-7547 -7719 0
-7548 -7720 0
-7549 -7553 0
-7550 -7554 0
-7551 -7555 0
-7552 -7556 0
-7549 -7557 0
-7550 -7558 0
-7551 -7559 0
-7552 -7560 0
-7549 -7653 0
-7550 -7654 0
-7551 -7655 0
-7552 -7656 0
-7549 -7817 0
-7550 -7818 0
-7551 -7819 0
-7552 -7820 0
-7553 -7561 0
-7554 -7562 0
-7555 -7563 0
-7556 -7564 0
-7553 -7749 0
-7554 -7750 0
-7555 -7751 0
-7556 -7752 0
-7557 -7561 0
-7558 -7562 0
-7559 -7563 0
-7560 -7564 0
-7557 -7661 0
-7558 -7662 0
-7559 -7663 0
-7560 -7664 0
-7557 -7757 0
-7558 -7758 0
-7559 -7759 0
-7560 -7760 0
-7557 -7821 0
-7558 -7822 0
-7559 -7823 0
-7560 -7824 0
-7561 -7565 0
-7562 -7566 0
-7563 -7567 0
-7564 -7568 0
-7561 -7769 0
-7562 -7770 0
-7563 -7771 0
-7564 -7772 0
-7561 -8021 0
-7562 -8022 0
-7563 -8023 0
-7564 -8024 0
-7565 -7797 0
-7566 -7798 0
-7567 -7799 0
-7568 -7800 0
-7565 -7961 0
-7566 -7962 0
-7567 -7963 0
-7568 -7964 0
-7569 -7573 0
-7570 -7574 0
-7571 -7575 0
-7572 -7576 0
-7569 -7697 0
-7570 -7698 0
-7571 -7699 0
-7572 -7700 0
-7573 -7581 0
-7574 -7582 0
-7575 -7583 0
-7576 -7584 0
-7573 -7617 0
-7574 -7618 0
-7575 -7619 0
-7576 -7620 0
-7573 -8033 0
-7574 -8034 0
-7575 -8035 0
-7576 -8036 0
-7577 -7581 0
-7578 -7582 0
-7579 -7583 0
-7580 -7584 0
-7577 -7585 0
-7578 -7586 0
-7579 -7587 0
-7580 -7588 0
-7577 -7613 0
-7578 -7614 0
-7579 -7615 0
-7580 -7616 0
-7577 -7769 0
-7578 -7770 0
-7579 -7771 0
-7580 -7772 0
-7577 -8025 0
-7578 -8026 0
-7579 -8027 0
-7580 -8028 0
-7581 -7617 0
-7582 -7618 0
-7583 -7619 0
-7584 -7620 0
-7581 -7773 0
-7582 -7774 0
-7583 -7775 0
-7584 -7776 0
-7581 -7973 0
-7582 -7974 0
-7583 -7975 0
-7584 -7976 0
-7585 -7589 0
-7586 -7590 0
-7587 -7591 0
-7588 -7592 0
-7585 -7625 0
-7586 -7626 0
-7587 -7627 0
-7588 -7628 0
-7585 -7785 0
-7586 -7786 0
-7587 -7787 0
-7588 -7788 0
-7585 -7969 0
-7586 -7970 0
-7587 -7971 0
-7588 -7972 0
-7589 -7681 0
-7590 -7682 0
-7591 -7683 0
-7592 -7684 0
-7589 -7693 0
-7590 -7694 0
-7591 -7695 0
-7592 -7696 0
-7589 -7853 0
-7590 -7854 0
-7591 -7855 0
-7592 -7856 0
-7589 -7941 0
-7590 -7942 0
-7591 -7943 0
-7592 -7944 0
-7593 -7601 0
-7594 -7602 0
-7595 -7603 0
-7596 -7604 0
-7593 -7633 0
-7594 -7634 0
-7595 -7635 0
-7596 -7636 0
-7593 -7977 0
-7594 -7978 0
-7595 -7979 0
-7596 -7980 0
-7597 -7601 0
-7598 -7602 0
-7599 -7603 0
-7600 -7604 0
-7597 -7817 0
-7598 -7818 0
-7599 -7819 0
-7600 -7820 0
-7597 -8025 0
-7598 -8026 0
-7599 -8027 0
-7600 -8028 0
-7601 -7637 0
-7602 -7638 0
-7603 -7639 0
-7604 -7640 0
-7601 -7821 0
-7602 -7822 0
-7603 -7823 0
-7604 -7824 0
-7601 -7925 0
-7602 -7926 0
-7603 -7927 0
-7604 -7928 0
-7601 -7985 0
-7602 -7986 0
-7603 -7987 0
-7604 -7988 0
-7601 -8025 0
-7602 -8026 0
-7603 -8027 0
-7604 -8028 0
-7605 -7617 0
-7606 -7618 0
-7607 -7619 0
-7608 -7620 0
-7605 -7977 0
-7606 -7978 0
-7607 -7979 0
-7608 -7980 0
-7609 -7617 0
-7610 -7618 0
-7611 -7619 0
-7612 -7620 0
-7609 -7621 0
-7610 -7622 0
-7611 -7623 0
-7612 -7624 0
-7609 -7673 0
-7610 -7674 0
-7611 -7675 0
-7612 -7676 0
-7609 -7857 0
-7610 -7858 0
-7611 -7859 0
-7612 -7860 0
-7609 -7897 0
-7610 -7898 0
-7611 -7899 0
-7612 -7900 0
-7613 -7617 0
-7614 -7618 0
-7615 -7619 0
-7616 -7620 0
-7613 -7625 0
-7614 -7626 0
-7615 -7627 0
-7616 -7628 0
-7613 -7669 0
-7614 -7670 0
-7615 -7671 0
-7616 -7672 0
-7613 -7837 0
-7614 -7838 0
-7615 -7839 0
-7616 -7840 0
-7613 -7909 0
-7614 -7910 0
-7615 -7911 0
-7616 -7912 0
-7617 -7629 0
-7618 -7630 0
-7619 -7631 0
-7620 -7632 0
-7617 -7673 0
-7618 -7674 0
-7619 -7675 0
-7620 -7676 0
-7617 -7901 0
-7618 -7902 0
-7619 -7903 0
-7620 -7904 0
-7617 -7989 0
-7618 -7990 0
-7619 -7991 0
-7620 -7992 0
-7621 -7629 0
-7622 -7630 0
-7623 -7631 0
-7624 -7632 0
-7621 -7685 0
-7622 -7686 0
-7623 -7687 0
-7624 -7688 0
-7621 -7905 0
-7622 -7906 0
-7623 -7907 0
-7624 -7908 0
-7625 -7629 0
-7626 -7630 0
-7627 -7631 0
-7628 -7632 0
-7625 -7681 0
-7626 -7682 0
-7627 -7683 0
-7628 -7684 0
-7625 -7721 0
-7626 -7722 0
-7627 -7723 0
-7628 -7724 0
-7625 -7913 0
-7626 -7914 0
-7627 -7915 0
-7628 -7916 0
-7625 -7981 0
-7626 -7982 0
-7627 -7983 0
-7628 -7984 0
-7629 -7685 0
-7630 -7686 0
-7631 -7687 0
-7632 -7688 0
-7629 -8021 0
-7630 -8022 0
-7631 -8023 0
-7632 -8024 0
-7633 -7637 0
-7634 -7638 0
-7635 -7639 0
-7636 -7640 0
-7633 -7641 0
-7634 -7642 0
-7635 -7643 0
-7636 -7644 0
-7633 -7645 0
-7634 -7646 0
-7635 -7647 0
-7636 -7648 0
-7633 -7657 0
-7634 -7658 0
-7635 -7659 0
-7636 -7660 0
-7633 -7661 0
-7634 -7662 0
-7635 -7663 0
-7636 -7664 0
-7633 -7845 0
-7634 -7846 0
-7635 -7847 0
-7636 -7848 0
-7633 -7997 0
-7634 -7998 0
-7635 -7999 0
-7636 -8000 0
-7633 -8021 0
-7634 -8022 0
-7635 -8023 0
-7636 -8024 0
-7637 -7825 0
-7638 -7826 0
-7639 -7827 0
-7640 -7828 0
-7637 -7849 0
-7638 -7850 0
-7639 -7851 0
-7640 -7852 0
-7637 -7953 0
-7638 -7954 0
-7639 -7955 0
-7640 -7956 0
-7641 -7645 0
-7642 -7646 0
-7643 -7647 0
-7644 -7648 0
-7641 -7677 0
-7642 -7678 0
-7643 -7679 0
-7644 -7680 0
-7641 -7681 0
-7642 -7682 0
-7643 -7683 0
-7644 -7684 0
-7641 -7725 0
-7642 -7726 0
-7643 -7727 0
-7644 -7728 0
-7641 -7873 0
-7642 -7874 0
-7643 -7875 0
-7644 -7876 0
-7645 -7685 0
-7646 -7686 0
-7647 -7687 0
-7648 -7688 0
-7645 -7961 0
-7646 -7962 0
-7647 -7963 0
-7648 -7964 0
-7645 -8001 0
-7646 -8002 0
-7647 -8003 0
-7648 -8004 0
-7645 -8009 0
-7646 -8010 0
-7647 -8011 0
-7648 -8012 0
-7649 -7657 0
-7650 -7658 0
-7651 -7659 0
-7652 -7660 0
-7649 -8009 0
-7650 -8010 0
-7651 -8011 0
-7652 -8012 0
-7649 -8037 0
-7650 -8038 0
-7651 -8039 0
-7652 -8040 0
-7653 -7661 0
-7654 -7662 0
-7655 -7663 0
-7656 -7664 0
-7653 -7669 0
-7654 -7670 0
-7655 -7671 0
-7656 -7672 0
-7653 -7673 0
-7654 -7674 0
-7655 -7675 0
-7656 -7676 0
-7657 -7661 0
-7658 -7662 0
-7659 -7663 0
-7660 -7664 0
-7657 -7677 0
-7658 -7678 0
-7659 -7679 0
-7660 -7680 0
-7657 -8041 0
-7658 -8042 0
-7659 -8043 0
-7660 -8044 0
-7661 -7681 0
-7662 -7682 0
-7663 -7683 0
-7664 -7684 0
-7661 -7685 0
-7662 -7686 0
-7663 -7687 0
-7664 -7688 0
-7661 -7737 0
-7662 -7738 0
-7663 -7739 0
-7664 -7740 0
-7665 -7681 0
-7666 -7682 0
-7667 -7683 0
-7668 -7684 0
-7665 -7741 0
-7666 -7742 0
-7667 -7743 0
-7668 -7744 0
-7669 -7673 0
-7670 -7674 0
-7671 -7675 0
-7672 -7676 0
-7669 -7681 0
-7670 -7682 0
-7671 -7683 0
-7672 -7684 0
-7669 -7749 0
-7670 -7750 0
-7671 -7751 0
-7672 -7752 0
-7669 -7877 0
-7670 -7878 0
-7671 -7879 0
-7672 -7880 0
-7673 -7685 0
-7674 -7686 0
-7675 -7687 0
-7676 -7688 0
-7673 -7881 0
-7674 -7882 0
-7675 -7883 0
-7676 -7884 0
-7673 -7917 0
-7674 -7918 0
-7675 -7919 0
-7676 -7920 0
-7677 -7681 0
-7678 -7682 0
-7679 -7683 0
-7680 -7684 0
-7677 -7761 0
-7678 -7762 0
-7679 -7763 0
-7680 -7764 0
-7677 -7905 0
-7678 -7906 0
-7679 -7907 0
-7680 -7908 0
-7677 -7993 0
-7678 -7994 0
-7679 -7995 0
-7680 -7996 0
-7681 -7685 0
-7682 -7686 0
-7683 -7687 0
-7684 -7688 0
-7681 -7769 0
-7682 -7770 0
-7683 -7771 0
-7684 -7772 0
-7681 -7889 0
-7682 -7890 0
-7683 -7891 0
-7684 -7892 0
-7685 -7773 0
-7686 -7774 0
-7687 -7775 0
-7688 -7776 0
-7689 -7693 0
-7690 -7694 0
-7691 -7695 0
-7692 -7696 0
-7689 -7753 0
-7690 -7754 0
-7691 -7755 0
-7692 -7756 0
-7689 -7769 0
-7690 -7770 0
-7691 -7771 0
-7692 -7772 0
-7693 -7769 0
-7694 -7770 0
-7695 -7771 0
-7696 -7772 0
-7693 -7781 0
-7694 -7782 0
-7695 -7783 0
-7696 -7784 0
-7693 -7965 0
-7694 -7966 0
-7695 -7967 0
-7696 -7968 0
-7697 -7701 0
-7698 -7702 0
-7699 -7703 0
-7700 -7704 0
-7697 -7705 0
-7698 -7706 0
-7699 -7707 0
-7700 -7708 0
-7697 -8029 0
-7698 -8030 0
-7699 -8031 0
-7700 -8032 0
-7701 -7713 0
-7702 -7714 0
-7703 -7715 0
-7704 -7716 0
-7701 -7981 0
-7702 -7982 0
-7703 -7983 0
-7704 -7984 0
-7701 -8029 0
-7702 -8030 0
-7703 -8031 0
-7704 -8032 0
-7705 -7713 0
-7706 -7714 0
-7707 -7715 0
-7708 -7716 0
-7705 -7881 0
-7706 -7882 0
-7707 -7883 0
-7708 -7884 0
-7705 -7937 0
-7706 -7938 0
-7707 -7939 0
-7708 -7940 0
-7705 -8033 0
-7706 -8034 0
-7707 -8035 0
-7708 -8036 0
-7709 -7713 0
-7710 -7714 0
-7711 -7715 0
-7712 -7716 0
-7709 -7985 0
-7710 -7986 0
-7711 -7987 0
-7712 -7988 0
-7713 -7861 0
-7714 -7862 0
-7715 -7863 0
-7716 -7864 0
-7713 -7945 0
-7714 -7946 0
-7715 -7947 0
-7716 -7948 0
-7713 -8033 0
-7714 -8034 0
-7715 -8035 0
-7716 -8036 0
-7717 -7721 0
-7718 -7722 0
-7719 -7723 0
-7720 -7724 0
-7717 -7757 0
-7718 -7758 0
-7719 -7759 0
-7720 -7760 0
-7717 -7769 0
-7718 -7770 0
-7719 -7771 0
-7720 -7772 0
-7717 -7973 0
-7718 -7974 0
-7719 -7975 0
-7720 -7976 0
-7721 -7769 0
-7722 -7770 0
-7723 -7771 0
-7724 -7772 0
-7721 -7777 0
-7722 -7778 0
-7723 -7779 0
-7724 -7780 0
-7725 -7729 0
-7726 -7730 0
-7727 -7731 0
-7728 -7732 0
-7725 -7761 0
-7726 -7762 0
-7727 -7763 0
-7728 -7764 0
-7725 -7769 0
-7726 -7770 0
-7727 -7771 0
-7728 -7772 0
-7729 -7769 0
-7730 -7770 0
-7731 -7771 0
-7732 -7772 0
-7729 -7869 0
-7730 -7870 0
-7731 -7871 0
-7732 -7872 0
-7729 -7957 0
-7730 -7958 0
-7731 -7959 0
-7732 -7960 0
-7733 -7737 0
-7734 -7738 0
-7735 -7739 0
-7736 -7740 0
-7733 -7765 0
-7734 -7766 0
-7735 -7767 0
-7736 -7768 0
-7733 -7769 0
-7734 -7770 0
-7735 -7771 0
-7736 -7772 0
-7737 -7769 0
-7738 -7770 0
-7739 -7771 0
-7740 -7772 0
-7737 -7773 0
-7738 -7774 0
-7739 -7775 0
-7740 -7776 0
-7741 -7769 0
-7742 -7770 0
-7743 -7771 0
-7744 -7772 0
-7741 -8037 0
-7742 -8038 0
-7743 -8039 0
-7744 -8040 0
-7745 -7769 0
-7746 -7770 0
-7747 -7771 0
-7748 -7772 0
-7745 -8029 0
-7746 -8030 0
-7747 -8031 0
-7748 -8032 0
-7749 -7769 0
-7750 -7770 0
-7751 -7771 0
-7752 -7772 0
-7749 -7921 0
-7750 -7922 0
-7751 -7923 0
-7752 -7924 0
-7753 -7769 0
-7754 -7770 0
-7755 -7771 0
-7756 -7772 0
-7753 -7837 0
-7754 -7838 0
-7755 -7839 0
-7756 -7840 0
-7757 -7769 0
-7758 -7770 0
-7759 -7771 0
-7760 -7772 0
-7757 -7809 0
-7758 -7810 0
-7759 -7811 0
-7760 -7812 0
-7757 -7925 0
-7758 -7926 0
-7759 -7927 0
-7760 -7928 0
-7761 -7769 0
-7762 -7770 0
-7763 -7771 0
-7764 -7772 0
-7761 -7801 0
-7762 -7802 0
-7763 -7803 0
-7764 -7804 0
-7765 -7769 0
-7766 -7770 0
-7767 -7771 0
-7768 -7772 0
-7765 -7797 0
-7766 -7798 0
-7767 -7799 0
-7768 -7800 0
-7769 -7773 0
-7770 -7774 0
-7771 -7775 0
-7772 -7776 0
-7769 -7777 0
-7770 -7778 0
-7771 -7779 0
-7772 -7780 0
-7769 -7781 0
-7770 -7782 0
-7771 -7783 0
-7772 -7784 0
-7769 -7785 0
-7770 -7786 0
-7771 -7787 0
-7772 -7788 0
-7769 -7789 0
-7770 -7790 0
-7771 -7791 0
-7772 -7792 0
-7769 -7793 0
-7770 -7794 0
-7771 -7795 0
-7772 -7796 0
-7769 -7797 0
-7770 -7798 0
-7771 -7799 0
-7772 -7800 0
-7769 -7801 0
-7770 -7802 0
-7771 -7803 0
-7772 -7804 0
-7769 -7805 0
-7770 -7806 0
-7771 -7807 0
-7772 -7808 0
-7769 -7809 0
-7770 -7810 0
-7771 -7811 0
-7772 -7812 0
-7769 -7813 0
-7770 -7814 0
-7771 -7815 0
-7772 -7816 0
-7769 -7837 0
-7770 -7838 0
-7771 -7839 0
-7772 -7840 0
-7769 -7841 0
-7770 -7842 0
-7771 -7843 0
-7772 -7844 0
-7769 -7897 0
-7770 -7898 0
-7771 -7899 0
-7772 -7900 0
-7769 -7929 0
-7770 -7930 0
-7771 -7931 0
-7772 -7932 0
-7769 -7977 0
-7770 -7978 0
-7771 -7979 0
-7772 -7980 0
-7769 -8005 0
-7770 -8006 0
-7771 -8007 0
-7772 -8008 0
-7769 -8029 0
-7770 -8030 0
-7771 -8031 0
-7772 -8032 0
-7769 -8033 0
-7770 -8034 0
-7771 -8035 0
-7772 -8036 0
-7769 -8037 0
-7770 -8038 0
-7771 -8039 0
-7772 -8040 0
-7769 -8041 0
-7770 -8042 0
-7771 -8043 0
-7772 -8044 0
-7777 -7813 0
-7778 -7814 0
-7779 -7815 0
-7780 -7816 0
-7777 -7901 0
-7778 -7902 0
-7779 -7903 0
-7780 -7904 0
-7781 -7841 0
-7782 -7842 0
-7783 -7843 0
-7784 -7844 0
-7781 -7933 0
-7782 -7934 0
-7783 -7935 0
-7784 -7936 0
-7785 -7905 0
-7786 -7906 0
-7787 -7907 0
-7788 -7908 0
-7785 -8013 0
-7786 -8014 0
-7787 -8015 0
-7788 -8016 0
-7789 -7909 0
-7790 -7910 0
-7791 -7911 0
-7792 -7912 0
-7789 -7985 0
-7790 -7986 0
-7791 -7987 0
-7792 -7988 0
-7789 -8033 0
-7790 -8034 0
-7791 -8035 0
-7792 -8036 0
-7793 -7945 0
-7794 -7946 0
-7795 -7947 0
-7796 -7948 0
-7793 -8041 0
-7794 -8042 0
-7795 -8043 0
-7796 -8044 0
-7797 -8017 0
-7798 -8018 0
-7799 -8019 0
-7800 -8020 0
-7801 -7805 0
-7802 -7806 0
-7803 -7807 0
-7804 -7808 0
-7805 -7949 0
-7806 -7950 0
-7807 -7951 0
-7808 -7952 0
-7805 -7989 0
-7806 -7990 0
-7807 -7991 0
-7808 -7992 0
-7809 -7813 0
-7810 -7814 0
-7811 -7815 0
-7812 -7816 0
-7809 -7953 0
-7810 -7954 0
-7811 -7955 0
-7812 -7956 0
-7809 -7993 0
-7810 -7994 0
-7811 -7995 0
-7812 -7996 0
-7813 -7917 0
-7814 -7918 0
-7815 -7919 0
-7816 -7920 0
-7813 -7997 0
-7814 -7998 0
-7815 -7999 0
-7816 -8000 0
-7817 -7821 0
-7818 -7822 0
-7819 -7823 0
-7820 -7824 0
-7817 -7825 0
-7818 -7826 0
-7819 -7827 0
-7820 -7828 0
-7817 -8037 0
-7818 -8038 0
-7819 -8039 0
-7820 -8040 0
-7821 -7833 0
-7822 -7834 0
-7823 -7835 0
-7824 -7836 0
-7821 -7925 0
-7822 -7926 0
-7823 -7927 0
-7824 -7928 0
-7821 -8037 0
-7822 -8038 0
-7823 -8039 0
-7824 -8040 0
-7825 -7829 0
-7826 -7830 0
-7827 -7831 0
-7828 -7832 0
-7825 -7833 0
-7826 -7834 0
-7827 -7835 0
-7828 -7836 0
-7825 -7993 0
-7826 -7994 0
-7827 -7995 0
-7828 -7996 0
-7825 -8041 0
-7826 -8042 0
-7827 -8043 0
-7828 -8044 0
-7829 -7865 0
-7830 -7866 0
-7831 -7867 0
-7832 -7868 0
-7833 -7941 0
-7834 -7942 0
-7835 -7943 0
-7836 -7944 0
-7833 -8001 0
-7834 -8002 0
-7835 -8003 0
-7836 -8004 0
-7833 -8041 0
-7834 -8042 0
-7835 -8043 0
-7836 -8044 0
-7837 -7841 0
-7838 -7842 0
-7839 -7843 0
-7840 -7844 0
-7845 -7849 0
-7846 -7850 0
-7847 -7851 0
-7848 -7852 0
-7845 -7869 0
-7846 -7870 0
-7847 -7871 0
-7848 -7872 0
-7845 -8029 0
-7846 -8030 0
-7847 -8031 0
-7848 -8032 0
-7849 -7853 0
-7850 -7854 0
-7851 -7855 0
-7852 -7856 0
-7849 -7877 0
-7850 -7878 0
-7851 -7879 0
-7852 -7880 0
-7849 -7885 0
-7850 -7886 0
-7851 -7887 0
-7852 -7888 0
-7849 -7953 0
-7850 -7954 0
-7851 -7955 0
-7852 -7956 0
-7849 -7969 0
-7850 -7970 0
-7851 -7971 0
-7852 -7972 0
-7849 -8033 0
-7850 -8034 0
-7851 -8035 0
-7852 -8036 0
-7853 -7889 0
-7854 -7890 0
-7855 -7891 0
-7856 -7892 0
-7853 -7893 0
-7854 -7894 0
-7855 -7895 0
-7856 -7896 0
-7853 -7941 0
-7854 -7942 0
-7855 -7943 0
-7856 -7944 0
-7857 -7861 0
-7858 -7862 0
-7859 -7863 0
-7860 -7864 0
-7857 -7881 0
-7858 -7882 0
-7859 -7883 0
-7860 -7884 0
-7857 -7977 0
-7858 -7978 0
-7859 -7979 0
-7860 -7980 0
-7865 -7885 0
-7866 -7886 0
-7867 -7887 0
-7868 -7888 0
-7865 -8005 0
-7866 -8006 0
-7867 -8007 0
-7868 -8008 0
-7869 -7873 0
-7870 -7874 0
-7871 -7875 0
-7872 -7876 0
-7869 -7885 0
-7870 -7886 0
-7871 -7887 0
-7872 -7888 0
-7869 -7897 0
-7870 -7898 0
-7871 -7899 0
-7872 -7900 0
-7873 -7893 0
-7874 -7894 0
-7875 -7895 0
-7876 -7896 0
-7873 -7905 0
-7874 -7906 0
-7875 -7907 0
-7876 -7908 0
-7877 -7881 0
-7878 -7882 0
-7879 -7883 0
-7880 -7884 0
-7877 -7885 0
-7878 -7886 0
-7879 -7887 0
-7880 -7888 0
-7877 -7889 0
-7878 -7890 0
-7879 -7891 0
-7880 -7892 0
-7877 -7921 0
-7878 -7922 0
-7879 -7923 0
-7880 -7924 0
-7877 -7981 0
-7878 -7982 0
-7879 -7983 0
-7880 -7984 0
-7881 -7997 0
-7882 -7998 0
-7883 -7999 0
-7884 -8000 0
-7885 -7893 0
-7886 -7894 0
-7887 -7895 0
-7888 -7896 0
-7885 -7909 0
-7886 -7910 0
-7887 -7911 0
-7888 -7912 0
-7885 -7961 0
-7886 -7962 0
-7887 -7963 0
-7888 -7964 0
-7885 -8017 0
-7886 -8018 0
-7887 -8019 0
-7888 -8020 0
-7885 -8025 0
-7886 -8026 0
-7887 -8027 0
-7888 -8028 0
-7889 -7893 0
-7890 -7894 0
-7891 -7895 0
-7892 -7896 0
-7889 -7929 0
-7890 -7930 0
-7891 -7931 0
-7892 -7932 0
-7893 -7913 0
-7894 -7914 0
-7895 -7915 0
-7896 -7916 0
-7893 -7933 0
-7894 -7934 0
-7895 -7935 0
-7896 -7936 0
-7897 -7901 0
-7898 -7902 0
-7899 -7903 0
-7900 -7904 0
-7897 -7905 0
-7898 -7906 0
-7899 -7907 0
-7900 -7908 0
-7897 -7909 0
-7898 -7910 0
-7899 -7911 0
-7900 -7912 0
-7897 -7917 0
-7898 -7918 0
-7899 -7919 0
-7900 -7920 0
-7897 -7977 0
-7898 -7978 0
-7899 -7979 0
-7900 -7980 0
-7901 -7917 0
-7902 -7918 0
-7903 -7919 0
-7904 -7920 0
-7905 -7913 0
-7906 -7914 0
-7907 -7915 0
-7908 -7916 0
-7909 -7913 0
-7910 -7914 0
-7911 -7915 0
-7912 -7916 0
-7909 -7985 0
-7910 -7986 0
-7911 -7987 0
-7912 -7988 0
-7913 -8041 0
-7914 -8042 0
-7915 -8043 0
-7916 -8044 0
-7917 -7997 0
-7918 -7998 0
-7919 -7999 0
-7920 -8000 0
-7921 -7929 0
-7922 -7930 0
-7923 -7931 0
-7924 -7932 0
-7921 -7937 0
-7922 -7938 0
-7923 -7939 0
-7924 -7940 0
-7925 -7929 0
-7926 -7930 0
-7927 -7931 0
-7928 -7932 0
-7925 -7941 0
-7926 -7942 0
-7927 -7943 0
-7928 -7944 0
-7925 -7953 0
-7926 -7954 0
-7927 -7955 0
-7928 -7956 0
-7929 -7933 0
-7930 -7934 0
-7931 -7935 0
-7932 -7936 0
-7929 -7945 0
-7930 -7946 0
-7931 -7947 0
-7932 -7948 0
-7929 -7949 0
-7930 -7950 0
-7931 -7951 0
-7932 -7952 0
-7929 -7953 0
-7930 -7954 0
-7931 -7955 0
-7932 -7956 0
-7929 -7977 0
-7930 -7978 0
-7931 -7979 0
-7932 -7980 0
-7933 -7957 0
-7934 -7958 0
-7935 -7959 0
-7936 -7960 0
-7937 -7945 0
-7938 -7946 0
-7939 -7947 0
-7940 -7948 0
-7937 -7997 0
-7938 -7998 0
-7939 -7999 0
-7940 -8000 0
-7941 -7945 0
-7942 -7946 0
-7943 -7947 0
-7944 -7948 0
-7941 -7965 0
-7942 -7966 0
-7943 -7967 0
-7944 -7968 0
-7941 -8001 0
-7942 -8002 0
-7943 -8003 0
-7944 -8004 0
-7949 -7989 0
-7950 -7990 0
-7951 -7991 0
-7952 -7992 0
-7953 -7957 0
-7954 -7958 0
-7955 -7959 0
-7956 -7960 0
-7953 -7961 0
-7954 -7962 0
-7955 -7963 0
-7956 -7964 0
-7953 -7993 0
-7954 -7994 0
-7955 -7995 0
-7956 -7996 0
-7953 -8013 0
-7954 -8014 0
-7955 -8015 0
-7956 -8016 0
-7957 -7961 0
-7958 -7962 0
-7959 -7963 0
-7960 -7964 0
-7961 -8017 0
-7962 -8018 0
-7963 -8019 0
-7964 -8020 0
-7961 -8037 0
-7962 -8038 0
-7963 -8039 0
-7964 -8040 0
-7965 -7969 0
-7966 -7970 0
-7967 -7971 0
-7968 -7972 0
-7965 -7973 0
-7966 -7974 0
-7967 -7975 0
-7968 -7976 0
-7965 -7977 0
-7966 -7978 0
-7967 -7979 0
-7968 -7980 0
-7965 -8009 0
-7966 -8010 0
-7967 -8011 0
-7968 -8012 0
-7965 -8025 0
-7966 -8026 0
-7967 -8027 0
-7968 -8028 0
-7969 -7973 0
-7970 -7974 0
-7971 -7975 0
-7972 -7976 0
-7969 -7981 0
-7970 -7982 0
-7971 -7983 0
-7972 -7984 0
-7969 -8013 0
-7970 -8014 0
-7971 -8015 0
-7972 -8016 0
-7969 -8033 0
-7970 -8034 0
-7971 -8035 0
-7972 -8036 0
-7973 -7989 0
-7974 -7990 0
-7975 -7991 0
-7976 -7992 0
-7977 -7981 0
-7978 -7982 0
-7979 -7983 0
-7980 -7984 0
-7977 -7985 0
-7978 -7986 0
-7979 -7987 0
-7980 -7988 0
-7977 -7989 0
-7978 -7990 0
-7979 -7991 0
-7980 -7992 0
-7977 -7993 0
-7978 -7994 0
-7979 -7995 0
-7980 -7996 0
-7977 -7997 0
-7978 -7998 0
-7979 -7999 0
-7980 -8000 0
-7981 -7989 0
-7982 -7990 0
-7983 -7991 0
-7984 -7992 0
-7993 -7997 0
-7994 -7998 0
-7995 -7999 0
-7996 -8000 0
-7993 -8001 0
-7994 -8002 0
-7995 -8003 0
-7996 -8004 0
-7997 -8021 0
-7998 -8022 0
-7999 -8023 0
-8000 -8024 0
-8001 -8009 0
-8002 -8010 0
-8003 -8011 0
-8004 -8012 0
-8005 -8013 0
-8006 -8014 0
-8007 -8015 0
-8008 -8016 0
-8005 -8017 0
-8006 -8018 0
-8007 -8019 0
-8008 -8020 0
-8009 -8013 0
-8010 -8014 0
-8011 -8015 0
-8012 -8016 0
-8009 -8037 0
-8010 -8038 0
-8011 -8039 0
-8012 -8040 0
-8021 -8029 0
-8022 -8030 0
-8023 -8031 0
-8024 -8032 0
-8025 -8037 0
-8026 -8038 0
-8027 -8039 0
-8028 -8040 0
-8029 -8033 0
-8030 -8034 0
-8031 -8035 0
-8032 -8036 0
-8037 -8041 0
-8038 -8042 0
-8039 -8043 0
-8040 -8044 0
1 0
238 0
247 0
-661 -2477 0
-662 -2478 0
-663 -2479 0
-664 -2480 0
-3749 -697 0
-3750 -698 0
-3751 -699 0
-3752 -700 0
-661 -6497 0
-662 -6498 0
-663 -6499 0
-664 -6500 0
-7769 -4717 0
-7770 -4718 0
-7771 -4719 0
-7772 -4720 0
